Block Name,Point ID,cauchy_strain_0,cauchy_strain_1,cauchy_strain_2,cauchy_strain_3,cauchy_stress_0,cauchy_stress_1,cauchy_stress_2,cauchy_stress_3,displacement_0,displacement_1,displacement_2,displacement_Magnitude,Points_0,Points_1,Points_2,Points_Magnitude,stress_xy
step02_gravity_refstate-mantle.xmf,0,4.6059e-07,2.36821e-06,0,-1.15809e-08,-1.09842e+09,-1.09817e+09,-1.09849e+09,-1547.79,0.00103796,0.044337,0,0.0443492,-37792.8,-40000,-0,55030,1547.79
step02_gravity_refstate-mantle.xmf,1,4.71187e-07,2.35853e-06,0,3.14044e-09,-1.09842e+09,-1.09817e+09,-1.09849e+09,419.72,-3.43484e-20,0.0440663,-0,0.0440663,-40000,-40000,-0,56568.5,419.72
step02_gravity_refstate-mantle.xmf,2,6.76643e-07,2.35214e-06,0,-2.67308e-08,-1.1501e+09,-1.14987e+09,-1.15019e+09,-3572.58,0.00109228,0.0404398,0,0.0404546,-38398.1,-41597.6,-0,56610.7,3572.58
step02_gravity_refstate-mantle.xmf,3,7.66012e-07,2.33785e-06,0,1.51804e-09,-1.1693e+09,-1.16909e+09,-1.1694e+09,202.886,-3.26256e-20,0.0389211,-0,0.0389211,-40000,-42191.3,-0,58138.7,202.886
step02_gravity_refstate-mantle.xmf,4,6.68268e-07,2.37231e-06,0,-5.6557e-08,-1.15318e+09,-1.15295e+09,-1.15327e+09,-7558.85,0.00215859,0.0405882,0,0.0406455,-36858.6,-41692.7,-0,55649.2,7558.85
step02_gravity_refstate-mantle.xmf,5,8.96363e-07,2.32786e-06,0,-4.67721e-08,-1.20031e+09,-1.20012e+09,-1.20043e+09,-6251.09,0.00159712,0.0368348,0,0.0368694,-38228.4,-43150,-0,57648.4,6251.09
step02_gravity_refstate-mantle.xmf,6,4.01415e-07,2.41149e-06,0,-2.3483e-08,-1.09843e+09,-1.09816e+09,-1.09849e+09,-3138.5,0.00195316,0.0451117,0,0.0451539,-35691.6,-40000,-0,53608.7,3138.5
step02_gravity_refstate-mantle.xmf,7,1.08684e-06,2.28946e-06,0,1.53721e-09,-1.24017e+09,-1.24001e+09,-1.24032e+09,205.448,-4.94948e-20,0.0338498,-0,0.0338498,-40000,-44382.5,-0,59747.9,205.448
step02_gravity_refstate-mantle.xmf,8,2.17519e-07,2.55967e-06,0,-2.60013e-08,-1.09846e+09,-1.09815e+09,-1.09849e+09,-3475.07,0.00322275,0.0480339,0,0.0481419,-31786.7,-40000,-0,51092,3475.07
step02_gravity_refstate-mantle.xmf,9,3.20965e-07,2.47628e-06,0,-2.86376e-08,-1.09845e+09,-1.09816e+09,-1.09849e+09,-3827.41,0.00269296,0.0463505,0,0.0464287,-33691.1,-40000,-0,52298.1,3827.41
step02_gravity_refstate-mantle.xmf,10,5.05904e-07,2.50405e-06,0,-1.16285e-07,-1.14964e+09,-1.14937e+09,-1.1497e+09,-15541.5,0.00460194,0.0432382,0,0.0434824,-32639,-41582.6,-0,52862.2,15541.5
step02_gravity_refstate-mantle.xmf,11,6.27743e-07,2.42586e-06,0,-9.79186e-08,-1.15861e+09,-1.15837e+09,-1.1587e+09,-13086.8,0.00368135,0.041146,0,0.0413104,-34677.9,-41860.5,-0,54358.6,13086.8
step02_gravity_refstate-mantle.xmf,12,9.2658e-07,2.34647e-06,0,-1.02237e-07,-1.21216e+09,-1.21197e+09,-1.21228e+09,-13663.9,0.00342436,0.0364407,0,0.0366013,-36383.6,-43516.3,-0,56722.4,13663.9
step02_gravity_refstate-mantle.xmf,13,1.22185e-06,2.27281e-06,0,-7.45435e-08,-1.27104e+09,-1.2709e+09,-1.2712e+09,-9962.74,0.00263233,0.031864,0,0.0319725,-37851.9,-45336.8,-0,59060.9,9962.74
step02_gravity_refstate-mantle.xmf,14,9.80363e-08,2.65851e-06,0,-1.5515e-08,-1.09848e+09,-1.09814e+09,-1.09849e+09,-2073.58,0.00351828,0.050155,0,0.0502783,-29973.6,-40000,-0,49984.2,2073.58
step02_gravity_refstate-mantle.xmf,15,3.99131e-07,2.58908e-06,0,-1.2273e-07,-1.14545e+09,-1.14515e+09,-1.1455e+09,-16402.8,0.00524788,0.0452447,0,0.045548,-30884.3,-41452.7,-0,51693,16402.8
step02_gravity_refstate-mantle.xmf,16,1.41338e-06,2.22915e-06,0,6.59607e-10,-1.31104e+09,-1.31094e+09,-1.31123e+09,88.1564,-5.35977e-20,0.0288992,-0,0.0288992,-40000,-46573.9,-0,61393.2,88.1564
step02_gravity_refstate-mantle.xmf,17,3.12595e-07,2.68353e-06,0,-1.40035e-07,-1.14916e+09,-1.14885e+09,-1.14921e+09,-18715.7,0.00599555,0.0469175,0,0.0472991,-29262.3,-41567.2,-0,50834.2,18715.7
step02_gravity_refstate-mantle.xmf,18,6.43479e-07,2.52356e-06,0,-1.75608e-07,-1.18412e+09,-1.18387e+09,-1.18421e+09,-23470,0.0063668,0.0413562,0,0.0418434,-31717.4,-42648.8,-0,53150,23470
step02_gravity_refstate-mantle.xmf,19,5.43574e-07,2.61409e-06,0,-1.94962e-07,-1.18178e+09,-1.1815e+09,-1.18185e+09,-26056.7,0.00726425,0.0432722,0,0.0438777,-30038.2,-42576,-0,52105.7,26056.7
step02_gravity_refstate-mantle.xmf,20,8.42311e-07,2.45469e-06,0,-1.94149e-07,-1.2146e+09,-1.21438e+09,-1.21471e+09,-25948,0.00672032,0.0381706,0,0.0387577,-32746.4,-43591.4,-0,54521,25948
step02_gravity_refstate-mantle.xmf,21,9.49947e-07,2.3805e-06,0,-1.54816e-07,-1.22496e+09,-1.22477e+09,-1.22509e+09,-20691.2,0.00532923,0.0362364,0,0.0366261,-34638.8,-43912,-0,55929.6,20691.2
step02_gravity_refstate-mantle.xmf,22,1.56607e-06,2.20715e-06,0,-6.87091e-08,-1.34592e+09,-1.34584e+09,-1.34613e+09,-9182.97,0.00288026,0.0266267,0,0.026782,-38162.8,-47652.1,-0,61050.2,9182.97
step02_gravity_refstate-mantle.xmf,23,1.18628e-06,2.31419e-06,0,-1.48292e-07,-1.26913e+09,-1.26898e+09,-1.26929e+09,-19819.2,0.00524867,0.0325889,0,0.0330089,-35654.9,-45278,-0,57631.3,19819.2
step02_gravity_refstate-mantle.xmf,24,-5.73699e-08,2.77661e-06,0,3.35918e-09,-1.0985e+09,-1.09812e+09,-1.09849e+09,448.954,0.00356494,0.0527156,0,0.052836,-28247.5,-40000,-0,48968.6,448.954
step02_gravity_refstate-mantle.xmf,25,7.72403e-07,2.54726e-06,0,-2.35706e-07,-1.2163e+09,-1.21606e+09,-1.2164e+09,-31502.1,0.00842829,0.0397841,0,0.0406671,-30717.4,-43643.7,-0,53369.8,31502.1
step02_gravity_refstate-mantle.xmf,26,1.72773e-06,2.16919e-06,0,7.43841e-10,-1.38201e+09,-1.38195e+09,-1.38224e+09,99.4143,-6.03317e-20,0.0240736,-0,0.0240736,-40000,-48768,-0,63073.9,99.4143
step02_gravity_refstate-mantle.xmf,27,1.4247e-06,2.2542e-06,0,-1.26563e-07,-1.3174e+09,-1.31729e+09,-1.31759e+09,-16915.2,0.00493044,0.0288963,0,0.0293139,-36565.6,-46770.4,-0,59367.6,16915.2
step02_gravity_refstate-mantle.xmf,28,-3.86205e-07,3.02851e-06,0,7.96852e-08,-1.09855e+09,-1.0981e+09,-1.0985e+09,10649.9,0.00290306,0.0591831,0,0.0592542,-25039.7,-40000,-0,47191,10649.9
step02_gravity_refstate-mantle.xmf,29,-2.12387e-07,2.89625e-06,0,3.69466e-08,-1.09853e+09,-1.09811e+09,-1.0985e+09,4937.92,0.00336029,0.0557215,0,0.0558228,-26604.2,-40000,-0,48039.4,4937.92
step02_gravity_refstate-mantle.xmf,30,-3.41497e-08,2.94689e-06,0,-8.65678e-08,-1.13957e+09,-1.13917e+09,-1.13957e+09,-11569.8,0.00594307,0.0538142,0,0.0541414,-25733.8,-41269.2,-0,48635.1,11569.8
step02_gravity_refstate-mantle.xmf,31,-5.71529e-07,3.16589e-06,0,1.35526e-07,-1.09858e+09,-1.09808e+09,-1.09851e+09,18113,0.0022006,0.0631113,0,0.0631497,-23550.3,-40000,-0,46417.8,18113
step02_gravity_refstate-mantle.xmf,32,-1.92728e-07,3.07967e-06,0,-5.16774e-08,-1.13876e+09,-1.13832e+09,-1.13873e+09,-6906.69,0.00571083,0.0574614,0,0.0577445,-24203.1,-41243.4,-0,47820.6,6906.69
step02_gravity_refstate-mantle.xmf,33,-7.66005e-07,3.30665e-06,0,2.05565e-07,-1.09861e+09,-1.09807e+09,-1.09851e+09,27473.8,0.00126313,0.0675182,0,0.06753,-22132.3,-40000,-0,45714.8,27473.8
step02_gravity_refstate-mantle.xmf,34,-3.46619e-07,3.21424e-06,0,-6.3969e-09,-1.13918e+09,-1.13871e+09,-1.13914e+09,-854.946,0.00536423,0.0614001,0,0.061634,-22768,-41255.9,-0,47121.4,854.946
step02_gravity_refstate-mantle.xmf,35,4.94764e-08,2.85097e-06,0,-8.79476e-08,-1.13442e+09,-1.13404e+09,-1.13442e+09,-11754.2,0.00559091,0.0518389,0,0.0521395,-26961.7,-41110.3,-0,49162.9,11754.2
step02_gravity_refstate-mantle.xmf,36,6.26986e-07,2.65747e-06,0,-2.49142e-07,-1.20621e+09,-1.20594e+09,-1.20629e+09,-33297.8,0.00917416,0.0426444,0,0.04362,-28928.9,-43331.4,-0,52100.8,33297.8
step02_gravity_refstate-mantle.xmf,37,2.86691e-07,2.76793e-06,0,-1.68954e-07,-1.16185e+09,-1.16152e+09,-1.16189e+09,-22580.7,0.00711388,0.047915,0,0.0484402,-27858.2,-41959,-0,50365,22580.7
step02_gravity_refstate-mantle.xmf,38,1.15666e-06,2.36902e-06,0,-2.06806e-07,-1.2703e+09,-1.27014e+09,-1.27046e+09,-27639.6,0.00753039,0.0333848,0,0.0342235,-33731.5,-45314,-0,56490.5,27639.6
step02_gravity_refstate-mantle.xmf,39,1.86706e-06,2.15348e-06,0,-6.69298e-08,-1.41647e+09,-1.41644e+09,-1.41672e+09,-8945.17,0.003457,0.0218724,0,0.0221439,-38148.3,-49833.4,-0,62758.7,8945.17
step02_gravity_refstate-mantle.xmf,40,1.69751e-06,2.20577e-06,0,-1.33377e-07,-1.37791e+09,-1.37784e+09,-1.37814e+09,-17825.8,0.00610724,0.0247607,0,0.0255028,-36417,-48641.2,-0,60763.2,17825.8
step02_gravity_refstate-mantle.xmf,41,1.48054e-06,2.28133e-06,0,-1.91973e-07,-1.33341e+09,-1.3333e+09,-1.3336e+09,-25657.2,0.00790857,0.0283723,0,0.0294539,-34735.2,-47265.2,-0,58656.1,25657.2
step02_gravity_refstate-mantle.xmf,42,2.01185e-06,2.1234e-06,0,6.69517e-10,-1.45327e+09,-1.45326e+09,-1.45354e+09,89.4809,-6.62919e-20,0.0193452,-0,0.0193452,-40000,-50971,-0,64792.3,89.4809
step02_gravity_refstate-mantle.xmf,43,-9.67107e-07,3.44843e-06,0,2.90929e-07,-1.09864e+09,-1.09805e+09,-1.09851e+09,38882.7,0.000103413,0.0724154,0,0.0724154,-20782.4,-40000,-0,45076.7,38882.7
step02_gravity_refstate-mantle.xmf,44,-5.28422e-07,3.352e-06,0,6.36459e-08,-1.13684e+09,-1.13632e+09,-1.13677e+09,8506.27,0.00454469,0.0660449,0,0.0662011,-21415.7,-41182.5,-0,46417.9,8506.27
step02_gravity_refstate-mantle.xmf,45,1.09861e-06,2.44814e-06,0,-2.59856e-07,-1.26862e+09,-1.26844e+09,-1.26877e+09,-34729.8,0.00968367,0.0348117,0,0.0361335,-31766.8,-45261.8,-0,55297,34729.8
step02_gravity_refstate-mantle.xmf,46,1.0409e-06,2.55424e-06,0,-3.06852e-07,-1.26991e+09,-1.26971e+09,-1.27005e+09,-41010.8,0.0119764,0.036631,0,0.0385391,-29670.7,-45301.5,-0,54153.3,41010.8
step02_gravity_refstate-mantle.xmf,47,2.12998e-06,2.11907e-06,0,-5.94258e-08,-1.48719e+09,-1.48719e+09,-1.48747e+09,-7942.26,0.00402067,0.017206,0,0.0176696,-38110.8,-52019.4,-0,64486.1,7942.26
step02_gravity_refstate-mantle.xmf,48,2.25116e-06,2.1018e-06,0,6.4254e-10,-1.52504e+09,-1.52506e+09,-1.52534e+09,85.8755,-7.07525e-20,0.014659,-0,0.014659,-40000,-53189.4,-0,66551.6,85.8755
step02_gravity_refstate-mantle.xmf,49,-1.17295e-06,3.58895e-06,0,3.92783e-07,-1.09868e+09,-1.09804e+09,-1.09852e+09,52495.4,-0.00126297,0.0778138,-0,0.0778241,-19497.2,-40000,-0,44498.8,52495.4
step02_gravity_refstate-mantle.xmf,50,-7.23623e-07,3.48888e-06,0,1.56016e-07,-1.13329e+09,-1.13273e+09,-1.13319e+09,20851.5,0.0033578,0.0712659,0,0.071345,-20138.8,-41072,-0,45743.6,20851.5
step02_gravity_refstate-mantle.xmf,51,-1.3836e-06,3.72691e-06,0,5.11045e-07,-1.09871e+09,-1.09803e+09,-1.09853e+09,68301.1,-0.00282013,0.0837244,-0,0.0837719,-18273.7,-40000,-0,43976.5,68301.1
step02_gravity_refstate-mantle.xmf,52,-8.98515e-07,3.62298e-06,0,2.55384e-07,-1.13223e+09,-1.13163e+09,-1.13211e+09,34132,0.00223132,0.0767684,0,0.0768008,-18910.3,-41038.5,-0,45185.8,34132
step02_gravity_refstate-mantle.xmf,53,2.53396e-07,2.86895e-06,0,-1.88341e-07,-1.17365e+09,-1.1733e+09,-1.17368e+09,-25171.8,0.00827971,0.0494826,0,0.0501706,-26364.6,-42323.5,-0,49863.5,25171.8
step02_gravity_refstate-mantle.xmf,54,1.63927e-07,2.98554e-06,0,-1.81834e-07,-1.17772e+09,-1.17734e+09,-1.17774e+09,-24302.2,0.00889321,0.0521646,0,0.0529173,-24887.3,-42449,-0,49206.7,24302.2
step02_gravity_refstate-mantle.xmf,55,4.44911e-08,3.11853e-06,0,-1.52737e-07,-1.17881e+09,-1.1784e+09,-1.17882e+09,-20413.4,0.00914366,0.0557936,0,0.0565379,-23372.9,-42482.3,-0,48487.5,20413.4
step02_gravity_refstate-mantle.xmf,56,-7.28571e-08,3.2509e-06,0,-1.06921e-07,-1.17992e+09,-1.17948e+09,-1.17991e+09,-14290,0.00923176,0.0597648,0,0.0604736,-21977.4,-42516.1,-0,47860.5,14290
step02_gravity_refstate-mantle.xmf,57,5.58804e-07,2.77293e-06,0,-2.67875e-07,-1.2117e+09,-1.21141e+09,-1.21178e+09,-35801.5,0.0105653,0.0447845,0,0.0460138,-27147.5,-43500.9,-0,51276.8,35801.5
step02_gravity_refstate-mantle.xmf,58,8.6969e-07,2.67684e-06,0,-3.1543e-07,-1.25388e+09,-1.25363e+09,-1.25399e+09,-42157.2,0.0127261,0.0400506,0,0.0420238,-27928.9,-44805.4,-0,52797.2,42157.2
step02_gravity_refstate-mantle.xmf,59,1.39629e-06,2.35718e-06,0,-2.51393e-07,-1.32153e+09,-1.32141e+09,-1.32172e+09,-33598.6,0.0103809,0.030188,0,0.031923,-32777.1,-46898.1,-0,57216.8,33598.6
step02_gravity_refstate-mantle.xmf,60,1.9876e-06,2.16288e-06,0,-1.27045e-07,-1.44869e+09,-1.44867e+09,-1.44896e+09,-16979.6,0.00745454,0.0200165,0,0.0213595,-36254.7,-50829.4,-0,62434.3,16979.6
step02_gravity_refstate-mantle.xmf,61,1.80797e-06,2.22664e-06,0,-1.91277e-07,-1.40632e+09,-1.40626e+09,-1.40656e+09,-25564.2,0.00976742,0.0233266,0,0.025289,-34635.1,-49519.5,-0,60429.9,25564.2
step02_gravity_refstate-mantle.xmf,62,2.34556e-06,2.11268e-06,0,-4.58694e-08,-1.55959e+09,-1.55962e+09,-1.5599e+09,-6130.45,0.00448665,0.0124735,0,0.0132558,-38084.7,-54257.2,-0,66289.4,6130.45
step02_gravity_refstate-mantle.xmf,63,-1.59915e-06,3.86089e-06,0,6.47559e-07,-1.09875e+09,-1.09802e+09,-1.09853e+09,86546.2,-0.00455058,0.0901572,-0,0.090272,-17108.9,-40000,-0,43505.3,86546.2
step02_gravity_refstate-mantle.xmf,64,-1.06072e-06,3.75443e-06,0,3.65998e-07,-1.13256e+09,-1.13192e+09,-1.13242e+09,48915.7,0.00110785,0.0827049,0,0.0827123,-17723.3,-41047.9,-0,44710.6,48915.7
step02_gravity_refstate-mantle.xmf,65,-1.81205e-06,3.98494e-06,0,8.04069e-07,-1.09878e+09,-1.09801e+09,-1.09854e+09,107464,-0.00643748,0.0971226,-0,0.0973357,-15999.9,-40000,-0,43081.3,107464
step02_gravity_refstate-mantle.xmf,66,-1.19229e-06,3.88985e-06,0,4.95128e-07,-1.13575e+09,-1.13507e+09,-1.13559e+09,66173.8,0.000178605,0.0895261,0,0.0895263,-16478.2,-41145.9,-0,44322.9,66173.8
step02_gravity_refstate-mantle.xmf,67,-2.83552e-07,3.38859e-06,0,-2.20361e-08,-1.17072e+09,-1.17023e+09,-1.17068e+09,-2945.12,0.00799666,0.0650501,0,0.0655397,-20712.3,-42230.8,-0,47036.6,2945.12
step02_gravity_refstate-mantle.xmf,68,1.12521e-06,2.60934e-06,0,-3.33282e-07,-1.29239e+09,-1.29219e+09,-1.29254e+09,-44543.2,0.0145458,0.0362453,0,0.0390551,-28432.3,-45996.6,-0,54074.8,44543.2
step02_gravity_refstate-mantle.xmf,69,1.37029e-06,2.43746e-06,0,-3.00358e-07,-1.32345e+09,-1.3233e+09,-1.32363e+09,-40142.9,0.0129983,0.0313269,0,0.0339166,-30932.8,-46957.2,-0,56230.1,40142.9
step02_gravity_refstate-mantle.xmf,70,1.64408e-06,2.29282e-06,0,-2.3675e-07,-1.37187e+09,-1.37178e+09,-1.37209e+09,-31641.6,0.0110843,0.0262547,0,0.0284986,-33360.6,-48454.4,-0,58828.2,31641.6
step02_gravity_refstate-mantle.xmf,71,2.22606e-06,2.14207e-06,0,-1.07976e-07,-1.51764e+09,-1.51765e+09,-1.51793e+09,-14431,0.00843633,0.0154372,0,0.017592,-36209,-52960.7,-0,64155.4,14431
step02_gravity_refstate-mantle.xmf,72,2.43333e-06,2.11294e-06,0,6.82531e-10,-1.59751e+09,-1.59756e+09,-1.59784e+09,91.2202,-6.96977e-20,0.00993893,-0,0.00993893,-40000,-55429.4,-0,68355.1,91.2202
step02_gravity_refstate-mantle.xmf,73,-2.8815e-06,4.44315e-06,0,1.9824e-06,-1.09898e+09,-1.098e+09,-1.09859e+09,264947,-0.0176031,0.14033,-0,0.14143,-11203.7,-40000,-0,41539.4,264947
step02_gravity_refstate-mantle.xmf,74,-2.67793e-06,4.3879e-06,0,1.68443e-06,-1.09894e+09,-1.09799e+09,-1.09858e+09,225124,-0.0151979,0.130525,-0,0.131407,-12071.1,-40000,-0,41781.7,225124
step02_gravity_refstate-mantle.xmf,75,-2.23838e-06,4.39438e-06,0,1.64401e-06,-1.1215e+09,-1.12061e+09,-1.1212e+09,219723,-0.011011,0.132733,-0,0.133189,-11591,-40699.8,-0,42318.1,219723
step02_gravity_refstate-mantle.xmf,76,-3.07063e-06,4.46885e-06,0,2.3215e-06,-1.09901e+09,-1.09801e+09,-1.0986e+09,310268,-0.0200551,0.150752,-0,0.15208,-10377.9,-40000,-0,41324.3,310268
step02_gravity_refstate-mantle.xmf,77,-2.39194e-06,4.44526e-06,0,1.96961e-06,-1.12121e+09,-1.1203e+09,-1.12089e+09,263239,-0.0130794,0.143088,-0,0.143684,-10730.8,-40690.1,-0,42081.3,263239
step02_gravity_refstate-mantle.xmf,78,-3.23223e-06,4.45326e-06,0,2.7098e-06,-1.09905e+09,-1.09802e+09,-1.09862e+09,362165,-0.02253,0.161814,-0,0.163375,-9591.69,-40000,-0,41133.9,362165
step02_gravity_refstate-mantle.xmf,79,-2.56474e-06,4.46026e-06,0,2.33807e-06,-1.11882e+09,-1.11788e+09,-1.11848e+09,312484,-0.0156371,0.153594,-0,0.154387,-9970.29,-40615.2,-0,41821.1,312484
step02_gravity_refstate-mantle.xmf,80,-3.35778e-06,4.38426e-06,0,3.15231e-06,-1.09908e+09,-1.09805e+09,-1.09863e+09,421306,-0.0249983,0.173542,-0,0.175333,-8843.14,-40000,-0,40965.9,421306
step02_gravity_refstate-mantle.xmf,81,-2.68672e-06,4.43641e-06,0,2.74416e-06,-1.11727e+09,-1.11632e+09,-1.11691e+09,366757,-0.017973,0.16431,-0,0.16529,-9262.34,-40566.4,-0,41610.3,366757
step02_gravity_refstate-mantle.xmf,82,-3.42552e-06,4.24126e-06,0,3.6555e-06,-1.09911e+09,-1.09809e+09,-1.09865e+09,488558,-0.0274227,0.185964,-0,0.187975,-8130.43,-40000,-0,40817.9,488558
step02_gravity_refstate-mantle.xmf,83,-2.75975e-06,4.35749e-06,0,3.24445e-06,-1.11639e+09,-1.11543e+09,-1.11602e+09,433621,-0.0202684,0.176494,-0,0.177654,-8530.33,-40538.4,-0,41426.2,433621
step02_gravity_refstate-mantle.xmf,84,-2.46948e-06,4.31113e-06,0,1.42105e-06,-1.0989e+09,-1.09799e+09,-1.09857e+09,189923,-0.0128604,0.121318,-0,0.121998,-12982.1,-40000,-0,42054,189923
step02_gravity_refstate-mantle.xmf,85,-2.08744e-06,4.32618e-06,0,1.36861e-06,-1.12163e+09,-1.12078e+09,-1.12135e+09,182914,-0.00905858,0.123248,-0,0.12358,-12475.7,-40704.9,-0,42573.8,182914
step02_gravity_refstate-mantle.xmf,86,-4.47913e-07,3.51317e-06,0,6.91718e-08,-1.16562e+09,-1.16509e+09,-1.16556e+09,9244.82,0.00696129,0.0701375,0,0.0704821,-19568.1,-42072.6,-0,46400.6,9244.82
step02_gravity_refstate-mantle.xmf,87,-1.49479e-06,4.02496e-06,0,7.13052e-07,-1.12789e+09,-1.12715e+09,-1.12769e+09,95299.4,-0.00271797,0.098235,-0,0.0982726,-15315.5,-40901.3,-0,43674.7,95299.4
step02_gravity_refstate-mantle.xmf,88,-5.6535e-07,3.63606e-06,0,1.61699e-07,-1.16572e+09,-1.16516e+09,-1.16565e+09,21611.1,0.00638853,0.0753298,0,0.0756002,-18423.1,-42075.3,-0,45931.9,21611.1
step02_gravity_refstate-mantle.xmf,89,-2.03863e-06,4.10851e-06,0,9.84468e-07,-1.09882e+09,-1.098e+09,-1.09855e+09,131574,-0.00846271,0.10463,-0,0.104972,-14944.2,-40000,-0,42700.4,131574
step02_gravity_refstate-mantle.xmf,90,-2.25586e-06,4.21684e-06,0,1.1886e-06,-1.09886e+09,-1.09799e+09,-1.09856e+09,158856,-0.0106095,0.112691,-0,0.113189,-13939,-40000,-0,42359.1,158856
step02_gravity_refstate-mantle.xmf,91,-1.90226e-06,4.24428e-06,0,1.12183e-06,-1.12394e+09,-1.12312e+09,-1.12369e+09,149932,-0.00682216,0.114626,-0,0.114829,-13344.2,-40777.2,-0,42905.1,149932
step02_gravity_refstate-mantle.xmf,92,-1.6933e-06,4.14481e-06,0,9.04661e-07,-1.12656e+09,-1.12578e+09,-1.12634e+09,120908,-0.00460452,0.106225,-0,0.106325,-14285.7,-40859.4,-0,43284.8,120908
step02_gravity_refstate-mantle.xmf,93,4.96119e-07,2.88836e-06,0,-2.68505e-07,-1.21609e+09,-1.21577e+09,-1.21616e+09,-35885.7,0.0116938,0.0471722,0,0.0486,-25601.9,-43636.3,-0,50592.3,35885.7
step02_gravity_refstate-mantle.xmf,94,4.09227e-07,3.01459e-06,0,-2.50946e-07,-1.21758e+09,-1.21723e+09,-1.21763e+09,-33539,0.0124976,0.0503127,0,0.0518416,-24086.1,-43681.9,-0,49882.3,33539
step02_gravity_refstate-mantle.xmf,95,3.18523e-07,3.14811e-06,0,-2.13163e-07,-1.21846e+09,-1.21808e+09,-1.21851e+09,-28489.3,0.0131082,0.0540257,0,0.0555932,-22619.2,-43709,-0,49214.9,28489.3
step02_gravity_refstate-mantle.xmf,96,1.94057e-07,3.29815e-06,0,-1.44814e-07,-1.21566e+09,-1.21524e+09,-1.21568e+09,-19354.3,0.0131833,0.0589777,0,0.0604331,-21112.6,-43621.9,-0,48462.5,19354.3
step02_gravity_refstate-mantle.xmf,97,8.01998e-07,2.78716e-06,0,-3.24955e-07,-1.2547e+09,-1.25444e+09,-1.25481e+09,-43430.2,0.0140738,0.0423536,0,0.0446307,-26382.5,-44830.7,-0,52017.6,43430.2
step02_gravity_refstate-mantle.xmf,98,1.04044e-06,2.70352e-06,0,-3.43349e-07,-1.28679e+09,-1.28657e+09,-1.28693e+09,-45888.7,0.0155644,0.0383889,0,0.0414241,-27170.3,-45823.4,-0,53272.9,45888.7
step02_gravity_refstate-mantle.xmf,99,1.35381e-06,2.53238e-06,0,-3.34925e-07,-1.32818e+09,-1.32803e+09,-1.32836e+09,-44762.7,0.0156342,0.0325842,0,0.0361408,-29156.9,-47103.6,-0,55397.5,44762.7
step02_gravity_refstate-mantle.xmf,100,1.64011e-06,2.35301e-06,0,-2.77043e-07,-1.3738e+09,-1.37371e+09,-1.37402e+09,-37026.8,0.0136353,0.0269498,0,0.0302029,-31843,-48514.2,-0,58031.1,37026.8
step02_gravity_refstate-mantle.xmf,101,1.87141e-06,2.27729e-06,0,-2.40345e-07,-1.42429e+09,-1.42424e+09,-1.42454e+09,-32122.1,0.0135821,0.0228073,0,0.0265452,-32812.4,-50075.2,-0,59868,32122.1
step02_gravity_refstate-mantle.xmf,102,2.08968e-06,2.20174e-06,0,-1.81778e-07,-1.47808e+09,-1.47806e+09,-1.47836e+09,-24294.6,0.012176,0.018555,0,0.0221933,-34187.8,-51737.9,-0,62013.1,24294.6
step02_gravity_refstate-mantle.xmf,103,2.49916e-06,2.14065e-06,0,-2.72262e-08,-1.63191e+09,-1.63196e+09,-1.63224e+09,-3638.78,0.00463454,0.00771622,0,0.00900105,-38140.5,-56492.3,-0,68162.2,3638.78
step02_gravity_refstate-mantle.xmf,104,2.42908e-06,2.15611e-06,0,-7.91175e-08,-1.59228e+09,-1.59231e+09,-1.5926e+09,-10574.1,0.00969874,0.0105087,0,0.0143003,-35990.9,-55267.7,-0,65953.6,10574.1
step02_gravity_refstate-mantle.xmf,105,2.54598e-06,2.1651e-06,0,4.12405e-10,-1.67091e+09,-1.67096e+09,-1.67125e+09,55.1179,-5.97802e-20,0.00509033,-0,0.00509033,-40000,-57697.5,-0,70206.8,55.1179
step02_gravity_refstate-mantle.xmf,106,-3.01151e-06,3.0433e-06,0,5.58371e-06,-1.09912e+09,-1.09831e+09,-1.09872e+09,746263,-0.0338759,0.227678,-0,0.230184,-6190.26,-40000,-0,40476.2,746263
step02_gravity_refstate-mantle.xmf,107,-3.27182e-06,3.62468e-06,0,4.88271e-06,-1.09913e+09,-1.09821e+09,-1.09869e+09,652575,-0.0319331,0.213006,-0,0.215387,-6805.63,-40000,-0,40574.8,652575
step02_gravity_refstate-mantle.xmf,108,-2.4252e-06,3.53611e-06,0,5.39084e-06,-1.11506e+09,-1.11426e+09,-1.11473e+09,720486,-0.0262455,0.218389,-0,0.21996,-6500.25,-40497.5,-0,41015.9,720486
step02_gravity_refstate-mantle.xmf,109,-3.40597e-06,3.99804e-06,0,4.2289e-06,-1.09913e+09,-1.09814e+09,-1.09867e+09,565192,-0.0297556,0.199109,-0,0.20132,-7451.82,-40000,-0,40688.2,565192
step02_gravity_refstate-mantle.xmf,110,-2.70418e-06,4.21027e-06,0,3.82902e-06,-1.11731e+09,-1.11639e+09,-1.11695e+09,511749,-0.0218636,0.189182,-0,0.190441,-7833.29,-40567,-0,41316.4,511749
step02_gravity_refstate-mantle.xmf,111,-2.51908e-06,3.9801e-06,0,4.53268e-06,-1.1191e+09,-1.11823e+09,-1.11877e+09,605792,-0.0229247,0.202481,-0,0.203775,-7173.49,-40622.9,-0,41251.5,605792
step02_gravity_refstate-mantle.xmf,112,-2.02326e-06,2.87469e-06,0,6.35014e-06,-1.1148e+09,-1.11414e+09,-1.11453e+09,848696,-0.0277217,0.234137,-0,0.235773,-5886.47,-40490.4,-0,40916.1,848696
step02_gravity_refstate-mantle.xmf,113,-2.34926e-06,2.23185e-06,0,6.4368e-06,-1.09904e+09,-1.09843e+09,-1.09873e+09,860278,-0.0354751,0.243141,-0,0.245715,-5604.1,-40000,-0,40390.7,860278
step02_gravity_refstate-mantle.xmf,114,-1.62297e-06,4.33373e-06,0,1.39026e-06,-1.14447e+09,-1.14368e+09,-1.14426e+09,185808,-0.00454112,0.125144,-0,0.125227,-11997.7,-41413.6,-0,43116.4,185808
step02_gravity_refstate-mantle.xmf,115,-1.05055e-06,3.95608e-06,0,5.42117e-07,-1.15282e+09,-1.15216e+09,-1.15268e+09,72454,0.00212576,0.0927515,0,0.0927759,-15660.3,-41674.4,-0,44519.6,72454
step02_gravity_refstate-mantle.xmf,116,-6.56207e-07,3.75794e-06,0,2.71678e-07,-1.16781e+09,-1.16722e+09,-1.16773e+09,36309.8,0.0059876,0.0810214,0,0.0812423,-17280.2,-42139.6,-0,45545,36309.8
step02_gravity_refstate-mantle.xmf,117,-1.159e-06,4.06393e-06,0,7.14961e-07,-1.1542e+09,-1.1535e+09,-1.15404e+09,95554.5,0.00115343,0.100562,0,0.100569,-14557,-41716.4,-0,44183.3,95554.5
step02_gravity_refstate-mantle.xmf,118,-9.45242e-08,3.42554e-06,0,-4.60336e-08,-1.19504e+09,-1.19457e+09,-1.19503e+09,-6152.39,0.0107875,0.0649144,0,0.0658047,-20073.6,-42983.5,-0,47439.8,6152.39
step02_gravity_refstate-mantle.xmf,119,1.31789e-06,2.65246e-06,0,-3.52799e-07,-1.33008e+09,-1.3299e+09,-1.33025e+09,-47151.6,0.018147,0.0345557,0,0.0390309,-27347.9,-47162.2,-0,54517.7,47151.6
step02_gravity_refstate-mantle.xmf,120,1.62348e-06,2.44042e-06,0,-3.14456e-07,-1.37587e+09,-1.37576e+09,-1.37609e+09,-42027,0.0165384,0.0280389,0,0.032553,-30108.5,-48578.2,-0,57152.1,42027
step02_gravity_refstate-mantle.xmf,121,2.27995e-06,2.18515e-06,0,-1.4048e-07,-1.53679e+09,-1.53681e+09,-1.5371e+09,-18775.1,0.0124376,0.0144735,0,0.0190834,-34548.1,-53552.9,-0,63729.8,18775.1
step02_gravity_refstate-mantle.xmf,122,2.56445e-06,2.19384e-06,0,-1.43706e-08,-1.69209e+09,-1.69214e+09,-1.69243e+09,-1920.63,0.00422941,0.00367722,0,0.00560445,-38350,-58351.8,-0,69825.9,1920.63
step02_gravity_refstate-mantle.xmf,123,2.58377e-06,2.25672e-06,0,4.90597e-09,-1.74543e+09,-1.74548e+09,-1.74578e+09,655.682,3.64799e-19,-4.73764e-20,0,3.67862e-19,-40000,-60000,-0,72111,655.682
step02_gravity_refstate-mantle.xmf,124,-1.61553e-06,4.40015e-06,0,1.73433e-06,-1.14791e+09,-1.1471e+09,-1.14769e+09,231793,-0.00527442,0.13592,-0,0.136023,-11012,-41519.8,-0,42955.4,231793
step02_gravity_refstate-mantle.xmf,125,-1.93326e-06,4.45082e-06,0,2.12321e-06,-1.13947e+09,-1.13862e+09,-1.13921e+09,283767,-0.00909305,0.14759,-0,0.14787,-10196.9,-41257.2,-0,42498.7,283767
step02_gravity_refstate-mantle.xmf,126,-2.12435e-06,4.45681e-06,0,2.45033e-06,-1.13424e+09,-1.13336e+09,-1.13395e+09,327486,-0.011852,0.156679,-0,0.157127,-9609.37,-41094.3,-0,42202.8,327486
step02_gravity_refstate-mantle.xmf,127,-2.10147e-06,4.44755e-06,0,2.82412e-06,-1.13517e+09,-1.1343e+09,-1.13489e+09,377444,-0.0127717,0.165445,-0,0.165938,-9035.11,-41123.3,-0,42104.2,377444
step02_gravity_refstate-mantle.xmf,128,-2.09505e-06,4.39277e-06,0,3.30023e-06,-1.13561e+09,-1.13474e+09,-1.13533e+09,441075,-0.0139774,0.176291,-0,0.176844,-8393.17,-41136.7,-0,41984.2,441075
step02_gravity_refstate-mantle.xmf,129,-1.68239e-06,3.59279e-06,0,6.13562e-06,-1.13003e+09,-1.12932e+09,-1.1298e+09,820026,-0.0205029,0.224289,-0,0.225224,-6199.22,-40965,-0,41431.4,820026
step02_gravity_refstate-mantle.xmf,130,-1.36944e-06,1.04416e-06,0,7.35287e-06,-1.09893e+09,-1.09861e+09,-1.09875e+09,982711,-0.0365849,0.2594,-0,0.261967,-5045.52,-40000,-0,40317,982711
step02_gravity_refstate-mantle.xmf,131,-1.2344e-06,2.05461e-06,0,7.61665e-06,-1.11482e+09,-1.11438e+09,-1.11465e+09,1.01797e+06,-0.0286282,0.250553,-0,0.252183,-5311.57,-40494.3,-0,40841.2,1.01797e+06
step02_gravity_refstate-mantle.xmf,132,2.57626e-08,-7.3236e-07,0,8.32609e-06,-1.09878e+09,-1.09888e+09,-1.09878e+09,1.11278e+06,-0.0369948,0.276458,-0,0.278922,-4512.49,-40000,-0,40253.7,1.11278e+06
step02_gravity_refstate-mantle.xmf,133,-2.37521e-07,8.08458e-07,0,8.97009e-06,-1.11328e+09,-1.11314e+09,-1.11325e+09,1.19885e+06,-0.0297361,0.267622,-0,0.269269,-4775.68,-40450.3,-0,40731.3,1.19885e+06
step02_gravity_refstate-mantle.xmf,134,-1.58716e-06,4.26378e-06,0,1.16787e-06,-1.14201e+09,-1.14123e+09,-1.1418e+09,156086,-0.00383533,0.117405,-0,0.117468,-12792,-41337.4,-0,43271.5,156086
step02_gravity_refstate-mantle.xmf,135,-1.44732e-07,3.52799e-06,0,2.52284e-08,-1.197e+09,-1.1965e+09,-1.19698e+09,3371.78,0.0109172,0.0687673,0,0.0696285,-19093,-43043.8,-0,47088.3,3371.78
step02_gravity_refstate-mantle.xmf,136,-7.04979e-07,3.86654e-06,0,3.9237e-07,-1.17159e+09,-1.17098e+09,-1.17149e+09,52440.2,0.00588652,0.0866247,0,0.0868245,-16252.5,-42256.1,-0,45273.8,52440.2
step02_gravity_refstate-mantle.xmf,137,-2.04455e-07,3.64807e-06,0,1.28159e-07,-1.19912e+09,-1.1986e+09,-1.19909e+09,17128.4,0.0110071,0.0738277,0,0.0746438,-17963.5,-43109.3,-0,46702.3,17128.4
step02_gravity_refstate-mantle.xmf,138,-1.25036e-06,4.18437e-06,0,9.55849e-07,-1.15491e+09,-1.15419e+09,-1.15475e+09,127749,-6.15271e-05,0.109749,-0,0.109749,-13436.3,-41738.2,-0,43847.6,127749
step02_gravity_refstate-mantle.xmf,139,-7.29641e-07,3.98001e-06,0,5.5634e-07,-1.17605e+09,-1.17542e+09,-1.17595e+09,74354.8,0.00586963,0.093446,0,0.0936302,-15148.6,-42393.9,-0,45019.2,74354.8
step02_gravity_refstate-mantle.xmf,140,2.0467e-07,3.41386e-06,0,-8.30998e-08,-1.22622e+09,-1.22579e+09,-1.22625e+09,-11106.3,0.0146831,0.0623592,0,0.0640645,-19881.9,-43948.6,-0,48236.6,11106.3
step02_gravity_refstate-mantle.xmf,141,7.5512e-07,2.90845e-06,0,-3.12857e-07,-1.25783e+09,-1.25754e+09,-1.25793e+09,-41813.4,0.015493,0.0449062,0,0.0475037,-24865.2,-44927.5,-0,51349.3,41813.4
step02_gravity_refstate-mantle.xmf,142,6.83418e-07,3.04201e-06,0,-2.814e-07,-1.25821e+09,-1.25789e+09,-1.2583e+09,-37609.1,0.0165953,0.0482445,0,0.051019,-23365.9,-44938.9,-0,50650.5,37609.1
step02_gravity_refstate-mantle.xmf,143,6.14347e-07,3.17996e-06,0,-2.26876e-07,-1.25826e+09,-1.25792e+09,-1.25834e+09,-30321.9,0.0175097,0.0520618,0,0.0549274,-21948.3,-44940.4,-0,50013.7,30321.9
step02_gravity_refstate-mantle.xmf,144,1.09397e-06,2.79197e-06,0,-3.49762e-07,-1.30291e+09,-1.30268e+09,-1.30305e+09,-46745.7,0.0182014,0.0392484,0,0.0432635,-25759.8,-46321.8,-0,53002.7,46745.7
step02_gravity_refstate-mantle.xmf,145,1.60209e-06,2.54933e-06,0,-3.36501e-07,-1.37786e+09,-1.37773e+09,-1.37807e+09,-44973.4,0.0194178,0.0294933,0,0.0353115,-28376.1,-48639.7,-0,56311.9,44973.4
step02_gravity_refstate-mantle.xmf,146,1.87083e-06,2.36139e-06,0,-2.77864e-07,-1.42625e+09,-1.42619e+09,-1.4265e+09,-37136.5,0.016996,0.0236415,0,0.0291167,-31018.8,-50136,-0,58955.8,37136.5
step02_gravity_refstate-mantle.xmf,147,2.08056e-06,2.29099e-06,0,-2.32962e-07,-1.47834e+09,-1.47831e+09,-1.47862e+09,-31135.3,0.016742,0.0193612,0,0.0255959,-32000.6,-51746.2,-0,60841.7,31135.3
step02_gravity_refstate-mantle.xmf,148,2.26284e-06,2.24705e-06,0,-1.79312e-07,-1.53204e+09,-1.53205e+09,-1.53235e+09,-23965,0.0161266,0.0152471,0,0.0221933,-32886.5,-53406.2,-0,62719.6,23965
step02_gravity_refstate-mantle.xmf,149,2.40897e-06,2.22015e-06,0,-1.23136e-07,-1.58704e+09,-1.58706e+09,-1.58736e+09,-16457.1,0.0147574,0.011194,0,0.0185226,-33871.7,-55106,-0,64683.5,16457.1
step02_gravity_refstate-mantle.xmf,150,2.55245e-06,2.20708e-06,0,-3.65454e-08,-1.67642e+09,-1.67647e+09,-1.67677e+09,-4884.29,0.00926324,0.00480476,0,0.0104352,-36367.9,-57868,-0,68347.1,4884.29
step02_gravity_refstate-mantle.xmf,151,2.58595e-06,2.2726e-06,0,5.66667e-09,-1.74543e+09,-1.74547e+09,-1.74578e+09,757.35,0.00605173,-6.21278e-20,0,0.00605173,-37657.4,-60000,-0,70838.4,757.35
step02_gravity_refstate-mantle.xmf,152,-2.01216e-06,3.91755e-06,0,5.15678e-06,-1.12902e+09,-1.12823e+09,-1.12875e+09,689204,-0.0198788,0.210467,-0,0.211404,-6764.57,-40932.6,-0,41487.8,689204
step02_gravity_refstate-mantle.xmf,153,-1.95431e-06,4.3348e-06,0,3.90974e-06,-1.13746e+09,-1.13662e+09,-1.1372e+09,522537,-0.014548,0.187483,-0,0.188046,-7783.07,-41194.8,-0,41923.6,522537
step02_gravity_refstate-mantle.xmf,154,-1.19997e-06,3.03423e-06,0,7.42376e-06,-1.1313e+09,-1.13073e+09,-1.13114e+09,992185,-0.0208061,0.240771,-0,0.241669,-5596.23,-41006,-0,41386.1,992185
step02_gravity_refstate-mantle.xmf,155,9.23637e-07,-7.87732e-07,0,1.01264e-05,-1.11004e+09,-1.11027e+09,-1.11016e+09,1.3534e+06,-0.0311269,0.282241,-0,0.283952,-4354.02,-40353.8,-0,40588,1.3534e+06
step02_gravity_refstate-mantle.xmf,156,2.83242e-06,-3.786e-06,0,1.0003e-05,-1.09842e+09,-1.09931e+09,-1.0988e+09,1.3369e+06,-0.0362279,0.294325,-0,0.296546,-4000,-40000,-0,40199.5,1.3369e+06
step02_gravity_refstate-mantle.xmf,157,-1.13539e-06,4.26494e-06,0,1.18774e-06,-1.16417e+09,-1.16345e+09,-1.16402e+09,158742,0.000883677,0.117335,0,0.117339,-12499.7,-42025.1,-0,43844.6,158742
step02_gravity_refstate-mantle.xmf,158,-1.05522e-06,4.34677e-06,0,1.48646e-06,-1.16956e+09,-1.16884e+09,-1.16942e+09,198665,0.00120008,0.126096,0,0.126102,-11601.4,-42192.3,-0,43758.2,198665
step02_gravity_refstate-mantle.xmf,159,-2.49176e-07,3.76852e-06,0,2.59067e-07,-1.20139e+09,-1.20086e+09,-1.20136e+09,34624.3,0.0110915,0.0795173,0,0.0802871,-16851.8,-43179.5,-0,46351.4,34624.3
step02_gravity_refstate-mantle.xmf,160,-7.46171e-07,4.08686e-06,0,7.58603e-07,-1.18058e+09,-1.17993e+09,-1.18048e+09,101387,0.00593084,0.101265,0,0.101439,-14047.1,-42534,-0,44793.5,101387
step02_gravity_refstate-mantle.xmf,161,5.57096e-07,3.32113e-06,0,-1.46819e-07,-1.25894e+09,-1.25857e+09,-1.25901e+09,-19622.4,0.0183626,0.056299,0,0.0592179,-20601.2,-44961.3,-0,49456.3,19622.4
step02_gravity_refstate-mantle.xmf,162,1.37627e-06,2.75627e-06,0,-3.46593e-07,-1.34823e+09,-1.34805e+09,-1.34841e+09,-46322.1,0.0213027,0.0351365,0,0.0410899,-25891.4,-47723.6,-0,54294.6,46322.1
step02_gravity_refstate-mantle.xmf,163,1.58869e-06,2.67508e-06,0,-3.35959e-07,-1.38191e+09,-1.38176e+09,-1.38212e+09,-44900.9,0.0222737,0.031108,0,0.03826,-26724.4,-48765.1,-0,55607.8,44900.9
step02_gravity_refstate-mantle.xmf,164,1.84541e-06,2.46755e-06,0,-3.04491e-07,-1.4255e+09,-1.42542e+09,-1.42575e+09,-40695.2,0.0202102,0.0249643,0,0.0321196,-29265.8,-50112.9,-0,58032.6,40695.2
step02_gravity_refstate-mantle.xmf,165,2.50277e-06,2.22114e-06,0,-7.71029e-08,-1.6365e+09,-1.63653e+09,-1.63683e+09,-10304.8,0.0132796,0.00767072,0,0.0153359,-34689.5,-56634.3,-0,66413.9,10304.8
step02_gravity_refstate-mantle.xmf,166,-1.34028e-06,4.44216e-06,0,2.05475e-06,-1.15986e+09,-1.15909e+09,-1.15968e+09,274618,-0.00301702,0.143527,-0,0.143559,-10288.5,-41891.1,-0,43136.1,274618
step02_gravity_refstate-mantle.xmf,167,-1.49356e-06,4.48576e-06,0,2.46215e-06,-1.15443e+09,-1.15363e+09,-1.15423e+09,329066,-0.00566483,0.154423,-0,0.154527,-9572.18,-41722.3,-0,42806.3,329066
step02_gravity_refstate-mantle.xmf,168,-1.52941e-06,4.51215e-06,0,2.97273e-06,-1.15313e+09,-1.15232e+09,-1.15292e+09,397305,-0.007189,0.166093,-0,0.166249,-8843.27,-41681.9,-0,42609.7,397305
step02_gravity_refstate-mantle.xmf,169,-9.26532e-07,4.43041e-06,0,1.86061e-06,-1.17523e+09,-1.17451e+09,-1.1751e+09,248670,0.001828,0.135533,0,0.135545,-10740.3,-42368.4,-0,43708.5,248670
step02_gravity_refstate-mantle.xmf,170,-1.4647e-06,4.49361e-06,0,3.54167e-06,-1.15393e+09,-1.15314e+09,-1.15374e+09,473344,-0.00790351,0.177637,-0,0.177813,-8179.33,-41707.3,-0,42501.8,473344
step02_gravity_refstate-mantle.xmf,171,-1.71765e-06,4.23817e-06,0,4.70526e-06,-1.1407e+09,-1.1399e+09,-1.14047e+09,628857,-0.0144874,0.200259,-0,0.200782,-7148.71,-41296,-0,41910.2,628857
step02_gravity_refstate-mantle.xmf,172,-1.39909e-06,4.13332e-06,0,5.72501e-06,-1.1445e+09,-1.14377e+09,-1.14432e+09,765148,-0.0139157,0.214037,-0,0.214489,-6535.21,-41415.5,-0,41928,765148
step02_gravity_refstate-mantle.xmf,173,-1.05586e-06,3.95203e-06,0,7.02407e-06,-1.14663e+09,-1.14596e+09,-1.14649e+09,938768,-0.0137605,0.229513,-0,0.229925,-5932.13,-41483.1,-0,41905.1,938768
step02_gravity_refstate-mantle.xmf,174,-3.61154e-07,2.19424e-06,0,9.29965e-06,-1.13161e+09,-1.13127e+09,-1.13156e+09,1.2429e+06,-0.0211343,0.260548,-0,0.261404,-4961.42,-41019.1,-0,41318,1.2429e+06
step02_gravity_refstate-mantle.xmf,175,6.55423e-07,5.15472e-07,0,1.09009e-05,-1.1235e+09,-1.12352e+09,-1.12359e+09,1.45691e+06,-0.024778,0.279782,-0,0.280877,-4423.11,-40771.2,-0,41010.4,1.45691e+06
step02_gravity_refstate-mantle.xmf,176,2.03535e-06,-1.9334e-06,0,1.21508e-05,-1.1147e+09,-1.11523e+09,-1.11497e+09,1.62395e+06,-0.0283001,0.295756,-0,0.297107,-4000,-40502.2,-0,40699.2,1.62395e+06
step02_gravity_refstate-mantle.xmf,177,1.79976e-07,3.54897e-06,0,2.85977e-08,-1.22946e+09,-1.22901e+09,-1.22949e+09,3822.08,0.0153386,0.0671582,0,0.0688875,-18654.8,-44048.9,-0,47836.2,3822.08
step02_gravity_refstate-mantle.xmf,178,-2.71978e-07,3.88861e-06,0,4.23595e-07,-1.20399e+09,-1.20344e+09,-1.20396e+09,56613.5,0.0112299,0.0858532,0,0.0865846,-15763,-43260,-0,46042.4,56613.5
step02_gravity_refstate-mantle.xmf,179,1.52463e-07,3.68002e-06,0,1.63924e-07,-1.23171e+09,-1.23124e+09,-1.23174e+09,21908.5,0.0158429,0.0725407,0,0.0742506,-17490.2,-44118.6,-0,47459.1,21908.5
step02_gravity_refstate-mantle.xmf,180,-2.65032e-07,4.01003e-06,0,6.33408e-07,-1.20709e+09,-1.20652e+09,-1.20706e+09,84655,0.0114896,0.0930008,0,0.0937078,-14681.1,-43356.2,-0,45774.4,84655
step02_gravity_refstate-mantle.xmf,181,5.11212e-07,3.45533e-06,0,-4.87828e-08,-1.26073e+09,-1.26034e+09,-1.2608e+09,-6519.82,0.0192435,0.060797,0,0.0637698,-19349.7,-45016.8,-0,48999.2,6519.82
step02_gravity_refstate-mantle.xmf,182,1.01685e-06,2.94422e-06,0,-3.1718e-07,-1.29961e+09,-1.29935e+09,-1.29974e+09,-42391.1,0.0196727,0.0426988,0,0.0470128,-24110.7,-46219.7,-0,52130.5,42391.1
step02_gravity_refstate-mantle.xmf,183,9.56423e-07,3.08769e-06,0,-2.65747e-07,-1.29862e+09,-1.29833e+09,-1.29875e+09,-35517.1,0.0210053,0.0461895,0,0.0507414,-22659.7,-46189.2,-0,51448.1,35517.1
step02_gravity_refstate-mantle.xmf,184,8.93173e-07,3.23788e-06,0,-1.89456e-07,-1.29738e+09,-1.29707e+09,-1.2975e+09,-25320.8,0.0221301,0.0501135,0,0.0547823,-21302.6,-46151,-0,50830.3,25320.8
step02_gravity_refstate-mantle.xmf,185,1.30691e-06,2.87809e-06,0,-3.27013e-07,-1.34302e+09,-1.34281e+09,-1.34319e+09,-43705.3,0.0227054,0.0378853,0,0.0441683,-24558.7,-47562.4,-0,53528.6,43705.3
step02_gravity_refstate-mantle.xmf,186,1.56004e-06,2.80975e-06,0,-3.18451e-07,-1.38442e+09,-1.38425e+09,-1.38463e+09,-42560.9,0.0248242,0.0331071,0,0.0413803,-25204.6,-48842.8,-0,54962.6,42560.9
step02_gravity_refstate-mantle.xmf,187,1.81741e-06,2.59476e-06,0,-3.11984e-07,-1.42524e+09,-1.42514e+09,-1.42548e+09,-41696.7,0.0232867,0.026571,0,0.0353311,-27573.1,-50105,-0,57190.8,41696.7
step02_gravity_refstate-mantle.xmf,188,2.06903e-06,2.39834e-06,0,-2.59257e-07,-1.47675e+09,-1.4767e+09,-1.47703e+09,-34649.7,0.0205654,0.020482,0,0.029025,-30129.2,-51697.3,-0,59836.2,34649.7
step02_gravity_refstate-mantle.xmf,189,2.25246e-06,2.34523e-06,0,-2.10893e-07,-1.53138e+09,-1.53136e+09,-1.53168e+09,-28185.9,0.0204187,0.0160185,0,0.0259521,-30978.4,-53385.8,-0,61722.8,28185.9
step02_gravity_refstate-mantle.xmf,190,2.4003e-06,2.30668e-06,0,-1.51559e-07,-1.58514e+09,-1.58515e+09,-1.58546e+09,-20255.8,0.0192863,0.0117843,0,0.0226016,-31975.8,-55047.4,-0,63660.6,20255.8
step02_gravity_refstate-mantle.xmf,191,2.50415e-06,2.28839e-06,0,-9.49349e-08,-1.63792e+09,-1.63794e+09,-1.63825e+09,-12688.1,0.0175074,0.00780431,0,0.0191681,-33006.2,-56678.3,-0,65588.4,12688.1
step02_gravity_refstate-mantle.xmf,192,2.56516e-06,2.28595e-06,0,-4.4926e-08,-1.68883e+09,-1.68887e+09,-1.68918e+09,-6004.36,0.0148355,0.0040681,0,0.0153832,-34210.5,-58251.5,-0,67554.4,6004.36
step02_gravity_refstate-mantle.xmf,193,2.58703e-06,2.32197e-06,0,3.09335e-09,-1.74543e+09,-1.74546e+09,-1.74577e+09,413.426,0.0118436,-5.51051e-20,0,0.0118436,-35418.4,-60000,-0,69674,413.426
step02_gravity_refstate-mantle.xmf,194,-8.18981e-07,4.50761e-06,0,2.29015e-06,-1.17938e+09,-1.17867e+09,-1.17927e+09,306079,0.00229453,0.145691,0,0.145709,-9933.3,-42497.7,-0,43643.1,306079
step02_gravity_refstate-mantle.xmf,195,-1.03445e-06,4.61047e-06,0,3.31939e-06,-1.16869e+09,-1.16793e+09,-1.16855e+09,443637,-0.00240184,0.169844,-0,0.169861,-8495.09,-42166.2,-0,43013.4,443637
step02_gravity_refstate-mantle.xmf,196,-1.27624e-06,4.52509e-06,0,4.29557e-06,-1.15662e+09,-1.15585e+09,-1.15645e+09,574103,-0.00779027,0.189628,-0,0.189788,-7545.58,-41791.7,-0,42467.4,574103
step02_gravity_refstate-mantle.xmf,197,-6.69581e-07,3.63545e-06,0,8.5879e-06,-1.1481e+09,-1.14753e+09,-1.14802e+09,1.14777e+06,-0.0136097,0.246331,-0,0.246707,-5353.93,-41530.3,-0,41874,1.14777e+06
step02_gravity_refstate-mantle.xmf,198,-6.82777e-07,4.19562e-06,0,1.01912e-06,-1.18518e+09,-1.18453e+09,-1.18509e+09,136205,0.0061961,0.109243,0,0.109418,-13056.8,-42676.9,-0,44629.6,136205
step02_gravity_refstate-mantle.xmf,199,-4.71434e-07,4.40672e-06,0,1.69345e-06,-1.19536e+09,-1.19471e+09,-1.1953e+09,226329,0.00753039,0.126667,0,0.12689,-11244.4,-42993.4,-0,44439.5,226329
step02_gravity_refstate-mantle.xmf,200,-5.91318e-07,4.29712e-06,0,1.3233e-06,-1.19043e+09,-1.18978e+09,-1.19035e+09,176859,0.00679365,0.117661,0,0.117857,-12124.2,-42840,-0,44522.6,176859
step02_gravity_refstate-mantle.xmf,201,1.37719e-07,3.81305e-06,0,3.35396e-07,-1.23353e+09,-1.23304e+09,-1.23355e+09,44825.7,0.016276,0.0786096,0,0.0802768,-16360.2,-44174.9,-0,47107.1,44825.7
step02_gravity_refstate-mantle.xmf,202,-2.59953e-07,4.1239e-06,0,8.7759e-07,-1.20981e+09,-1.20922e+09,-1.20977e+09,117290,0.011747,0.100914,0,0.101595,-13640,-43440.2,-0,45531.4,117290
step02_gravity_refstate-mantle.xmf,203,8.3346e-07,3.38766e-06,0,-8.43888e-08,-1.29455e+09,-1.2942e+09,-1.29466e+09,-11278.6,0.0229334,0.0547303,0,0.0593409,-19999.6,-46063.3,-0,50217.6,11278.6
step02_gravity_refstate-mantle.xmf,204,1.7875e-06,2.74032e-06,0,-2.96431e-07,-1.42539e+09,-1.42527e+09,-1.42563e+09,-39618,0.026163,0.0284545,0,0.0386544,-25976.3,-50109.9,-0,56442.6,39618
step02_gravity_refstate-mantle.xmf,205,2.02378e-06,2.52906e-06,0,-2.74699e-07,-1.47156e+09,-1.47149e+09,-1.47183e+09,-36713.5,0.0239449,0.0221472,0,0.0326168,-28373.4,-51537,-0,58831.2,36713.5
step02_gravity_refstate-mantle.xmf,206,-7.70351e-07,4.61485e-06,0,2.89175e-06,-1.17827e+09,-1.17755e+09,-1.17817e+09,386482,0.00127409,0.158596,0,0.158601,-9083.76,-42463.9,-0,43424.6,386482
step02_gravity_refstate-mantle.xmf,207,-3.38262e-07,4.53468e-06,0,2.14905e-06,-1.19943e+09,-1.19878e+09,-1.19939e+09,287221,0.00824597,0.136646,0,0.136895,-10391,-43120.3,-0,44354.7,287221
step02_gravity_refstate-mantle.xmf,208,-8.78174e-07,4.68308e-06,0,3.90513e-06,-1.17207e+09,-1.17132e+09,-1.17195e+09,521921,-0.00175563,0.179546,-0,0.179555,-7940.46,-42271.7,-0,43011.1,521921
step02_gravity_refstate-mantle.xmf,209,-1.06597e-06,4.55257e-06,0,5.27008e-06,-1.15947e+09,-1.15872e+09,-1.15933e+09,704346,-0.00746503,0.203414,-0,0.203551,-6895.09,-41881,-0,42444.8,704346
step02_gravity_refstate-mantle.xmf,210,-8.52038e-07,4.58457e-06,0,6.48292e-06,-1.16162e+09,-1.16089e+09,-1.16151e+09,866442,-0.00719845,0.218348,-0,0.218466,-6273.39,-41949,-0,42415.5,866442
step02_gravity_refstate-mantle.xmf,211,-6.27117e-07,4.62023e-06,0,7.99842e-06,-1.16342e+09,-1.16272e+09,-1.16334e+09,1.06899e+06,-0.00689024,0.234602,-0,0.234703,-5675.45,-42006.3,-0,42387.9,1.06899e+06
step02_gravity_refstate-mantle.xmf,212,4.34368e-07,2.00394e-06,0,1.1784e-05,-1.13987e+09,-1.13966e+09,-1.13993e+09,1.57493e+06,-0.0173662,0.278666,-0,0.279207,-4435.76,-41279.2,-0,41516.9,1.57493e+06
step02_gravity_refstate-mantle.xmf,213,-1.81108e-07,3.41279e-06,0,1.05087e-05,-1.15054e+09,-1.15006e+09,-1.15052e+09,1.40449e+06,-0.0127462,0.263316,-0,0.263624,-4831.77,-41608.2,-0,41887.9,1.40449e+06
step02_gravity_refstate-mantle.xmf,214,1.42529e-06,6.8551e-08,0,1.35188e-05,-1.13082e+09,-1.131e+09,-1.13101e+09,1.80679e+06,-0.0209485,0.296221,-0,0.296961,-4000,-41001.3,-0,41196,1.80679e+06
step02_gravity_refstate-mantle.xmf,215,4.96179e-07,3.60388e-06,0,9.6835e-08,-1.26213e+09,-1.26171e+09,-1.26219e+09,12942,0.0200317,0.0659049,0,0.068882,-18140.3,-45060.1,-0,48574.5,12942
step02_gravity_refstate-mantle.xmf,216,1.4067e-07,3.94782e-06,0,5.47372e-07,-1.23518e+09,-1.23467e+09,-1.2352e+09,73156.2,0.0166914,0.0853374,0,0.0869544,-15271.6,-44226.3,-0,46788.8,73156.2
step02_gravity_refstate-mantle.xmf,217,4.91253e-07,3.75285e-06,0,2.74516e-07,-1.26405e+09,-1.26361e+09,-1.26411e+09,36689,0.0208713,0.0715659,0,0.0745473,-16971.3,-45119.9,-0,48206.1,36689
step02_gravity_refstate-mantle.xmf,218,1.67414e-07,4.08751e-06,0,8.08809e-07,-1.23699e+09,-1.23646e+09,-1.23701e+09,108097,0.0171665,0.0927783,0,0.094353,-14216.4,-44282.6,-0,46508.6,108097
step02_gravity_refstate-mantle.xmf,219,7.84897e-07,3.53446e-06,0,4.18211e-08,-1.29356e+09,-1.29319e+09,-1.29366e+09,5589.4,0.0237944,0.0595767,0,0.0641526,-18782.6,-46032.8,-0,49717.3,5589.4
step02_gravity_refstate-mantle.xmf,220,1.05014e-06,3.32475e-06,0,-1.1686e-07,-1.321e+09,-1.3207e+09,-1.32114e+09,-15618.4,0.0253347,0.0499305,0,0.0559902,-20599,-46881.7,-0,51207.6,15618.4
step02_gravity_refstate-mantle.xmf,221,1.26759e-06,3.04298e-06,0,-2.63782e-07,-1.34243e+09,-1.3422e+09,-1.3426e+09,-35254.4,0.0246273,0.041149,0,0.0479556,-23022.5,-47544.6,-0,52825.4,35254.4
step02_gravity_refstate-mantle.xmf,222,1.21377e-06,3.2168e-06,0,-1.72677e-07,-1.34026e+09,-1.33999e+09,-1.34042e+09,-23078.3,0.0262567,0.0451532,0,0.0522324,-21534.4,-47477.6,-0,52133,23078.3
step02_gravity_refstate-mantle.xmf,223,1.51849e-06,2.97147e-06,0,-2.69093e-07,-1.38391e+09,-1.38372e+09,-1.38411e+09,-35964.3,0.0271178,0.0358556,0,0.0449555,-23690.6,-48827.3,-0,54271,35964.3
step02_gravity_refstate-mantle.xmf,224,1.7436e-06,2.90357e-06,0,-2.59997e-07,-1.42517e+09,-1.42502e+09,-1.42541e+09,-34748.7,0.0288601,0.0307477,0,0.0421702,-24438,-50103.3,-0,55745.4,34748.7
step02_gravity_refstate-mantle.xmf,225,1.98094e-06,2.66977e-06,0,-2.71363e-07,-1.46707e+09,-1.46698e+09,-1.46734e+09,-36267.7,0.0269103,0.0240027,0,0.0360596,-26785.1,-51398.4,-0,57958.9,36267.7
step02_gravity_refstate-mantle.xmf,226,2.23123e-06,2.4961e-06,0,-2.24688e-07,-1.53044e+09,-1.5304e+09,-1.53074e+09,-30029.6,0.0250905,0.0172006,0,0.0304203,-28882,-53357.1,-0,60672.5,30029.6
step02_gravity_refstate-mantle.xmf,227,2.39053e-06,2.43278e-06,0,-1.67212e-07,-1.58603e+09,-1.58602e+09,-1.58635e+09,-22347.9,0.0239707,0.01238,0,0.0269789,-30027.9,-55075.2,-0,62729.2,22347.9
step02_gravity_refstate-mantle.xmf,228,2.49886e-06,2.39676e-06,0,-1.09159e-07,-1.63873e+09,-1.63874e+09,-1.63906e+09,-14589.1,0.0222964,0.00811357,0,0.0237268,-31095.8,-56703.6,-0,64670.3,14589.1
step02_gravity_refstate-mantle.xmf,229,2.56462e-06,2.38521e-06,0,-5.34764e-08,-1.69118e+09,-1.6912e+09,-1.69152e+09,-7147.12,0.0200846,0.00406481,0,0.0204918,-32168.9,-58324.3,-0,66607.5,7147.12
step02_gravity_refstate-mantle.xmf,230,2.58834e-06,2.40269e-06,0,3.0921e-09,-1.74542e+09,-1.74545e+09,-1.74577e+09,413.259,0.0173832,-5.66278e-20,0,0.0173832,-33277.3,-60000,-0,68610.3,413.259
step02_gravity_refstate-mantle.xmf,231,-5.09179e-07,4.78795e-06,0,3.592e-06,-1.1867e+09,-1.18599e+09,-1.18663e+09,480071,0.00353459,0.169844,0,0.169881,-8346.17,-42726.6,-0,43534.2,480071
step02_gravity_refstate-mantle.xmf,232,-2.59461e-07,4.66626e-06,0,2.66147e-06,-1.20134e+09,-1.20068e+09,-1.2013e+09,355706,0.00853608,0.147653,0,0.147899,-9579.09,-43180.1,-0,44229.8,355706
step02_gravity_refstate-mantle.xmf,233,-6.83808e-07,4.85532e-06,0,4.84709e-06,-1.17535e+09,-1.17461e+09,-1.17526e+09,647814,-0.00108899,0.192848,-0,0.192851,-7263.47,-42374.9,-0,42992.9,647814
step02_gravity_refstate-mantle.xmf,234,-4.12175e-07,4.57226e-06,0,9.6877e-06,-1.16437e+09,-1.1637e+09,-1.16432e+09,1.29476e+06,-0.006761,0.251105,-0,0.251196,-5139.83,-42036.9,-0,42349.9,1.29476e+06
step02_gravity_refstate-mantle.xmf,235,-1.59548e-07,4.25623e-06,0,1.2027e-06,-1.21373e+09,-1.21314e+09,-1.21371e+09,160741,0.012378,0.109126,0,0.109826,-12670.4,-43562.4,-0,45367.7,160741
step02_gravity_refstate-mantle.xmf,236,5.41028e-08,4.54815e-06,0,2.0274e-06,-1.22036e+09,-1.21976e+09,-1.22036e+09,270961,0.0138038,0.127676,0,0.12842,-10867.8,-43769.4,-0,45098.4,270961
step02_gravity_refstate-mantle.xmf,237,-6.18266e-08,4.39239e-06,0,1.58001e-06,-1.21718e+09,-1.21659e+09,-1.21718e+09,211168,0.0130497,0.118106,0,0.118825,-11741.5,-43670.2,-0,45221.1,211168
step02_gravity_refstate-mantle.xmf,238,4.95026e-07,3.90523e-06,0,4.91365e-07,-1.26514e+09,-1.26468e+09,-1.2652e+09,65670.9,0.0215722,0.0778664,0,0.0807994,-15860.5,-45154,-0,47858.5,65670.9
step02_gravity_refstate-mantle.xmf,239,1.95192e-07,4.22429e-06,0,1.10852e-06,-1.2389e+09,-1.23836e+09,-1.23893e+09,148153,0.0177182,0.100861,0,0.102405,-13209.4,-44342.2,-0,46267.9,148153
step02_gravity_refstate-mantle.xmf,240,1.04354e-06,3.48386e-06,0,1.35851e-08,-1.32392e+09,-1.32359e+09,-1.32405e+09,1815.64,0.0268751,0.0537044,0,0.0600535,-19429.5,-46972.2,-0,50832,1815.64
step02_gravity_refstate-mantle.xmf,241,1.94856e-06,2.8345e-06,0,-2.39721e-07,-1.46707e+09,-1.46695e+09,-1.46733e+09,-32038.7,0.0298822,0.0258,0,0.039479,-25267.8,-51398.5,-0,57273.6,32038.7
step02_gravity_refstate-mantle.xmf,242,2.12678e-06,2.61752e-06,0,-2.44588e-07,-1.50518e+09,-1.50512e+09,-1.50547e+09,-32689.2,0.0272374,0.0202349,0,0.0339312,-27467.9,-52576.5,-0,59319.3,32689.2
step02_gravity_refstate-mantle.xmf,243,-9.91303e-08,4.87642e-06,0,3.33911e-06,-1.2038e+09,-1.20313e+09,-1.20378e+09,446272,0.00913176,0.159411,0,0.159673,-8802.3,-43257.6,-0,44144.1,446272
step02_gravity_refstate-mantle.xmf,244,1.72848e-07,4.73469e-06,0,2.55834e-06,-1.22269e+09,-1.22208e+09,-1.22271e+09,341922,0.0144855,0.138142,0,0.138899,-10029.1,-43842.7,-0,44975.2,341922
step02_gravity_refstate-mantle.xmf,245,-3.38554e-07,5.00684e-06,0,4.41279e-06,-1.19071e+09,-1.18999e+09,-1.19066e+09,589769,0.00461583,0.182129,0,0.182187,-7665.01,-42852.1,-0,43532.2,589769
step02_gravity_refstate-mantle.xmf,246,-5.50721e-07,5.04872e-06,0,5.96007e-06,-1.17749e+09,-1.17674e+09,-1.17742e+09,796564,-0.000674624,0.207227,-0,0.207228,-6620.75,-42442.4,-0,42955.7,796564
step02_gravity_refstate-mantle.xmf,247,-4.54448e-07,5.29923e-06,0,7.31634e-06,-1.17916e+09,-1.17839e+09,-1.1791e+09,977829,-0.000322671,0.222614,-0,0.222614,-6012.46,-42495.3,-0,42918.5,977829
step02_gravity_refstate-mantle.xmf,248,-4.04549e-07,5.59263e-06,0,8.96326e-06,-1.18015e+09,-1.17935e+09,-1.18009e+09,1.19794e+06,-0.000168073,0.23917,-0,0.23917,-5435.49,-42526.9,-0,42872.9,1.19794e+06
step02_gravity_refstate-mantle.xmf,249,1.86299e-07,3.55773e-06,0,1.26048e-05,-1.15582e+09,-1.15537e+09,-1.15584e+09,1.68463e+06,-0.0104631,0.278725,-0,0.278921,-4398.27,-41774.1,-0,42005,1.68463e+06
step02_gravity_refstate-mantle.xmf,250,8.32179e-07,2.10382e-06,0,1.4402e-05,-1.14697e+09,-1.1468e+09,-1.14709e+09,1.92483e+06,-0.0139799,0.295677,-0,0.296007,-4000,-41501.5,-0,41693.8,1.92483e+06
step02_gravity_refstate-mantle.xmf,251,-1.81605e-07,4.47122e-06,0,1.13579e-05,-1.16344e+09,-1.16282e+09,-1.16342e+09,1.51798e+06,-0.00725904,0.265762,-0,0.265861,-4718.6,-42009.6,-0,42273.7,1.51798e+06
step02_gravity_refstate-mantle.xmf,252,7.87148e-07,3.70654e-06,0,2.29998e-07,-1.29489e+09,-1.2945e+09,-1.295e+09,30739.3,0.0249043,0.0648469,0,0.0694647,-17585.8,-46074.5,-0,49316.5,30739.3
step02_gravity_refstate-mantle.xmf,253,5.08377e-07,4.06579e-06,0,7.56089e-07,-1.26564e+09,-1.26517e+09,-1.26571e+09,101051,0.022179,0.0849395,0,0.0877873,-14784.7,-45170,-0,47528.1,101051
step02_gravity_refstate-mantle.xmf,254,7.88614e-07,3.88072e-06,0,4.51412e-07,-1.29593e+09,-1.29552e+09,-1.29604e+09,60331.2,0.0259326,0.070689,0,0.0752956,-16446.9,-46107,-0,48952.6,60331.2
step02_gravity_refstate-mantle.xmf,255,5.35571e-07,4.23559e-06,0,1.07281e-06,-1.26569e+09,-1.2652e+09,-1.26576e+09,143381,0.0227124,0.0927953,0,0.0955344,-13747.4,-45172.1,-0,47217.7,143381
step02_gravity_refstate-mantle.xmf,256,1.02021e-06,3.65816e-06,0,1.79089e-07,-1.32556e+09,-1.32521e+09,-1.3257e+09,23935.2,0.0283103,0.0583987,0,0.064899,-18224.4,-47023.4,-0,50431.4,23935.2
step02_gravity_refstate-mantle.xmf,257,1.25103e-06,3.42193e-06,0,-2.34993e-08,-1.35268e+09,-1.35239e+09,-1.35285e+09,-3140.69,0.0292445,0.048216,0,0.0563917,-20113,-47862,-0,51916.3,3140.69
step02_gravity_refstate-mantle.xmf,258,1.48834e-06,3.15988e-06,0,-1.76722e-07,-1.38393e+09,-1.38371e+09,-1.38413e+09,-23618.9,0.0293149,0.0390452,0,0.0488251,-22225.6,-48828.1,-0,53648.5,23618.9
step02_gravity_refstate-mantle.xmf,259,1.70204e-06,3.0953e-06,0,-1.85735e-07,-1.42526e+09,-1.42508e+09,-1.42549e+09,-24823.5,0.031429,0.0334444,0,0.0458946,-22950.6,-50106.2,-0,55112.2,24823.5
step02_gravity_refstate-mantle.xmf,260,1.89828e-06,3.03133e-06,0,-1.83243e-07,-1.46732e+09,-1.46717e+09,-1.46757e+09,-24490.5,0.0328367,0.0280222,0,0.0431682,-23736.9,-51406.5,-0,56622.1,24490.5
step02_gravity_refstate-mantle.xmf,261,2.11473e-06,2.7626e-06,0,-2.19838e-07,-1.50798e+09,-1.50789e+09,-1.50826e+09,-29381.4,0.0302273,0.021269,0,0.0369603,-26113.6,-52663.2,-0,58782,29381.4
step02_gravity_refstate-mantle.xmf,262,2.25107e-06,2.6719e-06,0,-1.99824e-07,-1.54725e+09,-1.54719e+09,-1.54755e+09,-26706.5,0.0295707,0.017056,0,0.034137,-27139.8,-53876.8,-0,60326.4,26706.5
step02_gravity_refstate-mantle.xmf,263,2.37595e-06,2.60183e-06,0,-1.62392e-07,-1.5906e+09,-1.59057e+09,-1.59092e+09,-21703.8,0.0285836,0.0128837,0,0.031353,-28139,-55216.7,-0,61973.2,21703.8
step02_gravity_refstate-mantle.xmf,264,2.48377e-06,2.54858e-06,0,-1.12392e-07,-1.64076e+09,-1.64075e+09,-1.64109e+09,-15021.2,0.0271045,0.00846273,0,0.0283949,-29178,-56766.7,-0,63826.4,15021.2
step02_gravity_refstate-mantle.xmf,265,2.5535e-06,2.51992e-06,0,-5.76368e-08,-1.69229e+09,-1.6923e+09,-1.69263e+09,-7703.16,0.0251228,0.00420297,0,0.025472,-30203.1,-58358.9,-0,65711.4,7703.16
step02_gravity_refstate-mantle.xmf,266,2.58192e-06,2.51948e-06,0,2.63956e-09,-1.74541e+09,-1.74542e+09,-1.74576e+09,352.778,0.0226784,-5.99524e-20,0,0.0226784,-31228.8,-60000,-0,67640.5,352.778
step02_gravity_refstate-mantle.xmf,267,7.09029e-09,5.11966e-06,0,4.08235e-06,-1.20679e+09,-1.20611e+09,-1.20679e+09,545606,0.0100349,0.171596,0,0.171889,-8079.5,-43351.5,-0,44097.9,545606
step02_gravity_refstate-mantle.xmf,268,2.4956e-07,4.94394e-06,0,3.14835e-06,-1.22417e+09,-1.22354e+09,-1.2242e+09,420776,0.0150499,0.149361,0,0.150117,-9237.86,-43889.3,-0,44851,420776
step02_gravity_refstate-mantle.xmf,269,-2.08854e-07,5.34123e-06,0,5.46214e-06,-1.19344e+09,-1.19269e+09,-1.19341e+09,730015,0.00540362,0.195907,0,0.195981,-6994.51,-42938,-0,43504,730015
step02_gravity_refstate-mantle.xmf,270,-3.48359e-07,5.81525e-06,0,1.10058e-05,-1.17979e+09,-1.17896e+09,-1.17974e+09,1.47092e+06,-0.000527214,0.258142,-0,0.258142,-4858.97,-42516.7,-0,42793.4,1.47092e+06
step02_gravity_refstate-mantle.xmf,271,-1.50379e-07,5.20485e-06,0,1.30044e-05,-1.17144e+09,-1.17072e+09,-1.17142e+09,1.73803e+06,-0.00401384,0.276693,-0,0.276722,-4395.92,-42258.6,-0,42486.6,1.73803e+06
step02_gravity_refstate-mantle.xmf,272,2.9374e-07,4.39553e-06,0,1.50222e-06,-1.24089e+09,-1.24035e+09,-1.24093e+09,200772,0.0183655,0.109585,0,0.111113,-12250.7,-44404.9,-0,46063.8,200772
step02_gravity_refstate-mantle.xmf,273,4.86511e-07,4.79809e-06,0,2.4741e-06,-1.2445e+09,-1.24393e+09,-1.24457e+09,330663,0.0198417,0.129075,0,0.130591,-10472.9,-44518.8,-0,45734.1,330663
step02_gravity_refstate-mantle.xmf,274,3.86739e-07,4.57997e-06,0,1.94953e-06,-1.24291e+09,-1.24234e+09,-1.24296e+09,260554,0.0191049,0.118946,0,0.120471,-11340.9,-44468.2,-0,45891.6,260554
step02_gravity_refstate-mantle.xmf,275,7.95618e-07,4.06568e-06,0,7.22152e-07,-1.29602e+09,-1.29558e+09,-1.29612e+09,96515.6,0.0268039,0.0773466,0,0.0818593,-15340.6,-46110.2,-0,48595.1,96515.6
step02_gravity_refstate-mantle.xmf,276,5.63103e-07,4.40912e-06,0,1.43318e-06,-1.2662e+09,-1.26568e+09,-1.26627e+09,191544,0.0233457,0.101276,0,0.103932,-12756.7,-45188.4,-0,46954.5,191544
step02_gravity_refstate-mantle.xmf,277,1.23918e-06,3.62844e-06,0,1.51586e-07,-1.35616e+09,-1.35584e+09,-1.35632e+09,20259.4,0.0311673,0.0523347,0,0.0609124,-18858.4,-47969.8,-0,51543.6,20259.4
step02_gravity_refstate-mantle.xmf,278,1.454e-06,3.36178e-06,0,-5.3293e-08,-1.3853e+09,-1.38504e+09,-1.38549e+09,-7122.62,0.0314538,0.0425291,0,0.0528968,-20845.6,-48870.7,-0,53130.8,7122.62
step02_gravity_refstate-mantle.xmf,279,2.07501e-06,2.96501e-06,0,-1.70717e-07,-1.50946e+09,-1.50934e+09,-1.50974e+09,-22816.3,0.0335245,0.0229044,0,0.0406017,-24569.3,-52709.2,-0,58154.2,22816.3
step02_gravity_refstate-mantle.xmf,280,3.85975e-07,5.26037e-06,0,3.90171e-06,-1.22587e+09,-1.22521e+09,-1.22592e+09,521464,0.0157744,0.161323,0,0.162092,-8482.58,-43943.6,-0,44754.8,521464
step02_gravity_refstate-mantle.xmf,281,5.85343e-07,5.06308e-06,0,3.07601e-06,-1.24592e+09,-1.24532e+09,-1.246e+09,411109,0.0206083,0.139756,0,0.141267,-9659.56,-44563.9,-0,45598.8,411109
step02_gravity_refstate-mantle.xmf,282,1.1635e-07,5.50524e-06,0,5.04151e-06,-1.20992e+09,-1.2092e+09,-1.20993e+09,673798,0.0111105,0.18508,0,0.185413,-7365.93,-43449.8,-0,44069.7,673798
step02_gravity_refstate-mantle.xmf,283,-1.72995e-07,5.75175e-06,0,6.69817e-06,-1.19532e+09,-1.19453e+09,-1.1953e+09,895210,0.00597348,0.210872,0,0.210957,-6352.9,-42997.6,-0,43464.4,895210
step02_gravity_refstate-mantle.xmf,284,-2.26321e-07,6.27486e-06,0,8.17154e-06,-1.19666e+09,-1.1958e+09,-1.19663e+09,1.09213e+06,0.00636138,0.226715,0,0.226804,-5752.65,-43040.1,-0,43422.8,1.09213e+06
step02_gravity_refstate-mantle.xmf,285,-3.74888e-07,6.90276e-06,0,9.95641e-06,-1.1974e+09,-1.19642e+09,-1.19734e+09,1.33067e+06,0.00647165,0.243791,0,0.243877,-5182.23,-43063.2,-0,43373.9,1.33067e+06
step02_gravity_refstate-mantle.xmf,286,2.40744e-07,4.15376e-06,0,1.49591e-05,-1.16309e+09,-1.16256e+09,-1.16312e+09,1.99929e+06,-0.00735904,0.294114,-0,0.294206,-4000,-42000.5,-0,42190.6,1.99929e+06
step02_gravity_refstate-mantle.xmf,287,1.02688e-06,3.86704e-06,0,4.1444e-07,-1.32705e+09,-1.32667e+09,-1.32719e+09,55389.9,0.0297056,0.0637935,0,0.0703707,-17039.4,-47069.8,-0,50059,55389.9
step02_gravity_refstate-mantle.xmf,288,7.84849e-07,4.26203e-06,0,1.03369e-06,-1.29384e+09,-1.29337e+09,-1.29394e+09,138153,0.0272759,0.0849249,0,0.0891976,-14285.5,-46043.4,-0,48208.6,138153
step02_gravity_refstate-mantle.xmf,289,1.02222e-06,4.08581e-06,0,6.8921e-07,-1.3276e+09,-1.3272e+09,-1.32774e+09,92112.9,0.0309319,0.0699165,0,0.0764533,-15900.6,-47087.5,-0,49699.7,92112.9
step02_gravity_refstate-mantle.xmf,290,8.0482e-07,4.46595e-06,0,1.40487e-06,-1.29188e+09,-1.29139e+09,-1.29199e+09,187761,0.0277525,0.0933647,0,0.0974021,-13252.3,-45983.6,-0,47855.1,187761
step02_gravity_refstate-mantle.xmf,291,1.20834e-06,3.84261e-06,0,3.57882e-07,-1.35783e+09,-1.35748e+09,-1.358e+09,47830.9,0.0328168,0.0571405,0,0.0658937,-17661.9,-48022,-0,51166.9,47830.9
step02_gravity_refstate-mantle.xmf,292,1.42189e-06,3.5873e-06,0,1.11564e-07,-1.38753e+09,-1.38724e+09,-1.38772e+09,14910.5,0.0335476,0.0463982,0,0.0572559,-19528.6,-48940,-0,52692.4,14910.5
step02_gravity_refstate-mantle.xmf,293,1.66248e-06,3.31795e-06,0,-6.55536e-08,-1.42479e+09,-1.42457e+09,-1.42501e+09,-8761.23,0.0337861,0.0366506,0,0.0498474,-21523.3,-50091.9,-0,54520.2,8761.23
step02_gravity_refstate-mantle.xmf,294,1.84207e-06,3.26759e-06,0,-8.54428e-08,-1.46766e+09,-1.46747e+09,-1.46791e+09,-11419.4,0.0356575,0.0306901,0,0.0470462,-22240.4,-51417.2,-0,56021.1,11419.4
step02_gravity_refstate-mantle.xmf,295,2.00904e-06,3.20304e-06,0,-9.74582e-08,-1.51014e+09,-1.50998e+09,-1.51041e+09,-13025.3,0.0366515,0.0249834,0,0.0443565,-23053.1,-52730.4,-0,57549.4,13025.3
step02_gravity_refstate-mantle.xmf,296,2.2227e-06,2.88856e-06,0,-1.58075e-07,-1.55166e+09,-1.55158e+09,-1.55196e+09,-21126.7,0.0335182,0.0181113,0,0.0380984,-25446.6,-54013.7,-0,59707.7,21126.7
step02_gravity_refstate-mantle.xmf,297,2.34549e-06,2.81147e-06,0,-1.3838e-07,-1.596e+09,-1.59594e+09,-1.59631e+09,-18494.5,0.0329086,0.0134644,0,0.0355565,-26369.3,-55383.8,-0,61340.9,18494.5
step02_gravity_refstate-mantle.xmf,298,2.45166e-06,2.74624e-06,0,-1.02286e-07,-1.64345e+09,-1.64341e+09,-1.64378e+09,-13670.5,0.0317163,0.00888363,0,0.0329369,-27328,-56850.2,-0,63077.5,13670.5
step02_gravity_refstate-mantle.xmf,299,2.52686e-06,2.69996e-06,0,-5.50559e-08,-1.69404e+09,-1.69402e+09,-1.69438e+09,-7358.22,0.0299786,0.00435085,0,0.0302927,-28297,-58413.2,-0,64906.2,7358.22
step02_gravity_refstate-mantle.xmf,300,2.56233e-06,2.67726e-06,0,2.08731e-09,-1.7454e+09,-1.74539e+09,-1.74575e+09,278.969,0.0277228,-6.36893e-20,0,0.0277228,-29267.4,-60000,-0,66757.6,278.969
step02_gravity_refstate-mantle.xmf,301,4.31168e-07,5.64353e-06,0,4.73342e-06,-1.22778e+09,-1.22709e+09,-1.22784e+09,632621,0.0166326,0.174106,0,0.174898,-7759.42,-44004,-0,44682.9,632621
step02_gravity_refstate-mantle.xmf,302,6.31579e-07,5.37707e-06,0,3.7494e-06,-1.24666e+09,-1.24603e+09,-1.24675e+09,501108,0.0212708,0.151415,0,0.152902,-8874.42,-44587.9,-0,45462.5,501108
step02_gravity_refstate-mantle.xmf,303,1.53765e-07,6.02707e-06,0,6.17218e-06,-1.21183e+09,-1.21105e+09,-1.21185e+09,824912,0.0118523,0.19928,0,0.199632,-6705.25,-43510.5,-0,44024.1,824912
step02_gravity_refstate-mantle.xmf,304,-5.29521e-07,7.20758e-06,0,1.16419e-05,-1.19467e+09,-1.19363e+09,-1.19459e+09,1.55594e+06,0.00523398,0.259306,0,0.259359,-4740.49,-42978.7,-0,43239.3,1.55594e+06
step02_gravity_refstate-mantle.xmf,305,-4.94841e-07,6.8697e-06,0,1.31792e-05,-1.18729e+09,-1.18631e+09,-1.18723e+09,1.7614e+06,0.00223354,0.273578,0,0.273587,-4399.66,-42750.3,-0,42976.1,1.7614e+06
step02_gravity_refstate-mantle.xmf,306,-3.48176e-07,6.20945e-06,0,1.52665e-05,-1.17923e+09,-1.17836e+09,-1.17919e+09,2.04037e+06,-0.00103383,0.291523,-0,0.291525,-4000,-42500.6,-0,42688.4,2.04037e+06
step02_gravity_refstate-mantle.xmf,307,6.52366e-07,4.6344e-06,0,1.89588e-06,-1.26696e+09,-1.26643e+09,-1.26705e+09,253385,0.0240646,0.110351,0,0.112944,-11817.5,-45213.2,-0,46732,253385
step02_gravity_refstate-mantle.xmf,308,7.95044e-07,5.17932e-06,0,3.00425e-06,-1.2682e+09,-1.26762e+09,-1.26831e+09,401517,0.0255545,0.130499,0,0.132978,-10078.3,-45253.8,-0,46362.5,401517
step02_gravity_refstate-mantle.xmf,309,7.23109e-07,4.87944e-06,0,2.40912e-06,-1.26741e+09,-1.26686e+09,-1.26751e+09,321979,0.0247559,0.120127,0,0.122652,-10925.2,-45228.2,-0,46529,321979
step02_gravity_refstate-mantle.xmf,310,1.00614e-06,4.3471e-06,0,1.05593e-06,-1.32713e+09,-1.32668e+09,-1.32726e+09,141125,0.0321125,0.0778309,0,0.0841954,-14658.5,-47073.3,-0,49302.8,141125
step02_gravity_refstate-mantle.xmf,311,8.3291e-07,4.70316e-06,0,1.84321e-06,-1.2928e+09,-1.29228e+09,-1.29291e+09,246344,0.0287092,0.102016,0,0.105979,-12277.1,-46012.7,-0,47622.4,246344
step02_gravity_refstate-mantle.xmf,312,1.3833e-06,3.83602e-06,0,3.21169e-07,-1.38895e+09,-1.38863e+09,-1.38914e+09,42924.3,0.035441,0.0508454,0,0.0619784,-18273.6,-48984.4,-0,52281.9,42924.3
step02_gravity_refstate-mantle.xmf,313,1.59087e-06,3.5558e-06,0,8.07793e-08,-1.42168e+09,-1.42141e+09,-1.42189e+09,10796.1,0.0357054,0.040573,0,0.0540467,-20178.8,-49995.9,-0,53914.5,10796.1
step02_gravity_refstate-mantle.xmf,314,2.15983e-06,3.13624e-06,0,-9.78366e-08,-1.55264e+09,-1.55251e+09,-1.55293e+09,-13075.9,0.0370013,0.0196898,0,0.041914,-23871.2,-54044,-0,59081.2,13075.9
step02_gravity_refstate-mantle.xmf,315,7.3274e-07,5.82244e-06,0,4.57477e-06,-1.24812e+09,-1.24744e+09,-1.24822e+09,611417,0.0221508,0.163417,0,0.164912,-8142.38,-44634.9,-0,45371.5,611417
step02_gravity_refstate-mantle.xmf,316,8.52163e-07,5.54324e-06,0,3.669e-06,-1.2691e+09,-1.26847e+09,-1.26921e+09,490362,0.0263869,0.14123,0,0.143673,-9292.8,-45282.8,-0,46226.5,490362
step02_gravity_refstate-mantle.xmf,317,4.36624e-07,6.17024e-06,0,5.73075e-06,-1.22881e+09,-1.22804e+09,-1.22886e+09,765915,0.0172561,0.187941,0,0.188731,-7067.76,-44037.1,-0,44600.6,765915
step02_gravity_refstate-mantle.xmf,318,6.12068e-08,6.68086e-06,0,7.47019e-06,-1.21324e+09,-1.21236e+09,-1.21325e+09,998391,0.0124077,0.214404,0,0.214763,-6081.04,-43555.1,-0,43977.5,998391
step02_gravity_refstate-mantle.xmf,319,-1.79698e-07,7.53893e-06,0,9.04083e-06,-1.2143e+09,-1.21326e+09,-1.21427e+09,1.20831e+06,0.0127478,0.23078,0,0.231131,-5481.66,-43588.2,-0,43931.5,1.20831e+06
step02_gravity_refstate-mantle.xmf,320,-6.04341e-07,8.54936e-06,0,1.11043e-05,-1.21334e+09,-1.21212e+09,-1.21326e+09,1.48409e+06,0.0121774,0.250175,0,0.250472,-4871.7,-43558.5,-0,43830.1,1.48409e+06
step02_gravity_refstate-mantle.xmf,321,-8.74167e-07,8.6056e-06,0,1.31826e-05,-1.20385e+09,-1.20258e+09,-1.20373e+09,1.76185e+06,0.00841407,0.269658,0,0.26979,-4398.23,-43263.7,-0,43486.7,1.76185e+06
step02_gravity_refstate-mantle.xmf,322,1.19896e-06,4.09751e-06,0,6.3605e-07,-1.35899e+09,-1.3586e+09,-1.35915e+09,85008.1,0.0343408,0.0626007,0,0.0714012,-16505.4,-48058.2,-0,50813.6,85008.1
step02_gravity_refstate-mantle.xmf,323,9.20871e-07,4.49069e-06,0,1.32518e-06,-1.3127e+09,-1.31223e+09,-1.31283e+09,177110,0.0308065,0.0865399,0,0.0918596,-13736.9,-46627.6,-0,48609,177110
step02_gravity_refstate-mantle.xmf,324,1.17256e-06,4.36921e-06,0,9.56584e-07,-1.35941e+09,-1.35898e+09,-1.35957e+09,127847,0.0356974,0.068755,0,0.0774697,-15394.1,-48071.7,-0,50476.4,127847
step02_gravity_refstate-mantle.xmf,325,9.91735e-07,4.81358e-06,0,1.79423e-06,-1.32012e+09,-1.31961e+09,-1.32026e+09,239799,0.0328904,0.0932735,0,0.0989026,-12791.4,-46858.1,-0,48572.7,239799
step02_gravity_refstate-mantle.xmf,326,1.33065e-06,4.10106e-06,0,5.66058e-07,-1.39031e+09,-1.38994e+09,-1.39049e+09,75653.6,0.0371802,0.0557333,0,0.0669968,-17094,-49026.7,-0,51921.3,75653.6
step02_gravity_refstate-mantle.xmf,327,1.52633e-06,3.8049e-06,0,2.61639e-07,-1.4201e+09,-1.4198e+09,-1.42031e+09,34968,0.0374963,0.0447051,0,0.0583483,-18935.7,-49947.4,-0,53416.4,34968
step02_gravity_refstate-mantle.xmf,328,1.76345e-06,3.57872e-06,0,7.79156e-08,-1.46731e+09,-1.46706e+09,-1.46754e+09,10413.4,0.0385308,0.0343102,0,0.0515928,-20631.7,-51406.5,-0,55392.2,10413.4
step02_gravity_refstate-mantle.xmf,329,1.92708e-06,3.49847e-06,0,2.20329e-08,-1.51115e+09,-1.51094e+09,-1.51141e+09,2944.7,0.0396727,0.0274938,0,0.0482683,-21546.9,-52761.8,-0,56991.9,2944.7
step02_gravity_refstate-mantle.xmf,330,2.06588e-06,3.42269e-06,0,-1.43389e-08,-1.5524e+09,-1.55222e+09,-1.55268e+09,-1916.39,0.0401852,0.0217041,0,0.0456718,-22357.4,-54036.8,-0,58479.3,1916.39
step02_gravity_refstate-mantle.xmf,331,2.29031e-06,3.06442e-06,0,-9.28771e-08,-1.59789e+09,-1.59779e+09,-1.5982e+09,-12413,0.0368223,0.0145177,0,0.0395809,-24703.2,-55442.5,-0,60697,12413
step02_gravity_refstate-mantle.xmf,332,2.39426e-06,2.99158e-06,0,-7.8727e-08,-1.64545e+09,-1.64537e+09,-1.64577e+09,-10521.9,0.0360203,0.00949155,0,0.0372498,-25567.6,-56912,-0,62391.3,10521.9
step02_gravity_refstate-mantle.xmf,333,2.47633e-06,2.92794e-06,0,-4.64641e-08,-1.6947e+09,-1.69464e+09,-1.69503e+09,-6209.93,0.034547,0.00465392,0,0.0348591,-26473.2,-58433.9,-0,64151,6209.93
step02_gravity_refstate-mantle.xmf,334,2.52258e-06,2.88264e-06,0,1.57167e-09,-1.74539e+09,-1.74535e+09,-1.74573e+09,210.054,0.0325004,-6.95913e-20,0,0.0325004,-27388.2,-60000,-0,65955.4,210.054
step02_gravity_refstate-mantle.xmf,335,6.88313e-07,6.35505e-06,0,5.45653e-06,-1.24876e+09,-1.248e+09,-1.24885e+09,729265,0.0228153,0.176425,0,0.177894,-7438.28,-44655.5,-0,45270.8,729265
step02_gravity_refstate-mantle.xmf,336,8.47423e-07,5.98623e-06,0,4.41051e-06,-1.26961e+09,-1.26892e+09,-1.26972e+09,589464,0.0271502,0.152945,0,0.155336,-8527.28,-45299.6,-0,46095.2,589464
step02_gravity_refstate-mantle.xmf,337,3.77288e-07,6.91154e-06,0,6.91359e-06,-1.23036e+09,-1.22949e+09,-1.23041e+09,924001,0.018011,0.202309,0,0.203109,-6419.48,-44086.6,-0,44551.5,924001
step02_gravity_refstate-mantle.xmf,338,-9.16938e-07,8.24881e-06,0,1.53607e-05,-1.19535e+09,-1.19413e+09,-1.19523e+09,2.05296e+06,0.00496978,0.287911,0,0.287954,-4000,-43000,-0,43185.6,2.05296e+06
step02_gravity_refstate-mantle.xmf,339,-1.21809e-06,1.04076e-05,0,1.31296e-05,-1.22097e+09,-1.21942e+09,-1.22081e+09,1.75477e+06,0.0143617,0.265456,0,0.265844,-4375.76,-43794.8,-0,44012.9,1.75477e+06
step02_gravity_refstate-mantle.xmf,340,8.91058e-07,4.98803e-06,0,2.3626e-06,-1.2915e+09,-1.29095e+09,-1.29162e+09,315761,0.029251,0.111523,0,0.115295,-11362.2,-45973.8,-0,47357,315761
step02_gravity_refstate-mantle.xmf,341,9.4344e-07,5.70602e-06,0,3.57226e-06,-1.29177e+09,-1.29113e+09,-1.29189e+09,477433,0.0308002,0.131529,0,0.135087,-9702.34,-45984.1,-0,46996.5,477433
step02_gravity_refstate-mantle.xmf,342,9.27416e-07,5.31962e-06,0,2.93924e-06,-1.29183e+09,-1.29125e+09,-1.29196e+09,392829,0.0300782,0.121289,0,0.124963,-10503.7,-45985.1,-0,47169.5,392829
step02_gravity_refstate-mantle.xmf,343,1.05222e-06,4.71821e-06,0,1.51921e-06,-1.33868e+09,-1.33819e+09,-1.33882e+09,203042,0.0348629,0.0837898,0,0.0907532,-13613.8,-47431.4,-0,49346.5,203042
step02_gravity_refstate-mantle.xmf,344,1.1337e-06,4.67882e-06,0,1.32723e-06,-1.36165e+09,-1.36118e+09,-1.3618e+09,177384,0.0371951,0.0751942,0,0.0838907,-14337.8,-48141.5,-0,50231.2,177384
step02_gravity_refstate-mantle.xmf,345,9.70988e-07,5.12849e-06,0,2.32854e-06,-1.31719e+09,-1.31663e+09,-1.31732e+09,311209,0.0334461,0.103627,0,0.108891,-11733.3,-46768.1,-0,48217.4,311209
step02_gravity_refstate-mantle.xmf,346,1.46237e-06,4.10023e-06,0,4.9694e-07,-1.42161e+09,-1.42126e+09,-1.4218e+09,66416,0.0394319,0.0490188,0,0.0629104,-17728.8,-49994.3,-0,53044.7,66416
step02_gravity_refstate-mantle.xmf,347,1.63585e-06,3.77879e-06,0,2.09038e-07,-1.44835e+09,-1.44807e+09,-1.44857e+09,27938,0.039021,0.0395788,0,0.0555798,-19496.4,-50820.8,-0,54432.2,27938
step02_gravity_refstate-mantle.xmf,348,2.19572e-06,3.35495e-06,0,-3.03484e-08,-1.59646e+09,-1.59631e+09,-1.59675e+09,-4056.06,0.0402701,0.0161047,0,0.043371,-23142.1,-55398.5,-0,60037.9,4056.06
step02_gravity_refstate-mantle.xmf,349,8.54139e-07,6.69848e-06,0,5.38282e-06,-1.27292e+09,-1.27214e+09,-1.27303e+09,719414,0.0285647,0.165484,0,0.167931,-7758.16,-45403.9,-0,46061.9,719414
step02_gravity_refstate-mantle.xmf,350,9.30533e-07,6.17806e-06,0,4.28249e-06,-1.29176e+09,-1.29105e+09,-1.29188e+09,572355,0.0315037,0.142371,0,0.145815,-8937.29,-45984.9,-0,46845.4,572355
step02_gravity_refstate-mantle.xmf,351,5.98949e-07,7.04732e-06,0,6.48291e-06,-1.2482e+09,-1.24734e+09,-1.24828e+09,866441,0.0231081,0.190585,0,0.191981,-6761.87,-44639.4,-0,45148.6,866441
step02_gravity_refstate-mantle.xmf,352,1.43065e-07,7.83907e-06,0,8.25014e-06,-1.23119e+09,-1.23016e+09,-1.2312e+09,1.10263e+06,0.0184307,0.217737,0,0.218516,-5802.07,-44112.9,-0,44492.8,1.10263e+06
step02_gravity_refstate-mantle.xmf,353,-2.84345e-07,9.03228e-06,0,9.80909e-06,-1.23185e+09,-1.23061e+09,-1.23181e+09,1.31098e+06,0.0186024,0.233898,0,0.234636,-5224.34,-44133.7,-0,44441.8,1.31098e+06
step02_gravity_refstate-mantle.xmf,354,-9.22513e-07,1.05931e-05,0,1.15867e-05,-1.23397e+09,-1.23243e+09,-1.23384e+09,1.54856e+06,0.0189521,0.249803,0,0.250521,-4699.71,-44198.7,-0,44447.9,1.54856e+06
step02_gravity_refstate-mantle.xmf,355,-1.46719e-06,1.02708e-05,0,1.52685e-05,-1.21147e+09,-1.2099e+09,-1.21128e+09,2.04064e+06,0.0106329,0.283283,0,0.283482,-4000,-43499.4,-0,43682.9,2.04064e+06
step02_gravity_refstate-mantle.xmf,356,1.28715e-06,4.40772e-06,0,8.78308e-07,-1.3905e+09,-1.39009e+09,-1.39068e+09,117386,0.0386663,0.0612725,0,0.0724528,-15970.7,-49033.1,-0,51568.4,117386
step02_gravity_refstate-mantle.xmf,357,1.2207e-06,4.73694e-06,0,1.2292e-06,-1.39012e+09,-1.38965e+09,-1.39029e+09,164283,0.0399563,0.0674168,0,0.0783679,-14899.9,-49021.7,-0,51236.1,164283
step02_gravity_refstate-mantle.xmf,358,1.03137e-06,5.31244e-06,0,2.30895e-06,-1.34253e+09,-1.34196e+09,-1.34267e+09,308592,0.0370002,0.096043,0,0.102924,-12094.3,-47551.9,-0,49065.8,308592
step02_gravity_refstate-mantle.xmf,359,1.37347e-06,4.42785e-06,0,7.77444e-07,-1.42205e+09,-1.42164e+09,-1.42223e+09,103905,0.0411478,0.0540859,0,0.067959,-16545.9,-50008.2,-0,52674.3,103905
step02_gravity_refstate-mantle.xmf,360,1.57591e-06,4.05364e-06,0,3.98582e-07,-1.45181e+09,-1.45148e+09,-1.45202e+09,53270.4,0.0410037,0.0425779,0,0.0591116,-18435.4,-50927.8,-0,54161.8,53270.4
step02_gravity_refstate-mantle.xmf,361,1.69951e-06,3.9384e-06,0,2.73679e-07,-1.48088e+09,-1.48058e+09,-1.48111e+09,36577.2,0.0418004,0.0362683,0,0.0553414,-19300.7,-51826.4,-0,55303.6,36577.2
step02_gravity_refstate-mantle.xmf,362,1.82548e-06,3.8516e-06,0,1.82838e-07,-1.51539e+09,-1.51512e+09,-1.51563e+09,24436.4,0.0426108,0.0300204,0,0.0521239,-20113.1,-52893,-0,56588,24436.4
step02_gravity_refstate-mantle.xmf,363,1.95013e-06,3.76986e-06,0,1.09687e-07,-1.55365e+09,-1.55341e+09,-1.55391e+09,14659.7,0.0431777,0.023916,0,0.0493588,-20896.1,-54075.5,-0,57972.5,14659.7
step02_gravity_refstate-mantle.xmf,364,2.06772e-06,3.68908e-06,0,5.35143e-08,-1.59419e+09,-1.59397e+09,-1.59446e+09,7152.19,0.0433748,0.0180862,0,0.0469946,-21646.8,-55328.2,-0,59412.1,7152.19
step02_gravity_refstate-mantle.xmf,365,2.3087e-06,3.29332e-06,0,-3.48067e-08,-1.64655e+09,-1.64642e+09,-1.64686e+09,-4651.91,0.0399801,0.0103305,0,0.0412932,-23891.8,-56946.2,-0,61755.1,4651.91
step02_gravity_refstate-mantle.xmf,366,2.39286e-06,3.21724e-06,0,-2.98098e-08,-1.69482e+09,-1.69471e+09,-1.69514e+09,-3984.08,0.0388768,0.00510005,0,0.0392099,-24695.3,-58437.7,-0,63441.5,3984.08
step02_gravity_refstate-mantle.xmf,367,2.45474e-06,3.14315e-06,0,9.52057e-10,-1.74539e+09,-1.7453e+09,-1.74572e+09,127.242,0.036985,-7.82199e-20,0,0.036985,-25586.2,-60000,-0,65227.7,127.242
step02_gravity_refstate-mantle.xmf,368,7.28848e-07,7.21931e-06,0,6.20286e-06,-1.2672e+09,-1.26633e+09,-1.2673e+09,829012,0.0277554,0.179267,0,0.181403,-7099.83,-45227.6,-0,45781.5,829012
step02_gravity_refstate-mantle.xmf,369,8.4678e-07,6.80598e-06,0,5.09268e-06,-1.29338e+09,-1.29258e+09,-1.29349e+09,680637,0.0324775,0.153655,0,0.15705,-8195.89,-46036,-0,46759.9,680637
step02_gravity_refstate-mantle.xmf,370,4.34742e-07,7.97944e-06,0,7.6531e-06,-1.24876e+09,-1.24775e+09,-1.24882e+09,1.02284e+06,0.0235877,0.204787,0,0.206141,-6140.32,-44658.1,-0,45078.2,1.02284e+06
step02_gravity_refstate-mantle.xmf,371,-1.65023e-06,1.21861e-05,0,1.33311e-05,-1.23562e+09,-1.23377e+09,-1.2354e+09,1.7817e+06,0.0189245,0.263676,0,0.264354,-4284.95,-44249,-0,44456,1.7817e+06
step02_gravity_refstate-mantle.xmf,372,-1.98063e-06,1.2264e-05,0,1.49979e-05,-1.22761e+09,-1.2257e+09,-1.22734e+09,2.00446e+06,0.0159118,0.277643,0,0.278098,-4000,-43999.5,-0,44180.9,2.00446e+06
step02_gravity_refstate-mantle.xmf,373,9.13468e-07,6.34768e-06,0,4.11902e-06,-1.31354e+09,-1.31282e+09,-1.31367e+09,550508,0.0351183,0.132422,0,0.136999,-9337.79,-46658.2,-0,47583.4,550508
step02_gravity_refstate-mantle.xmf,374,9.93352e-07,5.50798e-06,0,2.90438e-06,-1.31698e+09,-1.31638e+09,-1.31711e+09,388171,0.0342483,0.11275,0,0.117837,-10874.9,-46762.8,-0,48010.6,388171
step02_gravity_refstate-mantle.xmf,375,9.6363e-07,5.90599e-06,0,3.49028e-06,-1.31561e+09,-1.31495e+09,-1.31574e+09,466476,0.0347768,0.122288,0,0.127136,-10085.7,-46721.4,-0,47797.6,466476
step02_gravity_refstate-mantle.xmf,376,1.05751e-06,5.05153e-06,0,1.91367e-06,-1.34653e+09,-1.346e+09,-1.34667e+09,255762,0.0367706,0.0886262,0,0.0959515,-12863.6,-47674.8,-0,49379.8,255762
step02_gravity_refstate-mantle.xmf,377,1.09342e-06,5.05078e-06,0,1.76089e-06,-1.36529e+09,-1.36476e+09,-1.36543e+09,235343,0.038754,0.0817397,0,0.0904613,-13356.8,-48254.5,-0,50068.9,235343
step02_gravity_refstate-mantle.xmf,378,1.1315e-06,5.09963e-06,0,1.61937e-06,-1.39028e+09,-1.38975e+09,-1.39043e+09,216429,0.041165,0.0739739,0,0.0846563,-13883.8,-49026.9,-0,50954.9,216429
step02_gravity_refstate-mantle.xmf,379,9.6819e-07,5.70549e-06,0,2.84627e-06,-1.34199e+09,-1.34136e+09,-1.34212e+09,380404,0.0378169,0.104938,0,0.111545,-11196.4,-47535.8,-0,48836.6,380404
step02_gravity_refstate-mantle.xmf,380,1.4711e-06,4.42464e-06,0,6.67397e-07,-1.45382e+09,-1.45342e+09,-1.45401e+09,89197.6,0.0430549,0.0469179,0,0.063679,-17195.1,-50990.1,-0,53811.3,89197.6
step02_gravity_refstate-mantle.xmf,381,2.17613e-06,3.61594e-06,0,2.07236e-08,-1.63675e+09,-1.63656e+09,-1.63704e+09,2769.71,0.0431644,0.0125036,0,0.0449389,-22366.7,-56643.6,-0,60899.6,2769.71
step02_gravity_refstate-mantle.xmf,382,7.08167e-07,7.57593e-06,0,6.19003e-06,-1.28449e+09,-1.28357e+09,-1.28459e+09,827298,0.031453,0.172211,0,0.17506,-7257.58,-45762.6,-0,46334.5,827298
step02_gravity_refstate-mantle.xmf,383,8.16893e-07,6.93285e-06,0,4.85318e-06,-1.3129e+09,-1.31209e+09,-1.31301e+09,648627,0.0356469,0.143219,0,0.147588,-8594.94,-46639.4,-0,47424.7,648627
step02_gravity_refstate-mantle.xmf,384,5.50916e-07,8.0864e-06,0,7.22101e-06,-1.26669e+09,-1.26568e+09,-1.26676e+09,965088,0.0280477,0.192775,0,0.194805,-6465.27,-45212.9,-0,45672.8,965088
step02_gravity_refstate-mantle.xmf,385,7.13165e-08,9.19773e-06,0,8.96548e-06,-1.24946e+09,-1.24824e+09,-1.24947e+09,1.19824e+06,0.023924,0.219958,0,0.221256,-5539.17,-44680.4,-0,45022.4,1.19824e+06
step02_gravity_refstate-mantle.xmf,386,-5.60006e-07,1.08166e-05,0,1.04758e-05,-1.25007e+09,-1.24855e+09,-1.25e+09,1.40009e+06,0.0239437,0.235971,0,0.237182,-4967.49,-44699.3,-0,44974.5,1.40009e+06
step02_gravity_refstate-mantle.xmf,387,-1.55151e-06,1.2999e-05,0,1.22692e-05,-1.25117e+09,-1.24922e+09,-1.25096e+09,1.63978e+06,0.0236548,0.252726,0,0.253831,-4423.68,-44732,-0,44950.2,1.63978e+06
step02_gravity_refstate-mantle.xmf,388,-2.46079e-06,1.42305e-05,0,1.45143e-05,-1.2437e+09,-1.24147e+09,-1.24337e+09,1.93983e+06,0.0207091,0.271028,0,0.271818,-4000,-44498.5,-0,44677.9,1.93983e+06
step02_gravity_refstate-mantle.xmf,389,1.2846e-06,4.79815e-06,0,1.12074e-06,-1.42132e+09,-1.42085e+09,-1.42149e+09,149787,0.0425488,0.0597535,0,0.0733545,-15434.7,-49986,-0,52314.7,149787
step02_gravity_refstate-mantle.xmf,390,1.16839e-06,5.17514e-06,0,1.49631e-06,-1.41743e+09,-1.4169e+09,-1.41759e+09,199982,0.0434548,0.0664236,0,0.0793751,-14379.2,-49866.1,-0,51897.9,199982
step02_gravity_refstate-mantle.xmf,391,1.03997e-06,5.43987e-06,0,2.22599e-06,-1.36604e+09,-1.36545e+09,-1.36618e+09,297503,0.0398013,0.0888629,0,0.0973692,-12461.6,-48278.3,-0,49860.6,297503
step02_gravity_refstate-mantle.xmf,392,9.54817e-07,5.87124e-06,0,2.74345e-06,-1.36537e+09,-1.36472e+09,-1.3655e+09,366662,0.0405936,0.096969,0,0.105123,-11576.1,-48258.3,-0,49627.3,366662
step02_gravity_refstate-mantle.xmf,393,1.33423e-06,4.83345e-06,0,9.76076e-07,-1.45467e+09,-1.45421e+09,-1.45485e+09,130453,0.0447866,0.0519056,0,0.0685568,-16009.7,-51016.7,-0,53469.8,130453
step02_gravity_refstate-mantle.xmf,394,1.57312e-06,4.3616e-06,0,5.26899e-07,-1.48585e+09,-1.48547e+09,-1.48606e+09,70420.1,0.0443733,0.039821,0,0.0596213,-17942.7,-51980,-0,54989.6,70420.1
step02_gravity_refstate-mantle.xmf,395,1.6848e-06,4.26678e-06,0,3.86426e-07,-1.51912e+09,-1.51878e+09,-1.51935e+09,51645.8,0.0452609,0.0330005,0,0.0560141,-18729.3,-53008.4,-0,56219.9,51645.8
step02_gravity_refstate-mantle.xmf,396,1.79852e-06,4.17725e-06,0,2.69926e-07,-1.55527e+09,-1.55495e+09,-1.55551e+09,36075.6,0.0458893,0.0264397,0,0.0529612,-19490.8,-54125.5,-0,57527.9,36075.6
step02_gravity_refstate-mantle.xmf,397,1.90975e-06,4.0862e-06,0,1.735e-07,-1.59314e+09,-1.59285e+09,-1.59339e+09,23188.3,0.0461762,0.0202536,0,0.0504227,-20218.6,-55295.7,-0,58876.2,23188.3
step02_gravity_refstate-mantle.xmf,398,2.01894e-06,3.98173e-06,0,9.6564e-08,-1.6315e+09,-1.63124e+09,-1.63177e+09,12905.8,0.0460098,0.0145001,0,0.0482406,-20943.2,-56481.2,-0,60239,12905.8
step02_gravity_refstate-mantle.xmf,399,2.25285e-06,3.61233e-06,0,4.34598e-09,-1.69133e+09,-1.69114e+09,-1.69163e+09,580.84,0.043183,0.00611577,0,0.0436139,-22824.2,-58329.9,-0,62636.4,580.84
step02_gravity_refstate-mantle.xmf,400,2.35119e-06,3.46563e-06,0,4.43026e-10,-1.74538e+09,-1.74523e+09,-1.7457e+09,59.2105,0.0411402,-1.006e-19,0,0.0411402,-23856.4,-60000,-0,64568.8,59.2105
step02_gravity_refstate-mantle.xmf,401,7.16561e-07,7.56423e-06,0,5.86071e-06,-1.29892e+09,-1.29801e+09,-1.29902e+09,783284,0.0339617,0.1621,0,0.165619,-7626.02,-46208.4,-0,46833.5,783284
step02_gravity_refstate-mantle.xmf,402,5.55918e-07,8.24483e-06,0,6.92806e-06,-1.28397e+09,-1.28294e+09,-1.28404e+09,925936,0.0316654,0.182107,0,0.184839,-6761.14,-45747.1,-0,46244,925936
step02_gravity_refstate-mantle.xmf,403,6.38139e-07,7.65537e-06,0,5.6235e-06,-1.31404e+09,-1.31311e+09,-1.31413e+09,751581,0.0363276,0.15371,0,0.157944,-7910.82,-46675.2,-0,47340.8,751581
step02_gravity_refstate-mantle.xmf,404,2.6768e-07,9.25157e-06,0,8.39097e-06,-1.26676e+09,-1.26556e+09,-1.2668e+09,1.12145e+06,0.0283136,0.206941,0,0.208869,-5854.04,-45216.3,-0,45593.7,1.12145e+06
step02_gravity_refstate-mantle.xmf,405,7.33061e-07,7.06804e-06,0,4.61894e-06,-1.33252e+09,-1.33167e+09,-1.33262e+09,617321,0.038384,0.133585,0,0.13899,-8967.81,-47245,-0,48088.6,617321
step02_gravity_refstate-mantle.xmf,406,8.47311e-07,6.5416e-06,0,3.95681e-06,-1.3361e+09,-1.33533e+09,-1.33621e+09,528828,0.0383105,0.122926,0,0.128757,-9719.21,-47354.9,-0,48342,528828
step02_gravity_refstate-mantle.xmf,407,9.04652e-07,6.21706e-06,0,3.46589e-06,-1.34321e+09,-1.3425e+09,-1.34333e+09,463216,0.0387576,0.113688,0,0.120113,-10372.7,-47574.2,-0,48691.9,463216
step02_gravity_refstate-mantle.xmf,408,1.03292e-06,5.51489e-06,0,2.06572e-06,-1.39037e+09,-1.38977e+09,-1.39051e+09,276084,0.0422147,0.0809704,0,0.0913142,-12924.2,-49030.2,-0,50704.9,276084
step02_gravity_refstate-mantle.xmf,409,1.03404e-06,5.58016e-06,0,1.88848e-06,-1.41604e+09,-1.41543e+09,-1.41618e+09,252396,0.0443653,0.0728884,0,0.0853287,-13425.1,-49823.2,-0,51600.2,252396
step02_gravity_refstate-mantle.xmf,410,8.15352e-07,6.39513e-06,0,3.32926e-06,-1.36538e+09,-1.36463e+09,-1.36549e+09,444955,0.0413779,0.105901,0,0.113698,-10686.8,-48258.9,-0,49428,444955
step02_gravity_refstate-mantle.xmf,411,1.41212e-06,4.81236e-06,0,8.09477e-07,-1.48831e+09,-1.48786e+09,-1.4885e+09,108187,0.0464004,0.0439462,0,0.0639082,-16700.2,-52056.2,-0,54669.5,108187
step02_gravity_refstate-mantle.xmf,412,2.10253e-06,3.90355e-06,0,4.97899e-08,-1.66654e+09,-1.6663e+09,-1.66683e+09,6654.42,0.0456126,0.00970109,0,0.0466328,-21531.1,-57564.1,-0,61459.1,6654.42
step02_gravity_refstate-mantle.xmf,413,4.99447e-07,8.35216e-06,0,6.64901e-06,-1.29947e+09,-1.29842e+09,-1.29954e+09,888641,0.0344127,0.17259,0,0.175988,-7042.73,-46225.9,-0,46759.3,888641
step02_gravity_refstate-mantle.xmf,414,5.43456e-07,7.76634e-06,0,5.34298e-06,-1.33206e+09,-1.3311e+09,-1.33214e+09,714089,0.0387674,0.143876,0,0.149007,-8262.84,-47231.5,-0,47948.8,714089
step02_gravity_refstate-mantle.xmf,415,2.58098e-07,9.30309e-06,0,7.9156e-06,-1.28417e+09,-1.28296e+09,-1.28421e+09,1.05792e+06,0.0319507,0.194583,0,0.197189,-6170.93,-45754.1,-0,46168.4,1.05792e+06
step02_gravity_refstate-mantle.xmf,416,-2.35022e-07,1.07993e-05,0,9.67109e-06,-1.26768e+09,-1.26621e+09,-1.26765e+09,1.29254e+06,0.0285138,0.221734,0,0.22356,-5262,-45245.3,-0,45550.2,1.29254e+06
step02_gravity_refstate-mantle.xmf,417,-9.88497e-07,1.27347e-05,0,1.10523e-05,-1.26718e+09,-1.26535e+09,-1.26705e+09,1.47714e+06,0.0280329,0.237144,0,0.238795,-4716.44,-45229.7,-0,45475,1.47714e+06
step02_gravity_refstate-mantle.xmf,418,-2.93751e-06,1.61179e-05,0,1.38745e-05,-1.25984e+09,-1.2573e+09,-1.25945e+09,1.85433e+06,0.0249145,0.263433,0,0.264609,-4000,-44998.7,-0,45176.1,1.85433e+06
step02_gravity_refstate-mantle.xmf,419,1.17384e-06,5.3185e-06,0,1.37482e-06,-1.45315e+09,-1.4526e+09,-1.45331e+09,183744,0.0461685,0.0581786,0,0.0742717,-14802.7,-50969.9,-0,53075.9,183744
step02_gravity_refstate-mantle.xmf,420,1.03575e-06,5.63176e-06,0,1.71873e-06,-1.44015e+09,-1.43954e+09,-1.44029e+09,229708,0.0460882,0.0656898,0,0.0802451,-13885.1,-50568.1,-0,52439.8,229708
step02_gravity_refstate-mantle.xmf,421,9.12282e-07,5.99973e-06,0,2.58564e-06,-1.38953e+09,-1.38885e+09,-1.38965e+09,345571,0.0430379,0.0888606,0,0.0987343,-11979.9,-49004.5,-0,50447.6,345571
step02_gravity_refstate-mantle.xmf,422,7.46529e-07,6.54408e-06,0,3.13155e-06,-1.38939e+09,-1.38862e+09,-1.38949e+09,418532,0.0437487,0.0969302,0,0.106346,-11099.1,-49000.6,-0,50241.9,418532
step02_gravity_refstate-mantle.xmf,423,1.21054e-06,5.32438e-06,0,1.13401e-06,-1.49056e+09,-1.49001e+09,-1.49072e+09,151560,0.0481236,0.0485699,0,0.0683733,-15503.6,-52125.7,-0,54382.4,151560
step02_gravity_refstate-mantle.xmf,424,1.49915e-06,4.74813e-06,0,6.3702e-07,-1.52167e+09,-1.52123e+09,-1.52187e+09,85137.7,0.0475224,0.0365351,0,0.0599432,-17404,-53087,-0,55867.1,85137.7
step02_gravity_refstate-mantle.xmf,425,1.60467e-06,4.64739e-06,0,4.67277e-07,-1.5566e+09,-1.55619e+09,-1.55681e+09,62451.6,0.0482458,0.029361,0,0.0564777,-18143.5,-54166.5,-0,57124.4,62451.6
step02_gravity_refstate-mantle.xmf,426,1.71062e-06,4.54812e-06,0,3.24344e-07,-1.5932e+09,-1.59282e+09,-1.59343e+09,43348.6,0.0486584,0.0226087,0,0.0536544,-18848.6,-55297.4,-0,58421.6,43348.6
step02_gravity_refstate-mantle.xmf,427,1.82649e-06,4.4217e-06,0,2.00133e-07,-1.63086e+09,-1.63052e+09,-1.63111e+09,26747.8,0.0486166,0.0162176,0,0.0512502,-19578.3,-56461.5,-0,59759.6,26747.8
step02_gravity_refstate-mantle.xmf,428,1.9465e-06,4.27036e-06,0,1.0347e-07,-1.66786e+09,-1.66755e+09,-1.66812e+09,13828.7,0.0480622,0.0104445,0,0.049184,-20333.4,-57604.7,-0,61088,13828.7
step02_gravity_refstate-mantle.xmf,429,2.0799e-06,4.06544e-06,0,3.47865e-08,-1.70387e+09,-1.7036e+09,-1.70415e+09,4649.21,0.0467679,0.00526817,0,0.0470637,-21234.1,-58717.4,-0,62438.9,4649.21
step02_gravity_refstate-mantle.xmf,430,2.20117e-06,3.85999e-06,0,-6.36579e-10,-1.74538e+09,-1.74516e+09,-1.74568e+09,-85.0787,0.04492,-8.87348e-20,0,0.04492,-22194.3,-60000,-0,63973.3,85.0787
step02_gravity_refstate-mantle.xmf,431,3.95781e-07,8.53745e-06,0,6.44353e-06,-1.31535e+09,-1.31427e+09,-1.31541e+09,861178,0.0368537,0.164171,0,0.168256,-7276.25,-46716.3,-0,47279.6,861178
step02_gravity_refstate-mantle.xmf,432,2.05068e-07,9.32027e-06,0,7.49196e-06,-1.30004e+09,-1.29882e+09,-1.30007e+09,1.0013e+06,0.0347073,0.183293,0,0.18655,-6488.13,-46244.1,-0,46697,1.0013e+06
step02_gravity_refstate-mantle.xmf,433,2.42389e-07,8.66639e-06,0,6.15168e-06,-1.33212e+09,-1.331e+09,-1.33216e+09,822172,0.0390563,0.155147,0,0.159988,-7544.64,-47233.6,-0,47832.4,822172
step02_gravity_refstate-mantle.xmf,434,4.35851e-07,7.83991e-06,0,5.03483e-06,-1.35009e+09,-1.3491e+09,-1.35015e+09,672905,0.0408728,0.134304,0,0.140385,-8624.14,-47787.9,-0,48559.8,672905
step02_gravity_refstate-mantle.xmf,435,-2.13576e-07,1.07192e-05,0,9.0387e-06,-1.28453e+09,-1.28307e+09,-1.2845e+09,1.20802e+06,0.0320318,0.208102,0,0.210553,-5579.21,-45765.6,-0,46104.4,1.20802e+06
step02_gravity_refstate-mantle.xmf,436,-2.05185e-06,1.4949e-05,0,1.22991e-05,-1.26759e+09,-1.26532e+09,-1.26732e+09,1.64378e+06,0.0274559,0.249618,0,0.251124,-4300.15,-45241,-0,45444.9,1.64378e+06
step02_gravity_refstate-mantle.xmf,437,6.2522e-07,7.21487e-06,0,4.42166e-06,-1.35043e+09,-1.34955e+09,-1.35052e+09,590955,0.0405715,0.125622,0,0.132012,-9267.96,-47798.1,-0,48688.3,590955
step02_gravity_refstate-mantle.xmf,438,6.62192e-07,7.00143e-06,0,4.00312e-06,-1.36293e+09,-1.36208e+09,-1.36301e+09,535016,0.0417289,0.11617,0,0.123438,-9812.58,-48183.7,-0,49172.7,535016
step02_gravity_refstate-mantle.xmf,439,8.71708e-07,6.07474e-06,0,2.34824e-06,-1.41617e+09,-1.41548e+09,-1.41629e+09,313842,0.0452737,0.0797424,0,0.0916982,-12485.2,-49827.4,-0,51367.8,313842
step02_gravity_refstate-mantle.xmf,440,8.61093e-07,6.10115e-06,0,2.09029e-06,-1.44235e+09,-1.44165e+09,-1.44246e+09,279367,0.0470786,0.0708251,0,0.0850446,-13034,-50636,-0,52286.7,279367
step02_gravity_refstate-mantle.xmf,441,5.31383e-07,7.15558e-06,0,3.71997e-06,-1.38814e+09,-1.38725e+09,-1.38821e+09,497175,0.0441694,0.105872,0,0.114716,-10239.7,-48962,-0,50021.3,497175
step02_gravity_refstate-mantle.xmf,442,1.27382e-06,5.27483e-06,0,9.16696e-07,-1.52361e+09,-1.52308e+09,-1.52378e+09,122516,0.0493458,0.0404405,0,0.0638,-16171.7,-53147,-0,55552.9,122516
step02_gravity_refstate-mantle.xmf,443,1.56238e-07,9.27756e-06,0,7.13006e-06,-1.3126e+09,-1.31138e+09,-1.31262e+09,952932,0.0365855,0.174133,0,0.177935,-6771.99,-46631.4,-0,47120.6,952932
step02_gravity_refstate-mantle.xmf,444,1.06551e-07,8.7383e-06,0,5.78641e-06,-1.35043e+09,-1.34928e+09,-1.35045e+09,773354,0.0411114,0.144802,0,0.150525,-7890.38,-47798.5,-0,48445.4,773354
step02_gravity_refstate-mantle.xmf,445,-2.61271e-07,1.06005e-05,0,8.4288e-06,-1.30109e+09,-1.29964e+09,-1.30106e+09,1.12651e+06,0.0348558,0.194944,0,0.198036,-5917.06,-46276.6,-0,46653.4,1.12651e+06
step02_gravity_refstate-mantle.xmf,446,-1.03468e-06,1.29373e-05,0,1.0429e-05,-1.28594e+09,-1.28407e+09,-1.2858e+09,1.39384e+06,0.0318644,0.223512,0,0.225772,-4941.25,-45809.3,-0,46075,1.39384e+06
step02_gravity_refstate-mantle.xmf,447,-1.61562e-06,1.49762e-05,0,1.18537e-05,-1.28055e+09,-1.27833e+09,-1.28033e+09,1.58424e+06,0.0301671,0.240331,0,0.242217,-4407.33,-45644.2,-0,45856.5,1.58424e+06
step02_gravity_refstate-mantle.xmf,448,-3.28526e-06,1.79347e-05,0,1.27507e-05,-1.27593e+09,-1.27309e+09,-1.27549e+09,1.70413e+06,0.0282981,0.25492,0,0.256486,-4000,-45497.8,-0,45673.3,1.70413e+06
step02_gravity_refstate-mantle.xmf,449,9.18503e-07,5.98087e-06,0,1.76202e-06,-1.46746e+09,-1.46678e+09,-1.46758e+09,235494,0.0483578,0.0615593,0,0.0782817,-13757,-51411.8,-0,53220.6,235494
step02_gravity_refstate-mantle.xmf,450,6.64952e-07,6.6703e-06,0,2.88854e-06,-1.41555e+09,-1.41475e+09,-1.41564e+09,386054,0.0459472,0.0876437,0,0.0989574,-11532,-49808.4,-0,51126,386054
step02_gravity_refstate-mantle.xmf,451,4.3021e-07,7.28387e-06,0,3.44603e-06,-1.41239e+09,-1.41147e+09,-1.41245e+09,460561,0.0461574,0.0963681,0,0.106852,-10645.8,-49710.7,-0,50837.9,460561
step02_gravity_refstate-mantle.xmf,452,9.4254e-07,5.95502e-06,0,1.49429e-06,-1.497e+09,-1.49633e+09,-1.49712e+09,199712,0.0497737,0.0528605,0,0.0726062,-14356,-52324.2,-0,54257.9,199712
step02_gravity_refstate-mantle.xmf,453,9.97911e-07,5.88165e-06,0,1.22854e-06,-1.52663e+09,-1.52598e+09,-1.52676e+09,164195,0.050864,0.0445751,0,0.067632,-14981.2,-53239.9,-0,55307.5,164195
step02_gravity_refstate-mantle.xmf,454,1.35855e-06,5.19049e-06,0,7.04032e-07,-1.55793e+09,-1.55742e+09,-1.55812e+09,94093.9,0.0502255,0.0326518,0,0.0599061,-16851.5,-54207.5,-0,56766.4,94093.9
step02_gravity_refstate-mantle.xmf,455,1.46549e-06,5.07402e-06,0,5.04389e-07,-1.59359e+09,-1.59311e+09,-1.59379e+09,67411.6,0.0507486,0.0252228,0,0.0566711,-17541.4,-55309.3,-0,58024.3,67411.6
step02_gravity_refstate-mantle.xmf,456,1.58372e-06,4.93388e-06,0,3.28999e-07,-1.63062e+09,-1.63017e+09,-1.63083e+09,43970.7,0.0508797,0.0181604,0,0.0540235,-18246.9,-56453.7,-0,59329.3,43970.7
step02_gravity_refstate-mantle.xmf,457,1.71359e-06,4.76566e-06,0,1.83529e-07,-1.66817e+09,-1.66777e+09,-1.6684e+09,24528.6,0.050561,0.0116141,0,0.0518778,-18971.1,-57614,-0,60657.1,24528.6
step02_gravity_refstate-mantle.xmf,458,1.85223e-06,4.5674e-06,0,7.25286e-08,-1.70622e+09,-1.70586e+09,-1.70647e+09,9693.45,0.0497225,0.00557991,0,0.0500346,-19742.8,-58789.8,-0,62016.3,9693.45
step02_gravity_refstate-mantle.xmf,459,1.99355e-06,4.33893e-06,0,-1.66298e-09,-1.74539e+09,-1.74508e+09,-1.74566e+09,-222.257,0.0482717,-9.29798e-20,0,0.0482717,-20595.2,-60000,-0,63436.3,222.257
step02_gravity_refstate-mantle.xmf,460,3.41362e-07,7.87041e-06,0,4.6957e-06,-1.36849e+09,-1.36748e+09,-1.36853e+09,627581,0.0427375,0.124627,0,0.131751,-9016.96,-48355.6,-0,49189.1,627581
step02_gravity_refstate-mantle.xmf,461,-1.88756e-07,9.88738e-06,0,7.12003e-06,-1.33079e+09,-1.32945e+09,-1.33077e+09,951592,0.0389124,0.168565,0,0.172998,-6782.16,-47192.7,-0,47677.6,951592
step02_gravity_refstate-mantle.xmf,462,-3.24562e-07,1.04503e-05,0,7.84602e-06,-1.31735e+09,-1.31591e+09,-1.31731e+09,1.04862e+06,0.0371814,0.182362,0,0.186114,-6270.67,-46778.1,-0,47196.6,1.04862e+06
step02_gravity_refstate-mantle.xmf,463,-3.45358e-07,9.86017e-06,0,6.59883e-06,-1.35021e+09,-1.34885e+09,-1.35017e+09,881934,0.0410019,0.156354,0,0.161641,-7152.83,-47791.6,-0,48323.9,881934
step02_gravity_refstate-mantle.xmf,464,-1.37292e-08,8.75722e-06,0,5.38689e-06,-1.36929e+09,-1.36811e+09,-1.36929e+09,719958,0.0429406,0.134347,0,0.141043,-8264.45,-48380.1,-0,49080.9,719958
step02_gravity_refstate-mantle.xmf,465,-9.99152e-07,1.22802e-05,0,9.42126e-06,-1.30138e+09,-1.2996e+09,-1.30124e+09,1.25915e+06,0.0345298,0.208048,0,0.210894,-5328.16,-46284.8,-0,46590.4,1.25915e+06
step02_gravity_refstate-mantle.xmf,466,6.00998e-07,6.73782e-06,0,2.58461e-06,-1.4433e+09,-1.44248e+09,-1.44338e+09,345434,0.0478848,0.077839,0,0.0913885,-12032.5,-50665.4,-0,52074.6,345434
step02_gravity_refstate-mantle.xmf,467,5.99795e-07,6.70175e-06,0,2.23529e-06,-1.47102e+09,-1.47021e+09,-1.4711e+09,298746,0.0494471,0.0677864,0,0.0839048,-12640,-51521.6,-0,53049.4,298746
step02_gravity_refstate-mantle.xmf,468,2.49625e-07,7.90145e-06,0,4.34812e-06,-1.38845e+09,-1.38743e+09,-1.38848e+09,581127,0.0445162,0.114826,0,0.123153,-9424.48,-48971.6,-0,49870.2,581127
step02_gravity_refstate-mantle.xmf,469,1.4988e-07,7.95281e-06,0,4.00615e-06,-1.40986e+09,-1.40882e+09,-1.40988e+09,535421,0.046191,0.105147,0,0.114846,-9827.45,-49632.5,-0,50596.1,535421
step02_gravity_refstate-mantle.xmf,470,1.0627e-06,5.79884e-06,0,9.69477e-07,-1.55923e+09,-1.5586e+09,-1.55937e+09,129571,0.0517845,0.0362979,0,0.063239,-15617,-54247.1,-0,56450.4,129571
step02_gravity_refstate-mantle.xmf,471,-4.7605e-07,9.79795e-06,0,6.09213e-06,-1.36932e+09,-1.36795e+09,-1.36925e+09,814214,0.042768,0.144767,0,0.150953,-7529.07,-48380.7,-0,48963,814214
step02_gravity_refstate-mantle.xmf,472,-1.00749e-06,1.19878e-05,0,8.69762e-06,-1.3188e+09,-1.31706e+09,-1.31866e+09,1.16244e+06,0.0369493,0.193867,0,0.197357,-5677.74,-46822.2,-0,47165.2,1.16244e+06
step02_gravity_refstate-mantle.xmf,473,-2.57524e-06,1.57216e-05,0,1.1201e-05,-1.2945e+09,-1.29206e+09,-1.29416e+09,1.49702e+06,0.0322591,0.231629,0,0.233865,-4487.34,-46070.8,-0,46288.8,1.49702e+06
step02_gravity_refstate-mantle.xmf,474,-2.08842e-06,1.45026e-05,0,1.01993e-05,-1.30588e+09,-1.30366e+09,-1.3056e+09,1.36314e+06,0.0342621,0.218422,0,0.221092,-4807.95,-46422.3,-0,46670.6,1.36314e+06
step02_gravity_refstate-mantle.xmf,475,-4.89432e-06,1.86155e-05,0,1.19544e-05,-1.29248e+09,-1.28933e+09,-1.29182e+09,1.59771e+06,0.0303264,0.245557,0,0.247423,-4000,-46000,-0,46173.6,1.59771e+06
step02_gravity_refstate-mantle.xmf,476,6.23026e-07,6.63506e-06,0,1.89587e-06,-1.49916e+09,-1.49835e+09,-1.49924e+09,253383,0.0507645,0.0582825,0,0.0772909,-13250.2,-52390.6,-0,54040.2,253383
step02_gravity_refstate-mantle.xmf,477,6.20784e-08,7.99778e-06,0,3.69811e-06,-1.42945e+09,-1.42838e+09,-1.42945e+09,494253,0.0475422,0.0967943,0,0.10784,-10180.5,-50237,-0,51258.1,494253
step02_gravity_refstate-mantle.xmf,478,2.57073e-07,7.54741e-06,0,3.19485e-06,-1.44255e+09,-1.44158e+09,-1.44259e+09,426992,0.0482919,0.0867136,0,0.099254,-10949.6,-50642,-0,51812.2,426992
step02_gravity_refstate-mantle.xmf,479,6.57418e-07,6.5698e-06,0,1.57299e-06,-1.52917e+09,-1.52838e+09,-1.52925e+09,210230,0.051935,0.0491348,0,0.0714945,-13838.9,-53317.7,-0,55084.4,210230
step02_gravity_refstate-mantle.xmf,480,7.14455e-07,6.483e-06,0,1.26261e-06,-1.56053e+09,-1.55976e+09,-1.56062e+09,168748,0.0529002,0.040317,0,0.0665123,-14425.5,-54286.6,-0,56170.5,168748
step02_gravity_refstate-mantle.xmf,481,1.15389e-06,5.68681e-06,0,7.20722e-07,-1.59379e+09,-1.59318e+09,-1.59394e+09,96324.5,0.0524393,0.0282601,0,0.0595695,-16258.9,-55314.8,-0,57654.8,96324.5
step02_gravity_refstate-mantle.xmf,482,1.28051e-06,5.53018e-06,0,4.86682e-07,-1.63021e+09,-1.62964e+09,-1.63038e+09,65045.1,0.0527463,0.0204517,0,0.0565725,-16935.2,-56440.3,-0,58926.3,65045.1
step02_gravity_refstate-mantle.xmf,483,1.42118e-06,5.34137e-06,0,2.86429e-07,-1.66727e+09,-1.66675e+09,-1.66746e+09,38281.2,0.0526428,0.0131773,0,0.0542669,-17631.7,-57585.8,-0,60224.6,38281.2
step02_gravity_refstate-mantle.xmf,484,1.56364e-06,5.1468e-06,0,1.21094e-07,-1.70656e+09,-1.70608e+09,-1.70677e+09,16184.2,0.0521735,0.00623417,0,0.0525447,-18309.4,-58799.7,-0,61584.4,16184.2
step02_gravity_refstate-mantle.xmf,485,1.72078e-06,4.90766e-06,0,-2.40543e-09,-1.7454e+09,-1.74497e+09,-1.74563e+09,-321.485,0.0511326,-1.01696e-19,0,0.0511326,-19054.5,-60000,-0,62952.9,321.485
step02_gravity_refstate-mantle.xmf,486,-1.30234e-07,8.77791e-06,0,4.98875e-06,-1.38916e+09,-1.38796e+09,-1.38914e+09,666746,0.0446222,0.124013,0,0.131796,-8643.82,-48993.1,-0,49749.8,666746
step02_gravity_refstate-mantle.xmf,487,-1.05275e-06,1.1691e-05,0,8.01778e-06,-1.33596e+09,-1.33425e+09,-1.33582e+09,1.07158e+06,0.0389601,0.180582,0,0.184737,-6033.9,-47351.1,-0,47734,1.07158e+06
step02_gravity_refstate-mantle.xmf,488,-1.00605e-06,1.12709e-05,0,7.36488e-06,-1.35191e+09,-1.35027e+09,-1.35178e+09,984317,0.0406606,0.167555,0,0.172418,-6446.33,-47843.1,-0,48275.5,984317
step02_gravity_refstate-mantle.xmf,489,-1.07322e-06,1.10612e-05,0,6.78166e-06,-1.37e+09,-1.36838e+09,-1.36985e+09,906369,0.0422648,0.155304,0,0.160953,-6816.79,-48400.9,-0,48878.6,906369
step02_gravity_refstate-mantle.xmf,490,-5.90504e-07,9.75809e-06,0,5.61548e-06,-1.38923e+09,-1.38785e+09,-1.38915e+09,750509,0.0443647,0.133527,0,0.140705,-7903.4,-48995,-0,49628.3,750509
step02_gravity_refstate-mantle.xmf,491,-1.99929e-06,1.38644e-05,0,9.39279e-06,-1.32029e+09,-1.31817e+09,-1.32003e+09,1.25535e+06,0.0362207,0.205608,0,0.208774,-5096.68,-46866.6,-0,47142.9,1.25535e+06
step02_gravity_refstate-mantle.xmf,492,-3.51465e-06,1.70475e-05,0,1.06016e-05,-1.30727e+09,-1.30452e+09,-1.3068e+09,1.41691e+06,0.0328613,0.230763,0,0.233091,-4265.77,-46462.2,-0,46657.6,1.41691e+06
step02_gravity_refstate-mantle.xmf,493,2.31069e-07,7.41363e-06,0,2.32513e-06,-1.50121e+09,-1.50025e+09,-1.50124e+09,310753,0.0513288,0.0641829,0,0.0821833,-12173.4,-52453.4,-0,53847.4,310753
step02_gravity_refstate-mantle.xmf,494,2.25919e-07,7.48553e-06,0,2.72353e-06,-1.47319e+09,-1.47222e+09,-1.47322e+09,363999,0.0500051,0.0744895,0,0.0897173,-11599.1,-51587.9,-0,52875.9,363999
step02_gravity_refstate-mantle.xmf,495,-2.49951e-07,8.82457e-06,0,4.59663e-06,-1.41078e+09,-1.40956e+09,-1.41074e+09,614340,0.0462137,0.113723,0,0.122754,-9016.28,-49660.3,-0,50472.2,614340
step02_gravity_refstate-mantle.xmf,496,-3.21783e-07,8.80277e-06,0,4.1849e-06,-1.43218e+09,-1.43096e+09,-1.43214e+09,559311,0.0476112,0.103462,0,0.113891,-9431.27,-50320.9,-0,51197.1,559311
step02_gravity_refstate-mantle.xmf,497,7.90439e-07,6.36797e-06,0,9.60613e-07,-1.59397e+09,-1.59322e+09,-1.59407e+09,128386,0.0536468,0.0316223,0,0.0622732,-15032.1,-55319.7,-0,57325.7,128386
step02_gravity_refstate-mantle.xmf,498,-1.16801e-06,1.0898e-05,0,6.22386e-06,-1.389e+09,-1.38739e+09,-1.38885e+09,831819,0.0437211,0.143525,0,0.150037,-7178.78,-48986.9,-0,49510.1,831819
step02_gravity_refstate-mantle.xmf,499,-1.9203e-06,1.34003e-05,0,8.70357e-06,-1.3368e+09,-1.33475e+09,-1.33655e+09,1.16323e+06,0.0381085,0.192042,0,0.195787,-5419.94,-47375.8,-0,47684.8,1.16323e+06
step02_gravity_refstate-mantle.xmf,500,-3.17763e-06,1.61091e-05,0,9.90476e-06,-1.32173e+09,-1.31915e+09,-1.3213e+09,1.32377e+06,0.0349047,0.216983,0,0.219773,-4545.15,-46908.7,-0,47128.3,1.32377e+06
step02_gravity_refstate-mantle.xmf,501,2.57916e-07,7.32956e-06,0,1.94499e-06,-1.53033e+09,-1.52938e+09,-1.53036e+09,259948,0.0524884,0.0543286,0,0.0755422,-12738.1,-53352.8,-0,54852.3,259948
step02_gravity_refstate-mantle.xmf,502,-2.95608e-07,8.58227e-06,0,3.70523e-06,-1.45179e+09,-1.4506e+09,-1.45175e+09,495204,0.0488176,0.0929069,0,0.104952,-9983.75,-50926.3,-0,51895.7,495204
step02_gravity_refstate-mantle.xmf,503,3.00048e-07,7.24296e-06,0,1.57975e-06,-1.5613e+09,-1.56038e+09,-1.56134e+09,211133,0.0535062,0.0447567,0,0.0697572,-13285.4,-54309.8,-0,55911.1,211133
step02_gravity_refstate-mantle.xmf,504,3.74668e-07,7.12261e-06,0,1.22596e-06,-1.59358e+09,-1.59268e+09,-1.59363e+09,163849,0.054332,0.0354584,0,0.0648789,-13843.6,-55307.1,-0,57013.3,163849
step02_gravity_refstate-mantle.xmf,505,8.98729e-07,6.22353e-06,0,6.69046e-07,-1.63033e+09,-1.62962e+09,-1.63045e+09,89418,0.0541576,0.0229798,0,0.0588312,-15647.8,-56443.4,-0,58572.2,89418
step02_gravity_refstate-mantle.xmf,506,1.0445e-06,6.03747e-06,0,4.04229e-07,-1.66813e+09,-1.66746e+09,-1.66827e+09,54025.3,0.054331,0.0147273,0,0.0562917,-16273.9,-57611.4,-0,59865.8,54025.3
step02_gravity_refstate-mantle.xmf,507,1.19831e-06,5.82934e-06,0,1.75048e-07,-1.70771e+09,-1.70709e+09,-1.70787e+09,23395.2,0.0541315,0.00685151,0,0.0545634,-16898.9,-58834.5,-0,61213.4,23395.2
step02_gravity_refstate-mantle.xmf,508,1.37474e-06,5.57199e-06,0,-2.92613e-09,-1.74542e+09,-1.74486e+09,-1.7456e+09,-391.077,0.0534346,-1.10083e-19,0,0.0534346,-17567.7,-60000,-0,62519,391.077
step02_gravity_refstate-mantle.xmf,509,-7.11919e-07,9.75622e-06,0,5.16125e-06,-1.41078e+09,-1.40938e+09,-1.41068e+09,689801,0.0458527,0.122423,0,0.130728,-8268.56,-49659.7,-0,50343.4,689801
step02_gravity_refstate-mantle.xmf,510,-1.88133e-06,1.29415e-05,0,8.01987e-06,-1.35362e+09,-1.35164e+09,-1.35337e+09,1.07186e+06,0.0397847,0.178786,0,0.183159,-5766.2,-47894.3,-0,48240.2,1.07186e+06
step02_gravity_refstate-mantle.xmf,511,-1.84624e-06,1.25298e-05,0,7.3831e-06,-1.37069e+09,-1.36877e+09,-1.37045e+09,986751,0.0412919,0.165982,0,0.171041,-6127.4,-48421,-0,48807.1,986751
step02_gravity_refstate-mantle.xmf,512,-1.86779e-06,1.22345e-05,0,6.77666e-06,-1.38929e+09,-1.3874e+09,-1.38904e+09,905701,0.0426732,0.153499,0,0.15932,-6478.2,-48994.4,-0,49420.9,905701
step02_gravity_refstate-mantle.xmf,513,-1.24143e-06,1.07917e-05,0,5.72098e-06,-1.40894e+09,-1.40733e+09,-1.40877e+09,764609,0.0450504,0.132093,0,0.139564,-7534.35,-49602,-0,50170.9,764609
step02_gravity_refstate-mantle.xmf,514,-5.23045e-06,2.0151e-05,0,1.07166e-05,-1.30704e+09,-1.30365e+09,-1.30634e+09,1.43227e+06,0.0305937,0.243411,0,0.245326,-3748.01,-46451.5,-0,46602.5,1.43227e+06
step02_gravity_refstate-mantle.xmf,515,-3.01758e-06,1.53156e-05,0,9.14072e-06,-1.3374e+09,-1.33495e+09,-1.33699e+09,1.22166e+06,0.036699,0.203391,0,0.206675,-4833.68,-47391.7,-0,47637.6,1.22166e+06
step02_gravity_refstate-mantle.xmf,516,-4.5835e-06,1.86241e-05,0,1.00572e-05,-1.32204e+09,-1.31894e+09,-1.32143e+09,1.34415e+06,0.0328074,0.22876,0,0.2311,-4000.58,-46915.3,-0,47085.6,1.34415e+06
step02_gravity_refstate-mantle.xmf,517,-6.13935e-06,2.24369e-05,0,1.06103e-05,-1.29243e+09,-1.28861e+09,-1.29161e+09,1.41807e+06,0.0275432,0.259218,0,0.260677,-3497.18,-46000,-0,46132.7,1.41807e+06
step02_gravity_refstate-mantle.xmf,518,-2.41191e-07,8.39788e-06,0,3.22785e-06,-1.47558e+09,-1.47442e+09,-1.47555e+09,431403,0.050114,0.0816323,0,0.0957875,-10578.8,-51661,-0,52733,431403
step02_gravity_refstate-mantle.xmf,519,-2.05938e-07,8.16897e-06,0,2.33328e-06,-1.53083e+09,-1.52972e+09,-1.53081e+09,311843,0.0525331,0.0600266,0,0.0797679,-11676.4,-53367.5,-0,54629.9,311843
step02_gravity_refstate-mantle.xmf,520,-2.33026e-07,8.28253e-06,0,2.76741e-06,-1.50274e+09,-1.5016e+09,-1.50271e+09,369864,0.0513922,0.0705461,0,0.0872806,-11136.4,-52499.8,-0,53667.9,369864
step02_gravity_refstate-mantle.xmf,521,-9.45108e-07,9.96005e-06,0,4.74423e-06,-1.43604e+09,-1.43459e+09,-1.43592e+09,634066,0.04722,0.111874,0,0.121431,-8520.5,-50439.1,-0,51153.7,634066
step02_gravity_refstate-mantle.xmf,522,-8.66638e-07,9.6693e-06,0,4.22147e-06,-1.4561e+09,-1.45469e+09,-1.45598e+09,564199,0.0484737,0.100323,0,0.11142,-9059.39,-51058.4,-0,51855.9,564199
step02_gravity_refstate-mantle.xmf,523,4.67571e-07,6.97725e-06,0,8.78431e-07,-1.62868e+09,-1.62781e+09,-1.62874e+09,117402,0.0549717,0.0261426,0,0.0608714,-14416.4,-56391.4,-0,58205,117402
step02_gravity_refstate-mantle.xmf,524,-1.8964e-06,1.19722e-05,0,6.2256e-06,-1.4071e+09,-1.40524e+09,-1.40684e+09,832051,0.0438605,0.142172,0,0.148784,-6812.92,-49543.7,-0,50009.9,832051
step02_gravity_refstate-mantle.xmf,525,-2.87389e-06,1.47331e-05,0,8.49182e-06,-1.35409e+09,-1.35174e+09,-1.35371e+09,1.13493e+06,0.0383189,0.189819,0,0.193648,-5141.58,-47906.9,-0,48182,1.13493e+06
step02_gravity_refstate-mantle.xmf,526,-4.23945e-06,1.75456e-05,0,9.38686e-06,-1.33753e+09,-1.33462e+09,-1.33697e+09,1.25455e+06,0.0346545,0.214639,0,0.217418,-4267.07,-47393.5,-0,47585.2,1.25455e+06
step02_gravity_refstate-mantle.xmf,527,-6.84385e-06,2.31752e-05,0,9.55829e-06,-1.30665e+09,-1.30264e+09,-1.30574e+09,1.27747e+06,0.0273612,0.25592,0,0.257379,-3218.79,-46436.5,-0,46547.9,1.27747e+06
step02_gravity_refstate-mantle.xmf,528,-7.06556e-06,2.48292e-05,0,8.91786e-06,-1.29243e+09,-1.28817e+09,-1.29149e+09,1.19187e+06,0.0242562,0.271262,0,0.272344,-2997.53,-46000,-0,46097.6,1.19187e+06
step02_gravity_refstate-mantle.xmf,529,-7.58565e-06,2.64887e-05,0,7.34789e-06,-1.29241e+09,-1.28785e+09,-1.29139e+09,982045,0.0206088,0.28145,0,0.282204,-2497.35,-46000,-0,46067.7,982045
step02_gravity_refstate-mantle.xmf,530,-7.7335e-06,2.52747e-05,0,7.94965e-06,-1.30551e+09,-1.3011e+09,-1.30447e+09,1.06247e+06,0.0234332,0.267442,0,0.268467,-2693.41,-46400.6,-0,46478.7,1.06247e+06
step02_gravity_refstate-mantle.xmf,531,-1.70756e-07,8.06775e-06,0,1.91566e-06,-1.56095e+09,-1.55984e+09,-1.56092e+09,256028,0.0535645,0.049772,0,0.0731191,-12191.7,-54297.6,-0,55649.5,256028
step02_gravity_refstate-mantle.xmf,532,-8.25906e-07,9.4149e-06,0,3.69085e-06,-1.47863e+09,-1.47726e+09,-1.47852e+09,493282,0.0497215,0.0887225,0,0.101705,-9610.52,-51753.9,-0,52638.6,493282
step02_gravity_refstate-mantle.xmf,533,-1.11616e-07,7.95267e-06,0,1.5093e-06,-1.59282e+09,-1.59174e+09,-1.59281e+09,201718,0.0544619,0.0397161,0,0.0674053,-12700.4,-55282.3,-0,56722.4,201718
step02_gravity_refstate-mantle.xmf,534,-1.43318e-08,7.79815e-06,0,1.10782e-06,-1.62674e+09,-1.6257e+09,-1.62674e+09,148060,0.0552073,0.029715,0,0.0626963,-13229.9,-56330.4,-0,57863.2,148060
step02_gravity_refstate-mantle.xmf,535,5.90423e-07,6.81545e-06,0,5.46303e-07,-1.66723e+09,-1.6664e+09,-1.66731e+09,73013.4,0.0553879,0.0168085,0,0.0578822,-14970.1,-57582.6,-0,59496.7,73013.4
step02_gravity_refstate-mantle.xmf,536,7.57122e-07,6.60169e-06,0,2.40795e-07,-1.70766e+09,-1.70688e+09,-1.70776e+09,32182.3,0.0554656,0.00777499,0,0.0560079,-15534,-58832,-0,60848.3,32182.3
step02_gravity_refstate-mantle.xmf,537,9.47787e-07,6.33749e-06,0,-3.56356e-09,-1.74545e+09,-1.74473e+09,-1.74558e+09,-476.27,0.055106,-1.22425e-19,0,0.055106,-16130.3,-60000,-0,62130.4,476.27
step02_gravity_refstate-mantle.xmf,538,-1.65149e-06,1.12484e-05,0,5.31999e-06,-1.43547e+09,-1.43375e+09,-1.43525e+09,711017,0.0460119,0.122258,0,0.130629,-7602.48,-50420,-0,50989.9,711017
step02_gravity_refstate-mantle.xmf,539,-2.77826e-06,1.41805e-05,0,7.82877e-06,-1.37143e+09,-1.36916e+09,-1.37105e+09,1.04632e+06,0.0397949,0.176447,0,0.180879,-5469.56,-48441.6,-0,48749.4,1.04632e+06
step02_gravity_refstate-mantle.xmf,540,-2.71062e-06,1.37203e-05,0,7.20919e-06,-1.38914e+09,-1.38695e+09,-1.38878e+09,963508,0.0411155,0.163644,0,0.16873,-5800.07,-48988.1,-0,49330.2,963508
step02_gravity_refstate-mantle.xmf,541,-2.66115e-06,1.3339e-05,0,6.63927e-06,-1.40684e+09,-1.4047e+09,-1.40648e+09,887339,0.0422895,0.151623,0,0.15741,-6124.19,-49534,-0,49911.2,887339
step02_gravity_refstate-mantle.xmf,542,-1.88565e-06,1.17833e-05,0,5.78784e-06,-1.42311e+09,-1.42128e+09,-1.42286e+09,773545,0.044853,0.132379,0,0.139771,-7119.01,-50037.9,-0,50541.8,773545
step02_gravity_refstate-mantle.xmf,543,-6.17089e-06,2.1356e-05,0,9.56523e-06,-1.3217e+09,-1.31803e+09,-1.32088e+09,1.27839e+06,0.0298871,0.240507,0,0.242357,-3460.56,-46901.4,-0,47028.9,1.27839e+06
step02_gravity_refstate-mantle.xmf,544,-4.02663e-06,1.66349e-05,0,8.67806e-06,-1.35397e+09,-1.35121e+09,-1.35343e+09,1.15982e+06,0.0362641,0.200732,0,0.203981,-4545.47,-47900.3,-0,48115.5,1.15982e+06
step02_gravity_refstate-mantle.xmf,545,-5.61505e-06,1.98853e-05,0,9.17396e-06,-1.33717e+09,-1.33377e+09,-1.33642e+09,1.2261e+06,0.0319166,0.225705,0,0.227951,-3713.55,-47379.2,-0,47524.5,1.2261e+06
step02_gravity_refstate-mantle.xmf,546,-8.148e-06,2.66357e-05,0,6.6003e-06,-1.30287e+09,-1.29822e+09,-1.30178e+09,882130,0.0197085,0.277163,0,0.277862,-2252.36,-46319.7,-0,46374.5,882130
step02_gravity_refstate-mantle.xmf,547,-7.9828e-06,2.76596e-05,0,5.80495e-06,-1.29239e+09,-1.28763e+09,-1.29133e+09,775831,0.016717,0.289745,0,0.290226,-1997.54,-46000,-0,46043.4,775831
step02_gravity_refstate-mantle.xmf,548,-7.85318e-07,9.25883e-06,0,3.19805e-06,-1.50457e+09,-1.50323e+09,-1.50446e+09,427420,0.0509404,0.0771379,0,0.0924402,-10132,-52555.1,-0,53522.8,427420
step02_gravity_refstate-mantle.xmf,549,-6.97429e-07,8.95621e-06,0,2.25255e-06,-1.56029e+09,-1.559e+09,-1.5602e+09,301053,0.0530937,0.0551343,0,0.0765424,-11147.8,-54276.2,-0,55409.2,301053
step02_gravity_refstate-mantle.xmf,550,-7.49106e-07,9.10512e-06,0,2.71372e-06,-1.53189e+09,-1.53057e+09,-1.53179e+09,362688,0.0520709,0.0659096,0,0.0839967,-10647.4,-53398.9,-0,54450,362688
step02_gravity_refstate-mantle.xmf,551,-1.57245e-06,1.08948e-05,0,4.70202e-06,-1.45856e+09,-1.45689e+09,-1.45835e+09,628425,0.0474121,0.108698,0,0.118589,-8131.44,-51132.8,-0,51775.3,628425
step02_gravity_refstate-mantle.xmf,552,-1.49169e-06,1.05887e-05,0,4.14045e-06,-1.48144e+09,-1.47982e+09,-1.48124e+09,553371,0.0486874,0.0962203,0,0.107837,-8648.19,-51839.3,-0,52555.7,553371
step02_gravity_refstate-mantle.xmf,553,1.30346e-07,7.58194e-06,0,7.36635e-07,-1.66076e+09,-1.65977e+09,-1.66078e+09,98451.2,0.0557247,0.0202779,0,0.0592996,-13802.1,-57381.8,-0,59018.3,98451.2
step02_gravity_refstate-mantle.xmf,554,-2.63752e-06,1.30056e-05,0,6.10448e-06,-1.42407e+09,-1.42198e+09,-1.42372e+09,815864,0.0433267,0.140553,0,0.14708,-6434.63,-50065.7,-0,50477.5,815864
step02_gravity_refstate-mantle.xmf,555,-3.83762e-06,1.59795e-05,0,8.07674e-06,-1.3714e+09,-1.36875e+09,-1.37089e+09,1.07946e+06,0.0376953,0.186974,0,0.190736,-4834.96,-48438.4,-0,48679.1,1.07946e+06
step02_gravity_refstate-mantle.xmf,556,-5.24152e-06,1.87582e-05,0,8.6393e-06,-1.35352e+09,-1.35031e+09,-1.35282e+09,1.15464e+06,0.0335896,0.211341,0,0.213994,-3968.48,-47883.6,-0,48047.8,1.15464e+06
step02_gravity_refstate-mantle.xmf,557,-7.53294e-06,2.38693e-05,0,8.32359e-06,-1.3207e+09,-1.31651e+09,-1.3197e+09,1.11245e+06,0.0259226,0.25238,0,0.253707,-2889.28,-46867.7,-0,46956.7,1.11245e+06
step02_gravity_refstate-mantle.xmf,558,-8.44461e-06,2.59088e-05,0,6.59852e-06,-1.31814e+09,-1.31355e+09,-1.31701e+09,881892,0.0207993,0.264685,0,0.265501,-2264.64,-46787.7,-0,46842.5,881892
step02_gravity_refstate-mantle.xmf,559,-8.59023e-06,2.74797e-05,0,5.24971e-06,-1.30561e+09,-1.30079e+09,-1.30446e+09,701624,0.0161379,0.281272,0,0.281735,-1802.53,-46403.7,-0,46438.7,701624
step02_gravity_refstate-mantle.xmf,560,-8.25354e-06,2.84961e-05,0,4.30805e-06,-1.29238e+09,-1.28747e+09,-1.29128e+09,575772,0.0126628,0.296158,0,0.296429,-1498.34,-46000,-0,46024.4,575772
step02_gravity_refstate-mantle.xmf,561,-6.50904e-07,8.84101e-06,0,1.80977e-06,-1.59072e+09,-1.58945e+09,-1.59063e+09,241875,0.0539993,0.0446405,0,0.0700621,-11601.8,-55216,-0,56421.7,241875
step02_gravity_refstate-mantle.xmf,562,-1.4427e-06,1.03274e-05,0,3.58564e-06,-1.5061e+09,-1.50453e+09,-1.50591e+09,479220,0.0498947,0.0840429,0,0.0977378,-9155.64,-52600.8,-0,53391.6,479220
step02_gravity_refstate-mantle.xmf,563,-5.84803e-07,8.7198e-06,0,1.37228e-06,-1.62337e+09,-1.62213e+09,-1.62329e+09,183406,0.0547974,0.0341483,0,0.0645668,-12042.6,-56224.9,-0,57500.1,183406
step02_gravity_refstate-mantle.xmf,564,-4.37698e-07,8.50202e-06,0,9.53876e-07,-1.65583e+09,-1.65464e+09,-1.65577e+09,127486,0.0554777,0.0240993,0,0.060486,-12558.6,-57228,-0,58589.7,127486
step02_gravity_refstate-mantle.xmf,565,1.67032e-07,7.58936e-06,0,3.6529e-07,-1.70316e+09,-1.70216e+09,-1.70318e+09,48821,0.0561269,0.0100047,0,0.0570116,-14035.4,-58691.5,-0,60346.4,48821
step02_gravity_refstate-mantle.xmf,566,4.3635e-07,7.2047e-06,0,-5.6691e-09,-1.74549e+09,-1.74458e+09,-1.74555e+09,-757.675,0.0560727,-1.65393e-19,0,0.0560727,-14737.8,-60000,-0,61783.5,757.675
step02_gravity_refstate-mantle.xmf,567,-2.48437e-06,1.26126e-05,0,5.65549e-06,-1.43947e+09,-1.43746e+09,-1.43914e+09,755856,0.0444367,0.12997,0,0.137357,-6807.19,-50541.5,-0,50997.9,755856
step02_gravity_refstate-mantle.xmf,568,-3.6886e-06,1.53533e-05,0,7.45305e-06,-1.38939e+09,-1.38685e+09,-1.3889e+09,996100,0.0390201,0.173436,0,0.177771,-5144.17,-48993.4,-0,49262.8,996100
step02_gravity_refstate-mantle.xmf,569,-3.55716e-06,1.48145e-05,0,6.87305e-06,-1.4073e+09,-1.40484e+09,-1.40682e+09,918583,0.0402249,0.160596,0,0.165557,-5459.04,-49546,-0,49845.8,918583
step02_gravity_refstate-mantle.xmf,570,-3.44382e-06,1.43667e-05,0,6.35634e-06,-1.42432e+09,-1.42194e+09,-1.42386e+09,849525,0.0412901,0.148946,0,0.154563,-5762.74,-50071.4,-0,50402,849525
step02_gravity_refstate-mantle.xmf,571,-6.99815e-06,2.2228e-05,0,8.39061e-06,-1.33656e+09,-1.33265e+09,-1.33562e+09,1.12141e+06,0.02832,0.236587,0,0.238276,-3145.59,-47356.9,-0,47461.3,1.12141e+06
step02_gravity_refstate-mantle.xmf,572,-4.98998e-06,1.78007e-05,0,8.01925e-06,-1.37078e+09,-1.36774e+09,-1.37012e+09,1.07177e+06,0.0350274,0.197234,0,0.20032,-4229.87,-48416.2,-0,48600.6,1.07177e+06
step02_gravity_refstate-mantle.xmf,573,-6.50536e-06,2.08398e-05,0,8.14778e-06,-1.35283e+09,-1.34917e+09,-1.35196e+09,1.08895e+06,0.0302443,0.221518,0,0.223573,-3399.8,-47859.1,-0,47979.7,1.08895e+06
step02_gravity_refstate-mantle.xmf,574,-8.83829e-06,2.8335e-05,0,3.64047e-06,-1.3044e+09,-1.29943e+09,-1.30322e+09,486549,0.0113418,0.288088,0,0.288311,-1260.22,-46366.9,-0,46384.1,486549
step02_gravity_refstate-mantle.xmf,575,2.97974e-06,-3.44627e-06,0,-9.76831e-06,-1.09836e+09,-1.09922e+09,-1.09876e+09,-1.30554e+06,0.0362255,0.294327,0,0.296548,4000,-40000,0,40199.5,1.30554e+06
step02_gravity_refstate-mantle.xmf,576,2.03577e-06,-1.92599e-06,0,-1.21459e-05,-1.1147e+09,-1.11523e+09,-1.11497e+09,-1.6233e+06,0.0283,0.295756,0,0.297107,4000,-40502.2,0,40699.2,1.6233e+06
step02_gravity_refstate-mantle.xmf,577,9.06915e-07,-8.26035e-07,0,-1.01516e-05,-1.10988e+09,-1.11011e+09,-1.11e+09,-1.35676e+06,0.0312035,0.282413,0,0.284132,4349.11,-40348.6,0,40582.3,1.35676e+06
step02_gravity_refstate-mantle.xmf,578,-7.92097e-09,-6.35949e-07,0,-8.39119e-06,-1.09877e+09,-1.09886e+09,-1.09877e+09,-1.12148e+06,0.0369952,0.276458,0,0.278922,4512.49,-40000,0,40253.7,1.12148e+06
step02_gravity_refstate-mantle.xmf,579,-2.37275e-06,1.22206e-05,0,5.0964e-06,-1.45984e+09,-1.45789e+09,-1.45952e+09,681133,0.0456722,0.117419,0,0.125989,-7239.94,-51170.4,-0,51680,681133
step02_gravity_refstate-mantle.xmf,580,-1.36568e-06,1.01245e-05,0,3.07355e-06,-1.53256e+09,-1.53103e+09,-1.53238e+09,410780,0.0510284,0.072137,0,0.0883609,-9649.84,-53418.1,-0,54282.7,410780
step02_gravity_refstate-mantle.xmf,581,-1.23202e-06,9.77252e-06,0,2.10363e-06,-1.58836e+09,-1.58689e+09,-1.5882e+09,281150,0.0529881,0.0498729,0,0.072767,-10565.2,-55141.9,-0,56144.9,281150
step02_gravity_refstate-mantle.xmf,582,-1.29739e-06,9.93234e-06,0,2.57706e-06,-1.55985e+09,-1.55835e+09,-1.55967e+09,344424,0.0520657,0.0607814,0,0.0800326,-10126,-54261,-0,55197.7,344424
step02_gravity_refstate-mantle.xmf,583,-2.26648e-06,1.1855e-05,0,4.51496e-06,-1.48292e+09,-1.48103e+09,-1.48261e+09,603425,0.0469457,0.104231,0,0.114316,-7711.05,-51883,-0,52452.9,603425
step02_gravity_refstate-mantle.xmf,584,-2.15351e-06,1.15109e-05,0,3.93948e-06,-1.50739e+09,-1.50556e+09,-1.5071e+09,526511,0.0482065,0.0911572,0,0.103119,-8204.05,-52638.8,-0,53274.3,526511
step02_gravity_refstate-mantle.xmf,585,-2.24147e-07,8.18583e-06,0,6.16657e-07,-1.68314e+09,-1.68201e+09,-1.68311e+09,82416.3,0.0559421,0.0159795,0,0.0581795,-13133.5,-58072,-0,59538.6,82416.3
step02_gravity_refstate-mantle.xmf,586,-3.33469e-06,1.39124e-05,0,5.83052e-06,-1.44175e+09,-1.43944e+09,-1.4413e+09,779250,0.0423571,0.137412,0,0.143792,-6088.22,-50609.4,-0,50974.3,779250
step02_gravity_refstate-mantle.xmf,587,-4.75936e-06,1.70888e-05,0,7.47592e-06,-1.38911e+09,-1.38619e+09,-1.38847e+09,999156,0.0363136,0.183181,0,0.186746,-4502.9,-48981.9,-0,49188.5,999156
step02_gravity_refstate-mantle.xmf,588,-6.1053e-06,1.97018e-05,0,7.76133e-06,-1.36936e+09,-1.36591e+09,-1.36855e+09,1.0373e+06,0.0318368,0.207185,0,0.209617,-3653.27,-48369.8,-0,48507.5,1.0373e+06
step02_gravity_refstate-mantle.xmf,589,-8.14361e-06,2.42864e-05,0,7.09346e-06,-1.33555e+09,-1.33121e+09,-1.33446e+09,948041,0.0238065,0.246989,0,0.248133,-2552.67,-47323.2,-0,47392,948041
step02_gravity_refstate-mantle.xmf,590,-8.46246e-06,2.90517e-05,0,2.84551e-06,-1.29238e+09,-1.28737e+09,-1.29125e+09,380303,0.00850203,0.30072,0,0.30084,-999.46,-46000,-0,46010.9,380303
step02_gravity_refstate-mantle.xmf,591,-8.56051e-06,2.93701e-05,0,1.41682e-06,-1.29238e+09,-1.28731e+09,-1.29123e+09,189358,0.00426945,0.303454,0,0.303484,-500.036,-46000,-0,46002.7,189358
step02_gravity_refstate-mantle.xmf,592,-9.0789e-06,2.8763e-05,0,2.18874e-06,-1.30544e+09,-1.30039e+09,-1.30423e+09,292525,0.00693096,0.290693,0,0.290776,-762.442,-46398.6,-0,46404.9,292525
step02_gravity_refstate-mantle.xmf,593,-9.07556e-06,2.70515e-05,0,4.77927e-06,-1.32146e+09,-1.31663e+09,-1.32024e+09,638749,0.0155633,0.269814,0,0.270262,-1650.6,-46888.8,-0,46917.9,638749
step02_gravity_refstate-mantle.xmf,594,5.69232e-07,4.77509e-07,0,-1.09334e-05,-1.12317e+09,-1.12318e+09,-1.12324e+09,-1.46125e+06,0.0249417,0.279861,0,0.280971,4421.11,-40760.1,0,40999.2,1.46125e+06
step02_gravity_refstate-mantle.xmf,595,-3.23324e-07,7.62161e-07,0,-8.94643e-06,-1.11259e+09,-1.11245e+09,-1.11255e+09,-1.19569e+06,0.0300791,0.267907,0,0.26959,4767.65,-40428.3,0,40708.5,1.19569e+06
step02_gravity_refstate-mantle.xmf,596,1.48223e-06,1.2594e-07,0,-1.3456e-05,-1.13081e+09,-1.13099e+09,-1.131e+09,-1.79839e+06,0.020948,0.296221,0,0.296961,4000,-41001.3,0,41196,1.79839e+06
step02_gravity_refstate-mantle.xmf,597,-1.16858e-06,9.63787e-06,0,1.64465e-06,-1.6185e+09,-1.61706e+09,-1.61835e+09,219807,0.0537929,0.0392061,0,0.0665642,-10963.2,-56073,-0,57134.7,219807
step02_gravity_refstate-mantle.xmf,598,-2.0622e-06,1.12021e-05,0,3.37684e-06,-1.53282e+09,-1.53105e+09,-1.53255e+09,451314,0.0493883,0.0786155,0,0.0928418,-8687.61,-53424.2,-0,54126,451314
step02_gravity_refstate-mantle.xmf,599,-1.1883e-06,9.67507e-06,0,1.15445e-06,-1.65553e+09,-1.65408e+09,-1.65537e+09,154292,0.0543701,0.0274461,0,0.0609048,-11196.7,-57216.6,-0,58301.8,154292
step02_gravity_refstate-mantle.xmf,600,-8.40706e-07,9.15197e-06,0,7.31974e-07,-1.68328e+09,-1.68194e+09,-1.68316e+09,97828.3,0.0553108,0.0178227,0,0.0581114,-11945.2,-58074.7,-0,59290.5,97828.3
step02_gravity_refstate-mantle.xmf,601,-4.93224e-07,8.64405e-06,0,3.56155e-07,-1.7123e+09,-1.71108e+09,-1.71223e+09,47600.2,0.0559548,0.00892882,0,0.0566627,-12683.7,-58972.3,-0,60320.8,47600.2
step02_gravity_refstate-mantle.xmf,602,-1.57968e-07,8.16546e-06,0,-3.49729e-09,-1.74554e+09,-1.74443e+09,-1.74552e+09,-467.412,0.0562583,-1.49788e-19,0,0.0562583,-13386.3,-60000,-0,61475.1,467.412
step02_gravity_refstate-mantle.xmf,603,-3.23826e-06,1.35868e-05,0,5.34251e-06,-1.46087e+09,-1.45862e+09,-1.46044e+09,714027,0.0433462,0.125755,0,0.133015,-6409.34,-51199.9,-0,51599.5,714027
step02_gravity_refstate-mantle.xmf,604,-4.53603e-06,1.6366e-05,0,6.9061e-06,-1.40795e+09,-1.40516e+09,-1.40734e+09,923000,0.0376044,0.169135,0,0.173265,-4811.89,-49563.6,-0,49796.7,923000
step02_gravity_refstate-mantle.xmf,605,-4.35454e-06,1.57751e-05,0,6.37962e-06,-1.42615e+09,-1.42346e+09,-1.42557e+09,852636,0.0387383,0.156276,0,0.161006,-5111.21,-50125.5,-0,50385.4,852636
step02_gravity_refstate-mantle.xmf,606,-4.20703e-06,1.52886e-05,0,5.89294e-06,-1.44387e+09,-1.44126e+09,-1.4433e+09,787592,0.0397376,0.144426,0,0.149793,-5396.54,-50672.5,-0,50959.1,787592
step02_gravity_refstate-mantle.xmf,607,-7.66889e-06,2.27816e-05,0,7.23593e-06,-1.35193e+09,-1.34786e+09,-1.35091e+09,967082,0.026182,0.231081,0,0.23256,-2827.09,-47828.7,-0,47912.2,967082
step02_gravity_refstate-mantle.xmf,608,-5.89116e-06,1.88332e-05,0,7.20602e-06,-1.38774e+09,-1.38443e+09,-1.38695e+09,963085,0.0329509,0.193148,0,0.195938,-3867.55,-48936.6,-0,49089.2,963085
step02_gravity_refstate-mantle.xmf,609,-7.19695e-06,2.14601e-05,0,7.12258e-06,-1.36841e+09,-1.36458e+09,-1.36745e+09,951933,0.0281155,0.216073,0,0.217895,-3092.77,-48337.4,-0,48436.3,951933
step02_gravity_refstate-mantle.xmf,610,-8.95395e-06,2.58335e-05,0,5.48087e-06,-1.33527e+09,-1.33062e+09,-1.33408e+09,732518,0.0185766,0.25535,0,0.256025,-1941.69,-47313.3,-0,47353.2,732518
step02_gravity_refstate-mantle.xmf,611,-8.55725e-06,2.94831e-05,0,1.97453e-08,-1.29237e+09,-1.28728e+09,-1.29122e+09,2638.96,4.92571e-07,0.304365,0,0.304365,4.01542e-10,-46000,0,46000,2638.96
step02_gravity_refstate-mantle.xmf,612,-9.16053e-06,2.89719e-05,0,7.23645e-07,-1.30579e+09,-1.3007e+09,-1.30457e+09,96715.1,0.00231103,0.292179,0,0.292188,-253.157,-46409.4,-0,46410.1,96715.1
step02_gravity_refstate-mantle.xmf,613,-9.37653e-06,2.79264e-05,0,3.01399e-06,-1.31985e+09,-1.31486e+09,-1.3186e+09,402819,0.00990214,0.2765,0,0.276677,-1042.14,-46839.5,-0,46851.1,402819
step02_gravity_refstate-mantle.xmf,614,8.36792e-07,2.09677e-06,0,-1.43999e-05,-1.14697e+09,-1.14681e+09,-1.14709e+09,-1.92455e+06,0.01398,0.295677,0,0.296007,4000,-41501.5,0,41693.8,1.92455e+06
step02_gravity_refstate-mantle.xmf,615,4.02357e-07,2.01464e-06,0,-1.17572e-05,-1.1391e+09,-1.13888e+09,-1.13915e+09,-1.57135e+06,0.0177094,0.278931,0,0.279493,4430.02,-41255,0,41492.2,1.57135e+06
step02_gravity_refstate-mantle.xmf,616,-1.52002e-06,1.0876e-06,0,-7.3569e-06,-1.09896e+09,-1.09861e+09,-1.09876e+09,-983250,0.0365852,0.2594,0,0.261967,5045.52,-40000,0,40317,983250
step02_gravity_refstate-mantle.xmf,617,-3.13151e-06,1.32141e-05,0,4.77965e-06,-1.48386e+09,-1.48168e+09,-1.48344e+09,638801,0.0444857,0.11239,0,0.120874,-6798.63,-51909.9,-0,52353.2,638801
step02_gravity_refstate-mantle.xmf,618,-1.96005e-06,1.09759e-05,0,2.86881e-06,-1.55928e+09,-1.55755e+09,-1.55902e+09,383417,0.0504458,0.0666789,0,0.0836113,-9134.89,-54241.7,-0,55005.6,383417
step02_gravity_refstate-mantle.xmf,619,-1.76676e-06,1.0566e-05,0,1.90219e-06,-1.61397e+09,-1.61232e+09,-1.61373e+09,254228,0.0523013,0.0443873,0,0.0685978,-9969.42,-55931.2,-0,56812.7,254228
step02_gravity_refstate-mantle.xmf,620,-1.88323e-06,1.07868e-05,0,2.3758e-06,-1.58655e+09,-1.58485e+09,-1.58629e+09,317526,0.051379,0.0553215,0,0.0755001,-9541.77,-55083.9,-0,55904.3,317526
step02_gravity_refstate-mantle.xmf,621,-2.95764e-06,1.27635e-05,0,4.19237e-06,-1.50827e+09,-1.50617e+09,-1.50788e+09,560310,0.0458373,0.0984169,0,0.108568,-7276.56,-52663.9,-0,53164.3,560310
step02_gravity_refstate-mantle.xmf,622,-2.79927e-06,1.23735e-05,0,3.63073e-06,-1.53332e+09,-1.53129e+09,-1.53294e+09,485248,0.0471142,0.0850838,0,0.0972574,-7748.86,-53437.6,-0,53996.5,485248
step02_gravity_refstate-mantle.xmf,623,-3.9754e-06,1.47255e-05,0,5.47677e-06,-1.45922e+09,-1.45673e+09,-1.45869e+09,731970,0.0409418,0.133569,0,0.139703,-5739.08,-51147.1,-0,51468,731970
step02_gravity_refstate-mantle.xmf,624,-5.61523e-06,1.80621e-05,0,6.74211e-06,-1.40696e+09,-1.4038e+09,-1.40621e+09,901082,0.0341795,0.178651,0,0.181891,-4133.38,-49530.2,-0,49702.4,901082
step02_gravity_refstate-mantle.xmf,625,-6.75109e-06,2.03201e-05,0,6.94041e-06,-1.38292e+09,-1.3793e+09,-1.38201e+09,927585,0.0298191,0.203056,0,0.205234,-3361.17,-48785.7,-0,48901.3,927585
step02_gravity_refstate-mantle.xmf,626,-8.63642e-06,2.4449e-05,0,5.92485e-06,-1.35132e+09,-1.3469e+09,-1.35016e+09,791856,0.0212732,0.239592,0,0.240535,-2225.3,-47807.6,-0,47859.3,791856
step02_gravity_refstate-mantle.xmf,627,-9.2495e-06,2.88399e-05,0,-8.49308e-07,-1.3087e+09,-1.30361e+09,-1.30746e+09,-113510,-0.00271137,0.289538,-0,0.28955,293.655,-46498.1,0,46499,113510
step02_gravity_refstate-mantle.xmf,628,-9.5444e-06,2.83429e-05,0,1.43557e-06,-1.31923e+09,-1.31416e+09,-1.31795e+09,191864,0.00478232,0.279781,0,0.279822,-501.369,-46820.1,-0,46822.8,191864
step02_gravity_refstate-mantle.xmf,629,-9.46144e-06,2.68882e-05,0,3.80283e-06,-1.33483e+09,-1.32997e+09,-1.33357e+09,508248,0.0130174,0.26169,0,0.262013,-1338.82,-47299,-0,47317.9,508248
step02_gravity_refstate-mantle.xmf,630,1.41716e-07,3.52641e-06,0,-1.26249e-05,-1.15555e+09,-1.1551e+09,-1.15557e+09,-1.68732e+06,0.0105784,0.278931,0,0.279131,4393.76,-41765.5,0,41996,1.68732e+06
step02_gravity_refstate-mantle.xmf,631,2.38923e-07,4.15938e-06,0,-1.49561e-05,-1.16309e+09,-1.16256e+09,-1.16312e+09,-1.99889e+06,0.00735981,0.294115,0,0.294207,4000,-42000.5,0,42190.6,1.99889e+06
step02_gravity_refstate-mantle.xmf,632,-1.3754e-06,2.09997e-06,0,-7.53039e-06,-1.11403e+09,-1.11357e+09,-1.11385e+09,-1.00644e+06,0.0289855,0.250206,0,0.251879,5324.81,-40469.2,0,40818,1.00644e+06
step02_gravity_refstate-mantle.xmf,633,-4.27958e-07,2.30002e-06,0,-9.32083e-06,-1.13074e+09,-1.13037e+09,-1.13068e+09,-1.24573e+06,0.021533,0.260893,0,0.26178,4952.88,-40992.1,0,41290.2,1.24573e+06
step02_gravity_refstate-mantle.xmf,634,-8.52481e-06,2.9383e-05,0,-1.39817e-06,-1.29237e+09,-1.2873e+09,-1.29123e+09,-186865,-0.00426954,0.303454,-0,0.303484,500.036,-46000,0,46002.7,186865
step02_gravity_refstate-mantle.xmf,635,-2.35447e-06,2.23387e-06,0,-6.43827e-06,-1.09904e+09,-1.09843e+09,-1.09873e+09,-860475,0.0354749,0.243141,0,0.245715,5604.1,-40000,0,40390.7,860475
step02_gravity_refstate-mantle.xmf,636,-2.99971e-06,3.08678e-06,0,-5.60925e-06,-1.09911e+09,-1.0983e+09,-1.09871e+09,-749676,0.0338759,0.227678,0,0.230184,6190.26,-40000,0,40476.2,749676
step02_gravity_refstate-mantle.xmf,637,-1.97303e-06,2.91779e-06,0,-6.40066e-06,-1.11467e+09,-1.11402e+09,-1.11441e+09,-855449,0.0277671,0.234115,0,0.235756,5887.65,-40487.1,0,40912.9,855449
step02_gravity_refstate-mantle.xmf,638,-1.6819e-06,1.04164e-05,0,1.49285e-06,-1.63958e+09,-1.63797e+09,-1.63936e+09,199519,0.0529963,0.0349145,0,0.0634636,-10301.5,-56722.6,-0,57650.5,199519
step02_gravity_refstate-mantle.xmf,639,-2.66384e-06,1.20286e-05,0,3.09536e-06,-1.55824e+09,-1.55628e+09,-1.55789e+09,413695,0.048283,0.0727148,0,0.0872851,-8198.33,-54207.6,-0,54824,413695
step02_gravity_refstate-mantle.xmf,640,-1.49839e-06,1.01317e-05,0,8.02285e-07,-1.68535e+09,-1.6838e+09,-1.68515e+09,107225,0.0540444,0.0190612,0,0.0573073,-10851,-58136.9,-0,59140.9,107225
step02_gravity_refstate-mantle.xmf,641,-1.20188e-06,9.7251e-06,0,4.0602e-07,-1.7136e+09,-1.71214e+09,-1.71343e+09,54264.6,0.0548808,0.00966641,0,0.0557256,-11411.3,-59010.3,-0,60103.5,54264.6
step02_gravity_refstate-mantle.xmf,642,-8.41527e-07,9.22381e-06,0,-4.59109e-09,-1.7456e+09,-1.74425e+09,-1.74549e+09,-613.6,0.0556013,-1.59633e-19,0,0.0556013,-12072.3,-60000,-0,61202.5,613.6
step02_gravity_refstate-mantle.xmf,643,-4.14701e-06,1.47654e-05,0,4.92484e-06,-1.48286e+09,-1.48034e+09,-1.48231e+09,658204,0.0409611,0.121973,0,0.128667,-5825.1,-51876.3,-0,52202.3,658204
step02_gravity_refstate-mantle.xmf,644,-5.30626e-06,1.72295e-05,0,6.23645e-06,-1.42688e+09,-1.42387e+09,-1.42617e+09,833501,0.0355672,0.163852,0,0.167668,-4456.73,-50145.5,-0,50343.1,833501
step02_gravity_refstate-mantle.xmf,645,-5.05378e-06,1.65398e-05,0,5.7413e-06,-1.44685e+09,-1.44396e+09,-1.44617e+09,767325,0.0368095,0.149881,0,0.154335,-4774.9,-50762.1,-0,50986.2,767325
step02_gravity_refstate-mantle.xmf,646,-4.77477e-06,1.5863e-05,0,5.27876e-06,-1.46663e+09,-1.46387e+09,-1.46599e+09,705506,0.038195,0.136242,0,0.141494,-5138.95,-51373.3,-0,51629.7,705506
step02_gravity_refstate-mantle.xmf,647,-8.19206e-06,2.30599e-05,0,6.1054e-06,-1.36834e+09,-1.36417e+09,-1.36725e+09,815986,0.0236295,0.223741,0,0.224985,-2509.52,-48332.9,-0,48398,815986
step02_gravity_refstate-mantle.xmf,648,-6.84941e-06,2.00135e-05,0,6.27311e-06,-1.40298e+09,-1.39939e+09,-1.40206e+09,838402,0.0294867,0.19055,0,0.192818,-3365.62,-49404,-0,49518.5,838402
step02_gravity_refstate-mantle.xmf,649,-7.70397e-06,2.17424e-05,0,6.10739e-06,-1.38557e+09,-1.38163e+09,-1.38454e+09,816253,0.0257488,0.208375,0,0.20996,-2803.97,-48864.9,-0,48945.3,816253
step02_gravity_refstate-mantle.xmf,650,-9.32216e-06,2.57207e-05,0,4.40826e-06,-1.35027e+09,-1.34558e+09,-1.34902e+09,589164,0.0158156,0.246819,0,0.247325,-1618.14,-47773.8,-0,47801.1,589164
step02_gravity_refstate-mantle.xmf,651,-9.5475e-06,2.84876e-05,0,1.06689e-07,-1.31828e+09,-1.31319e+09,-1.317e+09,14259,0.000393645,0.281423,0,0.281424,-41.295,-46791.2,-0,46791.2,14259
step02_gravity_refstate-mantle.xmf,652,-9.74269e-06,2.75503e-05,0,2.11759e-06,-1.33396e+09,-1.32897e+09,-1.33266e+09,283016,0.00727358,0.266219,0,0.266318,-741.715,-47271.8,-0,47277.6,283016
step02_gravity_refstate-mantle.xmf,653,-1.93647e-07,3.48315e-06,0,-1.04837e-05,-1.15009e+09,-1.1496e+09,-1.15007e+09,-1.40114e+06,0.0129375,0.263417,0,0.263735,4830.22,-41594.6,0,41874.1,1.40114e+06
step02_gravity_refstate-mantle.xmf,654,-1.97927e-07,5.20743e-06,0,-1.30079e-05,-1.17147e+09,-1.17074e+09,-1.17144e+09,-1.7385e+06,0.00400758,0.276742,0,0.276771,4394.58,-42259.1,0,42487,1.7385e+06
step02_gravity_refstate-mantle.xmf,655,-9.07845e-06,2.86894e-05,0,-2.26461e-06,-1.30678e+09,-1.30173e+09,-1.30557e+09,-302665,-0.00724665,0.289348,-0,0.289439,793.082,-46439.7,0,46446.5,302665
step02_gravity_refstate-mantle.xmf,656,-8.42385e-06,2.90623e-05,0,-2.82627e-06,-1.29237e+09,-1.28736e+09,-1.29125e+09,-377730,-0.00850242,0.300721,-0,0.300841,999.46,-46000,0,46010.9,377730
step02_gravity_refstate-mantle.xmf,657,-2.45823e-06,3.56342e-06,0,-5.3758e-06,-1.11511e+09,-1.11431e+09,-1.11478e+09,-718476,0.0262157,0.218293,0,0.219861,6503.98,-40499.1,0,41018,718476
step02_gravity_refstate-mantle.xmf,658,7.66058e-07,2.33781e-06,0,-1.44894e-09,-1.1693e+09,-1.16909e+09,-1.1694e+09,-193.65,1.43107e-19,0.038921,0,0.038921,40000,-42191.3,0,58138.7,193.65
step02_gravity_refstate-mantle.xmf,659,4.79879e-07,2.35113e-06,0,-3.73077e-09,-1.09842e+09,-1.09817e+09,-1.09849e+09,-498.617,-3.89474e-20,0.0440664,-0,0.0440664,40000,-40000,0,56568.5,498.617
step02_gravity_refstate-mantle.xmf,660,6.73291e-07,2.35222e-06,0,2.59892e-08,-1.14924e+09,-1.14901e+09,-1.14933e+09,3473.45,-0.00106867,0.0404981,-0,0.0405122,38424.5,-41571,0,56609.1,3473.45
step02_gravity_refstate-mantle.xmf,661,4.60716e-07,2.36816e-06,0,1.16153e-08,-1.09842e+09,-1.09817e+09,-1.09849e+09,1552.39,-0.00103791,0.044337,-0,0.0443491,37792.8,-40000,0,55030,1552.39
step02_gravity_refstate-mantle.xmf,662,-3.84176e-06,1.40981e-05,0,4.32075e-06,-1.5089e+09,-1.5065e+09,-1.50839e+09,577468,0.0426879,0.105792,0,0.114079,-6351.55,-52680.9,-0,53062.4,577468
step02_gravity_refstate-mantle.xmf,663,-1.98724e-06,1.08636e-05,0,1.1102e-06,-1.66955e+09,-1.66783e+09,-1.66928e+09,148378,0.0525248,0.0258856,0,0.058557,-9999.4,-57647.4,-0,58508.2,148378
step02_gravity_refstate-mantle.xmf,664,-2.29642e-06,1.13341e-05,0,1.61176e-06,-1.64036e+09,-1.63854e+09,-1.64006e+09,215412,0.0511624,0.0375953,0,0.0634901,-9378.78,-56745,-0,57514.9,215412
step02_gravity_refstate-mantle.xmf,665,-2.58652e-06,1.18468e-05,0,2.59911e-06,-1.585e+09,-1.58307e+09,-1.58466e+09,347371,0.0491577,0.0608747,0,0.0782445,-8548.55,-55034.3,-0,55694.3,347371
step02_gravity_refstate-mantle.xmf,666,-2.50266e-06,1.16691e-05,0,2.10119e-06,-1.61297e+09,-1.61107e+09,-1.61263e+09,280824,0.050011,0.0491047,0,0.0700883,-8896.62,-55898.2,-0,56601.8,280824
step02_gravity_refstate-mantle.xmf,667,-3.61087e-06,1.35888e-05,0,3.76713e-06,-1.53399e+09,-1.53169e+09,-1.53351e+09,503477,0.0441568,0.0914378,0,0.101542,-6827.43,-53456.1,-0,53890.4,503477
step02_gravity_refstate-mantle.xmf,668,-3.39226e-06,1.31397e-05,0,3.24614e-06,-1.55867e+09,-1.55646e+09,-1.55822e+09,433846,0.0455576,0.0781305,0,0.0904427,-7297.36,-54218.9,-0,54707.7,433846
step02_gravity_refstate-mantle.xmf,669,-6.33973e-06,1.88028e-05,0,5.87017e-06,-1.42613e+09,-1.42277e+09,-1.42528e+09,784549,0.0314614,0.172377,0,0.175225,-3748.27,-50119.3,-0,50259.3,784549
step02_gravity_refstate-mantle.xmf,670,-9.00029e-06,2.43991e-05,0,4.8116e-06,-1.36791e+09,-1.36345e+09,-1.36671e+09,643070,0.0184314,0.230573,0,0.231309,-1904.37,-48317.6,-0,48355.1,643070
step02_gravity_refstate-mantle.xmf,671,-9.7005e-06,2.81068e-05,0,-9.01305e-07,-1.32581e+09,-1.32076e+09,-1.32451e+09,-120459,-0.0030052,0.274592,-0,0.274608,309.864,-47021.9,0,47022.9,120459
step02_gravity_refstate-mantle.xmf,672,-9.84831e-06,2.78803e-05,0,4.61634e-07,-1.33196e+09,-1.32691e+09,-1.33064e+09,61697.4,0.00164409,0.269537,0,0.269542,-167.468,-47210.2,-0,47210.5,61697.4
step02_gravity_refstate-mantle.xmf,673,-9.75816e-06,2.65528e-05,0,2.78141e-06,-1.3499e+09,-1.34505e+09,-1.3486e+09,371735,0.0100084,0.251603,0,0.251802,-1009.54,-47761.8,-0,47772.4,371735
step02_gravity_refstate-mantle.xmf,674,-2.03524e-07,4.53229e-06,0,-1.1327e-05,-1.16387e+09,-1.16324e+09,-1.16384e+09,-1.51385e+06,0.00708209,0.265717,0,0.265811,4718.24,-42022.7,0,42286.7,1.51385e+06
step02_gravity_refstate-mantle.xmf,675,-3.45897e-07,6.2045e-06,0,-1.52659e-05,-1.17923e+09,-1.17836e+09,-1.17919e+09,-2.04028e+06,0.00103395,0.291523,0,0.291525,4000,-42500.6,0,42688.4,2.04028e+06
step02_gravity_refstate-mantle.xmf,676,-1.23065e-06,3.13258e-06,0,-7.42205e-06,-1.13049e+09,-1.12991e+09,-1.13033e+09,-991958,0.0211495,0.240583,0,0.241511,5605.3,-40981.2,0,41362.8,991958
step02_gravity_refstate-mantle.xmf,677,-6.68176e-07,3.71166e-06,0,-8.58673e-06,-1.14736e+09,-1.14678e+09,-1.14728e+09,-1.14762e+06,0.0139279,0.246493,0,0.246887,5351.4,-41507.7,0,41851.2,1.14762e+06
step02_gravity_refstate-mantle.xmf,678,-9.45725e-06,2.82815e-05,0,-1.8532e-06,-1.31843e+09,-1.31338e+09,-1.31716e+09,-247681,-0.00614406,0.279919,-0,0.279986,646.191,-46795.9,0,46800.4,247681
step02_gravity_refstate-mantle.xmf,679,-8.9201e-06,2.82556e-05,0,-3.61223e-06,-1.30667e+09,-1.3017e+09,-1.30548e+09,-482774,-0.0113945,0.286176,-0,0.286403,1254.4,-46436.3,0,46453.3,482774
step02_gravity_refstate-mantle.xmf,680,-8.26112e-06,2.8511e-05,0,-4.27786e-06,-1.29238e+09,-1.28747e+09,-1.29128e+09,-571736,-0.0126626,0.296159,-0,0.29643,1498.34,-46000,0,46024.4,571736
step02_gravity_refstate-mantle.xmf,681,-3.30088e-06,3.64715e-06,0,-4.87244e-06,-1.09913e+09,-1.0982e+09,-1.09869e+09,-651201,0.0319331,0.213006,0,0.215387,6805.63,-40000,0,40574.8,651201
step02_gravity_refstate-mantle.xmf,682,-1.68409e-06,3.5963e-06,0,-6.12664e-06,-1.13004e+09,-1.12933e+09,-1.12981e+09,-818825,0.020491,0.224176,0,0.225111,6203.51,-40965.3,0,41432.3,818825
step02_gravity_refstate-mantle.xmf,683,8.90866e-07,2.32847e-06,0,4.56706e-08,-1.19904e+09,-1.19885e+09,-1.19916e+09,6103.87,-0.00156142,0.0369214,-0,0.0369544,38257.1,-43110.8,0,57638.1,6103.87
step02_gravity_refstate-mantle.xmf,684,6.66264e-07,2.3723e-06,0,5.59348e-08,-1.15265e+09,-1.15242e+09,-1.15274e+09,7475.69,-0.00214209,0.040622,-0,0.0406785,36872.8,-41676.5,0,55646.5,7475.69
step02_gravity_refstate-mantle.xmf,685,-3.17702e-06,1.27356e-05,0,2.81763e-06,-1.57938e+09,-1.57726e+09,-1.57896e+09,376577,0.0468349,0.0673206,0,0.0820096,-7734.69,-54859.1,-0,55401.6,376577
step02_gravity_refstate-mantle.xmf,686,-1.99643e-06,1.09028e-05,0,5.28522e-07,-1.70939e+09,-1.70766e+09,-1.70912e+09,70637,0.0528181,0.0122804,0,0.0542269,-10124.3,-58878,-0,59742.1,70637
step02_gravity_refstate-mantle.xmf,687,-1.59801e-06,1.03587e-05,0,-5.3583e-09,-1.74567e+09,-1.74407e+09,-1.74545e+09,-716.137,0.0540403,-2.02152e-19,0,0.0540403,-10791.4,-60000,-0,60962.7,716.137
step02_gravity_refstate-mantle.xmf,688,-4.75582e-06,1.54345e-05,0,4.275e-06,-1.50991e+09,-1.50721e+09,-1.50928e+09,571353,0.0388331,0.112552,0,0.119063,-5458.27,-52709.4,-0,52991.2,571353
step02_gravity_refstate-mantle.xmf,689,-5.96043e-06,1.78942e-05,0,5.4693e-06,-1.44696e+09,-1.44378e+09,-1.44617e+09,730971,0.0330644,0.156967,0,0.160412,-4094.87,-50763.2,-0,50928.1,730971
step02_gravity_refstate-mantle.xmf,690,-5.6067e-06,1.70861e-05,0,5.05813e-06,-1.46806e+09,-1.46503e+09,-1.46731e+09,676020,0.0346577,0.142031,0,0.146198,-4463.36,-51415.2,-0,51608.6,676020
step02_gravity_refstate-mantle.xmf,691,-5.14972e-06,1.61953e-05,0,4.69203e-06,-1.48852e+09,-1.48567e+09,-1.48783e+09,627090,0.0368527,0.127056,0,0.132293,-4963.79,-52047.9,-0,52284.1,627090
step02_gravity_refstate-mantle.xmf,692,-8.5757e-06,2.31216e-05,0,5.03281e-06,-1.38525e+09,-1.38102e+09,-1.38411e+09,672635,0.0207868,0.215132,0,0.216134,-2193.65,-48852.8,-0,48902,672635
step02_gravity_refstate-mantle.xmf,693,-7.93677e-06,2.15992e-05,0,5.23365e-06,-1.4057e+09,-1.40175e+09,-1.40464e+09,699477,0.0239628,0.196859,0,0.198312,-2625.56,-49484.9,-0,49554.5,699477
step02_gravity_refstate-mantle.xmf,694,-7.37678e-06,2.03459e-05,0,5.1762e-06,-1.42555e+09,-1.42185e+09,-1.42456e+09,691800,0.0264069,0.180347,0,0.18227,-3008.6,-50098.5,-0,50188.8,691800
step02_gravity_refstate-mantle.xmf,695,-9.57973e-06,2.53952e-05,0,3.3249e-06,-1.36742e+09,-1.36275e+09,-1.36614e+09,444373,0.0126822,0.235926,0,0.236267,-1285.15,-48301.1,-0,48318.2,444373
step02_gravity_refstate-mantle.xmf,696,-9.98097e-06,2.70468e-05,0,1.04566e-06,-1.34879e+09,-1.34384e+09,-1.34745e+09,139752,0.00373276,0.255026,0,0.255053,-373.914,-47727,-0,47728.4,139752
step02_gravity_refstate-mantle.xmf,697,-4.16155e-07,4.66576e-06,0,-9.6818e-06,-1.16396e+09,-1.16328e+09,-1.16391e+09,-1.29397e+06,0.00693054,0.251321,0,0.251416,5135,-42024.4,0,42337,1.29397e+06
step02_gravity_refstate-mantle.xmf,698,-5.40833e-07,6.87145e-06,0,-1.3176e-05,-1.1873e+09,-1.18631e+09,-1.18723e+09,-1.76097e+06,-0.00223367,0.273578,-0,0.273587,4399.66,-42750.3,0,42976.1,1.76097e+06
step02_gravity_refstate-mantle.xmf,699,-3.91809e-07,5.84159e-06,0,-1.1069e-05,-1.17974e+09,-1.17891e+09,-1.17969e+09,-1.47937e+06,0.000549074,0.258261,0,0.258261,4855.83,-42515.1,0,42791.5,1.47937e+06
step02_gravity_refstate-mantle.xmf,700,-8.95529e-07,8.25159e-06,0,-1.5339e-05,-1.19535e+09,-1.19413e+09,-1.19523e+09,-2.05005e+06,-0.00496921,0.287911,-0,0.287953,4000,-43000,0,43185.6,2.05005e+06
step02_gravity_refstate-mantle.xmf,701,-9.35786e-06,2.79348e-05,0,-3.02034e-06,-1.31939e+09,-1.3144e+09,-1.31814e+09,-403668,-0.00998592,0.276825,-0,0.277005,1052.38,-46825.3,0,46837.1,403668
step02_gravity_refstate-mantle.xmf,702,-9.68411e-06,2.7608e-05,0,-2.22837e-06,-1.33144e+09,-1.32645e+09,-1.33014e+09,-297821,-0.00763577,0.268161,-0,0.26827,781.977,-47194.5,0,47201,297821
step02_gravity_refstate-mantle.xmf,703,-8.70155e-06,2.75317e-05,0,-5.01727e-06,-1.30752e+09,-1.30267e+09,-1.30635e+09,-670558,-0.0155972,0.280596,-0,0.281029,1726.57,-46462,0,46494.1,670558
step02_gravity_refstate-mantle.xmf,704,-2.54783e-06,4.02761e-06,0,-4.52528e-06,-1.11915e+09,-1.11827e+09,-1.11881e+09,-604803,0.022901,0.202436,0,0.203727,7175.31,-40624.5,0,41253.3,604803
step02_gravity_refstate-mantle.xmf,705,-2.00416e-06,3.92103e-06,0,-5.15967e-06,-1.12924e+09,-1.12845e+09,-1.12897e+09,-689590,0.0197909,0.210455,0,0.211384,6763.95,-40939.4,0,41494.4,689590
step02_gravity_refstate-mantle.xmf,706,1.08686e-06,2.28943e-06,0,-1.55193e-09,-1.24017e+09,-1.24001e+09,-1.24032e+09,-207.416,2.44018e-19,0.0338497,0,0.0338497,40000,-44382.5,0,59747.9,207.416
step02_gravity_refstate-mantle.xmf,707,4.09134e-07,2.41066e-06,0,2.23439e-08,-1.09843e+09,-1.09816e+09,-1.09849e+09,2986.27,-0.00195303,0.0451118,-0,0.045154,35691.6,-40000,0,53608.7,2986.27
step02_gravity_refstate-mantle.xmf,708,-4.45451e-06,1.4822e-05,0,3.77792e-06,-1.53451e+09,-1.53194e+09,-1.53392e+09,504920,0.0405048,0.0976331,0,0.105702,-5923.29,-53469.8,-0,53796.8,504920
step02_gravity_refstate-mantle.xmf,709,-2.78324e-06,1.20285e-05,0,1.26493e-06,-1.66635e+09,-1.66437e+09,-1.66598e+09,169058,0.0497166,0.0298191,0,0.0579735,-8821.29,-57546.2,-0,58218.4,169058
step02_gravity_refstate-mantle.xmf,710,-3.0793e-06,1.24759e-05,0,1.74228e-06,-1.63967e+09,-1.63759e+09,-1.63926e+09,232856,0.0482058,0.0414871,0,0.0636002,-8277.93,-56721.3,-0,57322.1,232856
step02_gravity_refstate-mantle.xmf,711,-3.35664e-06,1.29323e-05,0,2.32857e-06,-1.60795e+09,-1.60578e+09,-1.60751e+09,311213,0.0465896,0.0560798,0,0.0729077,-7720.26,-55740.9,-0,56273,311213
step02_gravity_refstate-mantle.xmf,712,-4.17885e-06,1.42827e-05,0,3.27904e-06,-1.55969e+09,-1.55722e+09,-1.55913e+09,438244,0.0421261,0.0832734,0,0.0933223,-6393.76,-54247.8,-0,54623.3,438244
step02_gravity_refstate-mantle.xmf,713,-3.87618e-06,1.37428e-05,0,2.79384e-06,-1.58468e+09,-1.58232e+09,-1.58416e+09,373397,0.0439,0.0695287,0,0.082228,-6916.01,-55020.5,-0,55453.4,373397
step02_gravity_refstate-mantle.xmf,714,-2.49857e-06,1.16171e-05,0,8.57234e-07,-1.69026e+09,-1.68838e+09,-1.68993e+09,114569,0.0510147,0.0200435,0,0.0548109,-9323.64,-58285.8,-0,59026.8,114569
step02_gravity_refstate-mantle.xmf,715,-6.89299e-06,1.92691e-05,0,4.95983e-06,-1.44661e+09,-1.44311e+09,-1.44569e+09,662881,0.0284513,0.164102,0,0.16655,-3375.1,-50749.6,-0,50861.7,662881
step02_gravity_refstate-mantle.xmf,716,-9.24165e-06,2.41663e-05,0,3.73897e-06,-1.38575e+09,-1.38129e+09,-1.38452e+09,499713,0.0153125,0.219929,0,0.220461,-1579.72,-48866.4,-0,48892,499713
step02_gravity_refstate-mantle.xmf,717,-9.99196e-06,2.72374e-05,0,-8.92235e-07,-1.34493e+09,-1.33996e+09,-1.3436e+09,-119247,-0.00317567,0.25835,-0,0.258369,318.83,-47608.4,0,47609.5,119247
step02_gravity_refstate-mantle.xmf,718,-9.9288e-06,2.60348e-05,0,1.69995e-06,-1.36656e+09,-1.36175e+09,-1.36523e+09,227198,0.00646032,0.239781,0,0.239868,-647.003,-48273.7,-0,48278.1,227198
step02_gravity_refstate-mantle.xmf,719,-1.44332e-06,1.02771e-05,0,-1.52475e-05,-1.21147e+09,-1.2099e+09,-1.21127e+09,-2.03783e+06,-0.0106328,0.283283,-0,0.283482,4000,-43499.4,0,43682.9,2.03783e+06
step02_gravity_refstate-mantle.xmf,720,-8.58783e-07,8.56995e-06,0,-1.31353e-05,-1.20393e+09,-1.20267e+09,-1.20381e+09,-1.75554e+06,-0.00845107,0.269226,-0,0.269359,4409.06,-43266,0,43490.1,1.75554e+06
step02_gravity_refstate-mantle.xmf,721,-1.08356e-06,3.99555e-06,0,-6.99431e-06,-1.14628e+09,-1.1456e+09,-1.14614e+09,-934790,0.0139145,0.229663,0,0.230084,5928.29,-41472.1,0,41893.7,934790
step02_gravity_refstate-mantle.xmf,722,-6.40823e-07,4.67015e-06,0,-7.95099e-06,-1.16314e+09,-1.16243e+09,-1.16306e+09,-1.06265e+06,0.00700603,0.234651,0,0.234755,5675.15,-41997.6,0,42379.3,1.06265e+06
step02_gravity_refstate-mantle.xmf,723,-8.05087e-06,2.7677e-05,0,-5.79168e-06,-1.29241e+09,-1.28763e+09,-1.29133e+09,-774058,-0.0167167,0.289746,-0,0.290227,1997.54,-46000,0,46043.4,774058
step02_gravity_refstate-mantle.xmf,724,-9.16269e-06,2.74371e-05,0,-4.23156e-06,-1.31913e+09,-1.31424e+09,-1.31791e+09,-565548,-0.0137288,0.273708,-0,0.274052,1457.9,-46817.4,0,46840.1,565548
step02_gravity_refstate-mantle.xmf,725,-3.43114e-06,4.02385e-06,0,-4.21859e-06,-1.09913e+09,-1.09813e+09,-1.09867e+09,-563814,0.0297556,0.199109,0,0.201321,7451.82,-40000,0,40688.2,563814
step02_gravity_refstate-mantle.xmf,726,-1.4006e-06,4.13059e-06,0,-5.72982e-06,-1.14442e+09,-1.14368e+09,-1.14424e+09,-765791,0.013954,0.214128,0,0.214582,6531.92,-41413,0,41924.9,765791
step02_gravity_refstate-mantle.xmf,727,1.21977e-06,2.27562e-06,0,7.34217e-08,-1.27085e+09,-1.27071e+09,-1.27102e+09,9812.81,-0.00262529,0.031876,-0,0.0319839,37856.2,-45331.2,0,59059.4,9812.81
step02_gravity_refstate-mantle.xmf,728,9.26059e-07,2.34645e-06,0,1.02012e-07,-1.21203e+09,-1.21184e+09,-1.21215e+09,13633.9,-0.00341705,0.0364482,-0,0.036608,36389.2,-43512.3,0,56723,13633.9
step02_gravity_refstate-mantle.xmf,729,6.28099e-07,2.4256e-06,0,9.77948e-08,-1.15863e+09,-1.15839e+09,-1.15871e+09,13070.3,-0.00367709,0.0411407,-0,0.0413047,34685.2,-41861,0,54363.6,13070.3
step02_gravity_refstate-mantle.xmf,730,-2.836e-06,1.21194e-05,0,4.38773e-07,-1.71818e+09,-1.71618e+09,-1.7178e+09,58642.1,0.0498555,0.0103594,0,0.0509204,-8898.6,-59147.1,-0,59812.8,58642.1
step02_gravity_refstate-mantle.xmf,731,-2.41004e-06,1.15427e-05,0,-2.25299e-09,-1.74575e+09,-1.74388e+09,-1.74542e+09,-301.112,0.0515291,-1.68711e-19,0,0.0515291,-9538.96,-60000,-0,60753.5,301.112
step02_gravity_refstate-mantle.xmf,732,-5.30205e-06,1.60339e-05,0,3.63738e-06,-1.53507e+09,-1.53222e+09,-1.53436e+09,486136,0.0361539,0.103427,0,0.109564,-5033.17,-53484.3,-0,53720.6,486136
step02_gravity_refstate-mantle.xmf,733,-5.66423e-06,1.67278e-05,0,4.02426e-06,-1.51169e+09,-1.50869e+09,-1.51093e+09,537842,0.034225,0.118351,0,0.1232,-4580.87,-52761.5,-0,52960,537842
step02_gravity_refstate-mantle.xmf,734,-6.47358e-06,1.8354e-05,0,4.67454e-06,-1.46782e+09,-1.4645e+09,-1.46696e+09,624753,0.0302847,0.148642,0,0.151696,-3737.78,-51405.2,-0,51540.9,624753
step02_gravity_refstate-mantle.xmf,735,-6.06122e-06,1.75065e-05,0,4.36553e-06,-1.48944e+09,-1.48629e+09,-1.48863e+09,583452,0.0322288,0.1334,0,0.137238,-4142.29,-52073.5,-0,52238,583452
step02_gravity_refstate-mantle.xmf,736,-8.78189e-06,2.28935e-05,0,4.0402e-06,-1.40513e+09,-1.4009e+09,-1.40396e+09,539973,0.0180358,0.203432,0,0.20423,-1914.73,-49464.9,-0,49501.9,539973
step02_gravity_refstate-mantle.xmf,737,-8.25677e-06,2.1647e-05,0,4.20378e-06,-1.42533e+09,-1.42133e+09,-1.42422e+09,561835,0.0207385,0.186783,0,0.187931,-2282.29,-50089,-0,50141,561835
step02_gravity_refstate-mantle.xmf,738,-7.76267e-06,2.05434e-05,0,4.20131e-06,-1.44572e+09,-1.44194e+09,-1.44468e+09,561505,0.0230686,0.170826,0,0.172377,-2636.83,-50719.4,-0,50787.9,561505
step02_gravity_refstate-mantle.xmf,739,-9.71139e-06,2.49473e-05,0,2.25742e-06,-1.38496e+09,-1.38032e+09,-1.38366e+09,301704,0.00917041,0.224259,0,0.224447,-930.717,-48840.8,-0,48849.6,301704
step02_gravity_refstate-mantle.xmf,740,-1.00471e-05,2.63109e-05,0,-1.06805e-08,-1.36494e+09,-1.36008e+09,-1.3636e+09,-1427.45,-5.415e-05,0.242173,-0,0.242173,5.40554,-48223.8,0,48223.8,1427.45
step02_gravity_refstate-mantle.xmf,741,-1.96226e-06,1.2272e-05,0,-1.49848e-05,-1.2276e+09,-1.2257e+09,-1.22734e+09,-2.00272e+06,-0.0159122,0.277642,-0,0.278098,4000,-43999.5,0,44180.9,2.00272e+06
step02_gravity_refstate-mantle.xmf,742,-1.20769e-06,1.03273e-05,0,-1.31125e-05,-1.22017e+09,-1.21862e+09,-1.22e+09,-1.75248e+06,-0.0140998,0.265448,-0,0.265822,4382.94,-43769.8,0,43988.7,1.75248e+06
step02_gravity_refstate-mantle.xmf,743,-4.07344e-07,5.654e-06,0,-8.92759e-06,-1.18003e+09,-1.17922e+09,-1.17997e+09,-1.19317e+06,0.000215445,0.239355,0,0.239355,5430.11,-42523.4,0,42868.7,1.19317e+06
step02_gravity_refstate-mantle.xmf,744,-5.33152e-07,7.25954e-06,0,-1.15962e-05,-1.19466e+09,-1.19362e+09,-1.19459e+09,-1.54983e+06,-0.005234,0.259306,-0,0.259359,4740.49,-42978.7,0,43239.3,1.54983e+06
step02_gravity_refstate-mantle.xmf,745,-9.41758e-06,2.69748e-05,0,-3.83252e-06,-1.3324e+09,-1.32754e+09,-1.33114e+09,-512217,-0.0130993,0.263583,-0,0.263908,1352.14,-47224.5,0,47243.8,512217
step02_gravity_refstate-mantle.xmf,746,-9.75696e-06,2.66966e-05,0,-2.73542e-06,-1.34701e+09,-1.34214e+09,-1.34571e+09,-365589,-0.00980046,0.254078,-0,0.254267,989.803,-47672.9,0,47683.2,365589
step02_gravity_refstate-mantle.xmf,747,-7.59907e-06,2.65068e-05,0,-7.31539e-06,-1.29241e+09,-1.28785e+09,-1.29139e+09,-977701,-0.0206079,0.281452,-0,0.282205,2497.35,-46000,0,46067.7,977701
step02_gravity_refstate-mantle.xmf,748,-8.37456e-06,2.64666e-05,0,-6.51779e-06,-1.30869e+09,-1.30404e+09,-1.30757e+09,-871103,-0.0199039,0.272882,-0,0.273607,2223.6,-46497.8,0,46551,871103
step02_gravity_refstate-mantle.xmf,749,-8.96523e-06,2.63567e-05,0,-5.41705e-06,-1.32661e+09,-1.32189e+09,-1.32541e+09,-723988,-0.01783,0.262974,-0,0.263578,1883.58,-47046.9,0,47084.6,723988
step02_gravity_refstate-mantle.xmf,750,-1.71328e-06,4.23714e-06,0,-4.71643e-06,-1.14078e+09,-1.13998e+09,-1.14055e+09,-630351,0.0144689,0.200418,0,0.20094,7140.97,-41298.5,0,41911.4,630351
step02_gravity_refstate-mantle.xmf,751,-2.72778e-06,4.24407e-06,0,-3.82316e-06,-1.11732e+09,-1.11639e+09,-1.11695e+09,-510966,0.0218615,0.189177,0,0.190436,7833.48,-40567.1,0,41316.5,510966
step02_gravity_refstate-mantle.xmf,752,1.41337e-06,2.22915e-06,0,-6.61759e-10,-1.31104e+09,-1.31094e+09,-1.31123e+09,-88.4441,2.7009e-19,0.0288992,0,0.0288992,40000,-46573.9,0,61393.2,88.4441
step02_gravity_refstate-mantle.xmf,753,3.21064e-07,2.47625e-06,0,2.86917e-08,-1.09845e+09,-1.09816e+09,-1.09849e+09,3834.65,-0.00269316,0.0463505,-0,0.0464287,33691.1,-40000,0,52298.1,3834.65
step02_gravity_refstate-mantle.xmf,754,-3.23302e-06,1.26688e-05,0,8.60882e-07,-1.69315e+09,-1.69102e+09,-1.69271e+09,115057,0.0480274,0.0207146,0,0.0523042,-8282.89,-58372.6,-0,58957.3,115057
step02_gravity_refstate-mantle.xmf,755,-4.99344e-06,1.54446e-05,0,3.20189e-06,-1.56003e+09,-1.55729e+09,-1.55936e+09,427932,0.0378964,0.0886105,0,0.096374,-5472.31,-54255.8,-0,54531.1,427932
step02_gravity_refstate-mantle.xmf,756,-3.57126e-06,1.31516e-05,0,1.30194e-06,-1.66777e+09,-1.66553e+09,-1.66729e+09,174004,0.0462603,0.0319519,0,0.0562223,-7734.99,-57587.6,-0,58104.7,174004
step02_gravity_refstate-mantle.xmf,757,-3.9122e-06,1.36605e-05,0,1.78938e-06,-1.64017e+09,-1.63782e+09,-1.63965e+09,239151,0.0443224,0.0450044,0,0.0631654,-7167.8,-56734.2,-0,57185.2,239151
step02_gravity_refstate-mantle.xmf,758,-4.65965e-06,1.48538e-05,0,2.74515e-06,-1.58617e+09,-1.58356e+09,-1.58555e+09,366889,0.0398757,0.0736799,0,0.0837782,-5977.54,-55064.1,-0,55387.6,366889
step02_gravity_refstate-mantle.xmf,759,-4.33834e-06,1.43117e-05,0,2.25691e-06,-1.61381e+09,-1.61131e+09,-1.61323e+09,301637,0.04184,0.0588684,0,0.0722224,-6500.23,-55918.6,-0,56295.1,301637
step02_gravity_refstate-mantle.xmf,760,-7.30272e-06,1.95529e-05,0,4.075e-06,-1.46723e+09,-1.46364e+09,-1.46626e+09,544623,0.0251718,0.154892,0,0.156924,-2992.73,-51384.5,-0,51471.6,544623
step02_gravity_refstate-mantle.xmf,761,-9.36712e-06,2.38124e-05,0,2.70412e-06,-1.40418e+09,-1.39975e+09,-1.40293e+09,361406,0.0118787,0.208405,0,0.208743,-1234.44,-49434,-0,49449.4,361406
step02_gravity_refstate-mantle.xmf,762,-9.94231e-06,2.53639e-05,0,6.81014e-07,-1.38372e+09,-1.379e+09,-1.38239e+09,91017.5,0.00274668,0.227061,0,0.227078,-276.432,-48802.2,-0,48802.9,91017.5
step02_gravity_refstate-mantle.xmf,763,-2.45534e-06,1.42202e-05,0,-1.44987e-05,-1.2437e+09,-1.24147e+09,-1.24337e+09,-1.93776e+06,-0.0207103,0.271027,-0,0.271817,4000,-44498.5,0,44677.9,1.93776e+06
step02_gravity_refstate-mantle.xmf,764,-1.66694e-06,1.22268e-05,0,-1.328e-05,-1.23562e+09,-1.23376e+09,-1.2354e+09,-1.77487e+06,-0.0189238,0.263676,-0,0.264354,4284.95,-44249,0,44456,1.77487e+06
step02_gravity_refstate-mantle.xmf,765,-3.73775e-07,6.88435e-06,0,-9.95165e-06,-1.19716e+09,-1.19619e+09,-1.19711e+09,-1.33004e+06,-0.00638374,0.243816,-0,0.243899,5183.04,-43056,0,43366.8,1.33004e+06
step02_gravity_refstate-mantle.xmf,766,-5.89902e-07,8.61633e-06,0,-1.10368e-05,-1.21305e+09,-1.21182e+09,-1.21297e+09,-1.47507e+06,-0.0120759,0.250296,-0,0.250587,4870.36,-43549.7,0,43821.2,1.47507e+06
step02_gravity_refstate-mantle.xmf,767,-8.69734e-07,4.63094e-06,0,-6.4564e-06,-1.16145e+09,-1.16071e+09,-1.16133e+09,-862897,0.0072708,0.218465,0,0.218586,6269.8,-41943.7,0,42409.8,862897
step02_gravity_refstate-mantle.xmf,768,-4.60131e-07,5.35615e-06,0,-7.30551e-06,-1.1791e+09,-1.17832e+09,-1.17904e+09,-976381,0.000348829,0.222934,0,0.222934,6001.1,-42493.6,0,42915.3,976381
step02_gravity_refstate-mantle.xmf,769,-9.93875e-06,2.61647e-05,0,-1.7456e-06,-1.36347e+09,-1.35864e+09,-1.36214e+09,-233300,-0.00656969,0.242227,-0,0.242316,657.755,-48178.5,0,48183,233300
step02_gravity_refstate-mantle.xmf,770,-7.69132e-06,2.49639e-05,0,-8.12185e-06,-1.30792e+09,-1.30355e+09,-1.30689e+09,-1.08548e+06,-0.0240237,0.264626,-0,0.265714,2744.83,-46474.5,0,46555.5,1.08548e+06
step02_gravity_refstate-mantle.xmf,771,-7.02532e-06,2.48435e-05,0,-8.91264e-06,-1.29242e+09,-1.28816e+09,-1.29148e+09,-1.19117e+06,-0.0242555,0.271262,-0,0.272344,2997.53,-46000,0,46097.6,1.19117e+06
step02_gravity_refstate-mantle.xmf,772,-3.42578e-06,4.24193e-06,0,-3.65554e-06,-1.09911e+09,-1.09809e+09,-1.09865e+09,-488563,0.0274228,0.185964,0,0.187975,8130.43,-40000,0,40817.9,488563
step02_gravity_refstate-mantle.xmf,773,-3.35849e-06,4.39985e-06,0,-3.14188e-06,-1.09908e+09,-1.09805e+09,-1.09863e+09,-419912,0.0249984,0.173542,0,0.175333,8843.14,-40000,0,40965.9,419912
step02_gravity_refstate-mantle.xmf,774,-2.75452e-06,4.35948e-06,0,-3.23799e-06,-1.11654e+09,-1.11559e+09,-1.11617e+09,-432757,0.0201932,0.176334,0,0.177487,8538.28,-40543.3,0,41432.6,432757
step02_gravity_refstate-mantle.xmf,775,-1.97584e-06,4.36389e-06,0,-3.89929e-06,-1.13747e+09,-1.13662e+09,-1.1372e+09,-521140,0.0145475,0.187481,0,0.188045,7783.14,-41194.8,0,41923.6,521140
step02_gravity_refstate-mantle.xmf,776,-1.06878e-06,4.5499e-06,0,-5.2706e-06,-1.15936e+09,-1.15861e+09,-1.15922e+09,-704416,0.00750919,0.203453,0,0.203592,6894.09,-41877.6,0,42441.3,704416
step02_gravity_refstate-mantle.xmf,777,1.18623e-06,2.31419e-06,0,1.48294e-07,-1.26912e+09,-1.26897e+09,-1.26928e+09,19819.5,-0.00524837,0.0325896,-0,0.0330095,35655,-45277.7,0,57631.1,19819.5
step02_gravity_refstate-mantle.xmf,778,1.56588e-06,2.20719e-06,0,6.87618e-08,-1.34588e+09,-1.34579e+09,-1.34609e+09,9190.02,-0.00288236,0.0266297,-0,0.0267853,38161.2,-47650.8,0,61048.2,9190.02
step02_gravity_refstate-mantle.xmf,779,2.24728e-07,2.55806e-06,0,2.50028e-08,-1.09846e+09,-1.09815e+09,-1.09849e+09,3341.63,-0.00322294,0.0480338,-0,0.0481418,31786.7,-40000,0,51092,3341.63
step02_gravity_refstate-mantle.xmf,780,5.129e-07,2.49987e-06,0,1.15922e-07,-1.15012e+09,-1.14986e+09,-1.15019e+09,15493,-0.00456632,0.0431185,-0,0.0433596,32738.9,-41597.7,0,52935.8,15493
step02_gravity_refstate-mantle.xmf,781,9.51541e-07,2.37843e-06,0,1.55769e-07,-1.22494e+09,-1.22475e+09,-1.22507e+09,20818.5,-0.0053266,0.0362365,-0,0.0366259,34641.2,-43911.5,0,55930.6,20818.5
step02_gravity_refstate-mantle.xmf,782,-3.67428e-06,1.33043e-05,0,4.1352e-07,-1.721e+09,-1.71873e+09,-1.72051e+09,55267,0.046004,0.0102377,0,0.0471294,-7716.43,-59231.6,-0,59732.1,55267
step02_gravity_refstate-mantle.xmf,783,-3.2626e-06,1.27552e-05,0,-1.70673e-09,-1.74583e+09,-1.74369e+09,-1.74539e+09,-228.105,0.0480448,-1.62577e-19,0,0.0480448,-8310.4,-60000,-0,60572.8,228.105
step02_gravity_refstate-mantle.xmf,784,-5.77814e-06,1.65468e-05,0,2.99168e-06,-1.56014e+09,-1.55715e+09,-1.55936e+09,399838,0.0330168,0.093605,0,0.0992573,-4566.29,-54256.8,-0,54448.6,399838
step02_gravity_refstate-mantle.xmf,785,-6.12137e-06,1.71872e-05,0,3.33528e-06,-1.53533e+09,-1.53222e+09,-1.53451e+09,445760,0.0310779,0.108861,0,0.11321,-4144.99,-53489.9,-0,53650.3,445760
step02_gravity_refstate-mantle.xmf,786,-6.48768e-06,1.78937e-05,0,3.63087e-06,-1.51184e+09,-1.50858e+09,-1.51097e+09,485265,0.0291317,0.12404,0,0.127415,-3742.7,-52763.7,-0,52896.2,485265
step02_gravity_refstate-mantle.xmf,787,-6.88315e-06,1.86819e-05,0,3.87749e-06,-1.48918e+09,-1.48576e+09,-1.48826e+09,518226,0.0271517,0.139386,0,0.142006,-3356.25,-52063,-0,52171.1,518226
step02_gravity_refstate-mantle.xmf,788,-8.01588e-06,2.05814e-05,0,3.28693e-06,-1.46619e+09,-1.46237e+09,-1.46512e+09,439299,0.0195432,0.160415,0,0.161602,-2254.11,-51350.2,-0,51399.7,439299
step02_gravity_refstate-mantle.xmf,789,-8.93859e-06,2.26728e-05,0,3.02891e-06,-1.42426e+09,-1.42003e+09,-1.42306e+09,404814,0.0145688,0.192299,0,0.19285,-1561.92,-50054.1,-0,50078.4,404814
step02_gravity_refstate-mantle.xmf,790,-8.4768e-06,2.15886e-05,0,3.2236e-06,-1.44477e+09,-1.44075e+09,-1.44364e+09,430835,0.0171445,0.176372,0,0.177203,-1904.21,-50688,-0,50723.8,430835
step02_gravity_refstate-mantle.xmf,791,-9.70955e-06,2.43728e-05,0,1.25039e-06,-1.40291e+09,-1.39836e+09,-1.40161e+09,167115,0.00543475,0.211851,0,0.211921,-557.623,-49393.9,-0,49397.1,167115
step02_gravity_refstate-mantle.xmf,792,-9.93379e-06,2.54001e-05,0,-9.34219e-07,-1.38218e+09,-1.37745e+09,-1.38085e+09,-124858,-0.00375406,0.228113,-0,0.228144,377.669,-48754.5,0,48756,124858
step02_gravity_refstate-mantle.xmf,793,-1.43239e-06,1.27782e-05,0,-1.20036e-05,-1.25053e+09,-1.24863e+09,-1.25034e+09,-1.60429e+06,-0.0235756,0.251001,-0,0.252106,4483.27,-44712.6,0,44936.8,1.60429e+06
step02_gravity_refstate-mantle.xmf,794,-9.31233e-07,1.0566e-05,0,-1.16508e-05,-1.23199e+09,-1.23046e+09,-1.23187e+09,-1.55713e+06,-0.018307,0.251323,-0,0.251989,4673.58,-44137.7,0,44384.4,1.55713e+06
step02_gravity_refstate-mantle.xmf,795,-2.2712e-07,6.33235e-06,0,-8.13268e-06,-1.19668e+09,-1.1958e+09,-1.19665e+09,-1.08693e+06,-0.00636664,0.226757,-0,0.226846,5751.07,-43040.5,0,43423.1,1.08693e+06
step02_gravity_refstate-mantle.xmf,796,-9.31266e-06,2.59426e-05,0,-4.45327e-06,-1.34537e+09,-1.34066e+09,-1.34413e+09,-595180,-0.0157432,0.250735,-0,0.251229,1614.44,-47623.2,0,47650.6,595180
step02_gravity_refstate-mantle.xmf,797,-9.57033e-06,2.5565e-05,0,-3.45452e-06,-1.36259e+09,-1.3579e+09,-1.36132e+09,-461697,-0.0129664,0.239516,-0,0.239867,1313.69,-48152.5,0,48170.4,461697
step02_gravity_refstate-mantle.xmf,798,-8.2299e-06,2.49769e-05,0,-7.10312e-06,-1.32494e+09,-1.32051e+09,-1.32384e+09,-949332,-0.022855,0.256177,-0,0.257195,2475.64,-46996.9,0,47062.1,949332
step02_gravity_refstate-mantle.xmf,799,-6.75668e-06,2.28141e-05,0,-9.70034e-06,-1.30746e+09,-1.30351e+09,-1.30655e+09,-1.29645e+06,-0.0276149,0.254749,-0,0.256242,3246.54,-46461.1,0,46574.4,1.29645e+06
step02_gravity_refstate-mantle.xmf,800,-2.68239e-06,4.44935e-06,0,-2.73184e-06,-1.11751e+09,-1.11656e+09,-1.11716e+09,-365110,0.0178865,0.164223,0,0.165194,9265.73,-40574,0,41618.6,365110
step02_gravity_refstate-mantle.xmf,801,-3.22675e-06,4.4644e-06,0,-2.69949e-06,-1.09905e+09,-1.09802e+09,-1.09862e+09,-360787,0.02253,0.161814,0,0.163375,9591.69,-40000,0,41133.9,360787
step02_gravity_refstate-mantle.xmf,802,-1.27677e-06,4.52462e-06,0,-4.29571e-06,-1.1566e+09,-1.15583e+09,-1.15643e+09,-574121,0.00779831,0.189636,0,0.189796,7545.37,-41791,0,42466.7,574121
step02_gravity_refstate-mantle.xmf,803,-2.09265e-06,4.42734e-06,0,-3.31065e-06,-1.13562e+09,-1.13474e+09,-1.13534e+09,-442468,0.013973,0.176283,0,0.176836,8393.55,-41137,0,41984.6,442468
step02_gravity_refstate-mantle.xmf,804,1.72772e-06,2.16919e-06,0,-7.46317e-10,-1.38201e+09,-1.38195e+09,-1.38224e+09,-99.7453,3.27709e-19,0.0240736,0,0.0240736,40000,-48768,0,63073.9,99.7453
step02_gravity_refstate-mantle.xmf,805,1.42471e-06,2.25421e-06,0,1.26598e-07,-1.31741e+09,-1.3173e+09,-1.3176e+09,16919.9,-0.00493125,0.0288961,-0,0.0293139,36565,-46770.5,0,59367.3,16919.9
step02_gravity_refstate-mantle.xmf,806,3.99707e-07,2.58881e-06,0,1.22772e-07,-1.14552e+09,-1.14522e+09,-1.14557e+09,16408.5,-0.0052493,0.0452352,-0,0.0455387,30887.9,-41454.8,0,51696.8,16408.5
step02_gravity_refstate-mantle.xmf,807,8.43041e-07,2.4535e-06,0,1.94998e-07,-1.2146e+09,-1.21438e+09,-1.21471e+09,26061.5,-0.00672028,0.0381706,-0,0.0387577,32746.4,-43591.4,0,54521,26061.5
step02_gravity_refstate-mantle.xmf,808,-4.01403e-06,1.37646e-05,0,8.45464e-07,-1.69532e+09,-1.69294e+09,-1.69478e+09,112996,0.0441054,0.0215781,0,0.0491009,-7202.4,-58437.2,-0,58879.4,112996
step02_gravity_refstate-mantle.xmf,809,-5.43093e-06,1.59345e-05,0,2.61315e-06,-1.58613e+09,-1.58328e+09,-1.58541e+09,349248,0.0351281,0.0782527,0,0.0857756,-5036.06,-55060.6,-0,55290.5,349248
step02_gravity_refstate-mantle.xmf,810,-4.36549e-06,1.42591e-05,0,1.27525e-06,-1.66982e+09,-1.66733e+09,-1.66923e+09,170438,0.0419728,0.0336714,0,0.0538097,-6657.82,-57648.4,-0,58031.6,170438
step02_gravity_refstate-mantle.xmf,811,-4.7316e-06,1.48027e-05,0,1.74009e-06,-1.6418e+09,-1.63919e+09,-1.64117e+09,232563,0.0396447,0.0477902,0,0.0620935,-6088.69,-56781.9,-0,57107.4,232563
step02_gravity_refstate-mantle.xmf,812,-5.08077e-06,1.53541e-05,0,2.20813e-06,-1.61267e+09,-1.60994e+09,-1.61199e+09,295116,0.037368,0.0632566,0,0.0734695,-5546.91,-55881.2,-0,56155.8,295116
step02_gravity_refstate-mantle.xmf,813,-7.58903e-06,1.96894e-05,0,3.23706e-06,-1.48814e+09,-1.48449e+09,-1.48712e+09,432633,0.0216997,0.144806,0,0.146422,-2598.75,-52028.7,-0,52093.5,432633
step02_gravity_refstate-mantle.xmf,814,-9.37892e-06,2.33497e-05,0,1.72273e-06,-1.42306e+09,-1.41868e+09,-1.4218e+09,230243,0.00815446,0.196207,0,0.196377,-859.703,-50015.8,-0,50023.2,230243
step02_gravity_refstate-mantle.xmf,815,-9.80806e-06,2.45695e-05,0,-2.38014e-07,-1.40126e+09,-1.39666e+09,-1.39994e+09,-31810.6,-0.00102092,0.213731,-0,0.213734,104.281,-49342.6,0,49342.7,31810.6
step02_gravity_refstate-mantle.xmf,816,-2.91126e-06,1.60521e-05,0,-1.3868e-05,-1.25984e+09,-1.25731e+09,-1.25945e+09,-1.85346e+06,-0.0249132,0.263433,-0,0.264609,4000,-44998.7,0,45176.1,1.85346e+06
step02_gravity_refstate-mantle.xmf,817,-1.85126e-07,7.50045e-06,0,-9.03641e-06,-1.21358e+09,-1.21255e+09,-1.21355e+09,-1.20772e+06,-0.0124941,0.230916,-0,0.231254,5482.74,-43565.9,0,43909.5,1.20772e+06
step02_gravity_refstate-mantle.xmf,818,-2.96679e-07,9.02532e-06,0,-9.7936e-06,-1.23022e+09,-1.22898e+09,-1.23018e+09,-1.30892e+06,-0.0180759,0.2347,-0,0.235395,5212.77,-44083.2,0,44390.4,1.30892e+06
step02_gravity_refstate-mantle.xmf,819,-5.62593e-07,5.09215e-06,0,-5.93457e-06,-1.17745e+09,-1.1767e+09,-1.17738e+09,-793155,0.000688032,0.207232,0,0.207233,6620.77,-42441.3,0,42954.6,793155
step02_gravity_refstate-mantle.xmf,820,-1.8122e-07,5.79681e-06,0,-6.66961e-06,-1.19532e+09,-1.19452e+09,-1.19529e+09,-891394,-0.0059716,0.21089,-0,0.210974,6352.24,-42997.5,0,43464.2,891394
step02_gravity_refstate-mantle.xmf,821,-9.68271e-06,2.50416e-05,0,-2.53362e-06,-1.38063e+09,-1.37599e+09,-1.37933e+09,-338619,-0.010142,0.227144,-0,0.22737,1028.18,-48707.4,0,48718.3,338619
step02_gravity_refstate-mantle.xmf,822,-6.1838e-06,2.22641e-05,0,-1.07186e-05,-1.29245e+09,-1.28865e+09,-1.29163e+09,-1.43254e+06,-0.0275419,0.259219,-0,0.260678,3497.18,-46000,0,46132.7,1.43254e+06
step02_gravity_refstate-mantle.xmf,823,-7.30216e-06,2.32426e-05,0,-8.55977e-06,-1.32279e+09,-1.31871e+09,-1.32181e+09,-1.14401e+06,-0.0268072,0.248909,-0,0.250349,2996.02,-46932.2,0,47027.7,1.14401e+06
step02_gravity_refstate-mantle.xmf,824,-8.654e-06,2.48494e-05,0,-6.05781e-06,-1.34277e+09,-1.33829e+09,-1.34161e+09,-809626,-0.0210477,0.246279,-0,0.247177,2208.15,-47544.4,0,47595.6,809626
step02_gravity_refstate-mantle.xmf,825,-2.0848e-06,4.44951e-06,0,-2.82242e-06,-1.1357e+09,-1.13483e+09,-1.13542e+09,-377216,0.0125941,0.165342,0,0.165821,9036.97,-41139.9,0,42120.7,377216
step02_gravity_refstate-mantle.xmf,826,-2.52112e-06,4.46406e-06,0,-2.30165e-06,-1.11972e+09,-1.11879e+09,-1.11938e+09,-307615,0.0152807,0.152956,0,0.153717,10006.8,-40643.3,0,41857.1,307615
step02_gravity_refstate-mantle.xmf,827,-1.46078e-06,4.5314e-06,0,-3.55498e-06,-1.15393e+09,-1.15313e+09,-1.15373e+09,-475123,0.00790479,0.177638,0,0.177814,8179.3,-41707.2,0,42501.6,475123
step02_gravity_refstate-mantle.xmf,828,-6.84199e-07,4.85506e-06,0,-4.84727e-06,-1.17533e+09,-1.17459e+09,-1.17524e+09,-647838,0.00109505,0.192855,0,0.192858,7263.24,-42374.4,0,42992.3,647838
step02_gravity_refstate-mantle.xmf,829,1.15584e-06,2.36791e-06,0,2.08099e-07,-1.27034e+09,-1.27018e+09,-1.2705e+09,27812.5,-0.00753316,0.0333829,-0,0.0342223,33730,-45315.2,0,56490.5,27812.5
step02_gravity_refstate-mantle.xmf,830,1.8666e-06,2.15358e-06,0,6.71086e-08,-1.41635e+09,-1.41631e+09,-1.4166e+09,8969.07,-0.00346639,0.0218814,-0,0.0221543,38142.8,-49829.4,0,62752.2,8969.07
step02_gravity_refstate-mantle.xmf,831,1.48118e-06,2.2813e-06,0,1.92153e-07,-1.33355e+09,-1.33345e+09,-1.33375e+09,25681.2,-0.00791815,0.0283635,-0,0.029448,34731.1,-47269.8,0,58657.3,25681.2
step02_gravity_refstate-mantle.xmf,832,1.69817e-06,2.20579e-06,0,1.33739e-07,-1.37808e+09,-1.37802e+09,-1.37831e+09,17874.2,-0.00612474,0.024751,-0,0.0254976,36408.3,-48646.6,0,60762.2,17874.2
step02_gravity_refstate-mantle.xmf,833,2.01212e-06,2.12021e-06,0,-6.35627e-11,-1.45327e+09,-1.45326e+09,-1.45354e+09,-8.49515,-1.78747e-19,0.0193453,-0,0.0193453,40000,-50971,0,64792.3,8.49515
step02_gravity_refstate-mantle.xmf,834,9.83157e-08,2.65846e-06,0,1.56103e-08,-1.09848e+09,-1.09814e+09,-1.09849e+09,2086.31,-0.00351809,0.050155,-0,0.0502783,29973.6,-40000,0,49984.2,2086.31
step02_gravity_refstate-mantle.xmf,835,6.44156e-07,2.52154e-06,0,1.76247e-07,-1.18412e+09,-1.18387e+09,-1.18421e+09,23555.5,-0.00636685,0.0413562,-0,0.0418434,31717.4,-42648.8,0,53150,23555.5
step02_gravity_refstate-mantle.xmf,836,-4.51353e-06,1.44715e-05,0,3.74612e-07,-1.72344e+09,-1.7209e+09,-1.72284e+09,50066.9,0.0411699,0.0100712,0,0.0423839,-6536.7,-59304.5,-0,59663.6,50066.9
step02_gravity_refstate-mantle.xmf,837,-4.12135e-06,1.39539e-05,0,-4.22188e-10,-1.74592e+09,-1.7435e+09,-1.74537e+09,-56.4254,0.0435802,-1.56616e-19,0,0.0435802,-7101,-60000,-0,60418.7,56.4254
step02_gravity_refstate-mantle.xmf,838,-6.15266e-06,1.69333e-05,0,2.36225e-06,-1.58582e+09,-1.58274e+09,-1.585e+09,315715,0.0297217,0.082532,0,0.0877206,-4101.26,-55048.8,-0,55201.3,315715
step02_gravity_refstate-mantle.xmf,839,-6.49832e-06,1.75485e-05,0,2.64767e-06,-1.55992e+09,-1.55671e+09,-1.55905e+09,353861,0.027538,0.0981731,0,0.101962,-3672.58,-54248,-0,54372.2,353861
step02_gravity_refstate-mantle.xmf,840,-6.84347e-06,1.82013e-05,0,2.90231e-06,-1.53458e+09,-1.53123e+09,-1.53366e+09,387894,0.0255808,0.11397,0,0.116806,-3293.7,-53464.5,-0,53565.9,387894
step02_gravity_refstate-mantle.xmf,841,-7.20803e-06,1.89148e-05,0,3.0947e-06,-1.51086e+09,-1.50737e+09,-1.5099e+09,413607,0.0236103,0.129429,0,0.131565,-2932.41,-52731.3,-0,52812.8,413607
step02_gravity_refstate-mantle.xmf,842,-8.15682e-06,2.04954e-05,0,2.44912e-06,-1.48691e+09,-1.48308e+09,-1.48582e+09,327325,0.0158819,0.149303,0,0.150145,-1856.22,-51989,-0,52022.1,327325
step02_gravity_refstate-mantle.xmf,843,-8.56762e-06,2.1377e-05,0,2.3352e-06,-1.46506e+09,-1.46106e+09,-1.46392e+09,312100,0.0135035,0.164814,0,0.165366,-1522.74,-51313.7,-0,51336.3,312100
step02_gravity_refstate-mantle.xmf,844,-8.98919e-06,2.23438e-05,0,2.08086e-06,-1.44378e+09,-1.4396e+09,-1.44258e+09,278107,0.0108319,0.18051,0,0.180835,-1179.27,-50656,-0,50669.8,278107
step02_gravity_refstate-mantle.xmf,845,-9.57953e-06,2.36851e-05,0,3.61797e-07,-1.4214e+09,-1.41696e+09,-1.42012e+09,48354.2,0.00169847,0.198714,0,0.198721,-177.553,-49964.2,-0,49964.5,48354.2
step02_gravity_refstate-mantle.xmf,846,-9.66892e-06,2.43951e-05,0,-1.72208e-06,-1.39958e+09,-1.39503e+09,-1.39829e+09,-230156,-0.00738355,0.213799,-0,0.213926,756.878,-49291.5,0,49297.3,230156
step02_gravity_refstate-mantle.xmf,847,-3.27566e-06,1.79306e-05,0,-1.27434e-05,-1.27592e+09,-1.27309e+09,-1.27549e+09,-1.70316e+06,-0.0282977,0.254919,-0,0.256485,4000,-45497.8,0,45673.3,1.70316e+06
step02_gravity_refstate-mantle.xmf,848,-2.03979e-06,1.4894e-05,0,-1.21252e-05,-1.26736e+09,-1.2651e+09,-1.26709e+09,-1.62053e+06,-0.0274386,0.249215,-0,0.250721,4316.33,-45233.8,0,45439.2,1.62053e+06
step02_gravity_refstate-mantle.xmf,849,-5.78619e-07,1.04571e-05,0,-1.05356e-05,-1.24274e+09,-1.24126e+09,-1.24266e+09,-1.40808e+06,-0.0218336,0.238932,-0,0.239928,4949.69,-44471.6,0,44746.2,1.40808e+06
step02_gravity_refstate-mantle.xmf,850,5.44607e-08,6.72268e-06,0,-7.43924e-06,-1.21322e+09,-1.21233e+09,-1.21323e+09,-994254,-0.0124012,0.214411,-0,0.21477,6080.9,-43554.5,0,43976.9,994254
step02_gravity_refstate-mantle.xmf,851,-8.97892e-06,2.46101e-05,0,-5.04037e-06,-1.36079e+09,-1.3563e+09,-1.35959e+09,-673645,-0.018772,0.235606,-0,0.236352,1939.26,-48098.2,0,48137.3,673645
step02_gravity_refstate-mantle.xmf,852,-9.19533e-06,2.42957e-05,0,-4.06737e-06,-1.37878e+09,-1.37431e+09,-1.37756e+09,-543604,-0.0162164,0.224453,-0,0.225038,1669.98,-48651.9,0,48680.5,543604
step02_gravity_refstate-mantle.xmf,853,-5.12179e-06,1.97692e-05,0,-1.07455e-05,-1.30704e+09,-1.30371e+09,-1.30636e+09,-1.43613e+06,-0.0306116,0.243328,-0,0.245246,3751.64,-46451.3,0,46602.6,1.43613e+06
step02_gravity_refstate-mantle.xmf,854,-7.74497e-06,2.33438e-05,0,-7.49871e-06,-1.34008e+09,-1.33593e+09,-1.33905e+09,-1.0022e+06,-0.0256795,0.240225,-0,0.241593,2777.67,-47463.7,0,47544.9,1.0022e+06
step02_gravity_refstate-mantle.xmf,855,-6.07166e-06,2.10121e-05,0,-9.62383e-06,-1.32196e+09,-1.31834e+09,-1.32115e+09,-1.28622e+06,-0.0300753,0.239748,-0,0.241627,3489.59,-46909,0,47038.6,1.28622e+06
step02_gravity_refstate-mantle.xmf,856,-2.09284e-06,4.45477e-06,0,-2.4514e-06,-1.13495e+09,-1.13407e+09,-1.13467e+09,-327629,0.011598,0.156339,0,0.156769,9625.63,-41116.5,0,42228.1,327629
step02_gravity_refstate-mantle.xmf,857,-3.06037e-06,4.47891e-06,0,-2.31082e-06,-1.09901e+09,-1.098e+09,-1.0986e+09,-308841,0.0200554,0.150752,0,0.15208,10377.9,-40000,0,41324.3,308841
step02_gravity_refstate-mantle.xmf,858,-8.59329e-07,4.70794e-06,0,-3.9358e-06,-1.17206e+09,-1.17132e+09,-1.17195e+09,-526019,0.00175538,0.179547,0,0.179556,7940.4,-42271.8,0,43011.1,526019
step02_gravity_refstate-mantle.xmf,859,-1.51473e-06,4.52253e-06,0,-2.97007e-06,-1.15355e+09,-1.15275e+09,-1.15335e+09,-396950,0.00706652,0.166248,0,0.166398,8830.42,-41695.2,0,42620.1,396950
step02_gravity_refstate-mantle.xmf,860,2.25159e-06,2.09865e-06,0,-1.50227e-10,-1.52504e+09,-1.52506e+09,-1.52534e+09,-20.0778,-1.28962e-18,0.014659,-0,0.014659,40000,-53189.4,0,66551.6,20.0778
step02_gravity_refstate-mantle.xmf,861,2.13057e-06,2.1159e-06,0,5.93387e-08,-1.48697e+09,-1.48697e+09,-1.48726e+09,7930.61,-0.00403813,0.017221,-0,0.0176881,38102,-52012.7,0,64475.5,7930.61
step02_gravity_refstate-mantle.xmf,862,3.12712e-07,2.68348e-06,0,1.40071e-07,-1.14918e+09,-1.14886e+09,-1.14922e+09,18720.6,-0.00599593,0.0469158,-0,0.0472974,29262.9,-41567.6,0,50834.8,18720.6
step02_gravity_refstate-mantle.xmf,863,5.43643e-07,2.61405e-06,0,1.94983e-07,-1.18179e+09,-1.18151e+09,-1.18186e+09,26059.5,-0.00726444,0.0432711,-0,0.0438766,30038.6,-42576.2,0,52106.2,26059.5
step02_gravity_refstate-mantle.xmf,864,7.73769e-07,2.54542e-06,0,2.36745e-07,-1.2163e+09,-1.21607e+09,-1.21641e+09,31640.9,-0.00842849,0.0397836,-0,0.0406666,30717.5,-43643.9,0,53370,31640.9
step02_gravity_refstate-mantle.xmf,865,1.09635e-06,2.44678e-06,0,2.61869e-07,-1.26869e+09,-1.26851e+09,-1.26884e+09,34998.8,-0.00968616,0.0348059,-0,0.0361285,31767.2,-45264.1,0,55299.1,34998.8
step02_gravity_refstate-mantle.xmf,866,-4.68475e-06,1.46901e-05,0,8.30231e-07,-1.6954e+09,-1.69281e+09,-1.69477e+09,110960,0.0400276,0.0229976,0,0.0461638,-6264.45,-58437.6,-0,58772.4,110960
step02_gravity_refstate-mantle.xmf,867,-5.8e-06,1.6347e-05,0,2.04005e-06,-1.61249e+09,-1.60953e+09,-1.61172e+09,272652,0.032135,0.0669843,0,0.0742937,-4584.13,-55873.5,-0,56061.2,272652
step02_gravity_refstate-mantle.xmf,868,-5.18178e-06,1.53901e-05,0,1.13692e-06,-1.67502e+09,-1.67227e+09,-1.67433e+09,151950,0.0365014,0.0337759,0,0.0497309,-5520.69,-57806.6,-0,58069.6,151950
step02_gravity_refstate-mantle.xmf,869,-5.48316e-06,1.58438e-05,0,1.64343e-06,-1.64124e+09,-1.63839e+09,-1.6405e+09,219644,0.0343556,0.051203,0,0.0616608,-5051.38,-56762.2,-0,56986.5,219644
step02_gravity_refstate-mantle.xmf,870,-7.78302e-06,1.973e-05,0,2.45476e-06,-1.50878e+09,-1.50511e+09,-1.50774e+09,328078,0.0179614,0.134377,0,0.135572,-2172.45,-52665.3,-0,52710.1,328078
step02_gravity_refstate-mantle.xmf,871,-9.27943e-06,2.27912e-05,0,8.51223e-07,-1.44223e+09,-1.43794e+09,-1.44099e+09,113766,0.00436949,0.18347,0,0.183522,-470.07,-50607.1,-0,50609.3,113766
step02_gravity_refstate-mantle.xmf,872,-9.55349e-06,2.37e-05,0,-1.01252e-06,-1.41897e+09,-1.41453e+09,-1.4177e+09,-135324,-0.0046821,0.200098,-0,0.200152,488.957,-49889.4,0,49891.8,135324
step02_gravity_refstate-mantle.xmf,873,-2.03132e-06,1.50768e-05,0,-1.16065e-05,-1.281e+09,-1.27872e+09,-1.28073e+09,-1.55121e+06,-0.0302378,0.240022,-0,0.241919,4412.05,-45655.8,0,45868.4,1.55121e+06
step02_gravity_refstate-mantle.xmf,874,-1.06402e-06,1.27965e-05,0,-1.09758e-05,-1.26831e+09,-1.26646e+09,-1.26817e+09,-1.46692e+06,-0.0282919,0.236391,-0,0.238078,4727.1,-45264.3,0,45510.4,1.46692e+06
step02_gravity_refstate-mantle.xmf,875,-5.99406e-07,1.11382e-05,0,-1.04376e-05,-1.25564e+09,-1.25407e+09,-1.25556e+09,-1.39499e+06,-0.0254395,0.234031,-0,0.23541,4968.95,-44871.8,0,45146.1,1.39499e+06
step02_gravity_refstate-mantle.xmf,876,1.42679e-07,7.84197e-06,0,-8.26395e-06,-1.23113e+09,-1.2301e+09,-1.23115e+09,-1.10448e+06,-0.0184133,0.217851,-0,0.218628,5798.3,-44111.2,0,44490.7,1.10448e+06
step02_gravity_refstate-mantle.xmf,877,-2.55428e-08,9.41371e-06,0,-9.15805e-06,-1.24888e+09,-1.24762e+09,-1.24888e+09,-1.22397e+06,-0.0237614,0.222628,-0,0.223892,5446.97,-44662.5,0,44993.4,1.22397e+06
step02_gravity_refstate-mantle.xmf,878,-2.24602e-07,5.37777e-06,0,-5.44262e-06,-1.19342e+09,-1.19268e+09,-1.19339e+09,-727406,-0.00539927,0.195913,-0,0.195987,6994.33,-42937.7,0,43503.6,727406
step02_gravity_refstate-mantle.xmf,879,1.38256e-07,6.06188e-06,0,-6.15194e-06,-1.21182e+09,-1.21102e+09,-1.21183e+09,-822207,-0.0118468,0.199286,-0,0.199638,6705.13,-43510,0,44023.6,822207
step02_gravity_refstate-mantle.xmf,880,-9.29281e-06,2.38725e-05,0,-3.14205e-06,-1.39778e+09,-1.39335e+09,-1.39654e+09,-419935,-0.0134972,0.212205,-0,0.212634,1399.51,-49236.9,0,49256.7,419935
step02_gravity_refstate-mantle.xmf,881,-4.28906e-06,1.8184e-05,0,-1.12932e-05,-1.29238e+09,-1.28938e+09,-1.29181e+09,-1.50934e+06,-0.0303264,0.245557,-0,0.247423,4000,-46000,0,46173.6,1.50934e+06
step02_gravity_refstate-mantle.xmf,882,-6.77217e-06,2.18216e-05,0,-8.63173e-06,-1.335e+09,-1.33118e+09,-1.3341e+09,-1.15363e+06,-0.0289212,0.235985,-0,0.237751,3238.67,-47309.4,0,47420.1,1.15363e+06
step02_gravity_refstate-mantle.xmf,883,-8.12639e-06,2.32982e-05,0,-6.47751e-06,-1.35813e+09,-1.35393e+09,-1.35704e+09,-865719,-0.0240472,0.230454,-0,0.231705,2555.05,-48018.4,0,48086.3,865719
step02_gravity_refstate-mantle.xmf,884,-1.43426e-06,4.49168e-06,0,-2.47513e-06,-1.15648e+09,-1.15569e+09,-1.15629e+09,-330801,0.00504865,0.154352,0,0.154434,9557.71,-41786.2,0,42865.3,330801
step02_gravity_refstate-mantle.xmf,885,-1.84655e-06,4.44971e-06,0,-2.1136e-06,-1.14207e+09,-1.14123e+09,-1.14182e+09,-282483,0.00829311,0.146924,0,0.147158,10219.4,-41338.1,0,42582.5,282483
step02_gravity_refstate-mantle.xmf,886,-2.24404e-06,4.4294e-06,0,-1.87507e-06,-1.12469e+09,-1.1238e+09,-1.12439e+09,-250603,0.0117687,0.140611,0,0.141102,10889.7,-40798.6,0,42226.9,250603
step02_gravity_refstate-mantle.xmf,887,-2.87089e-06,4.43895e-06,0,-1.9818e-06,-1.09897e+09,-1.098e+09,-1.09859e+09,-264867,0.0176029,0.14033,0,0.14143,11203.7,-40000,0,41539.4,264867
step02_gravity_refstate-mantle.xmf,888,-1.01129e-06,4.61783e-06,0,-3.34067e-06,-1.16881e+09,-1.16806e+09,-1.16867e+09,-446481,0.00236763,0.169979,0,0.169996,8486.34,-42170.1,0,43015.6,446481
step02_gravity_refstate-mantle.xmf,889,-3.18601e-07,5.03141e-06,0,-4.44244e-06,-1.1907e+09,-1.18999e+09,-1.19066e+09,-593732,-0.00461499,0.182131,-0,0.182189,7664.92,-42852,0,43532.1,593732
step02_gravity_refstate-mantle.xmf,890,1.39477e-06,2.35558e-06,0,2.53778e-07,-1.32183e+09,-1.3217e+09,-1.32202e+09,33917.4,-0.0103984,0.0301698,-0,0.0319115,32771.6,-46907.2,0,57221.2,33917.4
step02_gravity_refstate-mantle.xmf,891,2.4337e-06,2.10982e-06,0,-6.19348e-11,-1.59751e+09,-1.59756e+09,-1.59784e+09,-8.27759,-2.49899e-19,0.0099389,-0,0.0099389,40000,-55429.4,0,68355.1,8.27759
step02_gravity_refstate-mantle.xmf,892,2.3476e-06,2.10936e-06,0,4.59725e-08,-1.5599e+09,-1.55993e+09,-1.56021e+09,6144.23,-0.0045416,0.0124546,-0,0.0132569,38061.9,-54266.8,0,66284.2,6144.23
step02_gravity_refstate-mantle.xmf,893,2.54738e-06,2.16114e-06,0,-1.25674e-09,-1.67091e+09,-1.67096e+09,-1.67125e+09,-167.963,-2.64925e-19,0.00509031,-0,0.00509031,40000,-57697.5,0,70206.8,167.963
step02_gravity_refstate-mantle.xmf,894,2.49812e-06,2.13729e-06,0,2.94354e-08,-1.63211e+09,-1.63216e+09,-1.63245e+09,3934.04,-0.00463312,0.00770256,-0,0.00898862,38141.3,-56498.7,0,68167.9,3934.04
step02_gravity_refstate-mantle.xmf,895,1.99021e-06,2.16324e-06,0,1.27849e-07,-1.44941e+09,-1.44939e+09,-1.44968e+09,17087.1,-0.00752763,0.0199746,-0,0.021346,36223.1,-50851.8,0,62434.1,17087.1
step02_gravity_refstate-mantle.xmf,896,1.80934e-06,2.2267e-06,0,1.91483e-07,-1.40665e+09,-1.4066e+09,-1.40689e+09,25591.7,-0.00979228,0.0233069,-0,0.0252804,34625.5,-49529.8,0,60432.8,25591.7
step02_gravity_refstate-mantle.xmf,897,-5.73295e-08,2.77658e-06,0,-3.39267e-09,-1.0985e+09,-1.09812e+09,-1.09849e+09,-453.43,-0.00356492,0.0527155,-0,0.0528359,28247.5,-40000,0,48968.6,453.43
step02_gravity_refstate-mantle.xmf,898,-5.28667e-06,1.55149e-05,0,5.09297e-07,-1.71338e+09,-1.7106e+09,-1.71267e+09,68067.5,0.0356584,0.0156585,0,0.038945,-5404.62,-58991.2,-0,59238.2,68067.5
step02_gravity_refstate-mantle.xmf,899,-4.95215e-06,1.50937e-05,0,1.50109e-09,-1.746e+09,-1.74332e+09,-1.74534e+09,200.62,0.0381579,-2.35656e-19,0,0.0381579,-5906.01,-60000,-0,60290,200.62
step02_gravity_refstate-mantle.xmf,900,2.58377e-06,2.25677e-06,0,-4.85714e-09,-1.74543e+09,-1.74548e+09,-1.74578e+09,-649.156,-1.85686e-18,-3.55083e-19,-0,1.89051e-18,40000,-60000,0,72111,649.156
step02_gravity_refstate-mantle.xmf,901,2.56484e-06,2.19428e-06,0,1.42492e-08,-1.69251e+09,-1.69256e+09,-1.69285e+09,1904.41,-0.00421689,0.00364851,-0,0.00557618,38355.1,-58364.9,0,69839.6,1904.41
step02_gravity_refstate-mantle.xmf,902,-6.44827e-06,1.72303e-05,0,1.76882e-06,-1.61219e+09,-1.60903e+09,-1.61133e+09,236403,0.0262519,0.0703497,0,0.0750882,-3622.6,-55862,-0,55979.4,236403
step02_gravity_refstate-mantle.xmf,903,-6.78791e-06,1.78049e-05,0,1.99553e-06,-1.58507e+09,-1.58178e+09,-1.58416e+09,266703,0.0237465,0.0864617,0,0.0896634,-3175.41,-55023.4,-0,55114.9,266703
step02_gravity_refstate-mantle.xmf,904,-7.14407e-06,1.84452e-05,0,2.16294e-06,-1.55876e+09,-1.55534e+09,-1.55781e+09,289077,0.0212969,0.102671,0,0.104857,-2753.83,-54210.1,-0,54280,289077
step02_gravity_refstate-mantle.xmf,905,-7.46582e-06,1.90877e-05,0,2.33612e-06,-1.53209e+09,-1.52854e+09,-1.53109e+09,312222,0.019572,0.119294,0,0.120889,-2445.81,-53385.8,-0,53441.8,312222
step02_gravity_refstate-mantle.xmf,906,-8.19915e-06,2.03054e-05,0,1.71782e-06,-1.50771e+09,-1.5039e+09,-1.50661e+09,229587,0.0122577,0.137655,0,0.138199,-1456.37,-52630.8,-0,52650.9,229587
step02_gravity_refstate-mantle.xmf,907,-8.55954e-06,2.10713e-05,0,1.56231e-06,-1.48548e+09,-1.48152e+09,-1.48434e+09,208803,0.00990073,0.152756,0,0.153076,-1137.69,-51943.8,-0,51956.3,208803
step02_gravity_refstate-mantle.xmf,908,-8.93287e-06,2.19131e-05,0,1.24876e-06,-1.46363e+09,-1.4595e+09,-1.46243e+09,166897,0.00708551,0.168119,0,0.168268,-787.064,-51268.3,-0,51274.4,166897
step02_gravity_refstate-mantle.xmf,909,-9.34713e-06,2.29358e-05,0,-4.23043e-07,-1.43993e+09,-1.43562e+09,-1.43868e+09,-56539.6,-0.00213656,0.185361,-0,0.185374,228.84,-50536.3,0,50536.8,56539.6
step02_gravity_refstate-mantle.xmf,910,-9.29869e-06,2.3362e-05,0,-2.35305e-06,-1.4168e+09,-1.41244e+09,-1.41556e+09,-314485,-0.0108615,0.199661,-0,0.199956,1142.36,-49823.2,0,49836.3,314485
step02_gravity_refstate-mantle.xmf,911,3.56461e-07,6.94095e-06,0,-6.89431e-06,-1.23027e+09,-1.22939e+09,-1.23031e+09,-921425,-0.0179806,0.202344,-0,0.203141,6418.9,-44083.6,0,44548.4,921425
step02_gravity_refstate-mantle.xmf,912,-8.48025e-06,2.31902e-05,0,-5.44326e-06,-1.37694e+09,-1.3727e+09,-1.3758e+09,-727492,-0.0217351,0.220075,-0,0.221145,2292.03,-48596.7,0,48650.8,727492
step02_gravity_refstate-mantle.xmf,913,-8.7359e-06,2.30463e-05,0,-4.45034e-06,-1.3953e+09,-1.39106e+09,-1.39414e+09,-594788,-0.0190825,0.209594,-0,0.210461,2014.84,-49162,0,49203.3,594788
step02_gravity_refstate-mantle.xmf,914,-3.52794e-06,1.69492e-05,0,-1.06205e-05,-1.30733e+09,-1.30459e+09,-1.30685e+09,-1.41944e+06,-0.0328726,0.23069,-0,0.233021,4267.8,-46463.6,0,46659.2,1.41944e+06
step02_gravity_refstate-mantle.xmf,915,-4.57284e-06,1.84567e-05,0,-1.00179e-05,-1.32214e+09,-1.31907e+09,-1.32153e+09,-1.33889e+06,-0.0328146,0.228695,-0,0.231037,4001.1,-46918.2,0,47088.5,1.33889e+06
step02_gravity_refstate-mantle.xmf,916,-6.87135e-06,2.13125e-05,0,-7.91172e-06,-1.35315e+09,-1.34938e+09,-1.35223e+09,-1.0574e+06,-0.0290877,0.224132,-0,0.226012,3226.41,-47867.9,0,47976.5,1.0574e+06
step02_gravity_refstate-mantle.xmf,917,-5.62505e-06,1.9796e-05,0,-9.17659e-06,-1.33702e+09,-1.33363e+09,-1.33627e+09,-1.22645e+06,-0.0318574,0.225994,-0,0.228228,3703.66,-47374.2,0,47518.8,1.22645e+06
step02_gravity_refstate-mantle.xmf,918,-1.2788e-06,4.46802e-06,0,-2.07332e-06,-1.16248e+09,-1.16171e+09,-1.16231e+09,-277099,0.00227584,0.143315,0,0.143333,10277.3,-41972.4,0,43212.3,277099
step02_gravity_refstate-mantle.xmf,919,-2.66841e-06,4.39555e-06,0,-1.67564e-06,-1.09893e+09,-1.09799e+09,-1.09858e+09,-223950,0.0151982,0.130525,0,0.131407,12071.1,-40000,0,41781.7,223950
step02_gravity_refstate-mantle.xmf,920,-2.32147e-06,4.39584e-06,0,-1.64691e-06,-1.11729e+09,-1.11639e+09,-1.11698e+09,-220109,0.0119253,0.132686,0,0.133221,11646,-40569.3,0,42207.8,220109
step02_gravity_refstate-mantle.xmf,921,-4.84455e-07,4.80425e-06,0,-3.61619e-06,-1.18671e+09,-1.186e+09,-1.18664e+09,-483304,-0.00353902,0.169843,-0,0.16988,8346.14,-42727,0,43534.6,483304
step02_gravity_refstate-mantle.xmf,922,-7.68721e-07,4.61509e-06,0,-2.89202e-06,-1.17833e+09,-1.17761e+09,-1.17823e+09,-386519,-0.00129409,0.158589,-0,0.158594,9083.6,-42465.9,0,43426.5,386519
step02_gravity_refstate-mantle.xmf,923,1.64522e-06,2.29272e-06,0,2.36747e-07,-1.37212e+09,-1.37203e+09,-1.37234e+09,31641.3,-0.0110947,0.0262379,-0,0.0284872,33358.7,-48462.1,0,58833.5,31641.3
step02_gravity_refstate-mantle.xmf,924,2.22918e-06,2.13875e-06,0,1.06498e-07,-1.51787e+09,-1.51788e+09,-1.51817e+09,14233.5,-0.00849415,0.0154256,-0,0.0176097,36184.2,-52967.9,0,64147.5,14233.5
step02_gravity_refstate-mantle.xmf,925,1.36603e-06,2.43518e-06,0,3.03244e-07,-1.32359e+09,-1.32345e+09,-1.32377e+09,40528.6,-0.0129938,0.03131,-0,0.0338992,30940.6,-46961.6,0,56238,40528.6
step02_gravity_refstate-mantle.xmf,926,6.27095e-07,2.65744e-06,0,2.49174e-07,-1.20623e+09,-1.20596e+09,-1.20631e+09,33302.1,-0.00917494,0.0426427,-0,0.0436185,28929.2,-43331.9,0,52101.4,33302.1
step02_gravity_refstate-mantle.xmf,927,2.86659e-07,2.76794e-06,0,1.68977e-07,-1.16185e+09,-1.16152e+09,-1.16189e+09,22583.7,-0.00711387,0.047915,-0,0.0484402,27858.2,-41959,0,50365,22583.7
step02_gravity_refstate-mantle.xmf,928,1.03661e-06,2.55144e-06,0,3.03629e-07,-1.26994e+09,-1.26974e+09,-1.27008e+09,40580,-0.0119769,0.036627,-0,0.0385355,29671.9,-45302.6,0,54154.8,40580
step02_gravity_refstate-mantle.xmf,929,-2.12354e-07,2.89611e-06,0,-3.70187e-08,-1.09853e+09,-1.09811e+09,-1.0985e+09,-4947.55,-0.00336038,0.0557214,-0,0.0558226,26604.2,-40000,0,48039.4,4947.55
step02_gravity_refstate-mantle.xmf,930,4.71295e-08,2.8512e-06,0,8.85693e-08,-1.13449e+09,-1.13411e+09,-1.13449e+09,11837.3,-0.00559528,0.0518325,-0,0.0521336,26961.7,-41112.5,0,49164.8,11837.3
step02_gravity_refstate-mantle.xmf,931,-3.86242e-07,3.0285e-06,0,-7.95991e-08,-1.09855e+09,-1.0981e+09,-1.0985e+09,-10638.4,-0.00290298,0.0591831,-0,0.0592542,25039.7,-40000,0,47191,10638.4
step02_gravity_refstate-mantle.xmf,932,-3.2621e-08,2.94669e-06,0,8.72312e-08,-1.13979e+09,-1.13939e+09,-1.13978e+09,11658.4,-0.00595828,0.053794,-0,0.054123,25734.1,-41275.8,0,48640.9,11658.4
step02_gravity_refstate-mantle.xmf,933,-6.1288e-06,1.6725e-05,0,1.49849e-06,-1.63875e+09,-1.6357e+09,-1.63793e+09,200274,0.0287606,0.0551325,0,0.0621833,-4082.15,-56683.4,-0,56830.2,200274
step02_gravity_refstate-mantle.xmf,934,-5.90088e-06,1.63782e-05,0,1.15077e-06,-1.66612e+09,-1.66314e+09,-1.66533e+09,153800,0.0305167,0.0403672,0,0.0506042,-4426.02,-57529.4,-0,57699.4,153800
step02_gravity_refstate-mantle.xmf,935,2.58595e-06,2.27262e-06,0,-5.65367e-09,-1.74543e+09,-1.74547e+09,-1.74578e+09,-755.613,-0.00605173,-4.65883e-19,-0,0.00605173,37657.4,-60000,0,70838.4,755.613
step02_gravity_refstate-mantle.xmf,936,-7.886e-06,1.96765e-05,0,1.80738e-06,-1.52675e+09,-1.52307e+09,-1.5257e+09,241556,0.0144423,0.124952,0,0.125784,-1765.02,-53219.6,-0,53248.8,241556
step02_gravity_refstate-mantle.xmf,937,-9.08334e-06,2.21484e-05,0,8.74803e-08,-1.46188e+09,-1.45771e+09,-1.46067e+09,11691.7,0.00050971,0.170178,0,0.170179,-56.2381,-51214.1,-0,51214.1,11691.7
step02_gravity_refstate-mantle.xmf,938,-9.22536e-06,2.28417e-05,0,-1.65481e-06,-1.43546e+09,-1.43118e+09,-1.43423e+09,-221166,-0.00824098,0.187304,-0,0.187485,882.952,-50398.8,0,50406.5,221166
step02_gravity_refstate-mantle.xmf,939,-2.44942e-06,1.53694e-05,0,-1.10544e-05,-1.295e+09,-1.29262e+09,-1.29467e+09,-1.47741e+06,-0.0323286,0.23127,-0,0.233519,4492.11,-46085.9,0,46304.4,1.47741e+06
step02_gravity_refstate-mantle.xmf,940,-3.1575e-07,1.09078e-05,0,-9.69672e-06,-1.26851e+09,-1.26701e+09,-1.26847e+09,-1.29597e+06,-0.028693,0.221818,-0,0.223666,5248.56,-45270.6,0,45573.8,1.29597e+06
step02_gravity_refstate-mantle.xmf,941,-1.09561e-06,1.28743e-05,0,-1.03394e-05,-1.28672e+09,-1.28485e+09,-1.28657e+09,-1.38186e+06,-0.0319883,0.223188,-0,0.225469,4941.96,-45832.9,0,46098.6,1.38186e+06
step02_gravity_refstate-mantle.xmf,942,4.25907e-07,8.00952e-06,0,-7.69131e-06,-1.24866e+09,-1.24764e+09,-1.24871e+09,-1.02794e+06,-0.0235671,0.20531,-0,0.206658,6119.88,-44654.9,0,45072.3,1.02794e+06
step02_gravity_refstate-mantle.xmf,943,1.17033e-07,5.55998e-06,0,-5.05772e-06,-1.20991e+09,-1.20918e+09,-1.20993e+09,-675965,-0.0111102,0.185081,-0,0.185414,7365.91,-43449.7,0,44069.7,675965
step02_gravity_refstate-mantle.xmf,944,4.35819e-07,6.22442e-06,0,-5.74535e-06,-1.2288e+09,-1.22803e+09,-1.22886e+09,-767866,-0.0172562,0.187941,-0,0.188731,7067.76,-44037.1,0,44600.6,767866
step02_gravity_refstate-mantle.xmf,945,-8.81734e-06,2.26993e-05,0,-3.6042e-06,-1.41484e+09,-1.41063e+09,-1.41366e+09,-481702,-0.0167457,0.197506,-0,0.198215,1788.36,-49764.1,0,49796.2,481702
step02_gravity_refstate-mantle.xmf,946,-7.53256e-06,2.17944e-05,0,-6.61939e-06,-1.37425e+09,-1.37033e+09,-1.37324e+09,-884681,-0.0267145,0.21466,-0,0.216316,2909.93,-48516.4,0,48603.6,884681
step02_gravity_refstate-mantle.xmf,947,-7.90266e-07,4.52647e-06,0,-2.3149e-06,-1.17979e+09,-1.17908e+09,-1.17968e+09,-309386,-0.00241305,0.14568,-0,0.1457,9929.95,-42510.5,0,43654.9,309386
step02_gravity_refstate-mantle.xmf,948,-1.5007e-06,4.41702e-06,0,-1.77938e-06,-1.15336e+09,-1.15257e+09,-1.15316e+09,-237815,0.00397278,0.136553,0,0.136611,10899.5,-41689,0,43090.3,237815
step02_gravity_refstate-mantle.xmf,949,-1.99003e-06,4.31464e-06,0,-1.32145e-06,-1.12456e+09,-1.12372e+09,-1.1243e+09,-176612,0.00827494,0.122293,0,0.122572,12531.4,-40796,0,42677.3,176612
step02_gravity_refstate-mantle.xmf,950,-1.71244e-06,4.35979e-06,0,-1.5076e-06,-1.14171e+09,-1.1409e+09,-1.14148e+09,-201491,0.00580446,0.129254,0,0.129384,11655.8,-41327.7,0,42939.9,201491
step02_gravity_refstate-mantle.xmf,951,-2.46254e-06,4.30856e-06,0,-1.42235e-06,-1.0989e+09,-1.09799e+09,-1.09857e+09,-190097,0.0128605,0.121318,0,0.121998,12982.1,-40000,0,42054,190097
step02_gravity_refstate-mantle.xmf,952,-2.25426e-06,4.21669e-06,0,-1.18941e-06,-1.09886e+09,-1.09799e+09,-1.09856e+09,-158965,0.0106095,0.112691,0,0.113189,13939,-40000,0,42359.1,158965
step02_gravity_refstate-mantle.xmf,953,-1.94602e-06,4.23894e-06,0,-1.12185e-06,-1.11977e+09,-1.11894e+09,-1.11951e+09,-149936,0.00749274,0.114237,0,0.114482,13448.1,-40648.1,0,42814.9,149936
step02_gravity_refstate-mantle.xmf,954,-2.03832e-06,4.10861e-06,0,-9.8482e-07,-1.09882e+09,-1.098e+09,-1.09855e+09,-131621,0.00846257,0.10463,0,0.104972,14944.2,-40000,0,42700.4,131621
step02_gravity_refstate-mantle.xmf,955,-1.70333e-06,4.14389e-06,0,-9.0613e-07,-1.12583e+09,-1.12505e+09,-1.1256e+09,-121104,0.00471058,0.106148,0,0.106253,14307,-40836.6,0,43270.3,121104
step02_gravity_refstate-mantle.xmf,956,3.42405e-08,5.14229e-06,0,-4.11207e-06,-1.20678e+09,-1.2061e+09,-1.20679e+09,-549578,-0.0100351,0.171596,-0,0.171889,8079.51,-43351.5,0,44098,549578
step02_gravity_refstate-mantle.xmf,957,1.6347e-06,2.35154e-06,0,2.79889e-07,-1.374e+09,-1.37391e+09,-1.37422e+09,37407.1,-0.0136417,0.026935,-0,0.0301926,31843.5,-48520.4,0,58036.5,37407.1
step02_gravity_refstate-mantle.xmf,958,2.42223e-06,2.15609e-06,0,8.30794e-08,-1.5929e+09,-1.59293e+09,-1.59322e+09,11103.6,-0.00973024,0.0104688,-0,0.0142924,35980.1,-55286.8,0,65963.6,11103.6
step02_gravity_refstate-mantle.xmf,959,2.5526e-06,2.20715e-06,0,3.64475e-08,-1.67657e+09,-1.67662e+09,-1.67691e+09,4871.2,-0.0092539,0.00479461,-0,0.0104222,36371.8,-57872.5,0,68353,4871.2
step02_gravity_refstate-mantle.xmf,960,1.87267e-06,2.27677e-06,0,2.39965e-07,-1.42456e+09,-1.42451e+09,-1.42481e+09,32071.3,-0.0135727,0.022784,-0,0.0265204,32821.6,-50083.5,0,59880.1,32071.3
step02_gravity_refstate-mantle.xmf,961,2.0911e-06,2.20174e-06,0,1.81606e-07,-1.47847e+09,-1.47845e+09,-1.47875e+09,24271.7,-0.0121876,0.0185289,-0,0.0221779,34186.1,-51750,0,62022.2,24271.7
step02_gravity_refstate-mantle.xmf,962,-5.71562e-07,3.16586e-06,0,-1.35501e-07,-1.09858e+09,-1.09808e+09,-1.09851e+09,-18109.7,-0.00220063,0.0631113,-0,0.0631497,23550.3,-40000,0,46417.8,18109.7
step02_gravity_refstate-mantle.xmf,963,-1.89993e-07,3.07931e-06,0,5.29069e-08,-1.13911e+09,-1.13867e+09,-1.13908e+09,7071.01,-0.00573953,0.0574255,-0,0.0577116,24204.2,-41254.2,0,47830.4,7071.01
step02_gravity_refstate-mantle.xmf,964,-5.72987e-06,1.61218e-05,0,7.73569e-07,-1.6938e+09,-1.69088e+09,-1.69304e+09,103388,0.0318614,0.0260296,0,0.0411423,-4696.12,-58385.1,-0,58573.6,103388
step02_gravity_refstate-mantle.xmf,965,-5.71836e-06,1.61309e-05,0,3.16302e-09,-1.74608e+09,-1.74316e+09,-1.74532e+09,422.738,0.0318334,-2.24266e-19,0,0.0318334,-4720.6,-60000,-0,60185.4,422.738
step02_gravity_refstate-mantle.xmf,966,-6.66555e-06,1.74453e-05,0,1.2652e-06,-1.63741e+09,-1.63419e+09,-1.63652e+09,169095,0.0228965,0.0580495,0,0.0624019,-3162.96,-56640.3,-0,56728.5,169095
step02_gravity_refstate-mantle.xmf,967,-6.98197e-06,1.79537e-05,0,1.42089e-06,-1.61086e+09,-1.60753e+09,-1.60993e+09,189902,0.0200127,0.0736465,0,0.0763172,-2690.54,-55819.3,-0,55884.1,189902
step02_gravity_refstate-mantle.xmf,968,-7.32255e-06,1.85336e-05,0,1.50311e-06,-1.58344e+09,-1.57998e+09,-1.58246e+09,200891,0.0170617,0.0902575,0,0.091856,-2224.27,-54971.3,-0,55016.3,200891
step02_gravity_refstate-mantle.xmf,969,-7.7309e-06,1.9252e-05,0,1.48936e-06,-1.5534e+09,-1.5498e+09,-1.55237e+09,199053,0.0138026,0.109031,0,0.109901,-1733.71,-54042.7,-0,54070.5,199053
step02_gravity_refstate-mantle.xmf,970,-8.13716e-06,1.99844e-05,0,1.11915e-06,-1.53089e+09,-1.52713e+09,-1.5298e+09,149575,0.0089781,0.124132,0,0.124457,-1089.85,-53346.3,-0,53357.4,149575
step02_gravity_refstate-mantle.xmf,971,-8.46599e-06,2.06735e-05,0,8.58758e-07,-1.50769e+09,-1.5038e+09,-1.50656e+09,114773,0.00605816,0.139338,0,0.13947,-712.272,-52629.4,-0,52634.2,114773
step02_gravity_refstate-mantle.xmf,972,-8.7814e-06,2.13898e-05,0,5.38873e-07,-1.48463e+09,-1.4806e+09,-1.48346e+09,72020.4,0.00338805,0.154708,0,0.154745,-385.7,-51916.8,-0,51918.2,72020.4
step02_gravity_refstate-mantle.xmf,973,-9.00182e-06,2.20387e-05,0,-1.16515e-06,-1.45987e+09,-1.45572e+09,-1.45867e+09,-155722,-0.00636812,0.170849,-0,0.170968,703.091,-51152.1,0,51156.9,155722
step02_gravity_refstate-mantle.xmf,974,-8.86989e-06,2.23702e-05,0,-2.86147e-06,-1.43267e+09,-1.42849e+09,-1.43148e+09,-382435,-0.0142566,0.18656,-0,0.187104,1543.37,-50313.5,0,50337.2,382435
step02_gravity_refstate-mantle.xmf,975,2.24109e-07,9.31528e-06,0,-8.40769e-06,-1.26719e+09,-1.26598e+09,-1.26722e+09,-1.12369e+06,-0.0284152,0.207099,-0,0.20904,5842.49,-45229.5,0,45605.3,1.12369e+06
step02_gravity_refstate-mantle.xmf,976,5.98414e-07,7.09632e-06,0,-6.49507e-06,-1.24825e+09,-1.24738e+09,-1.24833e+09,-868067,-0.023123,0.190535,-0,0.191933,6763.61,-44641.2,0,45150.7,868067
step02_gravity_refstate-mantle.xmf,977,-7.87805e-06,2.17663e-05,0,-5.66043e-06,-1.394e+09,-1.39004e+09,-1.39295e+09,-756516,-0.0245964,0.204168,-0,0.205644,2675.29,-49124.2,0,49197,756516
step02_gravity_refstate-mantle.xmf,978,-8.36118e-06,2.21162e-05,0,-4.55293e-06,-1.40943e+09,-1.40536e+09,-1.40831e+09,-608500,-0.0209375,0.197653,-0,0.198759,2263.89,-49598.5,0,49650.2,608500
step02_gravity_refstate-mantle.xmf,979,-2.10006e-06,1.43959e-05,0,-1.01657e-05,-1.30589e+09,-1.30369e+09,-1.30561e+09,-1.35865e+06,-0.0342624,0.218422,-0,0.221093,4807.95,-46422.3,0,46670.6,1.35865e+06
step02_gravity_refstate-mantle.xmf,980,-3.17889e-06,1.60088e-05,0,-9.88384e-06,-1.32178e+09,-1.31921e+09,-1.32135e+09,-1.32098e+06,-0.0349048,0.216982,-0,0.219772,4544.24,-46910,0,47129.6,1.32098e+06
step02_gravity_refstate-mantle.xmf,981,-4.29425e-06,1.75197e-05,0,-9.35208e-06,-1.33803e+09,-1.33512e+09,-1.33746e+09,-1.24991e+06,-0.0345754,0.214823,-0,0.217587,4244.58,-47408.4,0,47598.1,1.24991e+06
step02_gravity_refstate-mantle.xmf,982,-5.46395e-06,1.89634e-05,0,-8.51551e-06,-1.35509e+09,-1.35183e+09,-1.35436e+09,-1.1381e+06,-0.0331041,0.21207,-0,0.214638,3874.86,-47931.3,0,48087.6,1.1381e+06
step02_gravity_refstate-mantle.xmf,983,-6.36729e-06,1.99485e-05,0,-7.55679e-06,-1.3719e+09,-1.36838e+09,-1.37105e+09,-1.00997e+06,-0.0310836,0.207436,-0,0.209752,3535.04,-48446.9,0,48575.7,1.00997e+06
step02_gravity_refstate-mantle.xmf,984,-8.76021e-07,4.45045e-06,0,-1.87947e-06,-1.17817e+09,-1.17745e+09,-1.17805e+09,-251191,-0.00261522,0.135378,-0,0.135403,10720.5,-42459.6,0,43792.1,251191
step02_gravity_refstate-mantle.xmf,985,-1.82245e-06,3.99068e-06,0,-8.03563e-07,-1.09878e+09,-1.09801e+09,-1.09854e+09,-107396,0.00643757,0.0971227,0,0.0973358,15999.9,-40000,0,43081.3,107396
step02_gravity_refstate-mantle.xmf,986,-1.50187e-06,4.02801e-06,0,-7.11641e-07,-1.12765e+09,-1.12691e+09,-1.12745e+09,-95110.8,0.00273559,0.0981494,0,0.0981875,15331.7,-40893.9,0,43673.5,95110.8
step02_gravity_refstate-mantle.xmf,987,-9.88344e-08,4.87652e-06,0,-3.33915e-06,-1.20381e+09,-1.20314e+09,-1.2038e+09,-446277,-0.009136,0.159408,-0,0.159669,8802.38,-43258,0,44144.5,446277
step02_gravity_refstate-mantle.xmf,988,-7.65913e-07,3.30649e-06,0,-2.05481e-07,-1.09861e+09,-1.09807e+09,-1.09851e+09,-27462.6,-0.0012631,0.0675181,-0,0.0675299,22132.3,-40000,0,45714.8,27462.6
step02_gravity_refstate-mantle.xmf,989,-3.44171e-07,3.21355e-06,0,7.52383e-09,-1.13941e+09,-1.13893e+09,-1.13936e+09,1005.56,-0.00538708,0.0613619,-0,0.0615979,22773.3,-41262.8,0,47130.1,1005.56
step02_gravity_refstate-mantle.xmf,990,2.28836e-06,2.18387e-06,0,1.3817e-07,-1.53953e+09,-1.53954e+09,-1.53983e+09,18466.4,-0.0123879,0.0142796,-0,0.0189041,34588.2,-53637.5,0,63822.6,18466.4
step02_gravity_refstate-mantle.xmf,991,1.61726e-06,2.43809e-06,0,3.18234e-07,-1.37595e+09,-1.37584e+09,-1.37617e+09,42532,-0.0165386,0.0280311,-0,0.0325464,30110.6,-48580.7,0,57155.3,42532
step02_gravity_refstate-mantle.xmf,992,1.34743e-06,2.53011e-06,0,3.38791e-07,-1.3282e+09,-1.32804e+09,-1.32838e+09,45279.5,-0.0156347,0.0325829,-0,0.0361399,29157.1,-47104.1,0,55397.9,45279.5
step02_gravity_refstate-mantle.xmf,993,2.53421e-07,2.86696e-06,0,1.90532e-07,-1.17378e+09,-1.17343e+09,-1.17382e+09,25464.6,-0.00828922,0.0494703,-0,0.0501599,26364.8,-42327.7,0,49867.2,25464.6
step02_gravity_refstate-mantle.xmf,994,5.59175e-07,2.77286e-06,0,2.67984e-07,-1.21176e+09,-1.21147e+09,-1.21184e+09,35816.1,-0.0105691,0.0447791,-0,0.0460095,27147.6,-43502.7,0,51278.5,35816.1
step02_gravity_refstate-mantle.xmf,995,8.69733e-07,2.67682e-06,0,3.15443e-07,-1.25389e+09,-1.25364e+09,-1.254e+09,42159,-0.0127271,0.0400503,-0,0.0420239,27928.4,-44805.7,0,52797.2,42159
step02_gravity_refstate-mantle.xmf,996,1.6614e-07,2.98523e-06,0,1.82555e-07,-1.17801e+09,-1.17763e+09,-1.17803e+09,24398.4,-0.00891629,0.052137,-0,0.0528939,24887.8,-42457.9,0,49214.6,24398.4
step02_gravity_refstate-mantle.xmf,997,-6.05449e-06,1.65547e-05,0,3.9092e-07,-1.71705e+09,-1.71403e+09,-1.71624e+09,52246.4,0.028545,0.0148648,0,0.0321835,-4152.36,-59102,-0,59247.7,52246.4
step02_gravity_refstate-mantle.xmf,998,-6.38696e-06,1.70219e-05,0,1.08555e-06,-1.65972e+09,-1.65659e+09,-1.65887e+09,145083,0.0255362,0.0452784,0,0.051983,-3605.14,-57330.1,-0,57443.3,145083
step02_gravity_refstate-mantle.xmf,999,-6.38761e-06,1.70022e-05,0,7.36677e-07,-1.68746e+09,-1.68434e+09,-1.68661e+09,98456.9,0.0250958,0.0307597,0,0.0396983,-3572.12,-58187,-0,58296.6,98456.9
step02_gravity_refstate-mantle.xmf,1000,2.58707e-06,2.32191e-06,0,-3.13164e-09,-1.74543e+09,-1.74546e+09,-1.74577e+09,-418.543,-0.0118436,-3.90588e-19,-0,0.0118436,35418.4,-60000,0,69674,418.543
step02_gravity_refstate-mantle.xmf,1001,-8.81309e-06,2.14418e-05,0,-4.66229e-07,-1.48284e+09,-1.4788e+09,-1.48166e+09,-62311.5,-0.00281935,0.155951,-0,0.155976,320.124,-51861.4,0,51862.4,62311.5
step02_gravity_refstate-mantle.xmf,1002,-8.87959e-06,2.206e-05,0,-2.1537e-06,-1.44911e+09,-1.44497e+09,-1.44792e+09,-287842,-0.0114265,0.17658,-0,0.176949,1254.45,-50820.5,0,50836,287842
step02_gravity_refstate-mantle.xmf,1003,-2.30918e-07,1.07499e-05,0,-9.03926e-06,-1.28489e+09,-1.28342e+09,-1.28486e+09,-1.2081e+06,-0.0320974,0.208035,-0,0.210497,5576.96,-45776.8,0,46115.3,1.2081e+06
step02_gravity_refstate-mantle.xmf,1004,5.78147e-07,8.11039e-06,0,-7.25085e-06,-1.2667e+09,-1.26569e+09,-1.26678e+09,-969076,-0.0280529,0.192805,-0,0.194835,6463.72,-45213.5,0,45673.2,969076
step02_gravity_refstate-mantle.xmf,1005,6.87313e-07,6.40308e-06,0,-5.47278e-06,-1.24875e+09,-1.24799e+09,-1.24885e+09,-731438,-0.0228154,0.176425,-0,0.177894,7438.3,-44655.5,0,45270.8,731438
step02_gravity_refstate-mantle.xmf,1006,4.30604e-07,5.69163e-06,0,-4.75167e-06,-1.22778e+09,-1.22708e+09,-1.22784e+09,-635061,-0.0166328,0.174105,-0,0.174898,7759.44,-44004.1,0,44683,635061
step02_gravity_refstate-mantle.xmf,1007,-8.2084e-06,2.1493e-05,0,-4.22558e-06,-1.4267e+09,-1.42273e+09,-1.42561e+09,-564748,-0.0209446,0.185648,-0,0.186826,2311.16,-50131.5,0,50184.7,564748
step02_gravity_refstate-mantle.xmf,1008,-6.95547e-06,2.05059e-05,0,-6.69299e-06,-1.38713e+09,-1.38346e+09,-1.3862e+09,-894519,-0.0290593,0.201744,-0,0.203826,3259.65,-48915.1,0,49023.6,894519
step02_gravity_refstate-mantle.xmf,1009,-9.66831e-07,3.44805e-06,0,-2.90933e-07,-1.09864e+09,-1.09805e+09,-1.09851e+09,-38883.2,-0.000103555,0.0724152,-0,0.0724153,20782.4,-40000,0,45076.7,38883.2
step02_gravity_refstate-mantle.xmf,1010,-5.24157e-07,3.35063e-06,0,-6.1818e-08,-1.13714e+09,-1.13662e+09,-1.13707e+09,-8261.97,-0.00458144,0.0659803,-0,0.0661392,21425.1,-41191.9,0,46430.6,8261.97
step02_gravity_refstate-mantle.xmf,1011,-2.30335e-07,4.68233e-06,0,-2.68495e-06,-1.20134e+09,-1.20068e+09,-1.20131e+09,-358844,-0.00853793,0.147649,-0,0.147896,9579.26,-43180.3,0,44230.1,358844
step02_gravity_refstate-mantle.xmf,1012,-1.1727e-06,3.58871e-06,0,-3.92474e-07,-1.09868e+09,-1.09804e+09,-1.09852e+09,-52454.2,0.00126305,0.0778137,0,0.077824,19497.2,-40000,0,44498.8,52454.2
step02_gravity_refstate-mantle.xmf,1013,-7.1216e-07,3.48578e-06,0,-1.5069e-07,-1.13415e+09,-1.13359e+09,-1.13405e+09,-20139.7,-0.00347336,0.0710831,-0,0.0711679,20161,-41098.5,0,45777.2,20139.7
step02_gravity_refstate-mantle.xmf,1014,-3.25416e-07,4.53804e-06,0,-2.15586e-06,-1.20003e+09,-1.19938e+09,-1.19999e+09,-288131,-0.00840786,0.136632,-0,0.13689,10385.7,-43139,0,44371.5,288131
step02_gravity_refstate-mantle.xmf,1015,-1.06731e-06,4.36703e-06,0,-1.52497e-06,-1.17002e+09,-1.1693e+09,-1.16988e+09,-203812,-0.00121847,0.127081,-0,0.127087,11508.4,-42206.6,0,43747.4,203812
step02_gravity_refstate-mantle.xmf,1016,-1.38306e-06,3.72671e-06,0,-5.10827e-07,-1.09871e+09,-1.09803e+09,-1.09853e+09,-68272,0.00282009,0.0837243,0,0.0837718,18273.7,-40000,0,43976.5,68272
step02_gravity_refstate-mantle.xmf,1017,-8.90055e-07,3.61925e-06,0,-2.50693e-07,-1.13264e+09,-1.13203e+09,-1.13252e+09,-33505.1,-0.00231124,0.0765765,-0,0.0766113,18941.6,-41051,0,45210.2,33505.1
step02_gravity_refstate-mantle.xmf,1018,-1.59909e-06,3.86092e-06,0,-6.47379e-07,-1.09875e+09,-1.09802e+09,-1.09853e+09,-86522.3,0.0045506,0.0901572,0,0.090272,17108.9,-40000,0,43505.3,86522.3
step02_gravity_refstate-mantle.xmf,1019,-1.04714e-06,3.7504e-06,0,-3.59387e-07,-1.13335e+09,-1.13271e+09,-1.13321e+09,-48032.1,-0.00125165,0.0824594,-0,0.0824689,17751.9,-41072.4,0,44744.5,48032.1
step02_gravity_refstate-mantle.xmf,1020,-1.1889e-06,3.88892e-06,0,-4.93415e-07,-1.13595e+09,-1.13527e+09,-1.13579e+09,-65945,-0.000217434,0.0894669,-0,0.0894671,16483.9,-41152.1,0,44330.7,65945
step02_gravity_refstate-mantle.xmf,1021,-1.22344e-06,4.27721e-06,0,-1.22146e-06,-1.16013e+09,-1.15939e+09,-1.15996e+09,-163248,0.000187003,0.118859,0,0.118859,12401.2,-41899.6,0,43696.3,163248
step02_gravity_refstate-mantle.xmf,1022,-1.32786e-06,4.1874e-06,0,-9.56058e-07,-1.15071e+09,-1.14997e+09,-1.15053e+09,-127777,0.000906739,0.109903,0,0.109907,13480.7,-41607.7,0,43737.1,127777
step02_gravity_refstate-mantle.xmf,1023,-1.16542e-06,4.06797e-06,0,-7.18755e-07,-1.15322e+09,-1.15252e+09,-1.15307e+09,-96061.6,-0.00101103,0.100381,-0,0.100386,14596.5,-41686.2,0,44167.9,96061.6
step02_gravity_refstate-mantle.xmf,1024,3.86032e-07,5.26036e-06,0,-3.90164e-06,-1.22587e+09,-1.22522e+09,-1.22592e+09,-521455,-0.0157751,0.161321,-0,0.16209,8482.67,-43943.7,0,44754.9,521455
step02_gravity_refstate-mantle.xmf,1025,1.86253e-06,2.35943e-06,0,2.81656e-07,-1.42606e+09,-1.426e+09,-1.42631e+09,37643.3,-0.0169797,0.0236523,-0,0.029116,31023.7,-50130.1,0,58953.4,37643.3
step02_gravity_refstate-mantle.xmf,1026,2.5031e-06,2.22156e-06,0,7.21312e-08,-1.63663e+09,-1.63667e+09,-1.63697e+09,9640.34,-0.0133245,0.0076635,-0,0.0153711,34672,-56638.4,0,66408.3,9640.34
step02_gravity_refstate-mantle.xmf,1027,2.4095e-06,2.22085e-06,0,1.23256e-07,-1.58725e+09,-1.58728e+09,-1.58757e+09,16473.1,-0.014804,0.0111831,-0,0.0185532,33853.5,-55112.5,0,64679.6,16473.1
step02_gravity_refstate-mantle.xmf,1028,2.08057e-06,2.29108e-06,0,2.32487e-07,-1.47835e+09,-1.47832e+09,-1.47863e+09,31071.9,-0.0167269,0.019357,-0,0.0255828,32008.1,-51746.5,0,60845.9,31071.9
step02_gravity_refstate-mantle.xmf,1029,2.26281e-06,2.2469e-06,0,1.79217e-07,-1.53195e+09,-1.53195e+09,-1.53225e+09,23952.3,-0.0161172,0.0152527,-0,0.0221903,32889.8,-53403.3,0,62718.8,23952.3
step02_gravity_refstate-mantle.xmf,1030,4.85534e-08,3.11815e-06,0,1.53963e-07,-1.17932e+09,-1.17891e+09,-1.17933e+09,20577.2,-0.00919073,0.0557496,-0,0.0565021,23371,-42498,0,48500.4,20577.2
step02_gravity_refstate-mantle.xmf,1031,1.12295e-06,2.60695e-06,0,3.35631e-07,-1.29239e+09,-1.29219e+09,-1.29254e+09,44857.1,-0.0145458,0.0362453,-0,0.0390551,28432.3,-45996.6,0,54074.8,44857.1
step02_gravity_refstate-mantle.xmf,1032,-6.7999e-06,1.75698e-05,0,8.51746e-07,-1.66318e+09,-1.65992e+09,-1.66227e+09,113836,0.0200671,0.0448129,0,0.0491008,-2780.45,-57435.6,-0,57502.9,113836
step02_gravity_refstate-mantle.xmf,1033,-6.37496e-06,1.70119e-05,0,4.9988e-09,-1.74615e+09,-1.74302e+09,-1.7453e+09,668.09,0.0246945,-2.2304e-19,0,0.0246945,-3539.92,-60000,-0,60104.3,668.09
step02_gravity_refstate-mantle.xmf,1034,-7.10332e-06,1.80295e-05,0,9.41121e-07,-1.63727e+09,-1.63391e+09,-1.63632e+09,125781,0.0164145,0.0599192,0,0.0621269,-2221.27,-56634.4,-0,56678,125781
step02_gravity_refstate-mantle.xmf,1035,2.56569e-06,2.28744e-06,0,4.46635e-08,-1.68935e+09,-1.68939e+09,-1.68969e+09,5969.28,-0.0148931,0.00403302,-0,0.0154295,34189,-58267.5,0,67557.3,5969.28
step02_gravity_refstate-mantle.xmf,1036,-7.39219e-06,1.85021e-05,0,9.66237e-07,-1.61028e+09,-1.60682e+09,-1.6093e+09,129138,0.0131717,0.0759296,0,0.0770636,-1737.73,-55800.1,-0,55827.1,129138
step02_gravity_refstate-mantle.xmf,1037,-7.70131e-06,1.90362e-05,0,8.848e-07,-1.58284e+09,-1.57926e+09,-1.58181e+09,118254,0.00979329,0.092601,0,0.0931174,-1255.46,-54951.5,-0,54965.9,118254
step02_gravity_refstate-mantle.xmf,1038,-8.01071e-06,1.96064e-05,0,6.30287e-07,-1.55719e+09,-1.5535e+09,-1.55612e+09,84237.9,0.00588224,0.108587,0,0.108746,-731.948,-54158.7,-0,54163.7,84237.9
step02_gravity_refstate-mantle.xmf,1039,-8.2991e-06,2.02057e-05,0,2.37171e-07,-1.53148e+09,-1.52767e+09,-1.53037e+09,31698,0.00190547,0.124776,0,0.124791,-229.938,-53364,-0,53364.5,31698
step02_gravity_refstate-mantle.xmf,1040,-8.56097e-06,2.08263e-05,0,-8.55881e-08,-1.50652e+09,-1.5026e+09,-1.50538e+09,-11438.9,-0.000557582,0.140618,-0,0.140619,65.3204,-52593.1,0,52593.1,11438.9
step02_gravity_refstate-mantle.xmf,1041,-8.61553e-06,2.11182e-05,0,-1.4025e-06,-1.48529e+09,-1.48132e+09,-1.48414e+09,-187445,-0.00875614,0.153228,-0,0.153478,1003.92,-51937.7,0,51947.4,187445
step02_gravity_refstate-mantle.xmf,1042,-8.57426e-06,2.1327e-05,0,-2.28044e-06,-1.46629e+09,-1.4623e+09,-1.46515e+09,-304781,-0.0131817,0.164147,-0,0.164676,1487.5,-51351.6,0,51373.1,304781
step02_gravity_refstate-mantle.xmf,1043,-8.41262e-06,2.13988e-05,0,-3.2404e-06,-1.44774e+09,-1.44376e+09,-1.44662e+09,-433079,-0.0174341,0.174162,-0,0.175033,1945.99,-50779.7,0,50817,433079
step02_gravity_refstate-mantle.xmf,1044,-9.7307e-07,1.22592e-05,0,-9.41908e-06,-1.30151e+09,-1.29974e+09,-1.30138e+09,-1.25886e+06,-0.0345515,0.20792,-0,0.210771,5331.41,-46289.1,0,46595.1,1.25886e+06
step02_gravity_refstate-mantle.xmf,1045,2.53942e-07,9.3374e-06,0,-7.92695e-06,-1.28452e+09,-1.28331e+09,-1.28456e+09,-1.05944e+06,-0.0320189,0.194463,-0,0.197081,6171.77,-45765,0,46179.3,1.05944e+06
step02_gravity_refstate-mantle.xmf,1046,7.24099e-07,7.28113e-06,0,-6.22102e-06,-1.26752e+09,-1.26665e+09,-1.26762e+09,-831439,-0.0278364,0.179283,-0,0.181432,7095.36,-45237.8,0,45790.9,831439
step02_gravity_refstate-mantle.xmf,1047,-7.75618e-06,2.11406e-05,0,-5.16871e-06,-1.41274e+09,-1.40888e+09,-1.4117e+09,-690799,-0.0245963,0.191241,-0,0.192816,2726.8,-49702.2,0,49777,690799
step02_gravity_refstate-mantle.xmf,1048,-1.97676e-06,1.38362e-05,0,-9.4125e-06,-1.32038e+09,-1.31827e+09,-1.32012e+09,-1.25798e+06,-0.0362255,0.205602,-0,0.208769,5095.17,-46869.4,0,47145.5,1.25798e+06
step02_gravity_refstate-mantle.xmf,1049,-2.99216e-06,1.52775e-05,0,-9.16437e-06,-1.33749e+09,-1.33504e+09,-1.33709e+09,-1.22482e+06,-0.036704,0.203345,-0,0.206631,4833.84,-47394.5,0,47640.4,1.22482e+06
step02_gravity_refstate-mantle.xmf,1050,-4.06808e-06,1.66864e-05,0,-8.68891e-06,-1.35461e+09,-1.35183e+09,-1.35406e+09,-1.16127e+06,-0.0361691,0.200888,-0,0.204119,4518.68,-47919.8,0,48132.4,1.16127e+06
step02_gravity_refstate-mantle.xmf,1051,-5.05922e-06,1.78801e-05,0,-8.00874e-06,-1.37167e+09,-1.36861e+09,-1.371e+09,-1.07037e+06,-0.0348282,0.197385,-0,0.200434,4190.1,-48443.4,0,48624.3,1.07037e+06
step02_gravity_refstate-mantle.xmf,1052,-5.94749e-06,1.88721e-05,0,-7.1728e-06,-1.38916e+09,-1.38584e+09,-1.38836e+09,-958645,-0.0327318,0.192796,-0,0.195555,3833.71,-48980.2,0,49130,958645
step02_gravity_refstate-mantle.xmf,1053,-6.87126e-06,1.9901e-05,0,-6.1462e-06,-1.40635e+09,-1.40277e+09,-1.40543e+09,-821439,-0.0292673,0.188728,-0,0.190984,3344.29,-49507.7,0,49620.6,821439
step02_gravity_refstate-mantle.xmf,1054,-4.76418e-07,4.42473e-06,0,-1.70649e-06,-1.1962e+09,-1.19554e+09,-1.19613e+09,-228072,-0.00773336,0.1268,-0,0.127036,11223.2,-43019.2,0,44459.1,228072
step02_gravity_refstate-mantle.xmf,1055,-1.04526e-06,3.95526e-06,0,-5.41002e-07,-1.15318e+09,-1.15252e+09,-1.15304e+09,-72304.9,-0.00218984,0.0927023,-0,0.0927282,15661,-41685.5,0,44530.3,72304.9
step02_gravity_refstate-mantle.xmf,1056,2.81e-07,4.96172e-06,0,-3.1734e-06,-1.22417e+09,-1.22354e+09,-1.2242e+09,-424124,-0.0150522,0.149353,-0,0.15011,9238.24,-43889.6,0,44851.3,424124
step02_gravity_refstate-mantle.xmf,1057,-6.86713e-08,3.24936e-06,0,1.08394e-07,-1.18026e+09,-1.17982e+09,-1.18025e+09,14486.8,-0.00926828,0.0596925,-0,0.0604078,21989.3,-42526.7,0,47875.4,14486.8
step02_gravity_refstate-mantle.xmf,1058,1.83936e-06,2.46375e-06,0,3.08896e-07,-1.42563e+09,-1.42555e+09,-1.42588e+09,41283.9,-0.02019,0.0249426,-0,0.03209,29279.9,-50116.9,0,58043.3,41283.9
step02_gravity_refstate-mantle.xmf,1059,1.59508e-06,2.54654e-06,0,3.40999e-07,-1.3779e+09,-1.37777e+09,-1.37811e+09,45574.5,-0.019419,0.0294892,-0,0.0353088,28376.8,-48641,0,56313.3,45574.5
step02_gravity_refstate-mantle.xmf,1060,1.31254e-06,2.65045e-06,0,3.5146e-07,-1.3301e+09,-1.32992e+09,-1.33028e+09,46972.6,-0.0181484,0.0345536,-0,0.0390296,27348,-47162.9,0,54518.4,46972.6
step02_gravity_refstate-mantle.xmf,1061,1.04204e-06,2.70393e-06,0,3.4073e-07,-1.28682e+09,-1.28659e+09,-1.28695e+09,45538.6,-0.0155794,0.0384053,-0,0.041445,27157.5,-45824.1,0,53267.1,45538.6
step02_gravity_refstate-mantle.xmf,1062,4.9488e-07,2.88578e-06,0,2.7162e-07,-1.21629e+09,-1.21597e+09,-1.21635e+09,36302.1,-0.011709,0.0471557,-0,0.0485876,25601.5,-43642.3,0,50597.3,36302.1
step02_gravity_refstate-mantle.xmf,1063,8.02362e-07,2.78701e-06,0,3.25037e-07,-1.25475e+09,-1.25449e+09,-1.25486e+09,43441.2,-0.0140767,0.0423479,-0,0.0446262,26383.4,-44832.3,0,52019.4,43441.2
step02_gravity_refstate-mantle.xmf,1064,4.12192e-07,3.01394e-06,0,2.51559e-07,-1.21793e+09,-1.21759e+09,-1.21799e+09,33620.9,-0.0125279,0.0502708,-0,0.0518083,24089.7,-43693,0,49893.8,33620.9
step02_gravity_refstate-mantle.xmf,1065,-6.65335e-06,1.73557e-05,0,2.92683e-07,-1.71808e+09,-1.71487e+09,-1.71719e+09,39117.1,0.0209892,0.0150576,0,0.0258317,-2963.52,-59132,-0,59206.2,39117.1
step02_gravity_refstate-mantle.xmf,1066,2.50263e-06,2.29105e-06,0,9.08085e-08,-1.6371e+09,-1.63713e+09,-1.63743e+09,12136.6,-0.0176006,0.00786884,-0,0.0192795,32965.5,-56653,0,65546.1,12136.6
step02_gravity_refstate-mantle.xmf,1067,2.5884e-06,2.40263e-06,0,-3.18719e-09,-1.74542e+09,-1.74545e+09,-1.74577e+09,-425.968,-0.0173831,-3.96752e-19,-0,0.0173831,33277.3,-60000,0,68610.3,425.968
step02_gravity_refstate-mantle.xmf,1068,-8.50055e-06,2.07471e-05,0,-8.73113e-07,-1.50403e+09,-1.50012e+09,-1.5029e+09,-116692,-0.00593599,0.141708,-0,0.141832,694.644,-52516.3,0,52520.9,116692
step02_gravity_refstate-mantle.xmf,1069,-2.72325e-07,1.06078e-05,0,-8.41405e-06,-1.30159e+09,-1.30013e+09,-1.30155e+09,-1.12454e+06,-0.0349302,0.194723,-0,0.197831,5919.79,-46291.9,0,46668.9,1.12454e+06
step02_gravity_refstate-mantle.xmf,1070,5.77919e-07,8.25277e-06,0,-6.91733e-06,-1.28488e+09,-1.28385e+09,-1.28495e+09,-924501,-0.0318354,0.181383,-0,0.184155,6785.27,-45775.3,0,46275.5,924501
step02_gravity_refstate-mantle.xmf,1071,8.33905e-07,6.71184e-06,0,-5.38275e-06,-1.27309e+09,-1.2723e+09,-1.2732e+09,-719404,-0.0286013,0.165419,-0,0.167873,7759.84,-45409.1,0,46067.3,719404
step02_gravity_refstate-mantle.xmf,1072,6.89009e-07,5.84893e-06,0,-4.56443e-06,-1.24813e+09,-1.24744e+09,-1.24823e+09,-610036,-0.0221512,0.163416,-0,0.164911,8142.43,-44634.9,0,45371.5,610036
step02_gravity_refstate-mantle.xmf,1073,-7.32828e-06,2.01737e-05,0,-5.17107e-06,-1.4272e+09,-1.42352e+09,-1.42622e+09,-691114,-0.0265909,0.179026,-0,0.18099,3039.36,-50149.3,0,50241.4,691114
step02_gravity_refstate-mantle.xmf,1074,-2.6856e-07,3.38428e-06,0,2.73339e-08,-1.17194e+09,-1.17145e+09,-1.17191e+09,3653.17,-0.00814664,0.0648071,-0,0.0653171,20743.3,-42268.7,0,47084.3,3653.17
step02_gravity_refstate-mantle.xmf,1075,1.72798e-07,4.73464e-06,0,-2.55769e-06,-1.2227e+09,-1.22209e+09,-1.22273e+09,-341835,-0.0144885,0.138126,-0,0.138884,10030.1,-43843.1,0,44975.8,341835
step02_gravity_refstate-mantle.xmf,1076,-4.40563e-07,3.51136e-06,0,-6.66721e-08,-1.16621e+09,-1.16568e+09,-1.16615e+09,-8910.72,-0.00704011,0.0700328,-0,0.0703857,19577.7,-42090.8,0,46421.1,8910.72
step02_gravity_refstate-mantle.xmf,1077,6.30748e-08,4.55145e-06,0,-2.03378e-06,-1.22086e+09,-1.22026e+09,-1.22087e+09,-271815,-0.0139308,0.12767,-0,0.128427,10862.4,-43785,0,45112.3,271815
step02_gravity_refstate-mantle.xmf,1078,-6.14939e-07,4.31184e-06,0,-1.332e-06,-1.19037e+09,-1.18971e+09,-1.19029e+09,-178021,-0.00676479,0.117894,-0,0.118088,12102.7,-42838,0,44514.8,178021
step02_gravity_refstate-mantle.xmf,1079,-5.60247e-07,3.63425e-06,0,-1.59502e-07,-1.16605e+09,-1.16549e+09,-1.16598e+09,-21317.5,-0.00644231,0.0752285,-0,0.0755038,18436.3,-42085.5,0,45946.6,21317.5
step02_gravity_refstate-mantle.xmf,1080,-6.52582e-07,3.75695e-06,0,-2.70368e-07,-1.16806e+09,-1.16747e+09,-1.16797e+09,-36134.7,-0.00602937,0.080959,-0,0.0811832,17286.4,-42147.1,0,45554.3,36134.7
step02_gravity_refstate-mantle.xmf,1081,-7.05142e-07,3.86643e-06,0,-3.92518e-07,-1.17159e+09,-1.17098e+09,-1.17149e+09,-52460.1,-0.00588653,0.0866247,-0,0.0868245,16252.5,-42256.1,0,45273.8,52460.1
step02_gravity_refstate-mantle.xmf,1082,-7.4743e-07,3.98018e-06,0,-5.56578e-07,-1.17487e+09,-1.17424e+09,-1.17477e+09,-74386.7,-0.00565776,0.0935276,-0,0.0936986,15157.6,-42357.4,0,44987.8,74386.7
step02_gravity_refstate-mantle.xmf,1083,-7.0054e-07,4.19488e-06,0,-1.01516e-06,-1.18421e+09,-1.18355e+09,-1.18411e+09,-135676,-0.00598819,0.109266,-0,0.10943,13068.1,-42646.7,0,44604,135676
step02_gravity_refstate-mantle.xmf,1084,-7.34382e-07,4.08776e-06,0,-7.57352e-07,-1.17994e+09,-1.17929e+09,-1.17984e+09,-101220,-0.00584599,0.100867,-0,0.101036,14106.1,-42514.4,0,44793.5,101220
step02_gravity_refstate-mantle.xmf,1085,6.66326e-07,5.39402e-06,0,-3.77513e-06,-1.24666e+09,-1.24603e+09,-1.24675e+09,-504547,-0.0212722,0.151411,-0,0.152898,8874.56,-44588.1,0,45462.7,504547
step02_gravity_refstate-mantle.xmf,1086,2.05972e-06,2.39522e-06,0,2.63772e-07,-1.47656e+09,-1.47651e+09,-1.47683e+09,35253.2,-0.020494,0.0204767,-0,0.0289707,30160.7,-51691.3,0,59847,35253.2
step02_gravity_refstate-mantle.xmf,1087,2.40092e-06,2.30698e-06,0,1.51701e-07,-1.58509e+09,-1.58511e+09,-1.58541e+09,20274.9,-0.019323,0.0117919,-0,0.0226369,31960.2,-55046,0,63651.5,20274.9
step02_gravity_refstate-mantle.xmf,1088,2.24917e-06,2.34153e-06,0,2.09721e-07,-1.53002e+09,-1.53001e+09,-1.53032e+09,28029.2,-0.0202156,0.0160839,-0,0.0258333,31052.8,-53343.8,0,61723.9,28029.2
step02_gravity_refstate-mantle.xmf,1089,3.21266e-07,3.14738e-06,0,2.13756e-07,-1.21876e+09,-1.21839e+09,-1.21881e+09,28568.5,-0.013137,0.0539825,-0,0.055558,22624.1,-43718.4,0,49225.5,28568.5
step02_gravity_refstate-mantle.xmf,1090,-6.92455e-06,1.77076e-05,0,4.96085e-07,-1.69079e+09,-1.6875e+09,-1.68987e+09,66301.7,0.0170202,0.0302467,0,0.0347067,-2361.82,-58288.2,-0,58336,66301.7
step02_gravity_refstate-mantle.xmf,1091,-7.16814e-06,1.8062e-05,0,5.76917e-07,-1.66376e+09,-1.66039e+09,-1.6628e+09,77104.9,0.0133194,0.045682,0,0.0475842,-1814.57,-57452.4,-0,57481,77104.9
step02_gravity_refstate-mantle.xmf,1092,-6.88054e-06,1.7685e-05,0,6.1549e-09,-1.7462e+09,-1.74292e+09,-1.74528e+09,822.602,0.0168731,-2.27324e-19,0,0.0168731,-2359.95,-60000,-0,60046.4,822.602
step02_gravity_refstate-mantle.xmf,1093,-7.40669e-06,1.8432e-05,0,5.55133e-07,-1.63724e+09,-1.63378e+09,-1.63625e+09,74193.5,0.00950374,0.0611622,0,0.0618962,-1268.63,-56632.4,-0,56646.6,74193.5
step02_gravity_refstate-mantle.xmf,1094,2.56444e-06,2.38416e-06,0,5.41198e-08,-1.69061e+09,-1.69063e+09,-1.69095e+09,7233.11,-0.0200695,0.00410647,-0,0.0204853,32173.4,-58306.7,0,66594.3,7233.11
step02_gravity_refstate-mantle.xmf,1095,-7.63974e-06,1.88284e-05,0,4.34529e-07,-1.61004e+09,-1.6065e+09,-1.60901e+09,58074.8,0.00587206,0.0772441,0,0.0774669,-766.236,-55791.6,-0,55796.9,58074.8
step02_gravity_refstate-mantle.xmf,1096,-7.86658e-06,1.92503e-05,0,1.78497e-07,-1.58339e+09,-1.57977e+09,-1.58234e+09,23856.2,0.0020362,0.0931881,0,0.0932104,-259.283,-54968.2,-0,54968.8,23856.2
step02_gravity_refstate-mantle.xmf,1097,-8.07157e-06,1.96822e-05,0,-2.20943e-07,-1.55708e+09,-1.55337e+09,-1.556e+09,-29529.1,-0.00193488,0.109008,-0,0.109025,240.074,-54155.2,0,54155.7,29529.1
step02_gravity_refstate-mantle.xmf,1098,-8.26673e-06,2.01592e-05,0,-7.60977e-07,-1.52869e+09,-1.52489e+09,-1.52759e+09,-101705,-0.00584072,0.126114,-0,0.126249,704.271,-53278.2,0,53282.8,101705
step02_gravity_refstate-mantle.xmf,1099,-8.25872e-06,2.03296e-05,0,-1.51629e-06,-1.51009e+09,-1.50627e+09,-1.50899e+09,-202652,-0.0107855,0.136653,-0,0.137078,1281.03,-52704,0,52719.6,202652
step02_gravity_refstate-mantle.xmf,1100,-8.19569e-06,2.04904e-05,0,-2.35609e-06,-1.48812e+09,-1.48428e+09,-1.48702e+09,-314892,-0.015255,0.14885,-0,0.14963,1782.19,-52026.1,0,52056.6,314892
step02_gravity_refstate-mantle.xmf,1101,-7.73296e-06,2.04179e-05,0,-4.1994e-06,-1.44706e+09,-1.4433e+09,-1.44602e+09,-561250,-0.0231898,0.169829,-0,0.171405,2657,-50760.7,0,50830.2,561250
step02_gravity_refstate-mantle.xmf,1102,-8.01388e-06,2.05084e-05,0,-3.25767e-06,-1.46753e+09,-1.46372e+09,-1.46646e+09,-435388,-0.0194328,0.159624,-0,0.160803,2244.17,-51391.5,0,51440.5,435388
step02_gravity_refstate-mantle.xmf,1103,-1.0116e-06,1.19461e-05,0,-8.67045e-06,-1.3189e+09,-1.31717e+09,-1.31877e+09,-1.15881e+06,-0.0369614,0.193804,-0,0.197297,5679.04,-46825.2,0,47168.4,1.15881e+06
step02_gravity_refstate-mantle.xmf,1104,1.9123e-07,9.33711e-06,0,-7.44994e-06,-1.30162e+09,-1.3004e+09,-1.30165e+09,-995684,-0.0349579,0.182266,-0,0.185589,6516.39,-46292.8,0,46749.2,995684
step02_gravity_refstate-mantle.xmf,1105,7.16788e-07,7.58649e-06,0,-6.16956e-06,-1.28573e+09,-1.28481e+09,-1.28582e+09,-824562,-0.0316823,0.171333,-0,0.174238,7288.58,-45800.8,0,46377.2,824562
step02_gravity_refstate-mantle.xmf,1106,-1.92231e-06,1.33449e-05,0,-8.68506e-06,-1.33677e+09,-1.33473e+09,-1.33651e+09,-1.16076e+06,-0.0381011,0.192106,-0,0.195848,5417.46,-47374.7,0,47683.4,1.16076e+06
step02_gravity_refstate-mantle.xmf,1107,-2.88014e-06,1.46761e-05,0,-8.47341e-06,-1.35414e+09,-1.3518e+09,-1.35376e+09,-1.13247e+06,-0.0383066,0.189885,-0,0.193711,5136.8,-47908.3,0,48182.9,1.13247e+06
step02_gravity_refstate-mantle.xmf,1108,-3.84695e-06,1.59204e-05,0,-8.05835e-06,-1.37151e+09,-1.36887e+09,-1.37099e+09,-1.077e+06,-0.0376701,0.187037,-0,0.190793,4828.14,-48441.5,0,48681.5,1.077e+06
step02_gravity_refstate-mantle.xmf,1109,-4.77391e-06,1.70264e-05,0,-7.44745e-06,-1.38956e+09,-1.38664e+09,-1.38892e+09,-995351,-0.0362744,0.183059,-0,0.186619,4495.25,-48995.6,0,49201.4,995351
step02_gravity_refstate-mantle.xmf,1110,-5.62982e-06,1.79884e-05,0,-6.69396e-06,-1.4078e+09,-1.40465e+09,-1.40705e+09,-894648,-0.0341101,0.17831,-0,0.181544,4123.74,-49555.9,0,49727.2,894648
step02_gravity_refstate-mantle.xmf,1111,-8.00859e-08,4.40723e-06,0,-1.58177e-06,-1.21753e+09,-1.21693e+09,-1.21752e+09,-211403,-0.0131312,0.118075,-0,0.118803,11740,-43680.9,0,45231,211403
step02_gravity_refstate-mantle.xmf,1112,5.85569e-07,5.06306e-06,0,-3.07556e-06,-1.24595e+09,-1.24535e+09,-1.24603e+09,-411048,-0.0206144,0.139738,-0,0.141251,9660.49,-44564.7,0,45599.8,411048
step02_gravity_refstate-mantle.xmf,1113,1.83883e-07,3.2955e-06,0,1.50236e-07,-1.21594e+09,-1.21553e+09,-1.21597e+09,20079.1,-0.013214,0.0589213,-0,0.0603848,21120.7,-43630.6,0,48473.9,20079.1
step02_gravity_refstate-mantle.xmf,1114,2.02433e-06,2.51797e-06,0,2.80039e-07,-1.47239e+09,-1.47232e+09,-1.47266e+09,37427.2,-0.0238427,0.0220262,-0,0.0324597,28441.2,-51562.6,0,58886.4,37427.2
step02_gravity_refstate-mantle.xmf,1115,1.81078e-06,2.58967e-06,0,3.17069e-07,-1.42513e+09,-1.42503e+09,-1.42538e+09,42376.3,-0.0232522,0.0265628,-0,0.0353023,27589.1,-50101.7,0,57195.6,42376.3
step02_gravity_refstate-mantle.xmf,1116,1.58125e-06,2.67233e-06,0,3.40697e-07,-1.38191e+09,-1.38176e+09,-1.38212e+09,45534.2,-0.0222804,0.0311134,-0,0.0382682,26720.2,-48765.1,0,55605.8,45534.2
step02_gravity_refstate-mantle.xmf,1117,1.09425e-06,2.79228e-06,0,3.49793e-07,-1.30299e+09,-1.30276e+09,-1.30313e+09,46749.9,-0.0182112,0.0392481,-0,0.0432674,25756.1,-46324.2,0,53002.9,46749.9
step02_gravity_refstate-mantle.xmf,1118,7.49301e-07,2.90637e-06,0,3.16972e-07,-1.25787e+09,-1.25758e+09,-1.25797e+09,42363.4,-0.0155039,0.0449249,-0,0.0475249,24854.5,-44928.5,0,51345.1,42363.4
step02_gravity_refstate-mantle.xmf,1119,6.86154e-07,3.04141e-06,0,2.81689e-07,-1.25855e+09,-1.25824e+09,-1.25864e+09,37647.8,-0.0166245,0.0482018,-0,0.0509881,23370.1,-44949.5,0,50661.9,37647.8
step02_gravity_refstate-mantle.xmf,1120,-7.06893e-06,1.79112e-05,0,1.90438e-07,-1.71776e+09,-1.71442e+09,-1.71681e+09,25452,0.0130565,0.015739,0,0.0204497,-1807.25,-59120.5,-0,59148.2,25452
step02_gravity_refstate-mantle.xmf,1121,2.4931e-06,2.40635e-06,0,1.08138e-07,-1.63594e+09,-1.63595e+09,-1.63627e+09,14452.7,-0.0225923,0.00835186,-0,0.0240866,30961.8,-56617.4,0,64530.4,14452.7
step02_gravity_refstate-mantle.xmf,1122,2.58177e-06,2.51959e-06,0,-2.64974e-09,-1.74541e+09,-1.74542e+09,-1.74576e+09,-354.138,-0.0226784,-4.10004e-19,-0,0.0226784,31228.8,-60000,0,67640.5,354.138
step02_gravity_refstate-mantle.xmf,1123,-3.37621e-07,1.04431e-05,0,-7.82509e-06,-1.31797e+09,-1.31653e+09,-1.31792e+09,-1.04582e+06,-0.0372571,0.182147,-0,0.185919,6271.53,-46797.1,0,47215.4,1.04582e+06
step02_gravity_refstate-mantle.xmf,1124,4.79869e-07,8.3479e-06,0,-6.4963e-06,-1.30426e+09,-1.30321e+09,-1.30432e+09,-868230,-0.0351582,0.168864,-0,0.172486,7176.39,-46373.6,0,46925.6,868230
step02_gravity_refstate-mantle.xmf,1125,7.03817e-07,7.57751e-06,0,-5.85678e-06,-1.29893e+09,-1.29801e+09,-1.29902e+09,-782758,-0.0339618,0.1621,-0,0.165619,7626.02,-46208.4,0,46833.5,782758
step02_gravity_refstate-mantle.xmf,1126,8.48298e-07,6.02249e-06,0,-4.42946e-06,-1.2696e+09,-1.26891e+09,-1.26972e+09,-591998,-0.0271506,0.152944,-0,0.155335,8527.35,-45299.7,0,46095.3,591998
step02_gravity_refstate-mantle.xmf,1127,-6.34164e-06,1.87113e-05,0,-5.84414e-06,-1.42687e+09,-1.42352e+09,-1.42602e+09,-781069,-0.0314488,0.171945,-0,0.174798,3749.12,-50141.9,0,50281.9,781069
step02_gravity_refstate-mantle.xmf,1128,-6.87681e-06,1.91749e-05,0,-4.96681e-06,-1.44676e+09,-1.44328e+09,-1.44584e+09,-663814,-0.0285243,0.163914,-0,0.166377,3386.29,-50754.1,0,50867,663814
step02_gravity_refstate-mantle.xmf,1129,-8.91364e-08,3.42396e-06,0,4.75776e-08,-1.19548e+09,-1.19501e+09,-1.19547e+09,6358.75,-0.0108427,0.0648262,-0,0.0657267,20084.3,-42997.1,0,47456.6,6358.75
step02_gravity_refstate-mantle.xmf,1130,4.87414e-07,4.79811e-06,0,-2.47372e-06,-1.24458e+09,-1.244e+09,-1.24464e+09,-330612,-0.0198584,0.129046,-0,0.130565,10474.3,-44521.1,0,45736.6,330612
step02_gravity_refstate-mantle.xmf,1131,-1.43367e-07,3.5275e-06,0,-2.46993e-08,-1.1971e+09,-1.19661e+09,-1.19709e+09,-3301.06,-0.0109324,0.0687383,-0,0.0696023,19096.9,-43047.2,0,47093,3301.06
step02_gravity_refstate-mantle.xmf,1132,3.85876e-07,4.57815e-06,0,-1.94575e-06,-1.24286e+09,-1.2423e+09,-1.24291e+09,-260050,-0.0190927,0.118879,-0,0.120403,11347.4,-44466.8,0,45891.9,260050
step02_gravity_refstate-mantle.xmf,1133,-1.87712e-07,4.26657e-06,0,-1.1996e-06,-1.21342e+09,-1.21282e+09,-1.21339e+09,-160327,-0.0123086,0.109122,-0,0.109814,12675.2,-43552.6,0,45359.6,160327
step02_gravity_refstate-mantle.xmf,1134,-2.01873e-07,3.6477e-06,0,-1.27774e-07,-1.19933e+09,-1.19882e+09,-1.19931e+09,-17077,-0.0110391,0.0737971,-0,0.0746181,17964.8,-43116,0,46708.9,17077
step02_gravity_refstate-mantle.xmf,1135,-2.49646e-07,3.76835e-06,0,-2.58911e-07,-1.20135e+09,-1.20081e+09,-1.20132e+09,-34603.4,-0.0110851,0.0795144,-0,0.0802834,16853.1,-43178.2,0,46350.7,34603.4
step02_gravity_refstate-mantle.xmf,1136,-2.76844e-07,3.88837e-06,0,-4.23093e-07,-1.20362e+09,-1.20307e+09,-1.20359e+09,-56546.3,-0.0111657,0.0858813,-0,0.0866041,15765.5,-43248.6,0,46032.5,56546.3
step02_gravity_refstate-mantle.xmf,1137,-2.73051e-07,4.00821e-06,0,-6.29357e-07,-1.20652e+09,-1.20595e+09,-1.20649e+09,-84113.6,-0.0113854,0.092952,-0,0.0936467,14697.2,-43338.5,0,45762.8,84113.6
step02_gravity_refstate-mantle.xmf,1138,-2.47945e-07,4.12891e-06,0,-8.8352e-07,-1.20908e+09,-1.2085e+09,-1.20905e+09,-118082,-0.0116051,0.100801,-0,0.101467,13664.3,-43418,0,45517.4,118082
step02_gravity_refstate-mantle.xmf,1139,8.52203e-07,5.54305e-06,0,-3.66845e-06,-1.26911e+09,-1.26848e+09,-1.26922e+09,-490289,-0.0263894,0.141216,-0,0.14366,9293.57,-45283.2,0,46227.1,490289
step02_gravity_refstate-mantle.xmf,1140,2.22019e-06,2.46029e-06,0,2.27881e-07,-1.52564e+09,-1.5256e+09,-1.52593e+09,30456.4,-0.0239361,0.0172966,-0,0.0295315,29330.5,-53208.6,0,60757.2,30456.4
step02_gravity_refstate-mantle.xmf,1141,2.38094e-06,2.41726e-06,0,1.71866e-07,-1.58019e+09,-1.58018e+09,-1.5805e+09,22969.9,-0.0235402,0.012769,-0,0.0267804,30153.1,-54894.6,0,62630.8,22969.9
step02_gravity_refstate-mantle.xmf,1142,6.13835e-07,3.18016e-06,0,2.26787e-07,-1.25821e+09,-1.25786e+09,-1.25829e+09,30310.1,-0.0175056,0.0520729,-0,0.0549366,21946.3,-44938.8,0,50011.3,30310.1
step02_gravity_refstate-mantle.xmf,1143,1.37584e-06,2.75684e-06,0,3.46541e-07,-1.34819e+09,-1.34801e+09,-1.34837e+09,46315.2,-0.0213087,0.03515,-0,0.0411046,25884.9,-47722.4,0,54290.5,46315.2
step02_gravity_refstate-mantle.xmf,1144,-7.23599e-06,1.81216e-05,0,2.8955e-07,-1.68995e+09,-1.68656e+09,-1.68898e+09,38698.4,0.00948443,0.0314251,0,0.0328252,-1296.9,-58261,-0,58275.4,38698.4
step02_gravity_refstate-mantle.xmf,1145,-7.39547e-06,1.83573e-05,0,2.50525e-07,-1.66433e+09,-1.66089e+09,-1.66334e+09,33482.6,0.00584346,0.0460994,0,0.0464682,-788.065,-57469.1,-0,57474.5,33482.6
step02_gravity_refstate-mantle.xmf,1146,-7.19832e-06,1.81058e-05,0,6.30773e-09,-1.74624e+09,-1.74286e+09,-1.74528e+09,843.027,0.00856295,-2.37452e-19,0,0.00856295,-1179.97,-60000,-0,60011.6,843.027
step02_gravity_refstate-mantle.xmf,1147,-7.54563e-06,1.86165e-05,0,1.18852e-07,-1.63778e+09,-1.63429e+09,-1.63677e+09,15884.6,0.00209982,0.0614249,0,0.0614608,-278.643,-56648.8,-0,56649.5,15884.6
step02_gravity_refstate-mantle.xmf,1148,2.5537e-06,2.5158e-06,0,5.83004e-08,-1.69158e+09,-1.69159e+09,-1.69192e+09,7791.85,-0.0250023,0.0042526,-0,0.0253614,30248.1,-58337,0,65712.6,7791.85
step02_gravity_refstate-mantle.xmf,1149,-7.69495e-06,1.88979e-05,0,-1.26404e-07,-1.61015e+09,-1.6066e+09,-1.60913e+09,-16893.9,-0.00159069,0.0774412,-0,0.0774575,207.114,-55795.1,0,55795.5,16893.9
step02_gravity_refstate-mantle.xmf,1150,-7.81e-06,1.91662e-05,0,-5.22611e-07,-1.58386e+09,-1.58025e+09,-1.58282e+09,-69847,-0.00564213,0.0926366,-0,0.0928082,720.29,-54982.8,0,54987.5,69847
step02_gravity_refstate-mantle.xmf,1151,-7.88825e-06,1.94211e-05,0,-1.0354e-06,-1.55788e+09,-1.55423e+09,-1.55683e+09,-138382,-0.00959247,0.107505,-0,0.107932,1200.34,-54180.5,0,54193.8,138382
step02_gravity_refstate-mantle.xmf,1152,-7.88625e-06,1.95978e-05,0,-1.67078e-06,-1.5337e+09,-1.53003e+09,-1.53265e+09,-223300,-0.0136547,0.120995,-0,0.121763,1678.43,-53434.1,0,53460.4,223300
step02_gravity_refstate-mantle.xmf,1153,-7.79072e-06,1.96702e-05,0,-2.40227e-06,-1.51114e+09,-1.50747e+09,-1.51009e+09,-321064,-0.0176929,0.133068,-0,0.134239,2143.99,-52737.8,0,52781.3,321064
step02_gravity_refstate-mantle.xmf,1154,-7.59794e-06,1.96393e-05,0,-3.21749e-06,-1.48889e+09,-1.48525e+09,-1.48788e+09,-430018,-0.0215718,0.144432,-0,0.146034,2584.29,-52051.8,0,52115.9,430018
step02_gravity_refstate-mantle.xmf,1155,-7.2889e-06,1.94724e-05,0,-4.08802e-06,-1.46739e+09,-1.46381e+09,-1.46641e+09,-546364,-0.0252511,0.154718,-0,0.156765,3004.15,-51389.2,0,51476.9,546364
step02_gravity_refstate-mantle.xmf,1156,-1.03099e-06,1.16165e-05,0,-8.00174e-06,-1.33544e+09,-1.33375e+09,-1.3353e+09,-1.06943e+06,-0.0389201,0.180671,-0,0.184816,6039.13,-47335,0,47718.6,1.06943e+06
step02_gravity_refstate-mantle.xmf,1157,8.09924e-08,9.36794e-06,0,-7.0653e-06,-1.31697e+09,-1.31573e+09,-1.31698e+09,-944278,-0.0371952,0.172245,-0,0.176215,6805.72,-46766.3,0,47258.9,944278
step02_gravity_refstate-mantle.xmf,1158,8.48236e-07,6.83457e-06,0,-5.1083e-06,-1.29339e+09,-1.29259e+09,-1.2935e+09,-682724,-0.0324881,0.1538,-0,0.157194,8186.84,-46036.5,0,46758.8,682724
step02_gravity_refstate-mantle.xmf,1159,-1.88682e-06,1.29038e-05,0,-8.0093e-06,-1.3535e+09,-1.35153e+09,-1.35325e+09,-1.07044e+06,-0.0397641,0.178966,-0,0.18333,5758.73,-47890.7,0,48235.7,1.07044e+06
step02_gravity_refstate-mantle.xmf,1160,-2.78421e-06,1.41333e-05,0,-7.81212e-06,-1.37147e+09,-1.36921e+09,-1.3711e+09,-1.04409e+06,-0.0397824,0.17651,-0,0.180937,5464.75,-48442.8,0,48750,1.04409e+06
step02_gravity_refstate-mantle.xmf,1161,-3.68344e-06,1.52788e-05,0,-7.42859e-06,-1.38962e+09,-1.38709e+09,-1.38913e+09,-992831,-0.0390347,0.173275,-0,0.177617,5147.78,-49000.4,0,49270,992831
step02_gravity_refstate-mantle.xmf,1162,-5.29088e-06,1.7135e-05,0,-6.22263e-06,-1.42707e+09,-1.42408e+09,-1.42637e+09,-831655,-0.0356159,0.163636,-0,0.167467,4466.63,-50151.3,0,50349.8,831655
step02_gravity_refstate-mantle.xmf,1163,-4.5297e-06,1.62857e-05,0,-6.88503e-06,-1.40817e+09,-1.40539e+09,-1.40756e+09,-920185,-0.0376185,0.168979,-0,0.173116,4815.48,-49570.2,0,49803.6,920185
step02_gravity_refstate-mantle.xmf,1164,2.65817e-07,4.40587e-06,0,-1.49528e-06,-1.24069e+09,-1.24014e+09,-1.24073e+09,-199844,-0.0183182,0.109529,-0,0.111051,12259.1,-44398.5,0,46059.9,199844
step02_gravity_refstate-mantle.xmf,1165,7.9518e-07,5.17864e-06,0,-3.00253e-06,-1.26824e+09,-1.26765e+09,-1.26834e+09,-401289,-0.0255605,0.130458,-0,0.132938,10081,-45255,0,46364.2,401289
step02_gravity_refstate-mantle.xmf,1166,2.04587e-07,3.41378e-06,0,8.316e-08,-1.22621e+09,-1.22578e+09,-1.22624e+09,11114.3,-0.0146814,0.0623575,-0,0.0640624,19882.7,-43948.2,0,48236.6,11114.3
step02_gravity_refstate-mantle.xmf,1167,5.47587e-07,3.31656e-06,0,1.53599e-07,-1.25895e+09,-1.25858e+09,-1.25903e+09,20528.5,-0.0183632,0.0562924,-0,0.0592118,20602.7,-44961.7,0,49457.3,20528.5
step02_gravity_refstate-mantle.xmf,1168,2.19327e-06,2.60978e-06,0,2.26711e-07,-1.52423e+09,-1.52418e+09,-1.52453e+09,30299.9,-0.0277616,0.018606,-0,0.0334198,27574.3,-53165.5,0,59890.8,30299.9
step02_gravity_refstate-mantle.xmf,1169,1.97795e-06,2.66525e-06,0,2.75363e-07,-1.46768e+09,-1.46759e+09,-1.46795e+09,36802.3,-0.0269531,0.0239592,-0,0.0360626,26778.7,-51417.2,0,57972.7,36802.3
step02_gravity_refstate-mantle.xmf,1170,1.77892e-06,2.73697e-06,0,3.02001e-07,-1.42504e+09,-1.42491e+09,-1.42528e+09,40362.4,-0.0261683,0.0285044,-0,0.0386947,25961.5,-50098.9,0,56426,40362.4
step02_gravity_refstate-mantle.xmf,1171,1.56042e-06,2.8104e-06,0,3.18226e-07,-1.38452e+09,-1.38435e+09,-1.38473e+09,42530.9,-0.0248469,0.0331142,-0,0.0413995,25194.6,-48846,0,54960.9,42530.9
step02_gravity_refstate-mantle.xmf,1172,1.30847e-06,2.87705e-06,0,3.27188e-07,-1.34323e+09,-1.34302e+09,-1.3434e+09,43728.7,-0.0227099,0.0378496,-0,0.0441399,24567.8,-47568.9,0,53538.5,43728.7
step02_gravity_refstate-mantle.xmf,1173,1.01472e-06,2.9379e-06,0,3.23125e-07,-1.30013e+09,-1.29987e+09,-1.30026e+09,43185.7,-0.0197168,0.0426509,-0,0.0469877,24111,-46235.8,0,52144.9,43185.7
step02_gravity_refstate-mantle.xmf,1174,9.5684e-07,3.08758e-06,0,2.65819e-07,-1.29867e+09,-1.29839e+09,-1.2988e+09,35526.7,-0.0210097,0.0461833,-0,0.0507376,22660.2,-46190.8,0,51449.7,35526.7
step02_gravity_refstate-mantle.xmf,1175,-7.29028e-06,1.82102e-05,0,7.92798e-08,-1.71622e+09,-1.71281e+09,-1.71525e+09,10595.7,0.00504315,0.0168653,0,0.0176032,-690.829,-59072.5,-0,59076.5,10595.7
step02_gravity_refstate-mantle.xmf,1176,2.47174e-06,2.57379e-06,0,1.14266e-07,-1.63487e+09,-1.63486e+09,-1.6352e+09,15271.7,-0.0278501,0.00903883,-0,0.0292802,28836.8,-56584.9,0,63509.1,15271.7
step02_gravity_refstate-mantle.xmf,1177,2.56061e-06,2.67958e-06,0,-6.12844e-10,-1.7454e+09,-1.74539e+09,-1.74575e+09,-81.9066,-0.0277233,-3.57366e-19,-0,0.0277233,29267.4,-60000,0,66757.6,81.9066
step02_gravity_refstate-mantle.xmf,1178,-3.40238e-07,1.014e-05,0,-7.21431e-06,-1.33338e+09,-1.33198e+09,-1.33334e+09,-964193,-0.0391667,0.169517,-0,0.173983,6684.07,-47272.4,0,47742.6,964193
step02_gravity_refstate-mantle.xmf,1179,6.0823e-07,7.79485e-06,0,-5.74081e-06,-1.31422e+09,-1.31326e+09,-1.3143e+09,-767259,-0.0364136,0.155218,-0,0.159432,7816.65,-46680.8,0,47330.7,767259
step02_gravity_refstate-mantle.xmf,1180,2.26361e-07,8.79231e-06,0,-6.33691e-06,-1.32802e+09,-1.32687e+09,-1.32805e+09,-846928,-0.0385705,0.158922,-0,0.163535,7384.03,-47107,0,47682.2,846928
step02_gravity_refstate-mantle.xmf,1181,9.07824e-07,6.19347e-06,0,-4.27605e-06,-1.29176e+09,-1.29106e+09,-1.29188e+09,-571493,-0.0315042,0.142366,-0,0.14581,8937.59,-45985,0,46845.5,571493
step02_gravity_refstate-mantle.xmf,1182,-5.92259e-06,1.7779e-05,0,-5.48719e-06,-1.4466e+09,-1.44344e+09,-1.44581e+09,-733362,-0.0332296,0.156901,-0,0.160382,4121.13,-50752,0,50919.1,733362
step02_gravity_refstate-mantle.xmf,1183,-6.4162e-06,1.82179e-05,0,-4.71464e-06,-1.46738e+09,-1.46409e+09,-1.46652e+09,-630112,-0.0305948,0.148499,-0,0.151618,3784.01,-51391.6,0,51530.8,630112
step02_gravity_refstate-mantle.xmf,1184,7.23487e-07,4.87793e-06,0,-2.40464e-06,-1.26753e+09,-1.26697e+09,-1.26762e+09,-321380,-0.0247741,0.120006,-0,0.122536,10934.1,-45231.7,0,46534.5,321380
step02_gravity_refstate-mantle.xmf,1185,1.80015e-07,3.5489e-06,0,-2.85484e-08,-1.22946e+09,-1.22901e+09,-1.22949e+09,-3815.49,-0.0153386,0.0671557,-0,0.0688851,18655.3,-44048.9,0,47836.5,3815.49
step02_gravity_refstate-mantle.xmf,1186,6.52218e-07,4.63325e-06,0,-1.89321e-06,-1.26698e+09,-1.26645e+09,-1.26707e+09,-253028,-0.0240653,0.110291,-0,0.112886,11823,-45213.8,0,46734,253028
step02_gravity_refstate-mantle.xmf,1187,1.92384e-07,4.24348e-06,0,-1.11924e-06,-1.23862e+09,-1.23808e+09,-1.23864e+09,-149587,-0.0176597,0.10083,-0,0.102364,13217.1,-44333.6,0,46261.8,149587
step02_gravity_refstate-mantle.xmf,1188,1.52463e-07,3.67996e-06,0,-1.63861e-07,-1.23171e+09,-1.23124e+09,-1.23173e+09,-21900,-0.0158425,0.0725387,-0,0.0742486,17490.7,-44118.6,0,47459.2,21900
step02_gravity_refstate-mantle.xmf,1189,1.37761e-07,3.81301e-06,0,-3.35384e-07,-1.23353e+09,-1.23304e+09,-1.23355e+09,-44824,-0.0162761,0.0786092,-0,0.0802765,16360.2,-44175,0,47107.2,44824
step02_gravity_refstate-mantle.xmf,1190,1.39483e-07,3.94731e-06,0,-5.46278e-07,-1.23509e+09,-1.23458e+09,-1.23511e+09,-73010.1,-0.0166741,0.0853215,-0,0.0869355,15275.6,-44223.4,0,46787.3,73010.1
step02_gravity_refstate-mantle.xmf,1191,1.66071e-07,4.08724e-06,0,-8.08389e-07,-1.23687e+09,-1.23635e+09,-1.23689e+09,-108041,-0.017145,0.092792,-0,0.0943626,14216.5,-44279.1,0,46505.3,108041
step02_gravity_refstate-mantle.xmf,1192,9.43463e-07,5.70552e-06,0,-3.57113e-06,-1.29179e+09,-1.29115e+09,-1.29192e+09,-477281,-0.0308035,0.131503,-0,0.135063,9703.96,-45984.9,0,46997.6,477281
step02_gravity_refstate-mantle.xmf,1193,2.33691e-06,2.53164e-06,0,1.82627e-07,-1.56957e+09,-1.56955e+09,-1.56989e+09,24408.1,-0.0265185,0.0142189,-0,0.03009,28776.5,-54566.8,0,61689.7,24408.1
step02_gravity_refstate-mantle.xmf,1194,8.93139e-07,3.23788e-06,0,1.89503e-07,-1.29738e+09,-1.29707e+09,-1.2975e+09,25327.1,-0.0221301,0.0501135,-0,0.0547823,21302.6,-46151,0,50830.3,25327.1
step02_gravity_refstate-mantle.xmf,1195,-7.36646e-06,1.83183e-05,0,7.86541e-08,-1.68888e+09,-1.68545e+09,-1.6879e+09,10512.1,0.00269937,0.0323179,0,0.0324305,-366.555,-58227.7,-0,58228.9,10512.1
step02_gravity_refstate-mantle.xmf,1196,-7.41655e-06,1.83725e-05,0,-1.15633e-07,-1.66837e+09,-1.66492e+09,-1.66738e+09,-15454.4,-0.00231226,0.0439474,-0,0.0440082,311.718,-57593.8,0,57594.7,15454.4
step02_gravity_refstate-mantle.xmf,1197,-7.30634e-06,1.82456e-05,0,9.20309e-09,-1.74625e+09,-1.74284e+09,-1.74527e+09,1229.99,-2.62505e-06,-2.94375e-19,-0,2.62505e-06,-6.65677e-08,-60000,-0,60000,1229.99
step02_gravity_refstate-mantle.xmf,1198,-7.52349e-06,1.85906e-05,0,-3.01539e-07,-1.63636e+09,-1.63287e+09,-1.63535e+09,-40300.7,-0.00493409,0.0621111,-0,0.0623068,655.228,-56604.9,0,56608.7,40300.7
step02_gravity_refstate-mantle.xmf,1199,2.54177e-06,2.66043e-06,0,4.80289e-08,-1.70101e+09,-1.70099e+09,-1.70135e+09,6419.06,-0.0289364,0.00370444,-0,0.0291726,28730.2,-58628.4,0,65289.5,6419.06
step02_gravity_refstate-mantle.xmf,1200,-7.55925e-06,1.87106e-05,0,-6.69926e-07,-1.61037e+09,-1.60686e+09,-1.60936e+09,-89535.6,-0.00887976,0.0766793,-0,0.0771918,1162.96,-55802.1,0,55814.3,89535.6
step02_gravity_refstate-mantle.xmf,1201,-7.5555e-06,1.8817e-05,0,-1.15463e-06,-1.58447e+09,-1.58094e+09,-1.58346e+09,-154316,-0.0128506,0.0909457,-0,0.0918491,1659.17,-55002.4,0,55027.4,154316
step02_gravity_refstate-mantle.xmf,1202,-7.49747e-06,1.88818e-05,0,-1.74045e-06,-1.5591e+09,-1.55557e+09,-1.5581e+09,-232611,-0.0167268,0.104576,-0,0.105905,2129.74,-54219.3,0,54261.1,232611
step02_gravity_refstate-mantle.xmf,1203,-7.36774e-06,1.88778e-05,0,-2.40866e-06,-1.53471e+09,-1.53121e+09,-1.53373e+09,-321917,-0.020474,0.117227,-0,0.119002,2574.88,-53466.9,0,53528.9,321917
step02_gravity_refstate-mantle.xmf,1204,-7.16217e-06,1.87935e-05,0,-3.12935e-06,-1.51142e+09,-1.50795e+09,-1.51046e+09,-418237,-0.0239824,0.128814,-0,0.131028,2986.19,-52748.4,0,52832.9,418237
step02_gravity_refstate-mantle.xmf,1205,-6.84114e-06,1.8567e-05,0,-3.91629e-06,-1.48913e+09,-1.48573e+09,-1.48822e+09,-523413,-0.0274371,0.139128,-0,0.141808,3397.74,-52061.5,0,52172.3,523413
step02_gravity_refstate-mantle.xmf,1206,-1.04074e-06,1.12944e-05,0,-7.36676e-06,-1.35213e+09,-1.35048e+09,-1.35199e+09,-984567,-0.0406533,0.167864,-0,0.172717,6423.92,-47849.7,0,48279,984567
step02_gravity_refstate-mantle.xmf,1207,8.01954e-07,6.95456e-06,0,-4.85594e-06,-1.31289e+09,-1.31207e+09,-1.313e+09,-648997,-0.0356513,0.143354,-0,0.147721,8586.21,-46638.9,0,47422.6,648997
step02_gravity_refstate-mantle.xmf,1208,-1.84809e-06,1.24891e-05,0,-7.36273e-06,-1.37076e+09,-1.36885e+09,-1.37052e+09,-984030,-0.0412962,0.165945,-0,0.171007,6128.07,-48423,0,48809.2,984030
step02_gravity_refstate-mantle.xmf,1209,-2.71008e-06,1.3664e-05,0,-7.18047e-06,-1.38949e+09,-1.3873e+09,-1.38913e+09,-959670,-0.0411344,0.163432,-0,0.168529,5804.49,-48998.7,0,49341.3,959670
step02_gravity_refstate-mantle.xmf,1210,-4.97988e-06,1.63924e-05,0,-5.77174e-06,-1.44582e+09,-1.44296e+09,-1.44515e+09,-771393,-0.0370716,0.149882,-0,0.154399,4823.05,-50730.5,0,50959.2,771393
step02_gravity_refstate-mantle.xmf,1211,-3.52575e-06,1.4692e-05,0,-6.82121e-06,-1.40834e+09,-1.40591e+09,-1.40787e+09,-911655,-0.0403457,0.159659,-0,0.164678,5492.66,-49578.3,0,49881.6,911655
step02_gravity_refstate-mantle.xmf,1212,-4.2982e-06,1.56184e-05,0,-6.34008e-06,-1.42712e+09,-1.42446e+09,-1.42655e+09,-847352,-0.0389322,0.15522,-0,0.160028,5158.67,-50155.6,0,50420.2,847352
step02_gravity_refstate-mantle.xmf,1213,5.62405e-07,4.43394e-06,0,-1.44616e-06,-1.26619e+09,-1.26568e+09,-1.26627e+09,-193279,-0.0233438,0.101242,-0,0.103898,12760.4,-45188.4,0,46955.5,193279
step02_gravity_refstate-mantle.xmf,1214,9.27536e-07,5.31854e-06,0,-2.93667e-06,-1.29189e+09,-1.2913e+09,-1.29201e+09,-392486,-0.0300851,0.121228,-0,0.124905,10508,-45986.9,0,47172.1,392486
step02_gravity_refstate-mantle.xmf,1215,5.11322e-07,3.45529e-06,0,4.88191e-08,-1.26074e+09,-1.26035e+09,-1.26081e+09,6524.68,-0.0192447,0.0607943,-0,0.0637676,19350.1,-45017.1,0,48999.7,6524.68
step02_gravity_refstate-mantle.xmf,1216,8.26909e-07,3.38221e-06,0,9.08234e-08,-1.29455e+09,-1.29421e+09,-1.29466e+09,12138.5,-0.0229334,0.0547303,-0,0.0593409,19999.6,-46063.3,0,50217.6,12138.5
step02_gravity_refstate-mantle.xmf,1217,2.34125e-06,2.67493e-06,0,1.65187e-07,-1.58167e+09,-1.58162e+09,-1.58198e+09,22077.3,-0.0300999,0.0140341,-0,0.0332108,27392.1,-54940.7,0,61390.6,22077.3
step02_gravity_refstate-mantle.xmf,1218,2.09692e-06,2.78728e-06,0,2.19812e-07,-1.50619e+09,-1.5061e+09,-1.50647e+09,29377.9,-0.030669,0.0216832,-0,0.0375599,25864.6,-52607.9,0,58622.3,29377.9
step02_gravity_refstate-mantle.xmf,1219,1.93302e-06,2.8429e-06,0,2.42991e-07,-1.46554e+09,-1.46542e+09,-1.4658e+09,32475.8,-0.0300272,0.0260929,-0,0.0397803,25148.7,-51351.2,0,57178.7,32475.8
step02_gravity_refstate-mantle.xmf,1220,1.74134e-06,2.90826e-06,0,2.58508e-07,-1.42493e+09,-1.42478e+09,-1.42517e+09,34549.6,-0.0289234,0.0308442,-0,0.0422839,24392.5,-50095.8,0,55718.8,34549.6
step02_gravity_refstate-mantle.xmf,1221,1.51895e-06,2.97177e-06,0,2.68843e-07,-1.38401e+09,-1.38382e+09,-1.38422e+09,35930.9,-0.0271318,0.035854,-0,0.0449627,23686.6,-48830.4,0,54272.1,35930.9
step02_gravity_refstate-mantle.xmf,1222,1.25936e-06,3.03657e-06,0,2.71703e-07,-1.34254e+09,-1.3423e+09,-1.34271e+09,36313.2,-0.0246375,0.0411417,-0,0.0479546,23021.4,-47547.7,0,52827.8,36313.2
step02_gravity_refstate-mantle.xmf,1223,1.202e-06,3.21125e-06,0,1.81807e-07,-1.34052e+09,-1.34025e+09,-1.34068e+09,24298.5,-0.0262875,0.0451409,-0,0.0522373,21529.6,-47485.5,0,52138.3,24298.5
step02_gravity_refstate-mantle.xmf,1224,-7.32427e-06,1.82639e-05,0,-6.90797e-08,-1.70843e+09,-1.70501e+09,-1.70745e+09,-9232.51,-0.00366598,0.0212749,-0,0.0215884,501.138,-58831.7,0,58833.9,9232.51
step02_gravity_refstate-mantle.xmf,1225,2.49721e-06,2.79821e-06,0,5.84251e-08,-1.683e+09,-1.68296e+09,-1.68333e+09,7808.52,-0.0322043,0.00548088,-0,0.0326673,27366.9,-58072.2,0,64197.6,7808.52
step02_gravity_refstate-mantle.xmf,1226,2.52305e-06,2.8804e-06,0,-6.06349e-10,-1.7454e+09,-1.74535e+09,-1.74573e+09,-81.0385,-0.0325006,-3.16157e-19,-0,0.0325006,27388.2,-60000,0,65955.4,81.0385
step02_gravity_refstate-mantle.xmf,1227,-3.69132e-07,9.89941e-06,0,-6.6167e-06,-1.3501e+09,-1.34873e+09,-1.35005e+09,-884322,-0.040979,0.156882,-0,0.162145,7122.39,-47788,0,48315.8,884322
step02_gravity_refstate-mantle.xmf,1228,5.32442e-07,7.80963e-06,0,-5.39206e-06,-1.33085e+09,-1.32988e+09,-1.33092e+09,-720649,-0.0386319,0.145038,-0,0.150095,8205.41,-47194,0,47902,720649
step02_gravity_refstate-mantle.xmf,1229,8.93796e-07,6.36054e-06,0,-4.11296e-06,-1.31353e+09,-1.3128e+09,-1.31365e+09,-549697,-0.0351165,0.132429,-0,0.137006,9337.43,-46657.8,0,47583,549697
step02_gravity_refstate-mantle.xmf,1230,-5.51895e-06,1.69374e-05,0,-5.12953e-06,-1.4658e+09,-1.4628e+09,-1.46507e+09,-685562,-0.0350646,0.142622,-0,0.146869,4526.56,-51345.6,0,51544.8,685562
step02_gravity_refstate-mantle.xmf,1231,-5.92599e-06,1.72741e-05,0,-4.42245e-06,-1.4896e+09,-1.4865e+09,-1.48881e+09,-591060,-0.032971,0.13232,-0,0.136366,4267.01,-52079,0,52253.5,591060
step02_gravity_refstate-mantle.xmf,1232,8.912e-07,4.98626e-06,0,-2.35859e-06,-1.29158e+09,-1.29103e+09,-1.2917e+09,-315226,-0.0292585,0.111428,-0,0.115205,11369.9,-45976.1,0,47361.1,315226
step02_gravity_refstate-mantle.xmf,1233,4.96433e-07,3.60383e-06,0,-9.67979e-08,-1.26215e+09,-1.26173e+09,-1.26222e+09,-12937,-0.0200347,0.0659002,-0,0.0688783,18140.7,-45060.9,0,48575.4,12937
step02_gravity_refstate-mantle.xmf,1234,8.54821e-07,4.71778e-06,0,-1.85982e-06,-1.2928e+09,-1.29229e+09,-1.29292e+09,-248565,-0.0287073,0.101969,-0,0.105933,12281.8,-46013.1,0,47624,248565
step02_gravity_refstate-mantle.xmf,1235,5.14905e-07,4.24602e-06,0,-1.07072e-06,-1.26568e+09,-1.26518e+09,-1.26574e+09,-143101,-0.0227093,0.0928009,-0,0.0955391,13747,-45171.6,0,47217.1,143101
step02_gravity_refstate-mantle.xmf,1236,4.91337e-07,3.75283e-06,0,-2.74491e-07,-1.26406e+09,-1.26362e+09,-1.26412e+09,-36685.7,-0.0208723,0.071564,-0,0.0745457,16971.5,-45120.1,0,48206.4,36685.7
step02_gravity_refstate-mantle.xmf,1237,4.95091e-07,3.90522e-06,0,-4.91344e-07,-1.26514e+09,-1.26469e+09,-1.26521e+09,-65668.1,-0.021573,0.0778652,-0,0.0807984,15860.6,-45154.1,0,47858.7,65668.1
step02_gravity_refstate-mantle.xmf,1238,5.08221e-07,4.06565e-06,0,-7.55855e-07,-1.26563e+09,-1.26515e+09,-1.2657e+09,-101020,-0.0221762,0.0849364,-0,0.0877836,14785.4,-45169.6,0,47527.9,101020
step02_gravity_refstate-mantle.xmf,1239,9.63676e-07,5.90541e-06,0,-3.48908e-06,-1.31564e+09,-1.31498e+09,-1.31577e+09,-466316,-0.0347793,0.122261,-0,0.127112,10087.4,-46722.1,0,47798.7,466316
step02_gravity_refstate-mantle.xmf,1240,1.04363e-06,3.32084e-06,0,1.22493e-07,-1.321e+09,-1.3207e+09,-1.32114e+09,16371.2,-0.0253346,0.0499305,-0,0.0559902,20599,-46881.7,0,51207.6,16371.2
step02_gravity_refstate-mantle.xmf,1241,2.23144e-06,2.75453e-06,0,1.89299e-07,-1.54652e+09,-1.54645e+09,-1.54682e+09,25299.9,-0.0311196,0.0176768,-0,0.0357896,26436.8,-53854.6,0,59993.5,25299.9
step02_gravity_refstate-mantle.xmf,1242,-7.33903e-06,1.8312e-05,0,-4.23686e-07,-1.6574e+09,-1.65398e+09,-1.65642e+09,-56625.7,-0.00878363,0.0497942,-0,0.0505629,1184.27,-57255.5,0,57267.7,56625.7
step02_gravity_refstate-mantle.xmf,1243,-7.20617e-06,1.81143e-05,0,4.70401e-09,-1.74624e+09,-1.74286e+09,-1.74528e+09,628.691,-0.00856203,-2.27724e-19,-0,0.00856203,1179.97,-60000,0,60011.6,628.691
step02_gravity_refstate-mantle.xmf,1244,-7.31703e-06,1.83065e-05,0,-7.23555e-07,-1.6361e+09,-1.63268e+09,-1.63513e+09,-96703.1,-0.012092,0.0614263,-0,0.0626052,1619.76,-56597.6,0,56620.8,96703.1
step02_gravity_refstate-mantle.xmf,1245,2.42012e-06,2.80503e-06,0,1.05146e-07,-1.63225e+09,-1.6322e+09,-1.63258e+09,14052.8,-0.0328328,0.0100832,-0,0.0343463,26778.7,-56504.1,0,62528.5,14052.8
step02_gravity_refstate-mantle.xmf,1246,-7.24437e-06,1.82832e-05,0,-1.15984e-06,-1.61124e+09,-1.60783e+09,-1.61028e+09,-155012,-0.0159275,0.0746999,-0,0.076379,2116.2,-55830.2,0,55870.3,155012
step02_gravity_refstate-mantle.xmf,1247,-7.12687e-06,1.82339e-05,0,-1.70994e-06,-1.58486e+09,-1.58147e+09,-1.5839e+09,-228534,-0.0197294,0.0884257,-0,0.0906,2596.89,-55015.7,0,55077,228534
step02_gravity_refstate-mantle.xmf,1248,-6.94861e-06,1.81311e-05,0,-2.33702e-06,-1.55913e+09,-1.55578e+09,-1.5582e+09,-312343,-0.0233652,0.101321,-0,0.10398,3048.86,-54221.9,0,54307.6,312343
step02_gravity_refstate-mantle.xmf,1249,-6.70379e-06,1.79686e-05,0,-3.02058e-06,-1.53393e+09,-1.53063e+09,-1.53303e+09,-403700,-0.0267517,0.113449,-0,0.116561,3464.53,-53444.7,0,53556.9,403700
step02_gravity_refstate-mantle.xmf,1250,-6.45938e-06,1.78198e-05,0,-3.65062e-06,-1.51138e+09,-1.50813e+09,-1.51051e+09,-487906,-0.0293624,0.124076,-0,0.127503,3776.67,-52749.3,0,52884.3,487906
step02_gravity_refstate-mantle.xmf,1251,-1.06457e-06,1.10238e-05,0,-6.76493e-06,-1.3697e+09,-1.36809e+09,-1.36956e+09,-904134,-0.0422516,0.155334,-0,0.160978,6821.35,-48391.8,0,48870.2,904134
step02_gravity_refstate-mantle.xmf,1252,1.05756e-07,8.76773e-06,0,-5.82144e-06,-1.34948e+09,-1.34832e+09,-1.34949e+09,-778035,-0.0410136,0.14564,-0,0.151305,7851.81,-47769,0,48410,778035
step02_gravity_refstate-mantle.xmf,1253,7.22707e-07,7.0775e-06,0,-4.60944e-06,-1.33241e+09,-1.33156e+09,-1.33251e+09,-616052,-0.0383682,0.133601,-0,0.139001,8968.35,-47241.7,0,48085.4,616052
step02_gravity_refstate-mantle.xmf,1254,-1.84765e-06,1.2168e-05,0,-6.75511e-06,-1.38908e+09,-1.38721e+09,-1.38884e+09,-902821,-0.0426905,0.153386,-0,0.159216,6491.2,-48988.1,0,49416.3,902821
step02_gravity_refstate-mantle.xmf,1255,-2.61205e-06,1.3194e-05,0,-6.56591e-06,-1.40815e+09,-1.40604e+09,-1.4078e+09,-877533,-0.0424658,0.150275,-0,0.15616,6183.5,-49574.6,0,49958.7,877533
step02_gravity_refstate-mantle.xmf,1256,-4.74676e-06,1.5859e-05,0,-5.37532e-06,-1.46233e+09,-1.45957e+09,-1.46169e+09,-718412,-0.0382658,0.138372,-0,0.143566,5136.13,-51240.6,0,51497.4,718412
step02_gravity_refstate-mantle.xmf,1257,-4.07474e-06,1.50246e-05,0,-5.82222e-06,-1.44601e+09,-1.44346e+09,-1.44547e+09,-778140,-0.0402259,0.142013,-0,0.1476,5521.08,-50739.1,0,51038.6,778140
step02_gravity_refstate-mantle.xmf,1258,-3.36701e-06,1.41514e-05,0,-6.2359e-06,-1.42761e+09,-1.42527e+09,-1.42716e+09,-833428,-0.0416319,0.146229,-0,0.15204,5863.97,-50173.1,0,50514.6,833428
step02_gravity_refstate-mantle.xmf,1259,7.85971e-07,4.47971e-06,0,-1.40254e-06,-1.2919e+09,-1.29141e+09,-1.29201e+09,-187450,-0.027755,0.0933547,-0,0.0973932,13253.2,-45984.2,0,47855.9,187450
step02_gravity_refstate-mantle.xmf,1260,9.9347e-07,5.5071e-06,0,-2.90225e-06,-1.31704e+09,-1.31643e+09,-1.31717e+09,-387886,-0.0342543,0.112698,-0,0.117789,10878.7,-46764.6,0,48013.2,387886
step02_gravity_refstate-mantle.xmf,1261,7.85378e-07,3.53438e-06,0,-4.1772e-08,-1.29361e+09,-1.29325e+09,-1.29372e+09,-5582.83,-0.0238005,0.0595669,-0,0.0641458,18783.5,-46034.5,0,49719.2,5582.83
step02_gravity_refstate-mantle.xmf,1262,1.03527e-06,3.47746e-06,0,-5.33056e-09,-1.32408e+09,-1.32376e+09,-1.32422e+09,-712.429,-0.0268916,0.0536781,-0,0.0600375,19431.8,-46977.2,0,50837.5,712.429
step02_gravity_refstate-mantle.xmf,1263,2.30966e-06,2.86941e-06,0,1.38412e-07,-1.5863e+09,-1.58622e+09,-1.58661e+09,18498.8,-0.0338183,0.0146792,-0,0.0368667,25853,-55084.1,0,60849.3,18498.8
step02_gravity_refstate-mantle.xmf,1264,2.18395e-06,2.9253e-06,0,1.59817e-07,-1.54364e+09,-1.54354e+09,-1.54393e+09,21359.5,-0.0339594,0.019178,-0,0.0390004,25098.9,-53765.7,0,59335.5,21359.5
step02_gravity_refstate-mantle.xmf,1265,2.04712e-06,2.98694e-06,0,1.7162e-07,-1.50489e+09,-1.50477e+09,-1.50517e+09,22937,-0.0337478,0.0236137,-0,0.0411888,24348,-52568,0,57932.9,22937
step02_gravity_refstate-mantle.xmf,1266,1.88817e-06,3.04486e-06,0,1.78986e-07,-1.46559e+09,-1.46543e+09,-1.46584e+09,23921.5,-0.0329406,0.0283682,-0,0.0434723,23625.6,-51352.9,0,56526.9,23921.5
step02_gravity_refstate-mantle.xmf,1267,1.70047e-06,3.09934e-06,0,1.83694e-07,-1.42516e+09,-1.42497e+09,-1.42539e+09,24550.7,-0.0314711,0.0335131,-0,0.0459735,22921.4,-50103,0,55097.2,24550.7
step02_gravity_refstate-mantle.xmf,1268,1.47876e-06,3.15349e-06,0,1.85311e-07,-1.3841e+09,-1.38387e+09,-1.38429e+09,24766.8,-0.0293254,0.0390237,-0,0.0488142,22227.9,-48833.2,0,53654.1,24766.8
step02_gravity_refstate-mantle.xmf,1269,1.24294e-06,3.41602e-06,0,3.17669e-08,-1.35303e+09,-1.35274e+09,-1.3532e+09,4245.65,-0.0292727,0.0481592,-0,0.0563578,20119.1,-47872.7,0,51928.5,4245.65
step02_gravity_refstate-mantle.xmf,1270,-7.25325e-06,1.81353e-05,0,-3.21016e-07,-1.68476e+09,-1.68137e+09,-1.68379e+09,-42903.8,-0.0094174,0.0343355,-0,0.0356036,1285.25,-58100.7,0,58114.9,42903.8
step02_gravity_refstate-mantle.xmf,1271,-7.07155e-06,1.79208e-05,0,-2.08824e-07,-1.71517e+09,-1.71183e+09,-1.71422e+09,-27909.3,-0.0131339,0.0171654,-0,0.0216137,1817.52,-59040.6,0,59068.6,27909.3
step02_gravity_refstate-mantle.xmf,1272,2.44324e-06,2.95517e-06,0,5.94541e-08,-1.67146e+09,-1.67139e+09,-1.67179e+09,7946.04,-0.0353052,0.00689108,-0,0.0359714,26050.2,-57715.9,0,63322.4,7946.04
step02_gravity_refstate-mantle.xmf,1273,2.47621e-06,2.98015e-06,0,3.27117e-08,-1.70986e+09,-1.70979e+09,-1.71019e+09,4371.92,-0.0351543,0.00330609,-0,0.0353094,26278.6,-58902.3,0,64498.4,4371.92
step02_gravity_refstate-mantle.xmf,1274,-5.88445e-06,1.7037e-05,0,-3.98207e-06,-1.50924e+09,-1.50618e+09,-1.50846e+09,-532204,-0.0329439,0.121305,-0,0.125699,4348.3,-52685.3,0,52864.4,532204
step02_gravity_refstate-mantle.xmf,1275,-4.60234e-07,9.78973e-06,0,-6.08915e-06,-1.36905e+09,-1.36768e+09,-1.36899e+09,-813815,-0.0427479,0.144841,-0,0.151017,7529.49,-48372.6,0,48955.1,813815
step02_gravity_refstate-mantle.xmf,1276,4.27309e-07,7.86757e-06,0,-5.04988e-06,-1.35009e+09,-1.3491e+09,-1.35015e+09,-674916,-0.0408811,0.134587,-0,0.140659,8603.8,-47787.8,0,48556.2,674916
step02_gravity_refstate-mantle.xmf,1277,8.2848e-07,6.54426e-06,0,-3.94614e-06,-1.3361e+09,-1.33533e+09,-1.33621e+09,-527401,-0.0383105,0.122926,-0,0.128757,9719.21,-47354.9,0,48342,527401
step02_gravity_refstate-mantle.xmf,1278,-5.08252e-06,1.61208e-05,0,-4.83172e-06,-1.48303e+09,-1.48019e+09,-1.48235e+09,-645759,-0.0371224,0.129539,-0,0.134754,4992.47,-51878.5,0,52118.2,645759
step02_gravity_refstate-mantle.xmf,1279,9.93965e-07,5.14432e-06,0,-2.34551e-06,-1.3173e+09,-1.31675e+09,-1.31743e+09,-313477,-0.0334595,0.103543,-0,0.108815,11739.7,-46771.8,0,48222.6,313477
step02_gravity_refstate-mantle.xmf,1280,7.87506e-07,3.70648e-06,0,-2.29951e-07,-1.29493e+09,-1.29454e+09,-1.29504e+09,-30732.9,-0.0249087,0.0648387,-0,0.0694586,17586.6,-46075.7,0,49317.9,30732.9
step02_gravity_refstate-mantle.xmf,1281,9.78652e-07,4.81415e-06,0,-1.78733e-06,-1.32014e+09,-1.31963e+09,-1.32027e+09,-238876,-0.0328909,0.0932523,-0,0.0988827,12793.6,-46858.6,0,48573.7,238876
step02_gravity_refstate-mantle.xmf,1282,7.73188e-07,4.26667e-06,0,-1.02941e-06,-1.29384e+09,-1.29337e+09,-1.29394e+09,-137580,-0.0272759,0.0849249,-0,0.0891976,14285.5,-46043.4,0,48208.6,137580
step02_gravity_refstate-mantle.xmf,1283,7.88807e-07,3.8807e-06,0,-4.51385e-07,-1.29595e+09,-1.29554e+09,-1.29606e+09,-60327.6,-0.0259351,0.0706845,-0,0.0752923,16447.3,-46107.6,0,48953.3,60327.6
step02_gravity_refstate-mantle.xmf,1284,7.95703e-07,4.06569e-06,0,-7.22154e-07,-1.29602e+09,-1.29559e+09,-1.29613e+09,-96515.8,-0.0268051,0.0773447,-0,0.0818579,15340.7,-46110.5,0,48595.4,96515.8
step02_gravity_refstate-mantle.xmf,1285,9.04738e-07,6.21688e-06,0,-3.46569e-06,-1.34321e+09,-1.3425e+09,-1.34333e+09,-463189,-0.0387572,0.113684,-0,0.120109,10373.1,-47574.2,0,48691.9,463189
step02_gravity_refstate-mantle.xmf,1286,1.44731e-06,3.35462e-06,0,6.26401e-08,-1.38596e+09,-1.38571e+09,-1.38615e+09,8371.85,-0.031496,0.042424,-0,0.0528374,20858.4,-48891.1,0,53154.6,8371.85
step02_gravity_refstate-mantle.xmf,1287,-7.09325e-06,1.79775e-05,0,-6.6681e-07,-1.66142e+09,-1.65807e+09,-1.66047e+09,-89119.1,-0.0150061,0.0467325,-0,0.0490827,2049.39,-57380.4,0,57417,89119.1
step02_gravity_refstate-mantle.xmf,1288,-6.88427e-06,1.76924e-05,0,4.78918e-09,-1.7462e+09,-1.74292e+09,-1.74528e+09,640.074,-0.0168725,-2.01657e-19,-0,0.0168725,2359.95,-60000,0,60046.4,640.074
step02_gravity_refstate-mantle.xmf,1289,-6.95287e-06,1.78133e-05,0,-1.08041e-06,-1.63748e+09,-1.63417e+09,-1.63655e+09,-144397,-0.0189271,0.0591882,-0,0.0621408,2579.5,-56641.3,0,56700,144397
step02_gravity_refstate-mantle.xmf,1290,2.35458e-06,3.06151e-06,0,7.52062e-08,-1.63406e+09,-1.63397e+09,-1.63438e+09,10051.3,-0.0371282,0.0108746,-0,0.038688,24996.1,-56560.3,0,61837.5,10051.3
step02_gravity_refstate-mantle.xmf,1291,2.40124e-06,3.20332e-06,0,2.86049e-08,-1.69658e+09,-1.69647e+09,-1.6969e+09,3823.04,-0.0386788,0.00489929,-0,0.0389878,24785.6,-58492.1,0,63526.8,3823.04
step02_gravity_refstate-mantle.xmf,1292,2.45459e-06,3.14353e-06,0,-9.91894e-10,-1.74539e+09,-1.7453e+09,-1.74572e+09,-132.567,-0.0369849,-4.69255e-19,-0,0.0369849,25586.2,-60000,0,65227.7,132.567
step02_gravity_refstate-mantle.xmf,1293,-6.77406e-06,1.76476e-05,0,-1.5834e-06,-1.61149e+09,-1.60823e+09,-1.61058e+09,-211622,-0.0226686,0.0723025,-0,0.0757727,3078.42,-55839.3,0,55924.1,211622
step02_gravity_refstate-mantle.xmf,1294,-6.54726e-06,1.74449e-05,0,-2.17315e-06,-1.58467e+09,-1.58146e+09,-1.58379e+09,-290441,-0.0262181,0.0853455,-0,0.0892818,3545.49,-55011.7,0,55125.8,290441
step02_gravity_refstate-mantle.xmf,1295,-6.25332e-06,1.71788e-05,0,-2.83397e-06,-1.55762e+09,-1.55449e+09,-1.55679e+09,-378760,-0.0296026,0.097889,-0,0.102267,3989,-54177.7,0,54324.3,378760
step02_gravity_refstate-mantle.xmf,1296,-5.86614e-06,1.68239e-05,0,-3.57326e-06,-1.52928e+09,-1.52625e+09,-1.5285e+09,-477567,-0.03282,0.110397,-0,0.115172,4411.59,-53303.9,0,53486.1,477567
step02_gravity_refstate-mantle.xmf,1297,-5.26741e-06,1.61609e-05,0,-4.24195e-06,-1.50671e+09,-1.50385e+09,-1.50601e+09,-566937,-0.0362966,0.118193,-0,0.123641,4937.93,-52608.9,0,52840.1,566937
step02_gravity_refstate-mantle.xmf,1298,-1.13401e-06,1.0861e-05,0,-6.22454e-06,-1.38838e+09,-1.38678e+09,-1.38823e+09,-831909,-0.0436982,0.143639,-0,0.150139,7185.43,-48967.9,0,49492.3,831909
step02_gravity_refstate-mantle.xmf,1299,-3.20742e-10,8.74617e-06,0,-5.38154e-06,-1.36879e+09,-1.36762e+09,-1.36879e+09,-719242,-0.0428956,0.134463,-0,0.14114,8265.78,-48364.8,0,49066,719242
step02_gravity_refstate-mantle.xmf,1300,6.2571e-07,7.2139e-06,0,-4.42199e-06,-1.35036e+09,-1.34948e+09,-1.35045e+09,-590999,-0.0405632,0.125647,-0,0.132032,9267.31,-47795.9,0,48686.1,590999
step02_gravity_refstate-mantle.xmf,1301,-4.09591e-06,1.47727e-05,0,-5.21122e-06,-1.47029e+09,-1.46777e+09,-1.46975e+09,-696480,-0.0408121,0.128485,-0,0.134811,5743.5,-51488.3,0,51807.7,696480
step02_gravity_refstate-mantle.xmf,1302,-1.79316e-06,1.17942e-05,0,-6.16503e-06,-1.40717e+09,-1.40536e+09,-1.40693e+09,-823956,-0.0440245,0.140979,-0,0.147693,6900.07,-49546.3,0,50024.5,823956
step02_gravity_refstate-mantle.xmf,1303,-2.48603e-06,1.27194e-05,0,-5.96677e-06,-1.42755e+09,-1.42552e+09,-1.42722e+09,-797459,-0.0438114,0.137006,-0,0.14384,6608.32,-50173.6,0,50606.9,797459
step02_gravity_refstate-mantle.xmf,1304,-3.26645e-06,1.37343e-05,0,-5.65769e-06,-1.44848e+09,-1.4462e+09,-1.44804e+09,-756150,-0.0427718,0.133041,-0,0.139747,6219.58,-50817.3,0,51196.5,756150
step02_gravity_refstate-mantle.xmf,1305,9.26666e-07,4.49151e-06,0,-1.32832e-06,-1.3127e+09,-1.31223e+09,-1.31283e+09,-177529,-0.0308068,0.0865383,-0,0.0918582,13737.1,-46627.7,0,48609.1,177529
step02_gravity_refstate-mantle.xmf,1306,9.84694e-07,5.72221e-06,0,-2.86383e-06,-1.34199e+09,-1.34136e+09,-1.34212e+09,-382750,-0.0378169,0.104936,-0,0.111542,11196.6,-47535.9,0,48836.7,382750
step02_gravity_refstate-mantle.xmf,1307,1.02127e-06,3.65815e-06,0,-1.79125e-07,-1.32571e+09,-1.32536e+09,-1.32584e+09,-23940.1,-0.0283264,0.058375,-0,0.0648847,18226,-47027.8,0,50436.2,23940.1
step02_gravity_refstate-mantle.xmf,1308,1.23138e-06,3.62131e-06,0,-1.42582e-07,-1.3566e+09,-1.35628e+09,-1.35677e+09,-19056.1,-0.0312101,0.0522656,-0,0.060875,18863.4,-47983.5,0,51558.1,19056.1
step02_gravity_refstate-mantle.xmf,1309,2.23878e-06,3.10079e-06,0,9.61285e-08,-1.58282e+09,-1.5827e+09,-1.58311e+09,12847.6,-0.0371633,0.0162865,-0,0.0405754,24331.1,-54976.6,0,60120.1,12847.6
step02_gravity_refstate-mantle.xmf,1310,2.1207e-06,3.17248e-06,0,9.49204e-08,-1.54458e+09,-1.54444e+09,-1.54486e+09,12686.1,-0.0373068,0.0208565,-0,0.042741,23562.7,-53794.9,0,58728.9,12686.1
step02_gravity_refstate-mantle.xmf,1311,1.98577e-06,3.22555e-06,0,9.0718e-08,-1.50497e+09,-1.50481e+09,-1.50524e+09,12124.5,-0.0367402,0.0257973,-0,0.0448925,22866.3,-52570.7,0,57328.4,12124.5
step02_gravity_refstate-mantle.xmf,1312,1.8314e-06,3.27141e-06,0,8.30613e-08,-1.46509e+09,-1.4649e+09,-1.46534e+09,11101.1,-0.0355791,0.031052,-0,0.0472239,22189.6,-51337.9,0,55928.2,11101.1
step02_gravity_refstate-mantle.xmf,1313,1.65317e-06,3.31062e-06,0,7.52102e-08,-1.4251e+09,-1.42487e+09,-1.42532e+09,10051.8,-0.0337887,0.0365875,-0,0.0498028,21536.5,-50101.2,0,54534,10051.8
step02_gravity_refstate-mantle.xmf,1314,1.42334e-06,3.5811e-06,0,-1.02654e-07,-1.38948e+09,-1.38919e+09,-1.38967e+09,-13719.7,-0.0337094,0.0461138,-0,0.057121,19548.7,-49000.3,0,52755.8,13719.7
step02_gravity_refstate-mantle.xmf,1315,-6.85049e-06,1.76061e-05,0,-5.47773e-07,-1.68875e+09,-1.68548e+09,-1.68784e+09,-73209.9,-0.0183583,0.0311905,-0,0.0361922,2554.89,-58225.3,0,58281.3,73209.9
step02_gravity_refstate-mantle.xmf,1316,-6.62635e-06,1.73258e-05,0,-3.14511e-07,-1.71659e+09,-1.71339e+09,-1.71571e+09,-42034.4,-0.0213933,0.0158202,-0,0.0266074,3023.9,-59086.2,0,59163.5,42034.4
step02_gravity_refstate-mantle.xmf,1317,-5.60218e-07,9.72729e-06,0,-5.61825e-06,-1.38809e+09,-1.38672e+09,-1.38802e+09,-750880,-0.0442924,0.13384,-0,0.140979,7905.63,-48959.8,0,49594,750880
step02_gravity_refstate-mantle.xmf,1318,3.46565e-07,7.86683e-06,0,-4.69186e-06,-1.36827e+09,-1.36727e+09,-1.36832e+09,-627067,-0.042715,0.124669,-0,0.131784,9017.77,-48348.8,0,49182.6,627067
step02_gravity_refstate-mantle.xmf,1319,6.60555e-07,7.00779e-06,0,-4.00919e-06,-1.36294e+09,-1.36209e+09,-1.36303e+09,-535828,-0.0417298,0.116156,-0,0.123425,9813.55,-48184.1,0,49173.3,535828
step02_gravity_refstate-mantle.xmf,1320,-4.47921e-06,1.51803e-05,0,-4.76499e-06,-1.48893e+09,-1.48631e+09,-1.48833e+09,-636841,-0.0397548,0.121519,-0,0.127857,5569.12,-52062.6,0,52359.6,636841
step02_gravity_refstate-mantle.xmf,1321,1.03121e-06,5.31126e-06,0,-2.30752e-06,-1.3425e+09,-1.34193e+09,-1.34264e+09,-308400,-0.036993,0.0960322,-0,0.102911,12096.1,-47550.8,0,49065.2,308400
step02_gravity_refstate-mantle.xmf,1322,1.02724e-06,3.86709e-06,0,-4.14499e-07,-1.32709e+09,-1.32671e+09,-1.32723e+09,-55397.8,-0.029711,0.0637863,-0,0.0703664,17039.7,-47071.2,0,50060.5,55397.8
step02_gravity_refstate-mantle.xmf,1323,1.05616e-06,4.71922e-06,0,-1.52173e-06,-1.33864e+09,-1.33815e+09,-1.33878e+09,-203379,-0.0348566,0.0837898,-0,0.0907509,13614.6,-47430.2,0,49345.5,203379
step02_gravity_refstate-mantle.xmf,1324,1.01886e-06,4.35226e-06,0,-1.06634e-06,-1.32715e+09,-1.3267e+09,-1.32728e+09,-142516,-0.0321155,0.0778233,-0,0.0841895,14659.1,-47074.1,0,49303.8,142516
step02_gravity_refstate-mantle.xmf,1325,1.02261e-06,4.08587e-06,0,-6.89264e-07,-1.32765e+09,-1.32724e+09,-1.32778e+09,-92120.1,-0.0309375,0.0699086,-0,0.0764483,15901,-47088.9,0,49701.1,92120.1
step02_gravity_refstate-mantle.xmf,1326,8.25059e-07,6.41018e-06,0,-3.34453e-06,-1.36541e+09,-1.36467e+09,-1.36552e+09,-446996,-0.0413839,0.10591,-0,0.113708,10685.2,-48260.1,0,49428.8,446996
step02_gravity_refstate-mantle.xmf,1327,1.59746e-06,3.5414e-06,0,-6.66587e-08,-1.42449e+09,-1.42423e+09,-1.4247e+09,-8908.93,-0.0358154,0.0400302,-0,0.0537137,20259.8,-50082.6,0,54025.3,8908.93
step02_gravity_refstate-mantle.xmf,1328,-6.66527e-06,1.73983e-05,0,-9.28859e-07,-1.66287e+09,-1.65966e+09,-1.66198e+09,-124142,-0.0220336,0.0445306,-0,0.0496836,3072.51,-57426.6,0,57508.7,124142
step02_gravity_refstate-mantle.xmf,1329,-6.37596e-06,1.70163e-05,0,3.26083e-09,-1.74615e+09,-1.74302e+09,-1.7453e+09,435.81,-0.0246943,-1.9211e-19,-0,0.0246943,3539.92,-60000,0,60104.3,435.81
step02_gravity_refstate-mantle.xmf,1330,-6.44356e-06,1.71256e-05,0,-1.38789e-06,-1.63789e+09,-1.63474e+09,-1.63703e+09,-185492,-0.0255384,0.0568744,-0,0.062345,3567.36,-56655.6,0,56767.8,185492
step02_gravity_refstate-mantle.xmf,1331,2.28184e-06,3.40009e-06,0,2.12035e-08,-1.65681e+09,-1.65666e+09,-1.65711e+09,2833.85,-0.0412298,0.00954777,-0,0.0423209,23439.8,-57263.2,0,61874.9,2833.85
step02_gravity_refstate-mantle.xmf,1332,2.34994e-06,3.467e-06,0,-1.07798e-10,-1.74538e+09,-1.74523e+09,-1.7457e+09,-14.4072,-0.0411404,-4.63434e-19,-0,0.0411404,23856.4,-60000,0,64568.8,14.4072
step02_gravity_refstate-mantle.xmf,1333,-6.17441e-06,1.68355e-05,0,-1.92326e-06,-1.61112e+09,-1.60805e+09,-1.6103e+09,-257044,-0.0289365,0.0695559,-0,0.0753349,4045.68,-55829.9,0,55976.2,257044
step02_gravity_refstate-mantle.xmf,1334,-5.84634e-06,1.64872e-05,0,-2.53099e-06,-1.58354e+09,-1.58055e+09,-1.58276e+09,-338266,-0.0321976,0.0819671,-0,0.0880641,4507.16,-54979.1,0,55163.5,338266
step02_gravity_refstate-mantle.xmf,1335,-5.41318e-06,1.6022e-05,0,-3.19473e-06,-1.55566e+09,-1.55279e+09,-1.55493e+09,-426975,-0.0354179,0.0935822,-0,0.10006,4978.59,-54119.6,0,54348.1,426975
step02_gravity_refstate-mantle.xmf,1336,-4.94215e-06,1.55041e-05,0,-3.78771e-06,-1.53115e+09,-1.52842e+09,-1.53049e+09,-506228,-0.0380736,0.102912,-0,0.109729,5391.57,-53364.4,0,53636,506228
step02_gravity_refstate-mantle.xmf,1337,-1.13952e-06,1.06574e-05,0,-5.75932e-06,-1.40365e+09,-1.40207e+09,-1.4035e+09,-769733,-0.0448362,0.133719,-0,0.141036,7543.92,-49438.9,0,50011.1,769733
step02_gravity_refstate-mantle.xmf,1338,-1.00272e-07,8.73976e-06,0,-4.98184e-06,-1.38788e+09,-1.3867e+09,-1.38787e+09,-665823,-0.0445252,0.124262,-0,0.131999,8651.39,-48953.9,0,49712.5,665823
step02_gravity_refstate-mantle.xmf,1339,-4.53595e-06,1.5095e-05,0,-4.3055e-06,-1.50879e+09,-1.50616e+09,-1.50818e+09,-575431,-0.0398211,0.111424,-0,0.118326,5666.15,-52675.2,0,52979.1,575431
step02_gravity_refstate-mantle.xmf,1340,-3.87635e-06,1.42444e-05,0,-4.68003e-06,-1.49242e+09,-1.49e+09,-1.4919e+09,-625486,-0.0421735,0.114621,-0,0.122133,6161.96,-52171.8,0,52534.5,625486
step02_gravity_refstate-mantle.xmf,1341,-1.58229e-06,1.12143e-05,0,-5.52713e-06,-1.42529e+09,-1.42358e+09,-1.42508e+09,-738701,-0.0455404,0.127205,-0,0.135111,7481.09,-50105.8,0,50661.2,738701
step02_gravity_refstate-mantle.xmf,1342,-2.41532e-06,1.23654e-05,0,-5.37414e-06,-1.44874e+09,-1.44676e+09,-1.44841e+09,-718254,-0.0450459,0.123997,-0,0.131925,7019.61,-50827.5,0,51309.9,718254
step02_gravity_refstate-mantle.xmf,1343,-3.16896e-06,1.33501e-05,0,-5.07851e-06,-1.47079e+09,-1.46858e+09,-1.47037e+09,-678742,-0.0439028,0.119716,-0,0.127512,6595.64,-51506.2,0,51926.8,678742
step02_gravity_refstate-mantle.xmf,1344,1.05682e-06,5.04832e-06,0,-1.91245e-06,-1.34617e+09,-1.34564e+09,-1.34631e+09,-255599,-0.0367217,0.0886941,-0,0.0959955,12862.2,-47663.7,0,49368.7,255599
step02_gravity_refstate-mantle.xmf,1345,9.55107e-07,5.86952e-06,0,-2.744e-06,-1.36518e+09,-1.36452e+09,-1.3653e+09,-366736,-0.0405715,0.0970336,-0,0.105174,11573.1,-48252.2,0,49620.7,366736
step02_gravity_refstate-mantle.xmf,1346,1.20918e-06,3.84286e-06,0,-3.58067e-07,-1.35799e+09,-1.35763e+09,-1.35815e+09,-47855.6,-0.0328339,0.0571204,-0,0.0658848,17662.3,-48026.7,0,51171.5,47855.6
step02_gravity_refstate-mantle.xmf,1347,2.24341e-06,3.31173e-06,0,3.92329e-08,-1.61557e+09,-1.61542e+09,-1.61587e+09,5243.48,-0.0400005,0.0137606,-0,0.0423012,23536.2,-55988.9,0,60734.7,5243.48
step02_gravity_refstate-mantle.xmf,1348,1.37456e-06,3.82808e-06,0,-3.12468e-07,-1.38907e+09,-1.38874e+09,-1.38925e+09,-41761.3,-0.035453,0.0508325,-0,0.0619747,18273.4,-48987.9,0,52285.1,41761.3
step02_gravity_refstate-mantle.xmf,1349,2.14761e-06,3.39933e-06,0,2.3988e-08,-1.58339e+09,-1.58322e+09,-1.58367e+09,3205.99,-0.0405684,0.0178625,-0,0.0443268,22788.4,-54994.4,0,59528.9,3205.99
step02_gravity_refstate-mantle.xmf,1350,2.03218e-06,3.46377e-06,0,-5.94418e-10,-1.54475e+09,-1.54456e+09,-1.54502e+09,-79.4439,-0.0403912,0.0229382,-0,0.0464501,22081.3,-53800.3,0,58155.4,79.4439
step02_gravity_refstate-mantle.xmf,1351,1.90287e-06,3.5136e-06,0,-2.97133e-08,-1.50496e+09,-1.50474e+09,-1.50521e+09,-3971.18,-0.0396083,0.0284736,-0,0.0487808,21390.5,-52570.4,0,56755.6,3971.18
step02_gravity_refstate-mantle.xmf,1352,1.76169e-06,3.52568e-06,0,-5.07058e-08,-1.46388e+09,-1.46364e+09,-1.46411e+09,-6776.83,-0.037938,0.0342041,-0,0.0510805,20828.6,-51300.5,0,55367.6,6776.83
step02_gravity_refstate-mantle.xmf,1353,1.55709e-06,3.82953e-06,0,-2.68608e-07,-1.42899e+09,-1.42869e+09,-1.4292e+09,-35899.5,-0.0382288,0.0435223,-0,0.0579278,18974.6,-50222.3,0,53687.2,35899.5
step02_gravity_refstate-mantle.xmf,1354,-6.30483e-06,1.68853e-05,0,-7.30229e-07,-1.68864e+09,-1.68554e+09,-1.6878e+09,-97595.1,-0.025955,0.029972,-0,0.0396482,3708.89,-58223.6,0,58341.6,97595.1
step02_gravity_refstate-mantle.xmf,1355,-6.02915e-06,1.65236e-05,0,-4.16892e-07,-1.7156e+09,-1.71258e+09,-1.71479e+09,-55717.6,-0.0288053,0.0155739,-0,0.0327459,4194.57,-59057.3,0,59206.1,55717.6
step02_gravity_refstate-mantle.xmf,1356,2.27532e-06,3.57925e-06,0,1.5454e-09,-1.70202e+09,-1.70185e+09,-1.70233e+09,206.542,-0.042842,0.0048531,-0,0.043116,23027.8,-58660.3,0,63018.3,206.542
step02_gravity_refstate-mantle.xmf,1357,-7.11718e-07,9.75925e-06,0,-5.16779e-06,-1.40931e+09,-1.40792e+09,-1.40922e+09,-690675,-0.0457605,0.123118,-0,0.131347,8247.4,-49614.5,0,50295.3,690675
step02_gravity_refstate-mantle.xmf,1358,2.5362e-07,7.89943e-06,0,-4.34167e-06,-1.38797e+09,-1.38695e+09,-1.388e+09,-580264,-0.0444725,0.114881,-0,0.123188,9429.77,-48956.8,0,49856.7,580264
step02_gravity_refstate-mantle.xmf,1359,1.04012e-06,5.43403e-06,0,-2.22107e-06,-1.36577e+09,-1.36519e+09,-1.36591e+09,-296846,-0.0397618,0.0888555,-0,0.0973463,12467.6,-48270.1,0,49854.3,296846
step02_gravity_refstate-mantle.xmf,1360,1.10174e-06,5.05524e-06,0,-1.7678e-06,-1.36504e+09,-1.36451e+09,-1.36519e+09,-236267,-0.0387193,0.0817515,-0,0.0904571,13360.2,-48247,0,50062.6,236267
step02_gravity_refstate-mantle.xmf,1361,1.19952e-06,4.09799e-06,0,-6.36561e-07,-1.35907e+09,-1.35869e+09,-1.35923e+09,-85076.4,-0.0343519,0.0625943,-0,0.071401,16504.6,-48060.8,0,50815.8,85076.4
step02_gravity_refstate-mantle.xmf,1362,1.14514e-06,4.68706e-06,0,-1.3384e-06,-1.36166e+09,-1.36118e+09,-1.36181e+09,-178877,-0.0371963,0.0751964,-0,0.0838931,14337.3,-48141.7,0,50231.3,178877
step02_gravity_refstate-mantle.xmf,1363,1.1739e-06,4.36908e-06,0,-9.56211e-07,-1.35956e+09,-1.35913e+09,-1.35972e+09,-127798,-0.0357128,0.068714,-0,0.0774404,15397.5,-48076.4,0,50481.9,127798
step02_gravity_refstate-mantle.xmf,1364,5.31536e-07,7.17825e-06,0,-3.73378e-06,-1.38876e+09,-1.38787e+09,-1.38883e+09,-499020,-0.0442322,0.105785,-0,0.11466,10234.8,-48981.2,0,50039.1,499020
step02_gravity_refstate-mantle.xmf,1365,7.46237e-07,6.55091e-06,0,-3.14792e-06,-1.38881e+09,-1.38803e+09,-1.38891e+09,-420719,-0.0437075,0.0972971,-0,0.106663,11073.2,-48982.6,0,50218.7,420719
step02_gravity_refstate-mantle.xmf,1366,1.6817e-06,3.73332e-06,0,-1.77251e-07,-1.45633e+09,-1.45606e+09,-1.45656e+09,-23689.7,-0.0391105,0.0377036,-0,0.0543249,19820.5,-51067.4,0,54778.9,23689.7
step02_gravity_refstate-mantle.xmf,1367,-6.17906e-06,1.67478e-05,0,-1.12842e-06,-1.66259e+09,-1.65952e+09,-1.66176e+09,-150814,-0.0278525,0.0430617,-0,0.0512843,3978.83,-57419.4,0,57557.1,150814
step02_gravity_refstate-mantle.xmf,1368,-5.71927e-06,1.61364e-05,0,7.25039e-10,-1.74608e+09,-1.74316e+09,-1.74532e+09,96.9015,-0.0318331,-1.74616e-19,-0,0.0318331,4720.6,-60000,0,60185.4,96.9015
step02_gravity_refstate-mantle.xmf,1369,-5.7602e-06,1.62179e-05,0,-1.57708e-06,-1.64175e+09,-1.63881e+09,-1.64098e+09,-210777,-0.03209,0.052088,-0,0.0611795,4649.2,-56777.1,0,56967.1,210777
step02_gravity_refstate-mantle.xmf,1370,2.14325e-06,3.64023e-06,0,-2.77605e-08,-1.62589e+09,-1.62569e+09,-1.62617e+09,-3710.19,-0.0434438,0.0139674,-0,0.0456339,22101.4,-56307.8,0,60490,3710.19
step02_gravity_refstate-mantle.xmf,1371,2.17014e-06,3.74406e-06,0,-2.01964e-08,-1.66962e+09,-1.66941e+09,-1.66991e+09,-2699.25,-0.0444338,0.00895461,-0,0.0453271,22109.2,-57659.2,0,61752.7,2699.25
step02_gravity_refstate-mantle.xmf,1372,2.19904e-06,3.86354e-06,0,8.32691e-10,-1.74538e+09,-1.74516e+09,-1.74568e+09,111.289,-0.0449207,-4.96564e-19,-0,0.0449207,22194.3,-60000,0,63973.3,111.289
step02_gravity_refstate-mantle.xmf,1373,-5.49355e-06,1.59117e-05,0,-2.19174e-06,-1.60875e+09,-1.60588e+09,-1.60801e+09,-292925,-0.0345392,0.0672982,-0,0.0756439,4999.77,-55758.6,0,55982.3,292925
step02_gravity_refstate-mantle.xmf,1374,-5.08613e-06,1.54335e-05,0,-2.75155e-06,-1.58256e+09,-1.57981e+09,-1.58188e+09,-367744,-0.0373893,0.0779752,-0,0.086476,5454.31,-54951.2,0,55221.2,367744
step02_gravity_refstate-mantle.xmf,1375,-4.44481e-06,1.46886e-05,0,-3.48259e-06,-1.5488e+09,-1.54625e+09,-1.54821e+09,-465448,-0.0407053,0.0904552,-0,0.0991921,6024,-53910.9,0,54246.4,465448
step02_gravity_refstate-mantle.xmf,1376,-3.92271e-06,1.40926e-05,0,-4.06068e-06,-1.52073e+09,-1.51832e+09,-1.52021e+09,-542710,-0.0426009,0.100497,-0,0.109154,6370.58,-53045.8,0,53426.9,542710
step02_gravity_refstate-mantle.xmf,1377,-1.59043e-07,8.68251e-06,0,-4.62253e-06,-1.40383e+09,-1.40265e+09,-1.40381e+09,-617801,-0.045749,0.115624,-0,0.124346,9014.07,-49446,0,50260.9,617801
step02_gravity_refstate-mantle.xmf,1378,-3.05962e-06,1.29816e-05,0,-4.49479e-06,-1.49509e+09,-1.49295e+09,-1.49468e+09,-600729,-0.0450801,0.105956,-0,0.115147,7006.94,-52256.7,0,52724.4,600729
step02_gravity_refstate-mantle.xmf,1379,-1.65388e-06,1.10938e-05,0,-4.97315e-06,-1.44877e+09,-1.44706e+09,-1.44855e+09,-664662,-0.0467371,0.114951,-0,0.124089,7849.28,-50830.3,0,51432.7,664662
step02_gravity_refstate-mantle.xmf,1380,-2.34919e-06,1.20482e-05,0,-4.79897e-06,-1.47136e+09,-1.46944e+09,-1.47105e+09,-641382,-0.0462408,0.111055,-0,0.120297,7442.42,-51526,0,52060.7,641382
step02_gravity_refstate-mantle.xmf,1381,9.17279e-07,5.98431e-06,0,-2.58036e-06,-1.38864e+09,-1.38797e+09,-1.38876e+09,-344865,-0.0429375,0.0889878,-0,0.0988052,11984.2,-48977.1,0,50422,344865
step02_gravity_refstate-mantle.xmf,1382,1.33102e-06,4.10163e-06,0,-5.67032e-07,-1.39043e+09,-1.39005e+09,-1.3906e+09,-75783.8,-0.0371963,0.0557335,-0,0.0670059,17090.8,-49030.2,0,51923.5,75783.8
step02_gravity_refstate-mantle.xmf,1383,1.4552e-06,4.10969e-06,0,-5.01218e-07,-1.42266e+09,-1.4223e+09,-1.42285e+09,-66987.8,-0.0395997,0.0490773,-0,0.0630612,17681,-50026.7,0,53059.3,66987.8
step02_gravity_refstate-mantle.xmf,1384,2.02714e-06,3.739e-06,0,-7.51078e-08,-1.58362e+09,-1.58339e+09,-1.58389e+09,-10038.2,-0.0435976,0.0197175,-0,0.0478491,21341.7,-55001.7,0,58997.1,10038.2
step02_gravity_refstate-mantle.xmf,1385,1.91155e-06,3.8147e-06,0,-1.35305e-07,-1.54466e+09,-1.54441e+09,-1.54492e+09,-18083.5,-0.0432772,0.0254884,-0,0.0502252,20615.8,-53797.6,0,57612.5,18083.5
step02_gravity_refstate-mantle.xmf,1386,1.786e-06,3.84482e-06,0,-2.00938e-07,-1.49923e+09,-1.49895e+09,-1.49947e+09,-26855.3,-0.041979,0.032432,-0,0.0530478,19910.3,-52393.5,0,56049.1,26855.3
step02_gravity_refstate-mantle.xmf,1387,1.65572e-06,3.99561e-06,0,-3.23197e-07,-1.47153e+09,-1.47122e+09,-1.47175e+09,-43195.3,-0.0417024,0.0384378,-0,0.0567147,18954.5,-51537.4,0,54912.4,43195.3
step02_gravity_refstate-mantle.xmf,1388,-5.67173e-06,1.60588e-05,0,-9.74938e-07,-1.68118e+09,-1.67827e+09,-1.68042e+09,-130300,-0.0325017,0.0321514,-0,0.0457173,4792.56,-57995.2,0,58192.9,130300
step02_gravity_refstate-mantle.xmf,1389,-5.28154e-06,1.552e-05,0,-4.86689e-07,-1.71512e+09,-1.71234e+09,-1.71441e+09,-65046,-0.0356639,0.0148228,-0,0.0386216,5407.09,-59044.9,0,59292,65046
step02_gravity_refstate-mantle.xmf,1390,2.09795e-06,4.01997e-06,0,-3.13908e-08,-1.70389e+09,-1.70363e+09,-1.70417e+09,-4195.38,-0.0464711,0.0052103,-0,0.0467623,21376.7,-58717.9,0,62488.1,4195.38
step02_gravity_refstate-mantle.xmf,1391,-1.0735e-06,1.02218e-05,0,-4.97096e-06,-1.43128e+09,-1.42977e+09,-1.43113e+09,-664369,-0.046745,0.116479,-0,0.125509,8236.02,-50291.7,0,50961.6,664369
step02_gravity_refstate-mantle.xmf,1392,-5.12564e-07,9.21268e-06,0,-4.56567e-06,-1.42416e+09,-1.42286e+09,-1.42409e+09,-610201,-0.0469653,0.110961,-0,0.120491,8929.46,-50072.9,0,50862.9,610201
step02_gravity_refstate-mantle.xmf,1393,4.55457e-08,8.14845e-06,0,-4.08996e-06,-1.41284e+09,-1.41176e+09,-1.41285e+09,-546623,-0.0464233,0.105825,-0,0.115559,9692.26,-49724.3,0,50660.1,546623
step02_gravity_refstate-mantle.xmf,1394,1.04541e-06,5.50661e-06,0,-2.06761e-06,-1.38938e+09,-1.38879e+09,-1.38952e+09,-276336,-0.0420912,0.0810364,-0,0.0913158,12937.4,-48999.7,0,50678.9,276336
step02_gravity_refstate-mantle.xmf,1395,1.14316e-06,5.10445e-06,0,-1.63079e-06,-1.38985e+09,-1.38932e+09,-1.39e+09,-217955,-0.041117,0.0740462,-0,0.0846962,13883.2,-49013.6,0,50941.9,217955
step02_gravity_refstate-mantle.xmf,1396,1.28812e-06,4.41116e-06,0,-8.81357e-07,-1.39077e+09,-1.39035e+09,-1.39094e+09,-117793,-0.0387042,0.0612705,-0,0.0724713,15964.2,-49041.4,0,51574.3,117793
step02_gravity_refstate-mantle.xmf,1397,1.22295e-06,4.74538e-06,0,-1.23643e-06,-1.39073e+09,-1.39026e+09,-1.39089e+09,-165249,-0.0400404,0.067411,-0,0.0784058,14886.3,-49040.4,0,51250,165249
step02_gravity_refstate-mantle.xmf,1398,4.03984e-07,7.34323e-06,0,-3.49252e-06,-1.41248e+09,-1.41155e+09,-1.41253e+09,-466776,-0.046193,0.0970193,-0,0.107455,10575.8,-49713.4,0,50825.9,466776
step02_gravity_refstate-mantle.xmf,1399,6.64573e-07,6.68144e-06,0,-2.95032e-06,-1.41173e+09,-1.41093e+09,-1.41182e+09,-394310,-0.0456776,0.0893545,-0,0.100353,11426,-49690.5,0,50987.3,394310
step02_gravity_refstate-mantle.xmf,1400,1.54652e-06,4.14437e-06,0,-4.57211e-07,-1.4525e+09,-1.45215e+09,-1.45271e+09,-61106.2,-0.0415655,0.0436256,-0,0.0602568,18111.4,-50949.2,0,54072.6,61106.2
step02_gravity_refstate-mantle.xmf,1401,-4.95388e-06,1.50998e-05,0,-1.32694e-09,-1.746e+09,-1.74332e+09,-1.74534e+09,-177.345,-0.038158,-1.46635e-19,-0,0.038158,5906.01,-60000,0,60290,177.345
step02_gravity_refstate-mantle.xmf,1402,-5.13629e-06,1.53857e-05,0,-1.90062e-06,-1.62987e+09,-1.62712e+09,-1.62918e+09,-254018,-0.0369446,0.0552343,-0,0.066451,5511.55,-56412.1,0,56680.7,254018
step02_gravity_refstate-mantle.xmf,1403,1.98499e-06,4.15298e-06,0,-9.33133e-08,-1.65951e+09,-1.65922e+09,-1.65977e+09,-12471.3,-0.0473734,0.0113097,-0,0.0487047,20600.4,-57346.6,0,60934.4,12471.3
step02_gravity_refstate-mantle.xmf,1404,1.99216e-06,4.34133e-06,0,1.49053e-09,-1.74539e+09,-1.74507e+09,-1.74566e+09,199.21,-0.0482721,-5.5961e-19,-0,0.0482721,20595.2,-60000,0,63436.3,199.21
step02_gravity_refstate-mantle.xmf,1405,-4.7244e-06,1.48583e-05,0,-2.40413e-06,-1.60406e+09,-1.60144e+09,-1.60342e+09,-321313,-0.0395805,0.0655031,-0,0.0765328,5972.53,-55616.2,0,55936,321313
step02_gravity_refstate-mantle.xmf,1406,-4.23285e-06,1.4257e-05,0,-2.94426e-06,-1.5765e+09,-1.57403e+09,-1.57593e+09,-393500,-0.0420641,0.0756222,-0,0.0865339,6437.11,-54766.7,0,55143.7,393500
step02_gravity_refstate-mantle.xmf,1407,-3.62144e-06,1.35014e-05,0,-3.48208e-06,-1.54769e+09,-1.5454e+09,-1.5472e+09,-465380,-0.0443984,0.0849664,-0,0.0958672,6936.03,-53878.9,0,54323.6,465380
step02_gravity_refstate-mantle.xmf,1408,-2.97335e-06,1.26763e-05,0,-3.91083e-06,-1.52119e+09,-1.51909e+09,-1.52079e+09,-522682,-0.0461718,0.0923086,-0,0.103212,7407.37,-53062.5,0,53577,522682
step02_gravity_refstate-mantle.xmf,1409,-2.27056e-06,1.1744e-05,0,-4.22469e-06,-1.49558e+09,-1.4937e+09,-1.49527e+09,-564630,-0.0474412,0.0980018,-0,0.108881,7892.54,-52273.7,0,52866.2,564630
step02_gravity_refstate-mantle.xmf,1410,-1.00483e-06,9.95819e-06,0,-4.52202e-06,-1.44734e+09,-1.44588e+09,-1.44721e+09,-604369,-0.0477933,0.106796,-0,0.117002,8673.71,-50787.6,0,51523,604369
step02_gravity_refstate-mantle.xmf,1411,-1.59922e-06,1.08174e-05,0,-4.42434e-06,-1.47082e+09,-1.46916e+09,-1.4706e+09,-591313,-0.0479689,0.102739,-0,0.113386,8320.92,-51511,0,52178.7,591313
step02_gravity_refstate-mantle.xmf,1412,8.84178e-07,6.05902e-06,0,-2.37088e-06,-1.41288e+09,-1.41218e+09,-1.41299e+09,-316867,-0.044994,0.0806339,-0,0.0923379,12450,-49725.7,0,51260.6,316867
step02_gravity_refstate-mantle.xmf,1413,1.37234e-06,4.43833e-06,0,-7.85288e-07,-1.4227e+09,-1.42229e+09,-1.42289e+09,-104954,-0.0412452,0.054116,-0,0.0680419,16520.3,-50028.3,0,52685.4,104954
step02_gravity_refstate-mantle.xmf,1414,1.97406e-06,4.03069e-06,0,-1.26895e-07,-1.61671e+09,-1.61644e+09,-1.61698e+09,-16959.5,-0.046154,0.0166755,-0,0.0490741,20651.7,-56024.3,0,59709.4,16959.5
step02_gravity_refstate-mantle.xmf,1415,1.45634e-06,4.45674e-06,0,-6.87343e-07,-1.45435e+09,-1.45395e+09,-1.45455e+09,-91863.4,-0.0432637,0.047299,-0,0.064101,17082.3,-51006.6,0,53791.1,91863.4
step02_gravity_refstate-mantle.xmf,1416,1.8622e-06,4.16767e-06,0,-2.12379e-07,-1.58537e+09,-1.58506e+09,-1.58562e+09,-28384.4,-0.0465078,0.0218013,-0,0.0513641,19881.8,-55055.6,0,58535.5,28384.4
step02_gravity_refstate-mantle.xmf,1417,1.75778e-06,4.23922e-06,0,-3.12704e-07,-1.54735e+09,-1.54702e+09,-1.54759e+09,-41792.9,-0.0460213,0.0281222,-0,0.0539334,19194.5,-53880.8,0,57197.7,41792.9
step02_gravity_refstate-mantle.xmf,1418,1.6525e-06,4.31337e-06,0,-4.29288e-07,-1.51205e+09,-1.5117e+09,-1.51227e+09,-57374.4,-0.0452524,0.034646,-0,0.0569924,18476,-52789.9,0,55929.8,57374.4
step02_gravity_refstate-mantle.xmf,1419,1.5462e-06,4.41028e-06,0,-5.646e-07,-1.48281e+09,-1.48242e+09,-1.48301e+09,-75458.9,-0.0444941,0.0409725,-0,0.0604853,17725.5,-51886.1,0,54830.3,75458.9
step02_gravity_refstate-mantle.xmf,1420,-5.03099e-06,1.51981e-05,0,-1.4334e-06,-1.65806e+09,-1.65536e+09,-1.65739e+09,-191574,-0.0376178,0.0413453,-0,0.0558975,5708.53,-57283.4,0,57567.1,191574
step02_gravity_refstate-mantle.xmf,1421,-4.46074e-06,1.4395e-05,0,-4.84632e-07,-1.71686e+09,-1.71434e+09,-1.71626e+09,-64771.1,-0.0414923,0.0129496,-0,0.0434661,6604.72,-59101.3,0,59469.2,64771.1
step02_gravity_refstate-mantle.xmf,1422,-4.71126e-06,1.4734e-05,0,-9.44208e-07,-1.68876e+09,-1.68616e+09,-1.68813e+09,-126193,-0.0398245,0.0260926,-0,0.0476111,6212.94,-58232.5,0,58563,126193
step02_gravity_refstate-mantle.xmf,1423,1.86601e-06,4.53013e-06,0,-7.25748e-08,-1.70384e+09,-1.70349e+09,-1.70409e+09,-9699.62,-0.0495495,0.00587767,-0,0.0498969,19823.6,-58716.3,0,61972.4,9699.62
step02_gravity_refstate-mantle.xmf,1424,-4.27929e-07,8.91065e-06,0,-4.07773e-06,-1.44108e+09,-1.43983e+09,-1.44102e+09,-544989,-0.0480993,0.100503,-0,0.11142,9484.31,-50595.3,0,51476.6,544989
step02_gravity_refstate-mantle.xmf,1425,2.09699e-08,8.06858e-06,0,-3.69457e-06,-1.43256e+09,-1.43149e+09,-1.43257e+09,-493780,-0.0477456,0.0961285,-0,0.107333,10169.1,-50333.2,0,51350.2,493780
step02_gravity_refstate-mantle.xmf,1426,1.03328e-06,5.61681e-06,0,-1.91845e-06,-1.41663e+09,-1.41601e+09,-1.41676e+09,-256401,-0.0444624,0.0730542,-0,0.0855209,13386.5,-49841.4,0,51607.8,256401
step02_gravity_refstate-mantle.xmf,1427,1.16302e-06,5.22188e-06,0,-1.52202e-06,-1.42054e+09,-1.42e+09,-1.4207e+09,-203418,-0.0438137,0.0662281,-0,0.0794091,14329.8,-49962.2,0,51976.5,203418
step02_gravity_refstate-mantle.xmf,1428,1.28126e-06,4.81641e-06,0,-1.13257e-06,-1.42222e+09,-1.42175e+09,-1.42239e+09,-151367,-0.0426736,0.0597778,-0,0.0734467,15405.2,-50013.8,0,52332.6,151367
step02_gravity_refstate-mantle.xmf,1429,2.05718e-07,7.62162e-06,0,-3.24388e-06,-1.44129e+09,-1.4403e+09,-1.44132e+09,-433545,-0.048232,0.0879466,-0,0.100304,10840.4,-50602.8,0,51750.9,433545
step02_gravity_refstate-mantle.xmf,1430,6.20347e-07,6.7041e-06,0,-2.64615e-06,-1.43631e+09,-1.4355e+09,-1.4364e+09,-353658,-0.047408,0.0799997,-0,0.0929918,11940.5,-50449.5,0,51843.3,353658
step02_gravity_refstate-mantle.xmf,1431,-4.12092e-06,1.39557e-05,0,-3.1036e-09,-1.74592e+09,-1.7435e+09,-1.74537e+09,-414.796,-0.04358,-1.39655e-19,-0,0.04358,7101,-60000,0,60418.7,414.796
step02_gravity_refstate-mantle.xmf,1432,-4.50572e-06,1.45112e-05,0,-1.95071e-06,-1.63067e+09,-1.62812e+09,-1.63006e+09,-260713,-0.0409723,0.0519531,-0,0.0661654,6349.11,-56438.8,0,56794.8,260713
step02_gravity_refstate-mantle.xmf,1433,1.78653e-06,4.49581e-06,0,-2.23269e-07,-1.62919e+09,-1.62883e+09,-1.62943e+09,-29839.9,-0.0490109,0.0167777,-0,0.0518031,19333.1,-56409.7,0,59630.8,29839.9
step02_gravity_refstate-mantle.xmf,1434,1.78881e-06,4.60578e-06,0,-1.52747e-07,-1.66986e+09,-1.66949e+09,-1.6701e+09,-20414.6,-0.0498815,0.0109894,-0,0.0510777,19377.5,-57666.3,0,60834.9,20414.6
step02_gravity_refstate-mantle.xmf,1435,1.71986e-06,4.91005e-06,0,2.87869e-09,-1.7454e+09,-1.74497e+09,-1.74563e+09,384.737,-0.0511333,-7.20293e-19,-0,0.0511333,19054.5,-60000,0,62952.9,384.737
step02_gravity_refstate-mantle.xmf,1436,-4.0056e-06,1.38508e-05,0,-2.46156e-06,-1.60242e+09,-1.60003e+09,-1.60188e+09,-328987,-0.0434786,0.0622472,-0,0.0759283,6860.84,-55567.8,0,55989.8,328987
step02_gravity_refstate-mantle.xmf,1437,-3.45192e-06,1.31444e-05,0,-2.9513e-06,-1.57404e+09,-1.57183e+09,-1.57358e+09,-394441,-0.0456057,0.0715772,-0,0.0848715,7351.4,-54693.3,0,55185.1,394441
step02_gravity_refstate-mantle.xmf,1438,-2.8299e-06,1.23303e-05,0,-3.34966e-06,-1.54745e+09,-1.54542e+09,-1.54707e+09,-447681,-0.0473948,0.0789049,-0,0.0920449,7864.4,-53873.8,0,54444.7,447681
step02_gravity_refstate-mantle.xmf,1439,-2.17933e-06,1.14549e-05,0,-3.65974e-06,-1.52111e+09,-1.51929e+09,-1.52082e+09,-489125,-0.0486279,0.0850772,-0,0.0979939,8360.64,-53062.3,0,53717,489125
step02_gravity_refstate-mantle.xmf,1440,-1.53089e-06,1.05512e-05,0,-3.87503e-06,-1.49466e+09,-1.49305e+09,-1.49446e+09,-517897,-0.0491968,0.0904163,-0,0.102934,8821.44,-52247.4,0,52986.8,517897
step02_gravity_refstate-mantle.xmf,1441,-9.21292e-07,9.6636e-06,0,-3.99877e-06,-1.46797e+09,-1.46655e+09,-1.46785e+09,-534436,-0.049031,0.0952623,-0,0.10714,9222.28,-51424.7,0,52245.1,534436
step02_gravity_refstate-mantle.xmf,1442,8.51701e-07,6.12024e-06,0,-2.18231e-06,-1.43466e+09,-1.43396e+09,-1.43478e+09,-291666,-0.0466067,0.0736016,-0,0.087117,12843.5,-50398.6,0,52009.4,291666
step02_gravity_refstate-mantle.xmf,1443,1.32393e-06,4.86219e-06,0,-9.98592e-07,-1.4549e+09,-1.45442e+09,-1.45507e+09,-133462,-0.0449082,0.0522349,-0,0.0688856,15931.7,-51023.6,0,53453,133462
step02_gravity_refstate-mantle.xmf,1444,1.38413e-06,4.86935e-06,0,-8.51145e-07,-1.4869e+09,-1.48643e+09,-1.48708e+09,-113755,-0.0465674,0.04491,-0,0.0646949,16509,-52012.4,0,54569.6,113755
step02_gravity_refstate-mantle.xmf,1445,1.66033e-06,4.63906e-06,0,-3.71086e-07,-1.58764e+09,-1.58724e+09,-1.58786e+09,-49595.7,-0.0489678,0.0240104,-0,0.0545375,18535.9,-55125.5,0,58158.5,49595.7
step02_gravity_refstate-mantle.xmf,1446,1.55114e-06,4.75302e-06,0,-5.25949e-07,-1.55286e+09,-1.55243e+09,-1.55307e+09,-70293.1,-0.0485784,0.030748,-0,0.0574917,17816.1,-54051,0,56911.5,70293.1
step02_gravity_refstate-mantle.xmf,1447,1.46231e-06,4.82099e-06,0,-6.88009e-07,-1.51845e+09,-1.518e+09,-1.51864e+09,-91952.4,-0.047706,0.0378348,-0,0.0608879,17150.2,-52987.5,0,55693.8,91952.4
step02_gravity_refstate-mantle.xmf,1448,-4.26741e-06,1.41374e-05,0,-1.47072e-06,-1.65871e+09,-1.65625e+09,-1.65814e+09,-196561,-0.0424985,0.0382816,-0,0.057198,6759.54,-57305.7,0,57703,196561
step02_gravity_refstate-mantle.xmf,1449,-3.62841e-06,1.32383e-05,0,-5.10501e-07,-1.71527e+09,-1.71302e+09,-1.71479e+09,-68228.5,-0.0462175,0.0125338,-0,0.0478869,7771.85,-59054.9,0,59564.1,68228.5
step02_gravity_refstate-mantle.xmf,1450,-3.95516e-06,1.36864e-05,0,-9.95795e-07,-1.68658e+09,-1.68423e+09,-1.68606e+09,-133088,-0.0443852,0.0251741,-0,0.0510273,7262.48,-58167.7,0,58619.3,133088
step02_gravity_refstate-mantle.xmf,1451,1.57391e-06,5.10783e-06,0,-1.38144e-07,-1.69807e+09,-1.69759e+09,-1.69828e+09,-18462.9,-0.0520485,0.00756622,-0,0.0525955,18334.4,-58537.4,0,61341.5,18462.9
step02_gravity_refstate-mantle.xmf,1452,-3.25973e-07,8.58292e-06,0,-3.51715e-06,-1.46328e+09,-1.46209e+09,-1.46324e+09,-470068,-0.0494357,0.0881387,-0,0.101056,10179.6,-51281.1,0,52281.7,470068
step02_gravity_refstate-mantle.xmf,1453,9.57135e-07,5.87166e-06,0,-1.84214e-06,-1.45015e+09,-1.44949e+09,-1.45028e+09,-246202,-0.0471801,0.0655879,-0,0.0807944,13615.7,-50877,0,52667.4,246202
step02_gravity_refstate-mantle.xmf,1454,1.16574e-06,5.33054e-06,0,-1.37792e-06,-1.4537e+09,-1.45314e+09,-1.45386e+09,-184160,-0.046214,0.0580953,-0,0.0742348,14801.6,-50986.8,0,53091.8,184160
step02_gravity_refstate-mantle.xmf,1455,6.26571e-07,6.64618e-06,0,-2.32911e-06,-1.45919e+09,-1.45839e+09,-1.45928e+09,-311286,-0.0487435,0.0711832,-0,0.0862727,12497.8,-51156.2,0,52660.7,311286
step02_gravity_refstate-mantle.xmf,1456,2.7668e-07,7.40182e-06,0,-2.81616e-06,-1.46212e+09,-1.46117e+09,-1.46216e+09,-376380,-0.0493863,0.0777594,-0,0.0921169,11501.4,-51246.2,0,52521,376380
step02_gravity_refstate-mantle.xmf,1457,-3.26184e-06,1.27566e-05,0,-4.57877e-09,-1.74583e+09,-1.74369e+09,-1.74539e+09,-611.953,-0.0480447,-1.32836e-19,-0,0.0480447,8310.4,-60000,0,60572.8,611.953
step02_gravity_refstate-mantle.xmf,1458,-3.77477e-06,1.34845e-05,0,-1.96651e-06,-1.62994e+09,-1.62763e+09,-1.62943e+09,-262824,-0.0449142,0.0488289,-0,0.0663442,7299.34,-56418.5,0,56888.7,262824
step02_gravity_refstate-mantle.xmf,1459,1.60607e-06,4.95178e-06,0,-2.478e-07,-1.65647e+09,-1.65602e+09,-1.65668e+09,-33118.5,-0.0512043,0.0139411,-0,0.0530682,18442.3,-57252.2,0,60149.3,33118.5
step02_gravity_refstate-mantle.xmf,1460,1.37715e-06,5.57012e-06,0,3.35903e-09,-1.74542e+09,-1.74486e+09,-1.7456e+09,448.934,-0.0534342,-7.41253e-19,-0,0.0534342,17567.7,-60000,0,62519,448.934
step02_gravity_refstate-mantle.xmf,1461,-3.24488e-06,1.27627e-05,0,-2.41667e-06,-1.60167e+09,-1.59953e+09,-1.60123e+09,-322988,-0.0469575,0.0581277,-0,0.0747251,7818.61,-55546.9,0,56094.5,322988
step02_gravity_refstate-mantle.xmf,1462,-2.68031e-06,1.20089e-05,0,-2.80225e-06,-1.57465e+09,-1.57269e+09,-1.5743e+09,-374521,-0.0485891,0.0658796,-0,0.0818598,8325.52,-54714.4,0,55344.2,374521
step02_gravity_refstate-mantle.xmf,1463,-2.08058e-06,1.11884e-05,0,-3.1076e-06,-1.54802e+09,-1.54624e+09,-1.54774e+09,-415330,-0.0497752,0.0723862,-0,0.0878483,8833.69,-53893.5,0,54612.7,415330
step02_gravity_refstate-mantle.xmf,1464,-5.84474e-11,7.96322e-06,0,-3.15133e-06,-1.4631e+09,-1.46204e+09,-1.4631e+09,-421176,-0.0495327,0.0825951,-0,0.0963091,10853,-51276.1,0,52412.1,421176
step02_gravity_refstate-mantle.xmf,1465,-1.46015e-06,1.03124e-05,0,-3.33103e-06,-1.52058e+09,-1.51901e+09,-1.52038e+09,-445192,-0.0503909,0.0781103,-0,0.0929541,9332.3,-53047.8,0,53862.4,445192
step02_gravity_refstate-mantle.xmf,1466,-8.48016e-07,9.40861e-06,0,-3.46571e-06,-1.49193e+09,-1.49056e+09,-1.49182e+09,-463192,-0.0502966,0.0833061,-0,0.0973122,9799.96,-52164.6,0,53077.2,463192
step02_gravity_refstate-mantle.xmf,1467,1.18355e-06,5.37102e-06,0,-1.18261e-06,-1.48751e+09,-1.48695e+09,-1.48767e+09,-158056,-0.0481114,0.0498175,-0,0.0692567,15339.3,-52031.3,0,54245.3,158056
step02_gravity_refstate-mantle.xmf,1468,1.49956e-06,5.08476e-06,0,-3.95282e-07,-1.62343e+09,-1.62295e+09,-1.62363e+09,-52829.4,-0.0513132,0.0199593,-0,0.0550583,17831.3,-56231.3,0,58990.8,52829.4
step02_gravity_refstate-mantle.xmf,1469,1.22829e-06,5.36593e-06,0,-9.82952e-07,-1.52043e+09,-1.51988e+09,-1.52059e+09,-131372,-0.0494916,0.0419479,-0,0.0648772,15909.1,-53048.5,0,55382.7,131372
step02_gravity_refstate-mantle.xmf,1470,1.39264e-06,5.20542e-06,0,-5.7882e-07,-1.58711e+09,-1.5866e+09,-1.58729e+09,-77359.3,-0.0510303,0.0271096,-0,0.0577843,17171,-55108.8,0,57722,77359.3
step02_gravity_refstate-mantle.xmf,1471,1.30371e-06,5.29646e-06,0,-7.73303e-07,-1.55337e+09,-1.55283e+09,-1.55354e+09,-103352,-0.0504199,0.0343199,-0,0.060992,16542.7,-54066.3,0,56540.5,103352
step02_gravity_refstate-mantle.xmf,1472,-3.4512e-06,1.29933e-05,0,-1.4947e-06,-1.65622e+09,-1.65402e+09,-1.65576e+09,-199767,-0.0467264,0.036307,-0,0.059174,7850.24,-57231.2,0,57767.1,199767
step02_gravity_refstate-mantle.xmf,1473,-2.78603e-06,1.20464e-05,0,-5.15706e-07,-1.71338e+09,-1.7114e+09,-1.71301e+09,-68924.1,-0.0500356,0.0120895,-0,0.0514754,8961.23,-58999.1,0,59675.8,68924.1
step02_gravity_refstate-mantle.xmf,1474,-3.12251e-06,1.25151e-05,0,-1.01527e-06,-1.68359e+09,-1.6815e+09,-1.68317e+09,-135690,-0.0484483,0.0242061,-0,0.0541588,8407.01,-58077.7,0,58683,135690
step02_gravity_refstate-mantle.xmf,1475,1.34327e-06,5.48012e-06,0,-3.26778e-07,-1.66164e+09,-1.66109e+09,-1.66182e+09,-43673.9,-0.0529794,0.0145136,-0,0.0549315,17310.5,-57411.5,0,59964.5,43673.9
step02_gravity_refstate-mantle.xmf,1476,1.1579e-06,5.89856e-06,0,-1.9619e-07,-1.70298e+09,-1.70234e+09,-1.70313e+09,-26220.8,-0.054269,0.00781044,-0,0.0548281,16745.9,-58688.3,0,61030.7,26220.8
step02_gravity_refstate-mantle.xmf,1477,-2.06104e-07,8.26182e-06,0,-3.00145e-06,-1.48573e+09,-1.4846e+09,-1.4857e+09,-401143,-0.0506358,0.0766382,-0,0.0918553,10890.4,-51974.4,0,53103.1,401143
step02_gravity_refstate-mantle.xmf,1478,9.41214e-07,5.94402e-06,0,-1.57749e-06,-1.48634e+09,-1.48567e+09,-1.48647e+09,-210832,-0.0492489,0.0556438,-0,0.0743081,14195.2,-51995.1,0,53898,210832
step02_gravity_refstate-mantle.xmf,1479,6.33479e-07,6.61103e-06,0,-2.01035e-06,-1.48667e+09,-1.48587e+09,-1.48675e+09,-268683,-0.0501538,0.0618601,-0,0.0796371,13073.3,-52004.9,0,53622.9,268683
step02_gravity_refstate-mantle.xmf,1480,2.43829e-07,7.39746e-06,0,-2.47585e-06,-1.48817e+09,-1.48722e+09,-1.48821e+09,-330898,-0.0507234,0.068415,-0,0.0851673,11978.5,-52050.8,0,53411.3,330898
step02_gravity_refstate-mantle.xmf,1481,-2.4109e-06,1.15453e-05,0,-5.42597e-09,-1.74575e+09,-1.74388e+09,-1.74542e+09,-725.18,-0.0515297,-1.25324e-19,-0,0.0515297,9538.96,-60000,0,60753.5,725.18
step02_gravity_refstate-mantle.xmf,1482,-2.99105e-06,1.23614e-05,0,-1.93242e-06,-1.6276e+09,-1.62555e+09,-1.6272e+09,-258268,-0.0484068,0.0459382,-0,0.0667348,8327.24,-56348.6,0,56960.6,258268
step02_gravity_refstate-mantle.xmf,1483,9.36712e-07,6.33517e-06,0,2.47345e-09,-1.74545e+09,-1.74473e+09,-1.74558e+09,330.577,-0.055105,2.53569e-18,-0,0.055105,16130.3,-60000,0,62130.4,330.577
step02_gravity_refstate-mantle.xmf,1484,-2.5198e-06,1.17048e-05,0,-2.28822e-06,-1.60166e+09,-1.59975e+09,-1.60132e+09,-305821,-0.0497291,0.0536949,-0,0.0731855,8780.12,-55548.8,0,56238.4,305821
step02_gravity_refstate-mantle.xmf,1485,-1.9753e-06,1.09449e-05,0,-2.57601e-06,-1.57591e+09,-1.57418e+09,-1.57564e+09,-344284,-0.0508533,0.0601407,-0,0.0787589,9297.46,-54755.1,0,55538.9,344284
step02_gravity_refstate-mantle.xmf,1486,-1.39518e-06,1.01129e-05,0,-2.80272e-06,-1.5485e+09,-1.54696e+09,-1.54831e+09,-374584,-0.0515047,0.0660416,-0,0.083751,9825.99,-53910.1,0,54798.3,374584
step02_gravity_refstate-mantle.xmf,1487,-8.07168e-07,9.23567e-06,0,-2.94408e-06,-1.51956e+09,-1.51822e+09,-1.51945e+09,-393476,-0.0515243,0.0713248,-0,0.0879885,10350.4,-53017.9,0,54018.8,393476
step02_gravity_refstate-mantle.xmf,1488,9.54372e-07,5.95537e-06,0,-1.31493e-06,-1.52029e+09,-1.51962e+09,-1.52041e+09,-175740,-0.0507583,0.0467648,-0,0.0690171,14740.8,-53043.8,0,55053.9,175740
step02_gravity_refstate-mantle.xmf,1489,1.1899e-06,5.68912e-06,0,-5.61323e-07,-1.62371e+09,-1.62311e+09,-1.62387e+09,-75020.8,-0.053029,0.0223,-0,0.057527,16561.1,-56239.5,0,58627.2,75020.8
step02_gravity_refstate-mantle.xmf,1490,9.98594e-07,5.92094e-06,0,-1.05985e-06,-1.55373e+09,-1.55307e+09,-1.55386e+09,-141648,-0.0518637,0.0383836,-0,0.0645224,15302.7,-54077,0,56200.5,141648
step02_gravity_refstate-mantle.xmf,1491,1.0783e-06,5.82881e-06,0,-8.06892e-07,-1.58765e+09,-1.58701e+09,-1.58779e+09,-107841,-0.0526112,0.0302961,-0,0.0607107,15907.4,-55125,0,57374.3,107841
step02_gravity_refstate-mantle.xmf,1492,-2.56948e-06,1.17263e-05,0,-1.48728e-06,-1.65089e+09,-1.64898e+09,-1.65054e+09,-198775,-0.0503456,0.0348813,-0,0.0612486,9045.86,-57069.2,0,57781.7,198775
step02_gravity_refstate-mantle.xmf,1493,-1.96789e-06,1.0863e-05,0,-4.96321e-07,-1.71156e+09,-1.70984e+09,-1.71129e+09,-66333.3,-0.052912,0.0115018,-0,0.0541477,10171,-58945.1,0,59816.2,66333.3
step02_gravity_refstate-mantle.xmf,1494,-2.30522e-06,1.1339e-05,0,-1.00858e-06,-1.67936e+09,-1.67753e+09,-1.67905e+09,-134797,-0.0515947,0.0234611,-0,0.0566784,9563.75,-57949.4,0,58733.3,134797
step02_gravity_refstate-mantle.xmf,1495,4.26913e-07,7.2028e-06,0,8.66089e-10,-1.74549e+09,-1.74459e+09,-1.74555e+09,115.753,-0.0560699,5.31944e-19,-0,0.0560699,14737.8,-60000,0,61783.5,115.753
step02_gravity_refstate-mantle.xmf,1496,6.13306e-07,6.84985e-06,0,-2.80129e-07,-1.70332e+09,-1.70249e+09,-1.7034e+09,-37439.2,-0.0556988,0.00898186,-0,0.0564183,15141.4,-58697.8,0,60619.2,37439.2
step02_gravity_refstate-mantle.xmf,1497,9.49212e-07,6.20746e-06,0,-4.60158e-07,-1.66212e+09,-1.66142e+09,-1.66225e+09,-61500.1,-0.0545552,0.0163359,-0,0.0569485,15943,-57425.7,0,59597.8,61500.1
step02_gravity_refstate-mantle.xmf,1498,-1.6235e-07,8.16904e-06,0,6.6953e-09,-1.74554e+09,-1.74442e+09,-1.74552e+09,894.827,-0.0562607,-9.2445e-19,-0,0.0562607,13386.3,-60000,0,61475.1,894.827
step02_gravity_refstate-mantle.xmf,1499,1.34074e-07,7.66232e-06,0,-2.05667e-07,-1.72026e+09,-1.71926e+09,-1.72028e+09,-27487.4,-0.056224,0.0059987,-0,0.0565431,14006.8,-59220,0,60853.9,27487.4
step02_gravity_refstate-mantle.xmf,1500,-2.48559e-07,8.24778e-06,0,-2.52958e-06,-1.51863e+09,-1.51749e+09,-1.51859e+09,-338078,-0.0520509,0.0647055,-0,0.0830427,11411.4,-52990.3,0,54205.1,338078
step02_gravity_refstate-mantle.xmf,1501,6.19662e-07,6.63319e-06,0,-1.6944e-06,-1.51976e+09,-1.51896e+09,-1.51984e+09,-226457,-0.0516308,0.0522069,-0,0.0734255,13600.3,-53027,0,54743.3,226457
step02_gravity_refstate-mantle.xmf,1502,2.2232e-07,7.39254e-06,0,-2.10075e-06,-1.51927e+09,-1.51831e+09,-1.5193e+09,-280765,-0.052081,0.0581783,-0,0.0780842,12491.2,-53011.1,0,54462.9,280765
step02_gravity_refstate-mantle.xmf,1503,-1.61375e-06,1.03582e-05,0,-7.48887e-10,-1.74567e+09,-1.74407e+09,-1.74546e+09,-100.089,-0.0540396,5.65819e-19,-0,0.0540396,10791.4,-60000,0,60962.7,100.089
step02_gravity_refstate-mantle.xmf,1504,-2.36581e-06,1.14381e-05,0,-1.86047e-06,-1.62518e+09,-1.62334e+09,-1.62486e+09,-248651,-0.0507023,0.0436174,-0,0.066882,9182.58,-56275.8,0,57020,248651
step02_gravity_refstate-mantle.xmf,1505,-4.79687e-07,8.59755e-06,0,-3.75006e-07,-1.7092e+09,-1.70798e+09,-1.70913e+09,-50119.5,-0.0559649,0.00971604,-0,0.056802,12729.3,-58876.4,0,60236.7,50119.5
step02_gravity_refstate-mantle.xmf,1506,-8.58291e-07,9.225e-06,0,-4.15641e-10,-1.7456e+09,-1.74425e+09,-1.74549e+09,-55.5504,-0.0556013,5.07757e-19,-0,0.0556013,12072.3,-60000,0,61202.5,55.5504
step02_gravity_refstate-mantle.xmf,1507,-1.20001e-06,9.69522e-06,0,-4.45286e-07,-1.71008e+09,-1.70863e+09,-1.70992e+09,-59512.5,-0.0548983,0.0107007,-0,0.0559315,11433,-58901.7,0,60001,59512.5
step02_gravity_refstate-mantle.xmf,1508,-1.87446e-06,1.07374e-05,0,-2.06503e-06,-1.60493e+09,-1.60324e+09,-1.60468e+09,-275991,-0.0518199,0.0483504,-0,0.0708736,9729.32,-55651.7,0,56495.8,275991
step02_gravity_refstate-mantle.xmf,1509,-1.32287e-06,9.93262e-06,0,-2.29591e-06,-1.5777e+09,-1.57619e+09,-1.57752e+09,-306848,-0.0525213,0.0543897,-0,0.075609,10299.5,-54812.2,0,55771.5,306848
step02_gravity_refstate-mantle.xmf,1510,-7.76687e-07,9.10914e-06,0,-2.45613e-06,-1.54904e+09,-1.54771e+09,-1.54893e+09,-328262,-0.0526293,0.0598755,-0,0.0797177,10851.9,-53928.4,0,55009.4,328262
step02_gravity_refstate-mantle.xmf,1511,6.49387e-07,6.59463e-06,0,-1.37802e-06,-1.55266e+09,-1.55187e+09,-1.55275e+09,-184173,-0.0527787,0.0430485,-0,0.0681084,14136.1,-54043.5,0,55861.7,184173
step02_gravity_refstate-mantle.xmf,1512,8.06352e-07,6.38916e-06,0,-7.6247e-07,-1.62295e+09,-1.62221e+09,-1.62306e+09,-101904,-0.0542796,0.0252256,-0,0.0598549,15287.2,-56215.3,0,58256.9,101904
step02_gravity_refstate-mantle.xmf,1513,7.0887e-07,6.51707e-06,0,-1.06853e-06,-1.58669e+09,-1.58592e+09,-1.58679e+09,-142809,-0.0536628,0.0341175,-0,0.0635901,14692.8,-55094.9,0,57020.4,142809
step02_gravity_refstate-mantle.xmf,1514,-1.84268e-06,1.066e-05,0,-1.5171e-06,-1.64069e+09,-1.63901e+09,-1.64044e+09,-202760,-0.0525555,0.035344,-0,0.0633346,10050.2,-56756.2,0,57639.2,202760
step02_gravity_refstate-mantle.xmf,1515,-1.51303e-06,1.01706e-05,0,-9.46965e-07,-1.67577e+09,-1.67421e+09,-1.67557e+09,-126562,-0.0538843,0.0222242,-0,0.0582875,10765.3,-57840.9,0,58834.2,126562
step02_gravity_refstate-mantle.xmf,1516,6.42379e-08,7.72888e-06,0,-5.11099e-07,-1.6875e+09,-1.68647e+09,-1.68751e+09,-68308.4,-0.0560319,0.0140077,-0,0.0577563,13769.5,-58207.6,0,59814,68308.4
step02_gravity_refstate-mantle.xmf,1517,4.82598e-07,7.01049e-06,0,-6.42316e-07,-1.65815e+09,-1.65728e+09,-1.65822e+09,-85845.6,-0.055438,0.0193539,-0,0.0587192,14611.8,-57302,0,59135.6,85845.6
step02_gravity_refstate-mantle.xmf,1518,-2.47116e-07,8.19375e-06,0,-2.09413e-06,-1.55025e+09,-1.54912e+09,-1.55022e+09,-279880,-0.0531961,0.0538663,-0,0.075706,11906.7,-53967.1,0,55265,279880
step02_gravity_refstate-mantle.xmf,1519,2.29728e-07,7.35839e-06,0,-1.72903e-06,-1.55152e+09,-1.55057e+09,-1.55156e+09,-231085,-0.0532377,0.048226,-0,0.0718331,13001.1,-54007.5,0,55550.3,231085
step02_gravity_refstate-mantle.xmf,1520,-3.14652e-07,8.31989e-06,0,-6.52154e-07,-1.68064e+09,-1.67949e+09,-1.6806e+09,-87160.3,-0.0558686,0.0169071,-0,0.0583708,12945.8,-57994.7,0,59422,87160.3
step02_gravity_refstate-mantle.xmf,1521,-7.45615e-07,8.99819e-06,0,-8.40868e-07,-1.6727e+09,-1.6714e+09,-1.6726e+09,-112382,-0.0553439,0.0205562,-0,0.0590381,12074.2,-57748.3,0,58997.1,112382
step02_gravity_refstate-mantle.xmf,1522,-1.22742e-06,9.74479e-06,0,-1.80087e-06,-1.60844e+09,-1.60698e+09,-1.60828e+09,-240687,-0.053464,0.0429383,-0,0.0685718,10772.5,-55762,0,56793.1,240687
step02_gravity_refstate-mantle.xmf,1523,-7.27256e-07,8.98085e-06,0,-1.98671e-06,-1.5798e+09,-1.5785e+09,-1.5797e+09,-265524,-0.0536176,0.0488062,-0,0.0725045,11337.1,-54878.6,0,56037.4,265524
step02_gravity_refstate-mantle.xmf,1524,2.82155e-07,7.27638e-06,0,-1.37115e-06,-1.58386e+09,-1.58292e+09,-1.5839e+09,-183254,-0.0541594,0.0387993,-0,0.066623,13510.2,-55006.4,0,56641.2,183254
step02_gravity_refstate-mantle.xmf,1525,3.54692e-07,7.17008e-06,0,-1.00046e-06,-1.62051e+09,-1.6196e+09,-1.62056e+09,-133712,-0.0549439,0.0289037,-0,0.0620826,14040.9,-56138.9,0,57868.2,133712
step02_gravity_refstate-mantle.xmf,1526,-1.09194e-06,9.52221e-06,0,-1.31318e-06,-1.64134e+09,-1.63992e+09,-1.6412e+09,-175506,-0.0543448,0.0314629,-0,0.0627954,11265.8,-56778.7,0,57885.5,175506
step02_gravity_refstate-mantle.xmf,1527,-1.16644e-07,7.98795e-06,0,-8.76545e-07,-1.65316e+09,-1.65208e+09,-1.65315e+09,-117150,-0.0556259,0.0233209,-0,0.0603168,13210.3,-57146.4,0,58653.4,117150
step02_gravity_refstate-mantle.xmf,1528,-2.10142e-07,8.10715e-06,0,-1.67752e-06,-1.58224e+09,-1.58113e+09,-1.58221e+09,-224200,-0.0541612,0.0435474,-0,0.0694969,12395.3,-54955.3,0,56335.8,224200
step02_gravity_refstate-mantle.xmf,1529,-6.52261e-07,8.83852e-06,0,-1.54421e-06,-1.61107e+09,-1.6098e+09,-1.61098e+09,-206384,-0.0544675,0.0382984,-0,0.0665843,11803.2,-55844.7,0,57078.4,206384
step02_gravity_refstate-mantle.xmf,1530,-1.39501e-07,7.99617e-06,0,-1.28147e-06,-1.61501e+09,-1.61393e+09,-1.61499e+09,-171269,-0.0549554,0.033679,-0,0.0644544,12862.9,-55967.8,0,57426.9,171269
step02_gravity_refstate-mantle.xmf,1531,-5.55158e-07,8.66823e-06,0,-1.17201e-06,-1.6388e+09,-1.63757e+09,-1.63873e+09,-156639,-0.0551167,0.0294201,-0,0.0624771,12237.8,-56701.6,0,58007.2,156639
step02_gravity_refstate-intrusion.xmf,0,4.2155e-06,-5.08157e-06,0,1.14253e-05,-1.09831e+09,-1.09934e+09,-1.09878e+09,1.26529e+06,-0.0362279,0.294325,-0,0.296546,-4000,-40000,-0,40199.5,1.26529e+06
step02_gravity_refstate-intrusion.xmf,1,2.55262e-06,-1.9334e-06,0,1.46056e-05,-1.11465e+09,-1.11515e+09,-1.11493e+09,1.61749e+06,-0.0283001,0.295756,-0,0.297107,-4000,-40502.2,-0,40699.2,1.61749e+06
step02_gravity_refstate-intrusion.xmf,2,1.86485e-06,6.8551e-08,0,1.62909e-05,-1.13079e+09,-1.13099e+09,-1.131e+09,1.80412e+06,-0.0209485,0.296221,-0,0.296961,-4000,-41001.3,-0,41196,1.80412e+06
step02_gravity_refstate-intrusion.xmf,3,1.2406e-06,2.10382e-06,0,1.73674e-05,-1.14696e+09,-1.14686e+09,-1.14709e+09,1.92334e+06,-0.0139799,0.295677,-0,0.296007,-4000,-41501.5,-0,41693.8,1.92334e+06
step02_gravity_refstate-intrusion.xmf,4,6.47048e-07,4.15376e-06,0,1.80463e-05,-1.16307e+09,-1.16268e+09,-1.16314e+09,1.99852e+06,-0.00735904,0.294114,-0,0.294206,-4000,-42000.5,-0,42190.6,1.99852e+06
step02_gravity_refstate-intrusion.xmf,5,6.85329e-08,6.20945e-06,0,1.84176e-05,-1.17922e+09,-1.17854e+09,-1.17923e+09,2.03964e+06,-0.00103383,0.291523,-0,0.291525,-4000,-42500.6,-0,42688.4,2.03964e+06
step02_gravity_refstate-intrusion.xmf,6,-4.80686e-07,8.24881e-06,0,1.8528e-05,-1.19534e+09,-1.19438e+09,-1.19529e+09,2.05186e+06,0.00496978,0.287911,0,0.287954,-4000,-43000,-0,43185.6,2.05186e+06
step02_gravity_refstate-intrusion.xmf,7,-1.02945e-06,1.02893e-05,0,1.83875e-05,-1.21147e+09,-1.21021e+09,-1.21135e+09,2.0363e+06,0.0106329,0.283283,0,0.283482,-4000,-43499.4,-0,43682.9,2.0363e+06
step02_gravity_refstate-intrusion.xmf,8,-1.51712e-06,1.2273e-05,0,1.8062e-05,-1.2276e+09,-1.22608e+09,-1.22744e+09,2.00026e+06,0.0159118,0.277643,0,0.278098,-4000,-43999.5,-0,44180.9,2.00026e+06
step02_gravity_refstate-intrusion.xmf,9,-1.94523e-06,1.42305e-05,0,1.75507e-05,-1.2437e+09,-1.24191e+09,-1.24348e+09,1.94363e+06,0.0207091,0.271028,0,0.271818,-4000,-44498.5,-0,44677.9,1.94363e+06
step02_gravity_refstate-intrusion.xmf,10,-2.37625e-06,1.61179e-05,0,1.67416e-05,-1.25983e+09,-1.25779e+09,-1.25957e+09,1.85403e+06,0.0249145,0.263433,0,0.264609,-4000,-44998.7,-0,45176.1,1.85403e+06
step02_gravity_refstate-intrusion.xmf,11,-2.8977e-06,1.79347e-05,0,1.55502e-05,-1.27596e+09,-1.27365e+09,-1.27564e+09,1.72209e+06,0.0282981,0.25492,0,0.256486,-4000,-45497.8,-0,45673.3,1.72209e+06
step02_gravity_refstate-intrusion.xmf,12,-4.89432e-06,2.13923e-05,0,1.35558e-05,-1.29234e+09,-1.28942e+09,-1.29179e+09,1.50122e+06,0.0303264,0.245557,0,0.247423,-4000,-46000,-0,46173.6,1.50122e+06
step02_gravity_refstate-intrusion.xmf,13,-6.13935e-06,2.6348e-05,0,1.25955e-05,-1.29221e+09,-1.28861e+09,-1.29153e+09,1.39488e+06,0.0275432,0.259218,0,0.260677,-3497.18,-46000,-0,46132.7,1.39488e+06
step02_gravity_refstate-intrusion.xmf,14,-6.99946e-06,2.91841e-05,0,1.07173e-05,-1.29217e+09,-1.28816e+09,-1.29139e+09,1.18688e+06,0.0242562,0.271262,0,0.272344,-2997.53,-46000,-0,46097.6,1.18688e+06
step02_gravity_refstate-intrusion.xmf,15,-7.58565e-06,3.11327e-05,0,8.81472e-06,-1.29214e+09,-1.28785e+09,-1.2913e+09,976177,0.0206088,0.28145,0,0.282204,-2497.35,-46000,-0,46067.7,976177
step02_gravity_refstate-intrusion.xmf,16,-7.9828e-06,3.25195e-05,0,6.95983e-06,-1.29211e+09,-1.28763e+09,-1.29123e+09,770759,0.016717,0.289745,0,0.290226,-1997.54,-46000,-0,46043.4,770759
step02_gravity_refstate-intrusion.xmf,17,-8.25354e-06,3.34907e-05,0,5.16426e-06,-1.29209e+09,-1.28747e+09,-1.29118e+09,571911,0.0126628,0.296158,0,0.296429,-1498.34,-46000,-0,46024.4,571911
step02_gravity_refstate-intrusion.xmf,18,3.48757e-06,-3.77797e-06,0,-1.17108e-05,-1.09835e+09,-1.09916e+09,-1.09874e+09,-1.2969e+06,0.0362255,0.294327,0,0.296548,4000,-40000,0,40199.5,1.2969e+06
step02_gravity_refstate-intrusion.xmf,19,2.54612e-06,-1.92599e-06,0,-1.46109e-05,-1.11465e+09,-1.11515e+09,-1.11493e+09,-1.61807e+06,0.0283,0.295756,0,0.297107,4000,-40502.2,0,40699.2,1.61807e+06
step02_gravity_refstate-intrusion.xmf,20,-8.42697e-06,3.41359e-05,0,3.41048e-06,-1.29208e+09,-1.28736e+09,-1.29114e+09,377689,0.00850203,0.30072,0,0.30084,-999.46,-46000,-0,46010.9,377689
step02_gravity_refstate-intrusion.xmf,21,-8.52283e-06,3.45048e-05,0,1.68884e-06,-1.29207e+09,-1.2873e+09,-1.29112e+09,187029,0.00426945,0.303454,0,0.303484,-500.036,-46000,-0,46002.7,187029
step02_gravity_refstate-intrusion.xmf,22,1.85685e-06,7.00601e-08,0,-1.62927e-05,-1.13079e+09,-1.13099e+09,-1.131e+09,-1.80432e+06,0.020948,0.296221,0,0.296961,4000,-41001.3,0,41196,1.80432e+06
step02_gravity_refstate-intrusion.xmf,23,-8.55725e-06,3.46273e-05,0,-2.09003e-08,-1.29207e+09,-1.28728e+09,-1.29112e+09,-2314.58,4.92571e-07,0.304365,0,0.304365,4.01542e-10,-46000,0,46000,2314.58
step02_gravity_refstate-intrusion.xmf,24,1.2461e-06,2.09677e-06,0,-1.73613e-05,-1.14696e+09,-1.14686e+09,-1.14709e+09,-1.92266e+06,0.01398,0.295677,0,0.296007,4000,-41501.5,0,41693.8,1.92266e+06
step02_gravity_refstate-intrusion.xmf,25,6.45256e-07,4.15938e-06,0,-1.80441e-05,-1.16307e+09,-1.16268e+09,-1.16314e+09,-1.99827e+06,0.00735981,0.294115,0,0.294207,4000,-42000.5,0,42190.6,1.99827e+06
step02_gravity_refstate-intrusion.xmf,26,-8.52481e-06,3.4503e-05,0,-1.72508e-06,-1.29207e+09,-1.2873e+09,-1.29112e+09,-191042,-0.00426954,0.303454,-0,0.303484,500.036,-46000,0,46002.7,191042
step02_gravity_refstate-intrusion.xmf,27,-8.42385e-06,3.41142e-05,0,-3.43263e-06,-1.29208e+09,-1.28737e+09,-1.29115e+09,-380143,-0.00850242,0.300721,-0,0.300841,999.46,-46000,0,46010.9,380143
step02_gravity_refstate-intrusion.xmf,28,6.79659e-08,6.2045e-06,0,-1.84086e-05,-1.17922e+09,-1.17854e+09,-1.17923e+09,-2.03864e+06,0.00103395,0.291523,0,0.291525,4000,-42500.6,0,42688.4,2.03864e+06
step02_gravity_refstate-intrusion.xmf,29,-8.26112e-06,3.34972e-05,0,-5.21114e-06,-1.29209e+09,-1.28747e+09,-1.29118e+09,-577102,-0.0126626,0.296159,-0,0.29643,1498.34,-46000,0,46024.4,577102
step02_gravity_refstate-intrusion.xmf,30,-4.71781e-07,8.25186e-06,0,-1.85312e-05,-1.19534e+09,-1.19438e+09,-1.19529e+09,-2.05222e+06,-0.00496921,0.287911,-0,0.287953,4000,-43000,0,43185.6,2.05222e+06
step02_gravity_refstate-intrusion.xmf,31,-9.98113e-07,1.02706e-05,0,-1.8411e-05,-1.21146e+09,-1.21022e+09,-1.21135e+09,-2.03891e+06,-0.0106328,0.283283,-0,0.283482,4000,-43499.4,0,43682.9,2.03891e+06
step02_gravity_refstate-intrusion.xmf,32,-7.99203e-06,3.25256e-05,0,-7.01305e-06,-1.29211e+09,-1.28762e+09,-1.29123e+09,-776653,-0.0167167,0.289746,-0,0.290227,1997.54,-46000,0,46043.4,776653
step02_gravity_refstate-intrusion.xmf,33,-1.48078e-06,1.22544e-05,0,-1.80753e-05,-1.2276e+09,-1.22608e+09,-1.22743e+09,-2.00173e+06,-0.0159122,0.277642,-0,0.278098,4000,-43999.5,0,44180.9,2.00173e+06
step02_gravity_refstate-intrusion.xmf,34,-7.59907e-06,3.11629e-05,0,-8.88697e-06,-1.29214e+09,-1.28784e+09,-1.2913e+09,-984178,-0.0206079,0.281452,-0,0.282205,2497.35,-46000,0,46067.7,984178
step02_gravity_refstate-intrusion.xmf,35,-1.93417e-06,1.42202e-05,0,-1.75287e-05,-1.2437e+09,-1.24191e+09,-1.24348e+09,-1.9412e+06,-0.0207103,0.271027,-0,0.271817,4000,-44498.5,0,44677.9,1.9412e+06
step02_gravity_refstate-intrusion.xmf,36,-7.02532e-06,2.92534e-05,0,-1.08258e-05,-1.29217e+09,-1.28815e+09,-1.29139e+09,-1.19889e+06,-0.0242555,0.271262,-0,0.272344,2997.53,-46000,0,46097.6,1.19889e+06
step02_gravity_refstate-intrusion.xmf,37,-2.35269e-06,1.61185e-05,0,-1.6729e-05,-1.25983e+09,-1.25779e+09,-1.25957e+09,-1.85264e+06,-0.0249132,0.263433,-0,0.264609,4000,-44998.7,0,45176.1,1.85264e+06
step02_gravity_refstate-intrusion.xmf,38,-6.1838e-06,2.65535e-05,0,-1.28976e-05,-1.29221e+09,-1.28858e+09,-1.29152e+09,-1.42833e+06,-0.0275419,0.259219,-0,0.260678,3497.18,-46000,0,46132.7,1.42833e+06
step02_gravity_refstate-intrusion.xmf,39,-2.88549e-06,1.79306e-05,0,-1.5548e-05,-1.27596e+09,-1.27365e+09,-1.27564e+09,-1.72185e+06,-0.0282977,0.254919,-0,0.256485,4000,-45497.8,0,45673.3,1.72185e+06
step02_gravity_refstate-intrusion.xmf,40,-3.64672e-06,1.93523e-05,0,-1.39525e-05,-1.29225e+09,-1.28971e+09,-1.29185e+09,-1.54516e+06,-0.0303264,0.245557,-0,0.247423,4000,-46000,0,46173.6,1.54516e+06
step02_gravity_refstate-intrusion.xmf,41,6.80681e-06,-8.93091e-06,0,9.84703e-06,-1.09812e+09,-1.09986e+09,-1.09887e+09,1.0905e+06,-0.0334484,0.312525,-0,0.31431,-3497.18,-40000,-0,40152.6,1.0905e+06
step02_gravity_refstate-intrusion.xmf,42,8.27008e-06,-1.10954e-05,0,8.18834e-06,-1.098e+09,-1.10015e+09,-1.09892e+09,906809,-0.0296764,0.328011,-0,0.329351,-2997.53,-40000,-0,40112.2,906809
step02_gravity_refstate-intrusion.xmf,43,9.19203e-06,-1.25178e-05,0,6.63162e-06,-1.09794e+09,-1.10034e+09,-1.09895e+09,734412,-0.025306,0.340902,-0,0.34184,-2497.35,-40000,-0,40077.9,734412
step02_gravity_refstate-intrusion.xmf,44,9.78137e-06,-1.34775e-05,0,5.17435e-06,-1.0979e+09,-1.10047e+09,-1.09898e+09,573028,-0.0205622,0.351273,-0,0.351874,-1997.54,-40000,-0,40049.8,573028
step02_gravity_refstate-intrusion.xmf,45,1.01528e-05,-1.41192e-05,0,3.80287e-06,-1.09788e+09,-1.10056e+09,-1.099e+09,421144,-0.0155859,0.359219,-0,0.359557,-1498.34,-40000,-0,40028.1,421144
step02_gravity_refstate-intrusion.xmf,46,1.03781e-05,-1.4509e-05,0,2.50967e-06,-1.09786e+09,-1.10062e+09,-1.09901e+09,277931,-0.0104657,0.364834,-0,0.364984,-999.46,-40000,-0,40012.5,277931
step02_gravity_refstate-intrusion.xmf,47,1.04954e-05,-1.47352e-05,0,1.24457e-06,-1.09786e+09,-1.10065e+09,-1.09902e+09,137829,-0.0052554,0.368183,-0,0.368221,-500.036,-40000,-0,40003.1,137829
step02_gravity_refstate-intrusion.xmf,48,1.05297e-05,-1.48089e-05,0,-2.54241e-09,-1.09786e+09,-1.10066e+09,-1.09902e+09,-281.557,-9.87514e-08,0.369297,-0,0.369297,-4.01542e-10,-40000,-0,40000,281.557
step02_gravity_refstate-intrusion.xmf,49,1.04978e-05,-1.4738e-05,0,-1.24263e-06,-1.09786e+09,-1.10065e+09,-1.09902e+09,-137614,0.0052553,0.368183,0,0.368221,500.036,-40000,0,40003.1,137614
step02_gravity_refstate-intrusion.xmf,50,1.03769e-05,-1.45075e-05,0,-2.501e-06,-1.09786e+09,-1.10062e+09,-1.09901e+09,-276971,0.0104654,0.364834,0,0.364984,999.46,-40000,0,40012.5,276971
step02_gravity_refstate-intrusion.xmf,51,1.01565e-05,-1.40997e-05,0,-3.80527e-06,-1.09787e+09,-1.10056e+09,-1.099e+09,-421411,0.0155854,0.359219,0,0.359557,1498.34,-40000,0,40028.1,421411
step02_gravity_refstate-intrusion.xmf,52,9.78541e-06,-1.34458e-05,0,-5.17075e-06,-1.09789e+09,-1.10047e+09,-1.09898e+09,-572629,0.0205623,0.351273,0,0.351874,1997.54,-40000,0,40049.8,572629
step02_gravity_refstate-intrusion.xmf,53,9.19681e-06,-1.24781e-05,0,-6.62088e-06,-1.09793e+09,-1.10033e+09,-1.09895e+09,-733222,0.0253065,0.340901,0,0.34184,2497.35,-40000,0,40077.9,733222
step02_gravity_refstate-intrusion.xmf,54,8.28181e-06,-1.10535e-05,0,-8.17006e-06,-1.098e+09,-1.10014e+09,-1.09892e+09,-904785,0.0296775,0.328011,0,0.329351,2997.53,-40000,0,40112.2,904785
step02_gravity_refstate-intrusion.xmf,55,6.83981e-06,-8.93442e-06,0,-9.88893e-06,-1.09811e+09,-1.09986e+09,-1.09887e+09,-1.09514e+06,0.0334501,0.312526,0,0.314311,3497.18,-40000,0,40152.6,1.09514e+06
step02_gravity_refstate-intrusion.xmf,56,4.69736e-06,-5.13935e-06,0,1.15943e-05,-1.11002e+09,-1.11111e+09,-1.11054e+09,1.284e+06,-0.0290404,0.310142,-0,0.311498,-3635.73,-40364.1,-0,40527.5,1.284e+06
step02_gravity_refstate-intrusion.xmf,57,3.72998e-06,-2.8977e-06,0,1.25671e-05,-1.12237e+09,-1.12311e+09,-1.12279e+09,1.39173e+06,-0.0234884,0.313146,-0,0.314026,-3597.3,-40745.3,-0,40903.8,1.39173e+06
step02_gravity_refstate-intrusion.xmf,58,5.95592e-06,-6.73666e-06,0,9.91814e-06,-1.11154e+09,-1.11295e+09,-1.1122e+09,1.09837e+06,-0.0263215,0.323776,-0,0.324845,-3256.67,-40414.8,-0,40545.8,1.09837e+06
step02_gravity_refstate-intrusion.xmf,59,2.56242e-06,-1.78578e-07,0,1.36803e-05,-1.13813e+09,-1.13843e+09,-1.13841e+09,1.51501e+06,-0.0168628,0.314328,-0,0.31478,-3586.47,-41231.3,-0,41387,1.51501e+06
step02_gravity_refstate-intrusion.xmf,60,7.07184e-06,-8.30904e-06,0,7.9305e-06,-1.11204e+09,-1.11374e+09,-1.11282e+09,878255,-0.0227852,0.339124,-0,0.339889,-2747.44,-40432.9,-0,40526.1,878255
step02_gravity_refstate-intrusion.xmf,61,4.47509e-06,-3.48771e-06,0,1.02731e-05,-1.12882e+09,-1.1297e+09,-1.12932e+09,1.13768e+06,-0.0188349,0.331369,-0,0.331904,-3107.39,-40947.3,-0,41065,1.13768e+06
step02_gravity_refstate-intrusion.xmf,62,1.53609e-06,2.44148e-06,0,1.45144e-05,-1.15436e+09,-1.15426e+09,-1.15453e+09,1.60739e+06,-0.0103714,0.313761,-0,0.313932,-3586.5,-41732.7,-0,41886.5,1.60739e+06
step02_gravity_refstate-intrusion.xmf,63,2.66783e-06,2.59993e-07,0,1.18244e-05,-1.14542e+09,-1.14568e+09,-1.14571e+09,1.30948e+06,-0.0130677,0.327608,-0,0.327869,-3239.22,-41457.9,-0,41584.3,1.30948e+06
step02_gravity_refstate-intrusion.xmf,64,7.76114e-06,-9.32932e-06,0,6.22382e-06,-1.11226e+09,-1.11415e+09,-1.11312e+09,689250,-0.0190001,0.351289,-0,0.351802,-2248.57,-40441.3,-0,40503.8,689250
step02_gravity_refstate-intrusion.xmf,65,5.58115e-06,-5.015e-06,0,7.65696e-06,-1.12769e+09,-1.12887e+09,-1.12831e+09,847962,-0.0162817,0.348079,-0,0.34846,-2528.14,-40915.3,-0,40993.4,847962
step02_gravity_refstate-intrusion.xmf,66,3.40372e-06,-7.33249e-07,0,9.42644e-06,-1.14444e+09,-1.14489e+09,-1.14481e+09,1.04392e+06,-0.0120707,0.341906,-0,0.342119,-2802.91,-41429.6,-0,41524.3,1.04392e+06
step02_gravity_refstate-intrusion.xmf,67,8.21045e-06,-1.00178e-05,0,4.60989e-06,-1.11245e+09,-1.11447e+09,-1.11336e+09,510517,-0.0147758,0.361215,-0,0.361517,-1726.51,-40448.2,-0,40485,510517
step02_gravity_refstate-intrusion.xmf,68,1.52429e-06,3.15865e-06,0,1.17882e-05,-1.16133e+09,-1.16115e+09,-1.1615e+09,1.30547e+06,-0.00704458,0.330865,-0,0.33094,-3123.61,-41949.4,-0,42065.6,1.30547e+06
step02_gravity_refstate-intrusion.xmf,69,6.11318e-07,4.97636e-06,0,1.50762e-05,-1.17042e+09,-1.16994e+09,-1.17049e+09,1.6696e+06,-0.00424088,0.311632,-0,0.311661,-3593.38,-42229.1,-0,42381.7,1.6696e+06
step02_gravity_refstate-intrusion.xmf,70,6.20245e-06,-5.91419e-06,0,5.66542e-06,-1.12723e+09,-1.12857e+09,-1.12792e+09,627411,-0.0132043,0.360186,-0,0.360428,-1985.71,-40902.5,-0,40950.7,627411
step02_gravity_refstate-intrusion.xmf,71,4.0972e-06,-1.68226e-06,0,7.02216e-06,-1.14318e+09,-1.14382e+09,-1.14364e+09,777661,-0.0104276,0.356034,-0,0.356186,-2266.49,-41392.8,-0,41454.8,777661
step02_gravity_refstate-intrusion.xmf,72,-2.44984e-07,7.41865e-06,0,1.52787e-05,-1.18639e+09,-1.18554e+09,-1.18636e+09,1.69203e+06,0.00158272,0.308681,0,0.308685,-3590.78,-42722.9,-0,42873.6,1.69203e+06
step02_gravity_refstate-intrusion.xmf,73,2.07825e-06,2.42347e-06,0,8.6544e-06,-1.16011e+09,-1.16008e+09,-1.16034e+09,958422,-0.00639675,0.348525,-0,0.348583,-2555.46,-41913.4,-0,41991.2,958422
step02_gravity_refstate-intrusion.xmf,74,8.47096e-06,-1.04265e-05,0,3.10026e-06,-1.1127e+09,-1.11479e+09,-1.11363e+09,343335,-0.0102787,0.368575,-0,0.368719,-1193.16,-40456.4,-0,40474,343335
step02_gravity_refstate-intrusion.xmf,75,6.5046e-06,-6.31559e-06,0,3.87308e-06,-1.12766e+09,-1.12908e+09,-1.12838e+09,428920,-0.00950284,0.369628,-0,0.369751,-1418.76,-40916.7,-0,40941.3,428920
step02_gravity_refstate-intrusion.xmf,76,2.61741e-07,6.14144e-06,0,1.29025e-05,-1.17782e+09,-1.17717e+09,-1.17785e+09,1.42888e+06,-0.001427,0.323561,-0,0.323564,-3260.43,-42458.2,-0,42583.2,1.42888e+06
step02_gravity_refstate-intrusion.xmf,77,4.08274e-07,6.04565e-06,0,1.04206e-05,-1.17674e+09,-1.17611e+09,-1.17678e+09,1.15402e+06,-0.00162841,0.338273,-0,0.338277,-2832.74,-42425.4,-0,42519.8,1.15402e+06
step02_gravity_refstate-intrusion.xmf,78,4.52752e-06,-2.2628e-06,0,4.92865e-06,-1.14268e+09,-1.14344e+09,-1.14319e+09,545818,-0.00808585,0.36736,-0,0.367449,-1696.79,-41378.5,-0,41413.3,545818
step02_gravity_refstate-intrusion.xmf,79,2.53071e-06,1.81558e-06,0,6.26913e-06,-1.15859e+09,-1.15867e+09,-1.15887e+09,694268,-0.00554187,0.361635,-0,0.361677,-2007.76,-41867.6,-0,41915.7,694268
step02_gravity_refstate-intrusion.xmf,80,-6.76344e-07,8.6283e-06,0,1.22552e-05,-1.1915e+09,-1.19047e+09,-1.19143e+09,1.35719e+06,0.00311322,0.324718,0,0.324733,-3141.44,-42881.1,-0,42996,1.35719e+06
step02_gravity_refstate-intrusion.xmf,81,-1.1035e-06,9.97204e-06,0,1.49622e-05,-1.20252e+09,-1.20129e+09,-1.2024e+09,1.65698e+06,0.00711002,0.306167,0,0.306249,-3546.76,-43221.9,-0,43367.2,1.65698e+06
step02_gravity_refstate-intrusion.xmf,82,5.88598e-07,5.91202e-06,0,7.70275e-06,-1.17607e+09,-1.17548e+09,-1.17614e+09,853033,-0.00154333,0.352988,-0,0.352991,-2300.29,-42405.5,-0,42467.9,853033
step02_gravity_refstate-intrusion.xmf,83,8.72774e-06,-1.08842e-05,0,1.80827e-06,-1.11185e+09,-1.11402e+09,-1.11281e+09,200255,-0.00617035,0.372586,-0,0.372637,-703.679,-40430.6,-0,40436.8,200255
step02_gravity_refstate-intrusion.xmf,84,6.60363e-06,-6.39304e-06,0,2.15073e-06,-1.1285e+09,-1.12994e+09,-1.12924e+09,238180,-0.00540574,0.376237,-0,0.376276,-812.227,-40943.1,-0,40951.2,238180
step02_gravity_refstate-intrusion.xmf,85,4.7637e-06,-2.5644e-06,0,3.03555e-06,-1.14257e+09,-1.14338e+09,-1.1431e+09,336169,-0.00530418,0.375583,-0,0.375621,-1094.42,-41375.6,-0,41390.1,336169
step02_gravity_refstate-intrusion.xmf,86,-1.01718e-06,9.52885e-06,0,9.3277e-06,-1.19312e+09,-1.19195e+09,-1.19301e+09,1.03299e+06,0.0031519,0.341031,0,0.341046,-2604.72,-42931,-0,43010,1.03299e+06
step02_gravity_refstate-intrusion.xmf,87,-1.98601e-06,1.26163e-05,0,1.47446e-05,-1.21949e+09,-1.21788e+09,-1.21927e+09,1.63287e+06,0.0125647,0.300167,0,0.300429,-3548.43,-43747.1,-0,43890.7,1.63287e+06
step02_gravity_refstate-intrusion.xmf,88,9.19233e-06,-1.18736e-05,0,5.96813e-07,-1.1086e+09,-1.11094e+09,-1.10962e+09,66093.4,-0.00215655,0.373463,-0,0.373469,-234.551,-40330.9,-0,40331.6,66093.4
step02_gravity_refstate-intrusion.xmf,89,2.76317e-06,1.57696e-06,0,4.08731e-06,-1.15826e+09,-1.1584e+09,-1.15857e+09,452645,-0.00398542,0.372126,-0,0.372147,-1395.51,-41858.2,-0,41881.5,452645
step02_gravity_refstate-intrusion.xmf,90,7.45634e-07,5.81362e-06,0,5.30547e-06,-1.17522e+09,-1.17466e+09,-1.1753e+09,587549,-0.00134428,0.365295,-0,0.365298,-1709.37,-42379.8,-0,42414.3,587549
step02_gravity_refstate-intrusion.xmf,91,-2.14522e-06,1.23627e-05,0,1.13089e-05,-1.21062e+09,-1.20901e+09,-1.21038e+09,1.2524e+06,0.00874402,0.323348,0,0.323467,-2997.15,-43471.4,-0,43574.6,1.2524e+06
step02_gravity_refstate-intrusion.xmf,92,-1.09556e-06,9.8495e-06,0,6.58762e-06,-1.19271e+09,-1.1915e+09,-1.19259e+09,729539,0.00244106,0.35526,0,0.355268,-2015.71,-42918.7,-0,42966,729539
step02_gravity_refstate-intrusion.xmf,93,-2.69719e-06,1.49875e-05,0,1.4656e-05,-1.23578e+09,-1.23382e+09,-1.23548e+09,1.62306e+06,0.0174996,0.291362,0,0.291887,-3595.49,-44251.4,-0,44397.2,1.62306e+06
step02_gravity_refstate-intrusion.xmf,94,8.88708e-06,-1.12038e-05,0,-5.50003e-07,-1.11109e+09,-1.11331e+09,-1.11207e+09,-60909.4,0.00194512,0.374378,0,0.374383,218.89,-40407.4,0,40408,60909.4
step02_gravity_refstate-intrusion.xmf,95,7.24427e-06,-7.6793e-06,0,5.09668e-07,-1.12415e+09,-1.1258e+09,-1.12495e+09,56442.7,-0.00140873,0.378218,-0,0.378221,-194.683,-40809.4,-0,40809.8,56442.7
step02_gravity_refstate-intrusion.xmf,96,5.01809e-06,-2.99848e-06,0,1.2545e-06,-1.14142e+09,-1.14231e+09,-1.14198e+09,138928,-0.00233283,0.380209,-0,0.380216,-464.014,-41340.6,-0,41343.2,138928
step02_gravity_refstate-intrusion.xmf,97,2.86796e-06,1.50033e-06,0,2.1886e-06,-1.15823e+09,-1.15838e+09,-1.15855e+09,242374,-0.00224667,0.378714,-0,0.37872,-777.007,-41857.6,-0,41864.8,242374
step02_gravity_refstate-intrusion.xmf,98,-2.59561e-06,1.34338e-05,0,8.00719e-06,-1.20982e+09,-1.20804e+09,-1.20953e+09,886748,0.00695789,0.3421,0,0.342171,-2332.47,-43446.5,-0,43509,886748
step02_gravity_refstate-intrusion.xmf,99,-3.48115e-06,1.74732e-05,0,1.40677e-05,-1.25186e+09,-1.24954e+09,-1.25147e+09,1.55791e+06,0.0217873,0.282875,0,0.283713,-3606.5,-44749,-0,44894.1,1.55791e+06
step02_gravity_refstate-intrusion.xmf,100,-3.25457e-06,1.56253e-05,0,1.19195e-05,-1.23e+09,-1.2279e+09,-1.22963e+09,1.32001e+06,0.0145542,0.30999,0,0.310331,-3149.09,-44070.9,-0,44183.3,1.32001e+06
step02_gravity_refstate-intrusion.xmf,101,8.68811e-06,-1.08172e-05,0,-1.97468e-06,-1.11201e+09,-1.11417e+09,-1.11298e+09,-218684,0.00673782,0.372189,0,0.37225,770.664,-40435.7,0,40443.1,218684
step02_gravity_refstate-intrusion.xmf,102,8.13315e-07,5.84586e-06,0,3.20138e-06,-1.17497e+09,-1.17441e+09,-1.17506e+09,354534,-0.000900172,0.373965,-0,0.373966,-1088.86,-42372.6,-0,42386.6,354534
step02_gravity_refstate-intrusion.xmf,103,-1.16945e-06,1.01735e-05,0,4.30822e-06,-1.19249e+09,-1.19124e+09,-1.19236e+09,477109,0.00170959,0.365748,0,0.365752,-1404.95,-42912.3,-0,42935.3,477109
step02_gravity_refstate-intrusion.xmf,104,-2.89543e-06,1.41624e-05,0,5.47614e-06,-1.20986e+09,-1.20797e+09,-1.20953e+09,606450,0.00529121,0.354353,0,0.354393,-1722.42,-43447.6,-0,43481.8,606450
step02_gravity_refstate-intrusion.xmf,105,-3.89425e-06,1.77435e-05,0,1.23171e-05,-1.24428e+09,-1.24188e+09,-1.24385e+09,1.36405e+06,0.0187047,0.298268,0,0.298854,-3281.06,-44513.1,-0,44633.9,1.36405e+06
step02_gravity_refstate-intrusion.xmf,106,-3.71407e-06,1.63098e-05,0,9.2081e-06,-1.22599e+09,-1.22377e+09,-1.22558e+09,1.01974e+06,0.0117129,0.327327,0,0.327537,-2626.22,-43946.2,-0,44024.6,1.01974e+06
step02_gravity_refstate-intrusion.xmf,107,6.95978e-06,-7.07739e-06,0,-1.21477e-06,-1.12618e+09,-1.12773e+09,-1.12695e+09,-134528,0.00326636,0.377828,0,0.377842,468.58,-40871.7,0,40874.4,134528
step02_gravity_refstate-intrusion.xmf,108,5.06901e-06,-3.07082e-06,0,-3.85012e-07,-1.1412e+09,-1.1421e+09,-1.14176e+09,-42637.8,0.00074685,0.381111,0,0.381112,147.524,-41333.9,0,41334.1,42637.8
step02_gravity_refstate-intrusion.xmf,109,8.56128e-06,-1.06242e-05,0,-3.39961e-06,-1.11158e+09,-1.11371e+09,-1.11253e+09,-376486,0.0114017,0.366922,0,0.367099,1304.82,-40422.2,0,40443.2,376486
step02_gravity_refstate-intrusion.xmf,110,2.9995e-06,1.29078e-06,0,4.37998e-07,-1.15749e+09,-1.15768e+09,-1.15783e+09,48505.6,-0.000465628,0.381546,-0,0.381547,-155.399,-41835.2,-0,41835.4,48505.6
step02_gravity_refstate-intrusion.xmf,111,8.66684e-07,5.83304e-06,0,1.32986e-06,-1.17466e+09,-1.17411e+09,-1.17476e+09,147274,-0.00040285,0.37874,-0,0.37874,-463.834,-42363.5,-0,42366,147274
step02_gravity_refstate-intrusion.xmf,112,-4.32386e-06,1.77433e-05,0,6.65851e-06,-1.22663e+09,-1.22419e+09,-1.22615e+09,737390,0.00943911,0.340612,0,0.340743,-2025.11,-43965.7,-0,44012.3,737390
step02_gravity_refstate-intrusion.xmf,113,-4.46368e-06,2.01744e-05,0,1.32879e-05,-1.26775e+09,-1.26502e+09,-1.26726e+09,1.47155e+06,0.0253068,0.273465,0,0.274634,-3611.39,-45240.3,-0,45384.3,1.47155e+06
step02_gravity_refstate-intrusion.xmf,114,-5.30908e-06,2.15134e-05,0,1.11914e-05,-1.25977e+09,-1.2568e+09,-1.25918e+09,1.23937e+06,0.0215261,0.292886,0,0.293676,-3151.06,-44991.9,-0,45102.1,1.23937e+06
step02_gravity_refstate-intrusion.xmf,115,-4.75092e-06,1.94009e-05,0,1.00463e-05,-1.24377e+09,-1.2411e+09,-1.24324e+09,1.11257e+06,0.0166962,0.311587,0,0.312034,-2846.18,-44496.3,-0,44587.2,1.11257e+06
step02_gravity_refstate-intrusion.xmf,116,6.69256e-06,-6.63054e-06,0,-2.92319e-06,-1.12711e+09,-1.12858e+09,-1.12785e+09,-323725,0.0074198,0.373457,0,0.373531,1089.68,-40899.8,0,40914.4,323725
step02_gravity_refstate-intrusion.xmf,117,8.66987e-06,-1.09686e-05,0,-4.60236e-06,-1.1086e+09,-1.11077e+09,-1.10956e+09,-509683,0.0157761,0.359647,0,0.359992,1746.55,-40329.8,0,40367.6,509683
step02_gravity_refstate-intrusion.xmf,118,-1.2115e-06,1.03929e-05,0,2.29298e-06,-1.19238e+09,-1.1911e+09,-1.19225e+09,253933,0.000949614,0.372433,0,0.372434,-776.974,-42909.2,-0,42916.2,253933
step02_gravity_refstate-intrusion.xmf,119,-3.13209e-06,1.48461e-05,0,3.28833e-06,-1.21047e+09,-1.20848e+09,-1.21012e+09,364163,0.00345335,0.362676,0,0.362692,-1082.8,-43466.7,-0,43480.1,364163
step02_gravity_refstate-intrusion.xmf,120,-4.71152e-06,1.88221e-05,0,4.40492e-06,-1.22778e+09,-1.22517e+09,-1.22726e+09,487819,0.00686612,0.349807,0,0.349875,-1413.74,-44001.2,-0,44023.9,487819
step02_gravity_refstate-intrusion.xmf,121,-5.43531e-06,2.09394e-05,0,7.70968e-06,-1.24334e+09,-1.24042e+09,-1.24274e+09,853800,0.0138657,0.324882,0,0.325178,-2307.26,-44482.6,-0,44542.4,853800
step02_gravity_refstate-intrusion.xmf,122,4.96187e-06,-2.88107e-06,0,-2.1064e-06,-1.14153e+09,-1.1424e+09,-1.14208e+09,-233271,0.00389717,0.378342,0,0.378362,779.405,-41343.8,0,41351.2,233271
step02_gravity_refstate-intrusion.xmf,123,3.00096e-06,1.28977e-06,0,-1.27319e-06,-1.15738e+09,-1.15757e+09,-1.15771e+09,-140998,0.00139705,0.380626,0,0.380629,464.717,-41831.7,0,41834.2,140998
step02_gravity_refstate-intrusion.xmf,124,6.76919e-06,-6.89452e-06,0,-4.77606e-06,-1.12411e+09,-1.12562e+09,-1.12486e+09,-528920,0.0123147,0.364089,0,0.364297,1736.24,-40807.2,0,40844.1,528920
step02_gravity_refstate-intrusion.xmf,125,7.90217e-06,-9.53791e-06,0,-6.01141e-06,-1.11154e+09,-1.11347e+09,-1.11242e+09,-665728,0.018784,0.352204,0,0.352704,2195.8,-40419.5,0,40479.1,665728
step02_gravity_refstate-intrusion.xmf,126,9.20277e-07,5.75271e-06,0,-4.24565e-07,-1.17425e+09,-1.17372e+09,-1.17435e+09,-47018,0.000143073,0.379734,0,0.379734,155.581,-42350.9,0,42351.2,47018
step02_gravity_refstate-intrusion.xmf,127,-1.21164e-06,1.046e-05,0,4.40576e-07,-1.19221e+09,-1.19092e+09,-1.19208e+09,48791.1,0.000177844,0.375271,0,0.375271,-147.066,-42903.9,-0,42904.2,48791.1
step02_gravity_refstate-intrusion.xmf,128,-5.12978e-06,2.25534e-05,0,1.2949e-05,-1.28051e+09,-1.27744e+09,-1.27994e+09,1.43402e+06,0.0274802,0.264257,0,0.265682,-3635.73,-45635.9,-0,45780.5,1.43402e+06
step02_gravity_refstate-intrusion.xmf,129,-5.95827e-06,2.22323e-05,0,5.59958e-06,-1.2438e+09,-1.24068e+09,-1.24314e+09,620119,0.0107187,0.334976,0,0.335147,-1739.58,-44496.7,-0,44530.7,620119
step02_gravity_refstate-intrusion.xmf,130,-6.40608e-06,2.48471e-05,0,1.15064e-05,-1.27847e+09,-1.27501e+09,-1.27776e+09,1.27426e+06,0.0251705,0.276087,0,0.277232,-3274.23,-45570.7,-0,45688.2,1.27426e+06
step02_gravity_refstate-intrusion.xmf,131,-6.34687e-06,2.40186e-05,0,8.70175e-06,-1.26021e+09,-1.25685e+09,-1.25951e+09,963666,0.0181567,0.307628,0,0.308163,-2559.8,-45005.2,-0,45077.9,963666
step02_gravity_refstate-intrusion.xmf,132,4.89855e-06,-2.95249e-06,0,-4.02153e-06,-1.14046e+09,-1.14133e+09,-1.14101e+09,-445360,0.00720524,0.371451,0,0.371521,1418.09,-41310.5,0,41334.8,445360
step02_gravity_refstate-intrusion.xmf,133,-3.22871e-06,1.51721e-05,0,1.30376e-06,-1.21062e+09,-1.20858e+09,-1.21026e+09,144384,0.00141068,0.367205,0,0.367208,-436.558,-43471.6,-0,43473.8,144384
step02_gravity_refstate-intrusion.xmf,134,-5.17744e-06,2.01828e-05,0,2.26143e-06,-1.23093e+09,-1.22812e+09,-1.23036e+09,250439,0.00384224,0.354496,0,0.354517,-739.535,-44099,-0,44105.2,250439
step02_gravity_refstate-intrusion.xmf,135,-6.3413e-06,2.34374e-05,0,3.71287e-06,-1.24582e+09,-1.24252e+09,-1.24512e+09,411178,0.00753597,0.340723,0,0.340806,-1180.47,-44559.5,-0,44575.2,411178
step02_gravity_refstate-intrusion.xmf,136,-7.06424e-06,2.73421e-05,0,9.57979e-06,-1.2783e+09,-1.27449e+09,-1.27752e+09,1.0609e+06,0.0216591,0.289038,0,0.289848,-2747.44,-45567.2,-0,45650,1.0609e+06
step02_gravity_refstate-intrusion.xmf,137,-6.84763e-06,2.54474e-05,0,6.71471e-06,-1.26014e+09,-1.25657e+09,-1.25939e+09,743614,0.0146435,0.318161,0,0.318498,-2028.29,-45003.5,-0,45049.2,743614
step02_gravity_refstate-intrusion.xmf,138,2.91793e-06,1.39609e-06,0,-3.10476e-06,-1.15747e+09,-1.15764e+09,-1.1578e+09,-343833,0.00325145,0.375856,0,0.37587,1094.08,-41834.3,0,41848.6,343833
step02_gravity_refstate-intrusion.xmf,139,9.15378e-07,5.73301e-06,0,-2.22512e-06,-1.1742e+09,-1.17366e+09,-1.1743e+09,-246418,0.000719763,0.376917,0,0.376917,780.117,-42349.1,0,42356.3,246418
step02_gravity_refstate-intrusion.xmf,140,4.51371e-06,-2.28732e-06,0,-6.01499e-06,-1.14118e+09,-1.14194e+09,-1.14168e+09,-666124,0.00989791,0.361245,0,0.36138,2020.94,-41332,0,41381.4,666124
step02_gravity_refstate-intrusion.xmf,141,7.10801e-06,-8.37904e-06,0,-7.77167e-06,-1.1123e+09,-1.11401e+09,-1.11308e+09,-860666,0.0222937,0.340707,0,0.341436,2690.5,-40440.9,0,40530.3,860666
step02_gravity_refstate-intrusion.xmf,142,5.89226e-06,-5.39762e-06,0,-6.8684e-06,-1.12703e+09,-1.12828e+09,-1.12768e+09,-760633,0.0153634,0.35272,0,0.353055,2333.76,-40895.8,0,40962.3,760633
step02_gravity_refstate-intrusion.xmf,143,-1.1616e-06,1.03483e-05,0,-1.372e-06,-1.19184e+09,-1.19056e+09,-1.19171e+09,-151941,-0.000558711,0.374394,-0,0.374395,480.056,-42892.4,0,42895.1,151941
step02_gravity_refstate-intrusion.xmf,144,-3.1518e-06,1.5011e-05,0,-5.55387e-07,-1.20979e+09,-1.20778e+09,-1.20944e+09,-61505.7,-0.000619234,0.368299,-0,0.368299,196.716,-43445.9,0,43446.4,61505.7
step02_gravity_refstate-intrusion.xmf,145,-7.24756e-06,2.65375e-05,0,4.8081e-06,-1.26055e+09,-1.25681e+09,-1.25975e+09,532468,0.0108572,0.325901,0,0.326082,-1481.93,-45016.2,-0,45040.6,532468
step02_gravity_refstate-intrusion.xmf,146,-7.47533e-06,2.85311e-05,0,7.76409e-06,-1.27657e+09,-1.27258e+09,-1.27574e+09,859826,0.0180118,0.300177,0,0.300717,-2266.03,-45514.1,-0,45570.5,859826
step02_gravity_refstate-intrusion.xmf,147,2.77684e-06,1.40861e-06,0,-5.19036e-06,-1.15712e+09,-1.15727e+09,-1.15743e+09,-574801,0.00509116,0.367253,0,0.367288,1713.47,-41822.6,0,41857.7,574801
step02_gravity_refstate-intrusion.xmf,148,5.82594e-06,-6.48846e-06,0,-9.85902e-06,-1.11332e+09,-1.11468e+09,-1.11396e+09,-1.09183e+06,0.0254722,0.324942,0,0.325939,3232.07,-40469.4,0,40598.3,1.09183e+06
step02_gravity_refstate-intrusion.xmf,149,-6.61209e-06,2.45505e-05,0,2.27196e-06,-1.24893e+09,-1.24548e+09,-1.2482e+09,251606,0.00481521,0.342135,0,0.342169,-724.919,-44656.4,-0,44662.3,251606
step02_gravity_refstate-intrusion.xmf,150,-4.94775e-06,1.96079e-05,0,2.33033e-07,-1.22789e+09,-1.22517e+09,-1.22734e+09,25807,0.000344554,0.358788,0,0.358788,-69.6942,-44005.2,-0,44005.2,25807
step02_gravity_refstate-intrusion.xmf,151,-7.4684e-06,2.74422e-05,0,3.1447e-06,-1.26196e+09,-1.25809e+09,-1.26113e+09,348256,0.00729638,0.329829,0,0.329909,-979.107,-45060.3,-0,45070.9,348256
step02_gravity_refstate-intrusion.xmf,152,-7.79126e-06,2.96654e-05,0,5.92018e-06,-1.27642e+09,-1.27228e+09,-1.27556e+09,655624,0.0140824,0.30847,0,0.308791,-1752.58,-45510.3,-0,45544,655624
step02_gravity_refstate-intrusion.xmf,153,8.86988e-07,5.69408e-06,0,-4.21042e-06,-1.17417e+09,-1.17364e+09,-1.17427e+09,-466278,0.00129133,0.370166,0,0.370168,1408.66,-42348,0,42371.4,466278
step02_gravity_refstate-intrusion.xmf,154,-1.09957e-06,1.01495e-05,0,-3.28536e-06,-1.19159e+09,-1.19035e+09,-1.19147e+09,-363834,-0.00124457,0.369684,-0,0.369686,1106.68,-42884.8,0,42899,363834
step02_gravity_refstate-intrusion.xmf,155,5.1401e-06,-4.58199e-06,0,-9.14673e-06,-1.12598e+09,-1.12705e+09,-1.12655e+09,-1.01294e+06,0.0187989,0.337929,0,0.338451,2886.45,-40860.7,0,40962.6,1.01294e+06
step02_gravity_refstate-intrusion.xmf,156,2.5427e-06,1.74108e-06,0,-7.4776e-06,-1.15702e+09,-1.15711e+09,-1.1573e+09,-828098,0.00673538,0.354833,0,0.354897,2316.74,-41819,0,41883.1,828098
step02_gravity_refstate-intrusion.xmf,157,3.96032e-06,-1.54937e-06,0,-8.3447e-06,-1.14144e+09,-1.14205e+09,-1.14188e+09,-924125,0.0122843,0.347625,0,0.347842,2598.05,-41338.6,0,41420.1,924125
step02_gravity_refstate-intrusion.xmf,158,-6.38628e-06,2.38429e-05,0,8.50786e-07,-1.2452e+09,-1.24185e+09,-1.24449e+09,94219.4,0.00172377,0.346858,0,0.346863,-269.932,-44541,-0,44541.8,94219.4
step02_gravity_refstate-intrusion.xmf,159,-3.06164e-06,1.47606e-05,0,-2.401e-06,-1.20938e+09,-1.20741e+09,-1.20904e+09,-265896,-0.00251293,0.365575,-0,0.365584,813.333,-43433.3,0,43440.9,265896
step02_gravity_refstate-intrusion.xmf,160,-4.83675e-06,1.92973e-05,0,-1.58255e-06,-1.227e+09,-1.22433e+09,-1.22647e+09,-175258,-0.00259701,0.358054,-0,0.358064,535.706,-43977.6,0,43980.9,175258
step02_gravity_refstate-intrusion.xmf,161,-7.47886e-06,2.77979e-05,0,1.60888e-06,-1.26213e+09,-1.25822e+09,-1.2613e+09,178173,0.00373396,0.332567,0,0.332588,-498.66,-45066.3,-0,45069.1,178173
step02_gravity_refstate-intrusion.xmf,162,-8.09107e-06,3.05775e-05,0,4.14804e-06,-1.27699e+09,-1.27271e+09,-1.27609e+09,459370,0.0100892,0.313917,0,0.314079,-1243.33,-45528,-0,45545,459370
step02_gravity_refstate-intrusion.xmf,163,4.00984e-06,-2.93174e-06,0,-1.12188e-05,-1.12832e+09,-1.12908e+09,-1.12876e+09,-1.24241e+06,0.0198083,0.325244,0,0.325847,3286.11,-40930.3,0,41062,1.24241e+06
step02_gravity_refstate-intrusion.xmf,164,8.03862e-07,5.55126e-06,0,-6.56704e-06,-1.17407e+09,-1.17355e+09,-1.17416e+09,-727260,0.00184894,0.359461,0,0.359466,2027.17,-42344.3,0,42392.8,727260
step02_gravity_refstate-intrusion.xmf,165,4.74216e-06,-5.14357e-06,0,-1.14917e-05,-1.11001e+09,-1.1111e+09,-1.11054e+09,-1.27264e+06,0.0290413,0.31014,0,0.311497,3635.73,-40364.1,0,40527.5,1.27264e+06
step02_gravity_refstate-intrusion.xmf,166,-6.3261e-06,2.36548e-05,0,-8.53288e-07,-1.24442e+09,-1.2411e+09,-1.24372e+09,-94496.4,-0.00181054,0.347395,-0,0.3474,286.136,-44516.8,0,44517.7,94496.4
step02_gravity_refstate-intrusion.xmf,167,-8.20082e-06,3.1102e-05,0,2.4698e-06,-1.27721e+09,-1.27286e+09,-1.2763e+09,273515,0.00608081,0.317538,0,0.317596,-745.333,-45535.4,-0,45541.5,273515
step02_gravity_refstate-intrusion.xmf,168,-1.01809e-06,9.86294e-06,0,-5.42508e-06,-1.19146e+09,-1.19026e+09,-1.19135e+09,-600795,-0.00187934,0.361078,-0,0.361083,1726.68,-42880.7,0,42915.4,600795
step02_gravity_refstate-intrusion.xmf,169,-2.90614e-06,1.43222e-05,0,-4.38888e-06,-1.20902e+09,-1.20712e+09,-1.2087e+09,-486042,-0.00430049,0.359215,-0,0.359241,1426.5,-43422.2,0,43445.7,486042
step02_gravity_refstate-intrusion.xmf,170,3.55286e-06,-2.7726e-06,0,-1.27116e-05,-1.12258e+09,-1.12328e+09,-1.12297e+09,-1.40774e+06,0.0235178,0.311994,0,0.31288,3627.11,-40750.9,0,40912,1.40774e+06
step02_gravity_refstate-intrusion.xmf,171,3.17353e-06,-7.90143e-07,0,-1.10536e-05,-1.14102e+09,-1.14146e+09,-1.14137e+09,-1.22412e+06,0.0143805,0.331399,0,0.33171,3129.79,-41322.7,0,41441.1,1.22412e+06
step02_gravity_refstate-intrusion.xmf,172,8.00077e-07,5.42593e-06,0,-9.17004e-06,-1.17323e+09,-1.17272e+09,-1.17332e+09,-1.01553e+06,0.00256489,0.345118,0,0.345127,2621.37,-42317.8,0,42399,1.01553e+06
step02_gravity_refstate-intrusion.xmf,173,2.14196e-06,2.13747e-06,0,-1.02229e-05,-1.15675e+09,-1.15675e+09,-1.15698e+09,-1.13213e+06,0.00818459,0.338897,0,0.338996,2892.25,-41809.1,0,41909,1.13213e+06
step02_gravity_refstate-intrusion.xmf,174,-7.43981e-06,2.76583e-05,0,-1.9797e-08,-1.26106e+09,-1.25717e+09,-1.26023e+09,-2192.39,-9.77169e-05,0.334496,-0,0.334496,13.142,-45033.2,0,45033.2,2192.39
step02_gravity_refstate-intrusion.xmf,175,-4.67416e-06,1.88105e-05,0,-3.45462e-06,-1.2264e+09,-1.2238e+09,-1.22588e+09,-382578,-0.00540122,0.353861,-0,0.353903,1135.36,-43958.9,0,43973.5,382578
step02_gravity_refstate-intrusion.xmf,176,-6.23649e-06,2.3326e-05,0,-2.60724e-06,-1.24407e+09,-1.2408e+09,-1.24338e+09,-288736,-0.00535097,0.34487,-0,0.344911,852.387,-44505.9,0,44514,288736
step02_gravity_refstate-intrusion.xmf,177,-8.17135e-06,3.12936e-05,0,8.36559e-07,-1.27703e+09,-1.27266e+09,-1.27613e+09,92643.9,0.00202167,0.319604,0,0.31961,-247.424,-45530.5,-0,45531.1,92643.9
step02_gravity_refstate-intrusion.xmf,178,2.43433e-06,-1.80201e-07,0,-1.3811e-05,-1.13808e+09,-1.13837e+09,-1.13835e+09,-1.52949e+06,0.0169283,0.313683,0,0.31414,3602.3,-41229.2,0,41386.3,1.52949e+06
step02_gravity_refstate-intrusion.xmf,179,-8.54081e-07,9.20619e-06,0,-8.0701e-06,-1.19066e+09,-1.18955e+09,-1.19057e+09,-893715,-0.00226403,0.348446,-0,0.348453,2346.72,-42855.4,0,42919.6,893715
step02_gravity_refstate-intrusion.xmf,180,-7.40498e-06,2.75207e-05,0,-1.74285e-06,-1.26104e+09,-1.25717e+09,-1.26022e+09,-193010,-0.00411875,0.333258,-0,0.333284,554.752,-45032.5,0,45035.9,193010
step02_gravity_refstate-intrusion.xmf,181,-2.62905e-06,1.36139e-05,0,-6.69891e-06,-1.2085e+09,-1.2067e+09,-1.20821e+09,-741863,-0.00592222,0.348922,-0,0.348972,2046.57,-43406.1,0,43454.3,741863
step02_gravity_refstate-intrusion.xmf,182,-4.40211e-06,1.80644e-05,0,-5.51032e-06,-1.2259e+09,-1.22341e+09,-1.22541e+09,-610235,-0.00806504,0.346136,-0,0.346229,1737.12,-43943.3,0,43977.6,610235
step02_gravity_refstate-intrusion.xmf,183,1.46947e-06,2.62405e-06,0,-1.39576e-05,-1.15575e+09,-1.15562e+09,-1.15591e+09,-1.54572e+06,0.00970796,0.317056,0,0.317204,3503.7,-41775.5,0,41922.2,1.54572e+06
step02_gravity_refstate-intrusion.xmf,184,-4.86032e-07,8.35372e-06,0,-1.09692e-05,-1.18837e+09,-1.18739e+09,-1.18831e+09,-1.21477e+06,-0.0020006,0.3327,-0,0.332706,2927.75,-42784.7,0,42884.7,1.21477e+06
step02_gravity_refstate-intrusion.xmf,185,6.99795e-07,5.23327e-06,0,-1.23308e-05,-1.17206e+09,-1.17156e+09,-1.17214e+09,-1.36556e+06,0.00337184,0.327359,0,0.327376,3183.84,-42280.9,0,42400.6,1.36556e+06
step02_gravity_refstate-intrusion.xmf,186,-8.15889e-06,3.12242e-05,0,-8.53194e-07,-1.27673e+09,-1.27237e+09,-1.27583e+09,-94486.1,-0.0021645,0.319859,-0,0.319866,265.313,-45521.2,0,45521.9,94486.1
step02_gravity_refstate-intrusion.xmf,187,-6.08326e-06,2.25673e-05,0,-4.56346e-06,-1.24337e+09,-1.24019e+09,-1.24269e+09,-505375,-0.00888377,0.339503,-0,0.339619,1439.79,-44483.2,0,44506.5,505375
step02_gravity_refstate-intrusion.xmf,188,-7.41315e-06,2.75031e-05,0,-3.63707e-06,-1.26274e+09,-1.25887e+09,-1.26192e+09,-402783,-0.00850625,0.327784,-0,0.327894,1136.49,-45085,0,45099.3,402783
step02_gravity_refstate-intrusion.xmf,189,-2.14253e-06,1.23846e-05,0,-9.82045e-06,-1.20728e+09,-1.20567e+09,-1.20704e+09,-1.08756e+06,-0.00721641,0.333126,-0,0.333205,2716.25,-43368.4,0,43453.4,1.08756e+06
step02_gravity_refstate-intrusion.xmf,190,-8.11582e-06,3.10514e-05,0,-2.53695e-06,-1.27705e+09,-1.27271e+09,-1.27615e+09,-280952,-0.00628838,0.317528,-0,0.31759,771.371,-45530.8,0,45537.3,280952
step02_gravity_refstate-intrusion.xmf,191,-5.55937e-06,2.11833e-05,0,-6.65895e-06,-1.24194e+09,-1.23897e+09,-1.24132e+09,-737438,-0.0121773,0.331067,-0,0.331291,2042.62,-44439,0,44485.9,737438
step02_gravity_refstate-intrusion.xmf,192,-7.06024e-06,2.58957e-05,0,-5.67427e-06,-1.25963e+09,-1.25598e+09,-1.25885e+09,-628391,-0.0126085,0.323138,-0,0.323384,1742.04,-44987.4,0,45021.2,628391
step02_gravity_refstate-intrusion.xmf,193,-3.9281e-06,1.69293e-05,0,-7.98113e-06,-1.22547e+09,-1.22316e+09,-1.22504e+09,-883862,-0.010579,0.334167,-0,0.334335,2358.82,-43930.2,0,43993.5,883862
step02_gravity_refstate-intrusion.xmf,194,-1.20284e-06,1.00577e-05,0,-1.25133e-05,-1.19976e+09,-1.19851e+09,-1.19963e+09,-1.38577e+06,-0.00577805,0.321046,-0,0.321098,3177.65,-43136.3,0,43253.1,1.38577e+06
step02_gravity_refstate-intrusion.xmf,195,-3.14506e-07,7.62745e-06,0,-1.45946e-05,-1.18719e+09,-1.18631e+09,-1.18716e+09,-1.61627e+06,-0.00183979,0.312209,-0,0.312214,3501.01,-42747.7,0,42890.8,1.61627e+06
step02_gravity_refstate-intrusion.xmf,196,4.73982e-07,5.13982e-06,0,-1.54605e-05,-1.17147e+09,-1.17095e+09,-1.17152e+09,-1.71215e+06,0.00387695,0.309539,0,0.309563,3638.77,-42261.1,0,42417.5,1.71215e+06
step02_gravity_refstate-intrusion.xmf,197,-8.19872e-06,3.14177e-05,0,-3.84565e-06,-1.28024e+09,-1.27586e+09,-1.27933e+09,-425882,-0.00939539,0.311708,-0,0.311849,1141.4,-45629.8,0,45644.1,425882
step02_gravity_refstate-intrusion.xmf,198,-6.29224e-06,2.37143e-05,0,-7.83705e-06,-1.25566e+09,-1.25234e+09,-1.25496e+09,-867906,-0.0161311,0.315543,-0,0.315955,2347.2,-44864.3,0,44925.7,867906
step02_gravity_refstate-intrusion.xmf,199,-2.03439e-06,1.23169e-05,0,-1.22771e-05,-1.21152e+09,-1.20993e+09,-1.21129e+09,-1.35961e+06,-0.00933364,0.317826,-0,0.317963,3153.26,-43499.7,0,43613.9,1.35961e+06
step02_gravity_refstate-intrusion.xmf,200,-7.84006e-06,2.96933e-05,0,-4.86458e-06,-1.27445e+09,-1.2703e+09,-1.27359e+09,-538723,-0.0117028,0.313954,-0,0.314172,1463.11,-45449.3,0,45472.8,538723
step02_gravity_refstate-intrusion.xmf,201,-7.16599e-06,2.68235e-05,0,-7.05982e-06,-1.26708e+09,-1.26331e+09,-1.26628e+09,-781833,-0.0160315,0.311011,-0,0.311424,2116.05,-45218.9,0,45268.4,781833
step02_gravity_refstate-intrusion.xmf,202,-4.90735e-06,1.95983e-05,0,-9.07839e-06,-1.24149e+09,-1.23877e+09,-1.24095e+09,-1.00538e+06,-0.015176,0.31859,-0,0.318951,2630.76,-44425.3,0,44503.2,1.00538e+06
step02_gravity_refstate-intrusion.xmf,203,-3.28319e-06,1.54582e-05,0,-1.10842e-05,-1.22603e+09,-1.22396e+09,-1.22567e+09,-1.22751e+06,-0.0129774,0.317006,-0,0.317271,2987.98,-43948,0,44049.5,1.22751e+06
step02_gravity_refstate-intrusion.xmf,204,-1.17615e-06,1.01581e-05,0,-1.51624e-05,-1.20406e+09,-1.2028e+09,-1.20393e+09,-1.67914e+06,-0.00765291,0.304517,-0,0.304613,3575.37,-43269.5,0,43416.9,1.67914e+06
step02_gravity_refstate-intrusion.xmf,205,-7.86209e-06,2.96926e-05,0,-6.25362e-06,-1.2774e+09,-1.27324e+09,-1.27653e+09,-692551,-0.0149171,0.306177,-0,0.30654,1852.03,-45540.1,0,45577.7,692551
step02_gravity_refstate-intrusion.xmf,206,-6.62026e-06,2.516e-05,0,-9.02963e-06,-1.26663e+09,-1.26311e+09,-1.2659e+09,-999977,-0.0196328,0.300811,-0,0.301451,2645.77,-45204.4,0,45281.8,999977
step02_gravity_refstate-intrusion.xmf,207,-5.40479e-06,2.15724e-05,0,-1.02585e-05,-1.25499e+09,-1.252e+09,-1.25439e+09,-1.13607e+06,-0.019447,0.30213,-0,0.302755,2932.89,-44843.9,0,44939.7,1.13607e+06
step02_gravity_refstate-intrusion.xmf,208,-1.97556e-06,1.2624e-05,0,-1.46896e-05,-1.21931e+09,-1.21769e+09,-1.21909e+09,-1.62679e+06,-0.0124967,0.300527,-0,0.300787,3541.12,-43741.5,0,43884.6,1.62679e+06
step02_gravity_refstate-intrusion.xmf,209,-7.52381e-06,2.89229e-05,0,-7.94718e-06,-1.27904e+09,-1.275e+09,-1.27821e+09,-880102,-0.0185962,0.297018,-0,0.297599,2318.61,-45590.9,0,45649.9,880102
step02_gravity_refstate-intrusion.xmf,210,-4.16423e-06,1.82124e-05,0,-1.14681e-05,-1.24213e+09,-1.23966e+09,-1.24167e+09,-1.27002e+06,-0.0175032,0.304809,-0,0.305311,3112.71,-44446.4,0,44555.3,1.27002e+06
step02_gravity_refstate-intrusion.xmf,211,-2.83224e-06,1.51532e-05,0,-1.4238e-05,-1.2352e+09,-1.2332e+09,-1.23488e+09,-1.57677e+06,-0.0171531,0.294128,-0,0.294628,3530.13,-44232.9,0,44373.6,1.57677e+06
step02_gravity_refstate-intrusion.xmf,212,-7.01013e-06,2.72106e-05,0,-9.83467e-06,-1.27922e+09,-1.27543e+09,-1.27845e+09,-1.08913e+06,-0.0223141,0.286441,-0,0.287309,2828.92,-45595.7,0,45683.4,1.08913e+06
step02_gravity_refstate-intrusion.xmf,213,-5.63711e-06,2.27175e-05,0,-1.12478e-05,-1.26638e+09,-1.26324e+09,-1.26576e+09,-1.24562e+06,-0.0228779,0.287578,-0,0.288486,3178.67,-45197.1,0,45308.7,1.24562e+06
step02_gravity_refstate-intrusion.xmf,214,-3.9082e-06,1.83851e-05,0,-1.31681e-05,-1.25293e+09,-1.25046e+09,-1.2525e+09,-1.45829e+06,-0.0215827,0.286678,-0,0.287489,3481.79,-44781.8,0,44917,1.45829e+06
step02_gravity_refstate-intrusion.xmf,215,-6.24792e-06,2.50524e-05,0,-1.14987e-05,-1.27956e+09,-1.27609e+09,-1.27887e+09,-1.27342e+06,-0.0253465,0.275007,-0,0.276173,3282.12,-45605.7,0,45723.6,1.27342e+06
step02_gravity_refstate-intrusion.xmf,216,-4.48066e-06,2.04451e-05,0,-1.32426e-05,-1.26861e+09,-1.26585e+09,-1.26812e+09,-1.46654e+06,-0.0254179,0.27332,-0,0.274499,3599.15,-45267.5,0,45410.4,1.46654e+06
step02_gravity_refstate-intrusion.xmf,217,-5.44622e-06,2.32404e-05,0,-1.28281e-05,-1.28052e+09,-1.27734e+09,-1.27992e+09,-1.42064e+06,-0.0274798,0.264258,-0,0.265682,3635.73,-45635.9,0,45780.5,1.42064e+06
step02_gravity_refstate-crust.xmf,0,4.6059e-07,4.78136e-06,0,-2.80472e-08,-1.09847e+09,-1.09817e+09,-1.0985e+09,-1924.04,0.00103796,0.044337,0,0.0443492,-37792.8,-40000,-0,55030,1924.04
step02_gravity_refstate-crust.xmf,1,4.7986e-07,4.75477e-06,0,-3.32925e-09,-1.09846e+09,-1.09817e+09,-1.0985e+09,-228.386,7.2368e-20,0.0440663,0,0.0440663,-40000,-40000,-0,56568.5,228.386
step02_gravity_refstate-crust.xmf,2,4.09051e-07,4.84483e-06,0,-4.71268e-08,-1.09847e+09,-1.09816e+09,-1.0985e+09,-3232.9,0.00195316,0.0451117,0,0.0451539,-35691.6,-40000,-0,53608.7,3232.9
step02_gravity_refstate-crust.xmf,3,2.24983e-07,5.0685e-06,0,-5.14407e-08,-1.09848e+09,-1.09815e+09,-1.09849e+09,-3528.83,0.00322275,0.0480339,0,0.0481419,-31786.7,-40000,-0,51092,3528.83
step02_gravity_refstate-crust.xmf,4,3.30589e-07,4.93857e-06,0,-5.11966e-08,-1.09847e+09,-1.09816e+09,-1.0985e+09,-3512.09,0.00269296,0.0463505,0,0.0464287,-33691.1,-40000,-0,52298.1,3512.09
step02_gravity_refstate-crust.xmf,5,9.80363e-08,5.21892e-06,0,-3.07704e-08,-1.09849e+09,-1.09814e+09,-1.09849e+09,-2110.85,0.00351828,0.050155,0,0.0502783,-29973.6,-40000,-0,49984.2,2110.85
step02_gravity_refstate-crust.xmf,6,-4.49354e-08,5.38718e-06,0,9.24343e-09,-1.0985e+09,-1.09812e+09,-1.09849e+09,634.099,0.00356494,0.0527156,0,0.052836,-28247.5,-40000,-0,48968.6,634.099
step02_gravity_refstate-crust.xmf,7,-3.80525e-07,5.76538e-06,0,1.54238e-07,-1.09852e+09,-1.0981e+09,-1.09849e+09,10580.7,0.00290306,0.0591831,0,0.0592542,-25039.7,-40000,-0,47191,10580.7
step02_gravity_refstate-crust.xmf,8,-2.04133e-07,5.56298e-06,0,7.39998e-08,-1.09851e+09,-1.09811e+09,-1.09849e+09,5076.39,0.00336029,0.0557215,0,0.0558228,-26604.2,-40000,-0,48039.4,5076.39
step02_gravity_refstate-crust.xmf,9,-5.65758e-07,5.96508e-06,0,2.65151e-07,-1.09853e+09,-1.09808e+09,-1.09849e+09,18189.4,0.0022006,0.0631113,0,0.0631497,-23550.3,-40000,-0,46417.8,18189.4
step02_gravity_refstate-crust.xmf,10,-7.60102e-07,6.16905e-06,0,4.01004e-07,-1.09854e+09,-1.09807e+09,-1.09849e+09,27508.9,0.00126313,0.0675182,0,0.06753,-22132.3,-40000,-0,45714.8,27508.9
step02_gravity_refstate-crust.xmf,11,-9.61322e-07,6.37173e-06,0,5.67952e-07,-1.09856e+09,-1.09805e+09,-1.09849e+09,38961.5,0.000103413,0.0724154,0,0.0724154,-20782.4,-40000,-0,45076.7,38961.5
step02_gravity_refstate-crust.xmf,12,-1.16906e-06,6.57232e-06,0,7.64328e-07,-1.09857e+09,-1.09804e+09,-1.09849e+09,52432.9,-0.00126297,0.0778138,-0,0.0778241,-19497.2,-40000,-0,44498.8,52432.9
step02_gravity_refstate-crust.xmf,13,-1.38069e-06,6.7659e-06,0,9.96677e-07,-1.09859e+09,-1.09803e+09,-1.09849e+09,68372,-0.00282013,0.0837244,-0,0.0837719,-18273.7,-40000,-0,43976.5,68372
step02_gravity_refstate-crust.xmf,14,-1.59599e-06,6.95026e-06,0,1.26266e-06,-1.0986e+09,-1.09802e+09,-1.09849e+09,86618.8,-0.00455058,0.0901572,-0,0.090272,-17108.9,-40000,-0,43505.3,86618.8
step02_gravity_refstate-crust.xmf,15,-1.81205e-06,7.12341e-06,0,1.56792e-06,-1.09862e+09,-1.09801e+09,-1.09849e+09,107559,-0.00643748,0.0971226,-0,0.0973357,-15999.9,-40000,-0,43081.3,107559
step02_gravity_refstate-crust.xmf,16,-2.87914e-06,7.63199e-06,0,3.85916e-06,-1.09872e+09,-1.09799e+09,-1.09852e+09,264738,-0.0176031,0.14033,-0,0.14143,-11203.7,-40000,-0,41539.4,264738
step02_gravity_refstate-crust.xmf,17,-2.66791e-06,7.56722e-06,0,3.28773e-06,-1.09869e+09,-1.09799e+09,-1.09851e+09,225538,-0.0151979,0.130525,-0,0.131407,-12071.1,-40000,-0,41781.7,225538
step02_gravity_refstate-crust.xmf,18,-3.06925e-06,7.61614e-06,0,4.51959e-06,-1.09874e+09,-1.098e+09,-1.09853e+09,310044,-0.0200551,0.150752,-0,0.15208,-10377.9,-40000,-0,41324.3,310044
step02_gravity_refstate-crust.xmf,19,-3.23656e-06,7.53111e-06,0,5.27299e-06,-1.09876e+09,-1.09802e+09,-1.09854e+09,361727,-0.02253,0.161814,-0,0.163375,-9591.69,-40000,-0,41133.9,361727
step02_gravity_refstate-crust.xmf,20,-3.3681e-06,7.35531e-06,0,6.13337e-06,-1.09878e+09,-1.09805e+09,-1.09855e+09,420749,-0.0249983,0.173542,-0,0.175333,-8843.14,-40000,-0,40965.9,420749
step02_gravity_refstate-crust.xmf,21,-3.44526e-06,7.05882e-06,0,7.11515e-06,-1.0988e+09,-1.09808e+09,-1.09857e+09,488100,-0.0274227,0.185964,-0,0.187975,-8130.43,-40000,-0,40817.9,488100
step02_gravity_refstate-crust.xmf,22,-2.45643e-06,7.4941e-06,0,2.77568e-06,-1.09867e+09,-1.09799e+09,-1.09851e+09,190412,-0.0128604,0.121318,-0,0.121998,-12982.1,-40000,-0,42054,190412
step02_gravity_refstate-crust.xmf,23,-2.0303e-06,7.2775e-06,0,1.9192e-06,-1.09864e+09,-1.098e+09,-1.0985e+09,131657,-0.00846271,0.10463,-0,0.104972,-14944.2,-40000,-0,42700.4,131657
step02_gravity_refstate-crust.xmf,24,-2.24126e-06,7.38863e-06,0,2.32455e-06,-1.09865e+09,-1.09799e+09,-1.0985e+09,159464,-0.0106095,0.112691,-0,0.113189,-13939,-40000,-0,42359.1,159464
step02_gravity_refstate-crust.xmf,25,-3.01151e-06,4.93854e-06,0,1.0942e-05,-1.09884e+09,-1.0983e+09,-1.09864e+09,750622,-0.0338759,0.227678,-0,0.230184,-6190.26,-40000,-0,40476.2,750622
step02_gravity_refstate-crust.xmf,26,-3.30063e-06,5.85185e-06,0,9.5062e-06,-1.09884e+09,-1.09821e+09,-1.09861e+09,652125,-0.0319331,0.213006,-0,0.215387,-6805.63,-40000,-0,40574.8,652125
step02_gravity_refstate-crust.xmf,27,-3.43894e-06,6.59738e-06,0,8.23596e-06,-1.09882e+09,-1.09813e+09,-1.09859e+09,564987,-0.0297556,0.199109,-0,0.20132,-7451.82,-40000,-0,40688.2,564987
step02_gravity_refstate-crust.xmf,28,-2.45556e-06,3.54884e-06,0,1.25507e-05,-1.09884e+09,-1.09843e+09,-1.09867e+09,860980,-0.0354751,0.243141,-0,0.245715,-5604.1,-40000,-0,40390.7,860980
step02_gravity_refstate-crust.xmf,29,-1.53068e-06,1.57897e-06,0,1.43366e-05,-1.09882e+09,-1.09861e+09,-1.09872e+09,983488,-0.0365849,0.2594,-0,0.261967,-5045.52,-40000,-0,40317,983488
step02_gravity_refstate-crust.xmf,30,2.57626e-08,-1.38923e-06,0,1.63501e-05,-1.09878e+09,-1.09887e+09,-1.09878e+09,1.12162e+06,-0.0369948,0.276458,-0,0.278922,-4512.49,-40000,-0,40253.7,1.12162e+06
step02_gravity_refstate-crust.xmf,31,4.2155e-06,-7.11248e-06,0,1.88687e-05,-1.09855e+09,-1.09933e+09,-1.09884e+09,1.29439e+06,-0.0362279,0.294325,-0,0.296546,-4000,-40000,-0,40199.5,1.29439e+06
step02_gravity_refstate-crust.xmf,32,2.97974e-06,-5.69807e-06,0,-1.79292e-05,-1.09863e+09,-1.09923e+09,-1.09884e+09,-1.22995e+06,0.0362255,0.294327,0,0.296548,4000,-40000,0,40199.5,1.22995e+06
step02_gravity_refstate-crust.xmf,33,-7.92097e-09,-1.28364e-06,0,-1.62206e-05,-1.09878e+09,-1.09886e+09,-1.09877e+09,-1.11273e+06,0.0369952,0.276458,0,0.278922,4512.49,-40000,0,40253.7,1.11273e+06
step02_gravity_refstate-crust.xmf,34,-1.52002e-06,1.53948e-06,0,-1.42901e-05,-1.09882e+09,-1.09861e+09,-1.09872e+09,-980299,0.0365852,0.2594,0,0.261967,5045.52,-40000,0,40317,980299
step02_gravity_refstate-crust.xmf,35,-2.44483e-06,3.48895e-06,0,-1.25282e-05,-1.09884e+09,-1.09844e+09,-1.09868e+09,-859437,0.0354749,0.243141,0,0.245715,5604.1,-40000,0,40390.7,859437
step02_gravity_refstate-crust.xmf,36,-2.99971e-06,4.87307e-06,0,-1.09343e-05,-1.09885e+09,-1.09831e+09,-1.09864e+09,-750093,0.0338759,0.227678,0,0.230184,6190.26,-40000,0,40476.2,750093
step02_gravity_refstate-crust.xmf,37,4.79879e-07,4.75472e-06,0,3.34952e-09,-1.09846e+09,-1.09817e+09,-1.0985e+09,229.777,-2.32007e-20,0.0440664,-0,0.0440664,40000,-40000,0,56568.5,229.777
step02_gravity_refstate-crust.xmf,38,4.60716e-07,4.78051e-06,0,2.81453e-08,-1.09847e+09,-1.09817e+09,-1.0985e+09,1930.77,-0.00103791,0.044337,-0,0.0443491,37792.8,-40000,0,55030,1930.77
step02_gravity_refstate-crust.xmf,39,-3.30088e-06,5.85284e-06,0,-9.50682e-06,-1.09884e+09,-1.09821e+09,-1.09861e+09,-652168,0.0319331,0.213006,0,0.215387,6805.63,-40000,0,40574.8,652168
step02_gravity_refstate-crust.xmf,40,4.09134e-07,4.84315e-06,0,4.62795e-08,-1.09847e+09,-1.09816e+09,-1.0985e+09,3174.77,-0.00195303,0.0451118,-0,0.045154,35691.6,-40000,0,53608.7,3174.77
step02_gravity_refstate-crust.xmf,41,-3.43114e-06,6.53925e-06,0,-8.2412e-06,-1.09882e+09,-1.09814e+09,-1.09859e+09,-565346,0.0297556,0.199109,0,0.201321,7451.82,-40000,0,40688.2,565346
step02_gravity_refstate-crust.xmf,42,3.29501e-07,4.94247e-06,0,5.59015e-08,-1.09847e+09,-1.09816e+09,-1.0985e+09,3834.84,-0.00269316,0.0463505,-0,0.0464287,33691.1,-40000,0,52298.1,3834.84
step02_gravity_refstate-crust.xmf,43,-3.43629e-06,7.00548e-06,0,-7.12424e-06,-1.0988e+09,-1.09809e+09,-1.09857e+09,-488723,0.0274228,0.185964,0,0.187975,8130.43,-40000,0,40817.9,488723
step02_gravity_refstate-crust.xmf,44,-3.35849e-06,7.30754e-06,0,-6.14475e-06,-1.09878e+09,-1.09805e+09,-1.09855e+09,-421530,0.0249984,0.173542,0,0.175333,8843.14,-40000,0,40965.9,421530
step02_gravity_refstate-crust.xmf,45,2.24728e-07,5.06959e-06,0,5.20722e-08,-1.09848e+09,-1.09815e+09,-1.09849e+09,3572.15,-0.00322294,0.0480338,-0,0.0481418,31786.7,-40000,0,51092,3572.15
step02_gravity_refstate-crust.xmf,46,-3.22675e-06,7.48848e-06,0,-5.28444e-06,-1.09876e+09,-1.09803e+09,-1.09854e+09,-362512,0.02253,0.161814,0,0.163375,9591.69,-40000,0,41133.9,362512
step02_gravity_refstate-crust.xmf,47,9.83157e-08,5.21812e-06,0,3.03608e-08,-1.09849e+09,-1.09814e+09,-1.09849e+09,2082.75,-0.00351809,0.050155,-0,0.0502783,29973.6,-40000,0,49984.2,2082.75
step02_gravity_refstate-crust.xmf,48,-3.06037e-06,7.57779e-06,0,-4.5314e-06,-1.09874e+09,-1.09801e+09,-1.09853e+09,-310854,0.0200554,0.150752,0,0.15208,10377.9,-40000,0,41324.3,310854
step02_gravity_refstate-crust.xmf,49,-2.87086e-06,7.59881e-06,0,-3.86875e-06,-1.09872e+09,-1.098e+09,-1.09852e+09,-265396,0.0176029,0.14033,0,0.14143,11203.7,-40000,0,41539.4,265396
step02_gravity_refstate-crust.xmf,50,-4.48335e-08,5.38677e-06,0,-9.32507e-09,-1.0985e+09,-1.09812e+09,-1.09849e+09,-639.7,-0.00356492,0.0527155,-0,0.0528359,28247.5,-40000,0,48968.6,639.7
step02_gravity_refstate-crust.xmf,51,-2.66841e-06,7.56735e-06,0,-3.28853e-06,-1.09869e+09,-1.09799e+09,-1.09851e+09,-225593,0.0151982,0.130525,0,0.131407,12071.1,-40000,0,41781.7,225593
step02_gravity_refstate-crust.xmf,52,-2.06716e-07,5.5715e-06,0,-6.94389e-08,-1.09851e+09,-1.09811e+09,-1.09849e+09,-4763.51,-0.00336038,0.0557214,-0,0.0558226,26604.2,-40000,0,48039.4,4763.51
step02_gravity_refstate-crust.xmf,53,-3.80366e-07,5.76511e-06,0,-1.54279e-07,-1.09852e+09,-1.0981e+09,-1.09849e+09,-10583.5,-0.00290298,0.0591831,-0,0.0592542,25039.7,-40000,0,47191,10583.5
step02_gravity_refstate-crust.xmf,54,-2.45694e-06,7.49404e-06,0,-2.77546e-06,-1.09867e+09,-1.09799e+09,-1.09851e+09,-190396,0.0128605,0.121318,0,0.121998,12982.1,-40000,0,42054,190396
step02_gravity_refstate-crust.xmf,55,-2.24162e-06,7.38831e-06,0,-2.32475e-06,-1.09865e+09,-1.09799e+09,-1.0985e+09,-159478,0.0106095,0.112691,0,0.113189,13939,-40000,0,42359.1,159478
step02_gravity_refstate-crust.xmf,56,-2.02441e-06,7.25655e-06,0,-1.92705e-06,-1.09864e+09,-1.098e+09,-1.0985e+09,-132196,0.00846257,0.10463,0,0.104972,14944.2,-40000,0,42700.4,132196
step02_gravity_refstate-crust.xmf,57,-5.65811e-07,5.96608e-06,0,-2.63941e-07,-1.09853e+09,-1.09808e+09,-1.09849e+09,-18106.4,-0.00220063,0.0631113,-0,0.0631497,23550.3,-40000,0,46417.8,18106.4
step02_gravity_refstate-crust.xmf,58,-1.80717e-06,7.10396e-06,0,-1.57799e-06,-1.09862e+09,-1.09801e+09,-1.09849e+09,-108250,0.00643757,0.0971227,0,0.0973358,15999.9,-40000,0,43081.3,108250
step02_gravity_refstate-crust.xmf,59,-7.6014e-07,6.17036e-06,0,-4.00644e-07,-1.09854e+09,-1.09807e+09,-1.09849e+09,-27484.2,-0.0012631,0.0675181,-0,0.0675299,22132.3,-40000,0,45714.8,27484.2
step02_gravity_refstate-crust.xmf,60,-9.61762e-07,6.3746e-06,0,-5.66476e-07,-1.09856e+09,-1.09805e+09,-1.09849e+09,-38860.3,-0.000103555,0.0724152,-0,0.0724153,20782.4,-40000,0,45076.7,38860.3
step02_gravity_refstate-crust.xmf,61,-1.16898e-06,6.5739e-06,0,-7.65051e-07,-1.09857e+09,-1.09804e+09,-1.09849e+09,-52482.5,0.00126305,0.0778137,0,0.077824,19497.2,-40000,0,44498.8,52482.5
step02_gravity_refstate-crust.xmf,62,-1.38085e-06,6.76665e-06,0,-9.9655e-07,-1.09859e+09,-1.09803e+09,-1.09849e+09,-68363.3,0.00282009,0.0837243,0,0.0837718,18273.7,-40000,0,43976.5,68363.3
step02_gravity_refstate-crust.xmf,63,-1.59598e-06,6.95118e-06,0,-1.26298e-06,-1.0986e+09,-1.09802e+09,-1.09849e+09,-86640.5,0.0045506,0.0901572,0,0.090272,17108.9,-40000,0,43505.3,86640.5
step02_gravity_refstate-crust.xmf,64,-1.81488e-06,6.86097e-07,0,-6.40656e-09,-172511,-943.245,-48009.5,-439.49,-6.67987e-19,0.156914,-0,0.156914,-40000,0,-0,40000,439.49
step02_gravity_refstate-crust.xmf,65,-1.49825e-06,7.70348e-07,0,5.6814e-08,-5.94281e+07,-5.92725e+07,-5.93253e+07,3897.44,-0.00323384,0.155748,-0,0.155781,-37854.5,-2158.67,-0,37916,3897.44
step02_gravity_refstate-crust.xmf,66,-1.79665e-06,6.82082e-07,0,-6.9849e-09,-170655,-614.091,-47404.9,-479.164,-0.00565631,0.157741,-0,0.157842,-36899.5,0,-0,36899.5,479.164
step02_gravity_refstate-crust.xmf,67,-1.39847e-06,8.16528e-07,0,-2.61582e-09,-8.31997e+07,-8.30477e+07,-8.31037e+07,-179.445,-5.53842e-19,0.154636,-0,0.154636,-40000,-3024.57,-0,40114.2,179.445
step02_gravity_refstate-crust.xmf,68,-1.36014e-06,7.81733e-07,0,1.58497e-07,-7.88053e+07,-7.86584e+07,-7.8712e+07,10872.9,-0.00639967,0.156649,-0,0.156779,-35431.4,-2864.69,-0,35547,10872.9
step02_gravity_refstate-crust.xmf,69,-1.23399e-06,9.19817e-07,0,1.06945e-07,-1.24774e+08,-1.24627e+08,-1.2469e+08,7336.4,-0.00273752,0.153756,-0,0.15378,-37804,-4538.96,-0,38075.6,7336.4
step02_gravity_refstate-crust.xmf,70,-1.08658e-06,1.02988e-06,0,2.50991e-07,-1.63977e+08,-1.63832e+08,-1.63903e+08,17218,-0.00478731,0.153607,-0,0.153681,-35726.1,-5966.96,-0,36220.9,17218
step02_gravity_refstate-crust.xmf,71,-1.08467e-06,9.14034e-07,0,3.44777e-07,-1.38547e+08,-1.3841e+08,-1.38473e+08,23651.7,-0.00769739,0.156852,-0,0.15704,-33393.4,-5040.97,-0,33771.8,23651.7
step02_gravity_refstate-crust.xmf,72,-1.67608e-06,6.35251e-07,0,-6.98298e-10,-159247,-690.224,-44268.4,-47.9033,-0.0108761,0.160084,-0,0.160453,-33894,0,-0,33894,47.9033
step02_gravity_refstate-crust.xmf,73,-1.13394e-06,1.04799e-06,0,-1.67783e-09,-1.63416e+08,-1.63266e+08,-1.63338e+08,-115.099,-4.58609e-19,0.151915,-0,0.151915,-40000,-5946.36,-0,40439.6,115.099
step02_gravity_refstate-crust.xmf,74,-9.22975e-07,1.20011e-06,0,4.48291e-07,-2.14824e+08,-2.14678e+08,-2.1476e+08,30752.8,-0.00629116,0.153584,-0,0.153713,-33669.4,-7818.99,-0,34565.4,30752.8
step02_gravity_refstate-crust.xmf,75,-1.03852e-06,1.17554e-06,0,1.49803e-07,-1.99827e+08,-1.99675e+08,-1.99756e+08,10276.5,-0.00229634,0.15089,-0,0.150907,-37812.2,-7272.53,-0,38505.2,10276.5
step02_gravity_refstate-crust.xmf,76,-9.25296e-07,1.03574e-06,0,5.09931e-07,-1.80365e+08,-1.8023e+08,-1.80301e+08,34981.3,-0.00847346,0.157441,-0,0.157669,-31844.7,-6564.22,-0,32514.2,34981.3
step02_gravity_refstate-crust.xmf,77,-1.26378e-06,7.06607e-07,0,2.22462e-07,-6.83974e+07,-6.82623e+07,-6.83107e+07,15260.9,-0.0106919,0.16023,-0,0.160587,-32361.2,-2486.06,-0,32456.6,15260.9
step02_gravity_refstate-crust.xmf,78,-8.2012e-07,1.24083e-06,0,6.6564e-07,-2.34336e+08,-2.34195e+08,-2.3428e+08,45662.9,-0.00836495,0.156458,-0,0.156682,-31046,-8529.85,-0,32196.4,45662.9
step02_gravity_refstate-crust.xmf,79,-9.58613e-07,1.26859e-06,0,3.08973e-07,-2.26178e+08,-2.26025e+08,-2.26112e+08,21195.5,-0.0041839,0.150958,-0,0.151016,-35780.2,-8232.32,-0,36715,21195.5
step02_gravity_refstate-crust.xmf,80,-8.24657e-07,1.48671e-06,0,6.24096e-07,-2.83508e+08,-2.8335e+08,-2.83452e+08,42813,-0.00667158,0.1517,-0,0.151847,-32545.2,-10320.4,-0,34142.4,42813
step02_gravity_refstate-crust.xmf,81,-9.90275e-07,8.32818e-07,0,4.40405e-07,-1.2763e+08,-1.27505e+08,-1.27562e+08,30211.8,-0.0106076,0.160813,-0,0.161163,-30831.7,-4643.77,-0,31179.5,30211.8
step02_gravity_refstate-crust.xmf,82,-1.4767e-06,5.59932e-07,0,1.23837e-10,-140294,-580.888,-38992.2,8.49522,-0.0154853,0.163738,-0,0.164469,-30975.9,0,-0,30975.9,8.49522
step02_gravity_refstate-crust.xmf,83,-8.07024e-07,1.00598e-06,0,6.6237e-07,-1.85527e+08,-1.85403e+08,-1.85472e+08,45438.6,-0.0104246,0.161224,-0,0.16156,-29480.9,-6752.61,-0,30244.4,45438.6
step02_gravity_refstate-crust.xmf,84,-6.83756e-07,1.25002e-06,0,9.0968e-07,-2.52231e+08,-2.52098e+08,-2.52184e+08,62404.1,-0.0103442,0.161204,-0,0.161535,-28121.5,-9181.89,-0,29582.5,62404.1
step02_gravity_refstate-crust.xmf,85,-7.46455e-07,1.47887e-06,0,8.34548e-07,-2.91139e+08,-2.90986e+08,-2.91088e+08,57250,-0.00857008,0.155348,-0,0.155584,-30079.2,-10598.5,-0,31891.8,57250
step02_gravity_refstate-crust.xmf,86,-6.82297e-07,1.50523e-06,0,9.94653e-07,-3.04869e+08,-3.04719e+08,-3.04823e+08,68233.2,-0.00973544,0.158129,-0,0.158428,-28323.7,-11098.6,-0,30420.6,68233.2
step02_gravity_refstate-crust.xmf,87,-7.17712e-07,1.75035e-06,0,9.92896e-07,-3.49712e+08,-3.49543e+08,-3.49663e+08,68112.6,-0.00892128,0.153597,-0,0.153856,-29214.9,-12731.4,-0,31868.5,68112.6
step02_gravity_refstate-crust.xmf,88,-9.78484e-07,1.34694e-06,0,-1.52333e-09,-2.41022e+08,-2.40863e+08,-2.40955e+08,-104.5,-4.45596e-19,0.148533,-0,0.148533,-40000,-8772.79,-0,40950.7,104.5
step02_gravity_refstate-crust.xmf,89,-8.80281e-07,1.49582e-06,0,4.26388e-07,-2.79407e+08,-2.79244e+08,-2.79347e+08,29250.2,-0.00468184,0.149081,-0,0.149155,-34890.5,-10170.8,-0,36342.7,29250.2
step02_gravity_refstate-crust.xmf,90,-9.14567e-07,1.51133e-06,0,2.02256e-07,-2.79458e+08,-2.79292e+08,-2.79396e+08,13874.7,-0.00225313,0.147105,-0,0.147122,-37572.1,-10172.6,-0,38924.8,13874.7
step02_gravity_refstate-crust.xmf,91,-1.08905e-06,6.29947e-07,0,2.86295e-07,-6.55919e+07,-6.5474e+07,-6.55172e+07,19639.8,-0.0140874,0.1646,-0,0.165201,-29564.5,-2384.51,-0,29660.5,19639.8
step02_gravity_refstate-crust.xmf,92,-6.53328e-07,1.72661e-06,0,1.16994e-06,-3.55188e+08,-3.55025e+08,-3.55144e+08,80258,-0.0102687,0.157631,-0,0.157965,-27238.5,-12931,-0,30152,80258
step02_gravity_refstate-crust.xmf,93,-7.79802e-07,1.76281e-06,0,7.85912e-07,-3.43452e+08,-3.43277e+08,-3.43398e+08,53913.5,-0.00724512,0.14982,-0,0.149995,-31465.8,-12503.3,-0,33858.9,53913.5
step02_gravity_refstate-crust.xmf,94,-8.29119e-07,1.76978e-06,0,5.6893e-07,-3.38688e+08,-3.38509e+08,-3.38631e+08,39028.6,-0.00535973,0.146747,-0,0.146845,-33815.4,-12329.7,-0,35993.1,39028.6
step02_gravity_refstate-crust.xmf,95,-8.22197e-07,7.65511e-07,0,5.5756e-07,-1.28004e+08,-1.27895e+08,-1.27947e+08,38248.6,-0.0130141,0.165639,-0,0.166149,-28163.6,-4657.96,-0,28546.2,38248.6
step02_gravity_refstate-crust.xmf,96,-1.21424e-06,4.60183e-07,0,1.85734e-09,-115368,-503.066,-32071.6,127.414,-0.0193167,0.168467,-0,0.169571,-28137.7,0,-0,28137.7,127.414
step02_gravity_refstate-crust.xmf,97,-5.95926e-07,1.44868e-06,0,1.1403e-06,-3.04774e+08,-3.04634e+08,-3.04733e+08,78224.6,-0.0109636,0.162552,-0,0.162921,-26402.5,-11095.4,-0,28639.1,78224.6
step02_gravity_refstate-crust.xmf,98,-6.46809e-07,9.49556e-07,0,8.22924e-07,-1.89883e+08,-1.89774e+08,-1.89839e+08,56452.6,-0.0122726,0.166582,-0,0.167033,-26810.4,-6911.74,-0,27687,56452.6
step02_gravity_refstate-crust.xmf,99,-7.14152e-07,2.02276e-06,0,1.15184e-06,-4.05894e+08,-4.05706e+08,-4.05845e+08,79016,-0.0095939,0.151886,-0,0.152189,-28221.8,-14777.2,-0,31856.5,79016
step02_gravity_refstate-crust.xmf,100,-7.67684e-07,2.04994e-06,0,9.38825e-07,-4.01733e+08,-4.01539e+08,-4.0168e+08,64403.4,-0.00795615,0.147623,-0,0.147837,-30421.4,-14625.5,-0,33754.5,64403.4
step02_gravity_refstate-crust.xmf,101,-8.96086e-07,1.68817e-06,0,-6.60873e-10,-3.16215e+08,-3.16038e+08,-3.16153e+08,-45.3359,-3.82172e-19,0.144377,-0,0.144377,-40000,-11511.1,-0,41623.4,45.3359
step02_gravity_refstate-crust.xmf,102,-8.66663e-07,1.74464e-06,0,3.76139e-07,-3.29905e+08,-3.29726e+08,-3.29846e+08,25803.2,-0.00363177,0.145209,-0,0.145255,-35878.3,-12009.7,-0,37835,25803.2
step02_gravity_refstate-crust.xmf,103,-8.54464e-07,5.37894e-07,0,3.49589e-07,-6.52278e+07,-6.51322e+07,-6.51691e+07,23981.8,-0.0168064,0.169971,-0,0.1708,-26784,-2372.06,-0,26888.8,23981.8
step02_gravity_refstate-crust.xmf,104,-5.38141e-07,1.15685e-06,0,1.07269e-06,-2.49953e+08,-2.49837e+08,-2.49916e+08,73586.4,-0.01199,0.167437,-0,0.167865,-25474.8,-9099.41,-0,27051.2,73586.4
step02_gravity_refstate-crust.xmf,105,-5.63224e-07,1.66359e-06,0,1.34183e-06,-3.57312e+08,-3.57159e+08,-3.57273e+08,92049.7,-0.0115285,0.162746,-0,0.163154,-25164.7,-13008.6,-0,28328.1,92049.7
step02_gravity_refstate-crust.xmf,106,-6.48357e-07,1.96672e-06,0,1.35251e-06,-4.0857e+08,-4.08391e+08,-4.08525e+08,92782.2,-0.0110456,0.156875,-0,0.157263,-26103.3,-14874.8,-0,30044,92782.2
step02_gravity_refstate-crust.xmf,107,-7.31772e-07,2.29227e-06,0,1.3151e-06,-4.60271e+08,-4.60064e+08,-4.60221e+08,90215.7,-0.0105327,0.150281,-0,0.15065,-27108.7,-16757.2,-0,31869.9,90215.7
step02_gravity_refstate-crust.xmf,108,-6.61459e-07,2.20492e-06,0,1.51954e-06,-4.58856e+08,-4.5866e+08,-4.58811e+08,104240,-0.0120037,0.156115,-0,0.156575,-24987.8,-16705.9,-0,30057.8,104240
step02_gravity_refstate-crust.xmf,109,-8.07765e-07,2.06006e-06,0,7.12256e-07,-3.97204e+08,-3.97008e+08,-3.97149e+08,48860.7,-0.00613461,0.144117,-0,0.144247,-32729,-14460.5,-0,35781.2,48860.7
step02_gravity_refstate-crust.xmf,110,-8.65853e-07,1.88385e-06,0,2.10459e-07,-3.56486e+08,-3.56298e+08,-3.56427e+08,14437.5,-0.00195022,0.142256,-0,0.142269,-37764.7,-12977.6,-0,39932.3,14437.5
step02_gravity_refstate-crust.xmf,111,-8.43076e-07,2.07249e-06,0,4.56381e-07,-3.95361e+08,-3.95161e+08,-3.95303e+08,31307.8,-0.00396281,0.141118,-0,0.141173,-35358.8,-14393.3,-0,38176.1,31307.8
step02_gravity_refstate-crust.xmf,112,-6.1228e-07,6.82e-07,0,6.65652e-07,-1.29057e+08,-1.28969e+08,-1.29015e+08,45663.7,-0.0149153,0.171488,-0,0.172136,-25462.1,-4697.04,-0,25891.7,45663.7
step02_gravity_refstate-crust.xmf,113,-8.9694e-07,3.3956e-07,0,4.15629e-09,-85236.6,-412.648,-23706.5,285.121,-0.0222525,0.174026,-0,0.175443,-25371.6,0,-0,25371.6,285.121
step02_gravity_refstate-crust.xmf,114,-4.77913e-07,1.37319e-06,0,1.29595e-06,-3.06391e+08,-3.06264e+08,-3.06358e+08,88902.3,-0.0121322,0.168128,-0,0.168566,-24209.8,-11154.7,-0,26656,88902.3
step02_gravity_refstate-crust.xmf,115,-4.63732e-07,8.68583e-07,0,9.5427e-07,-1.91853e+08,-1.91761e+08,-1.91821e+08,65462.9,-0.013662,0.172725,-0,0.173265,-24227.7,-6984.06,-0,25214.2,65462.9
step02_gravity_refstate-crust.xmf,116,-5.56902e-07,1.87576e-06,0,1.53292e-06,-4.09024e+08,-4.08857e+08,-4.08985e+08,105158,-0.0123026,0.162612,-0,0.163077,-24020.7,-14891.6,-0,28262.2,105158
step02_gravity_refstate-crust.xmf,117,-7.53968e-07,2.53465e-06,0,1.47082e-06,-5.08704e+08,-5.08478e+08,-5.08652e+08,100898,-0.0116308,0.149129,-0,0.149582,-25938.8,-18520.7,-0,31872.2,100898
step02_gravity_refstate-crust.xmf,118,-7.78689e-07,2.34038e-06,0,1.0848e-06,-4.58179e+08,-4.57966e+08,-4.58126e+08,74417.1,-0.00882355,0.145232,-0,0.145499,-29361.5,-16681,-0,33769.1,74417.1
step02_gravity_refstate-crust.xmf,119,-8.10151e-07,2.35778e-06,0,8.54133e-07,-4.5465e+08,-4.54433e+08,-4.54595e+08,58593.5,-0.00703556,0.141264,-0,0.14144,-31603.4,-16552.4,-0,35675.7,58593.5
step02_gravity_refstate-crust.xmf,120,-8.60975e-07,2.05383e-06,0,-3.81601e-10,-3.89187e+08,-3.88987e+08,-3.89128e+08,-26.1778,-3.63318e-19,0.139405,-0,0.139405,-40000,-14168.4,-0,42435.2,26.1778
step02_gravity_refstate-crust.xmf,121,-5.79898e-07,4.3452e-07,0,4.08613e-07,-6.61732e+07,-6.61036e+07,-6.61334e+07,28030.8,-0.0186863,0.176008,-0,0.176998,-24091.4,-2407.43,-0,24211.4,28030.8
step02_gravity_refstate-crust.xmf,122,-3.80845e-07,1.07076e-06,0,1.20821e-06,-2.51899e+08,-2.51799e+08,-2.51873e+08,82883.3,-0.0130623,0.173609,-0,0.1741,-23089.6,-9170.75,-0,24844.1,82883.3
step02_gravity_refstate-crust.xmf,123,-5.6758e-07,2.09226e-06,0,1.70861e-06,-4.58596e+08,-4.58414e+08,-4.58557e+08,117210,-0.0132697,0.162364,-0,0.162905,-22924.2,-16696.6,-0,28360.1,117210
step02_gravity_refstate-crust.xmf,124,-4.48519e-07,1.57313e-06,0,1.50206e-06,-3.59295e+08,-3.59156e+08,-3.59264e+08,103041,-0.0126112,0.168636,-0,0.169107,-23028.9,-13081.1,-0,26484.8,103041
step02_gravity_refstate-crust.xmf,125,-8.11403e-07,2.65497e-06,0,1.23763e-06,-5.1768e+08,-5.17442e+08,-5.17625e+08,84901.1,-0.00991711,0.1425,-0,0.142844,-28171.7,-18847.5,-0,33895,84901.1
step02_gravity_refstate-crust.xmf,126,-6.8168e-07,2.4219e-06,0,1.68494e-06,-5.06273e+08,-5.0606e+08,-5.06226e+08,115587,-0.0131131,0.155502,-0,0.156054,-23860.7,-18432.4,-0,30151.1,115587
step02_gravity_refstate-crust.xmf,127,-8.29266e-07,2.36177e-06,0,6.3396e-07,-4.51384e+08,-4.51165e+08,-4.51327e+08,43489.6,-0.00527248,0.138367,-0,0.138468,-33750.9,-16433.4,-0,37539.1,43489.6
step02_gravity_refstate-crust.xmf,128,-8.48434e-07,2.25168e-06,0,2.18989e-07,-4.27535e+08,-4.27322e+08,-4.27476e+08,15022.7,-0.00186418,0.136884,-0,0.136897,-37813.1,-15564.9,-0,40891.3,15022.7
step02_gravity_refstate-crust.xmf,129,-3.80333e-07,5.9755e-07,0,7.64474e-07,-1.32861e+08,-1.32794e+08,-1.32835e+08,52442.9,-0.0160443,0.17771,-0,0.178433,-22899.5,-4836.33,-0,23404.7,52442.9
step02_gravity_refstate-crust.xmf,130,-5.34929e-07,2.02284e-07,0,7.17451e-09,-50844.1,-271.314,-14148,492.171,-0.0242064,0.180163,-0,0.181782,-22669.8,0,-0,22669.8,492.171
step02_gravity_refstate-crust.xmf,131,-3.36545e-07,1.27341e-06,0,1.43034e-06,-3.07941e+08,-3.0783e+08,-3.07918e+08,98121.7,-0.0130256,0.174309,-0,0.174795,-22000.9,-11211.5,-0,24692.8,98121.7
step02_gravity_refstate-crust.xmf,132,-2.67844e-07,7.917e-07,0,1.07042e-06,-1.97722e+08,-1.97649e+08,-1.97703e+08,73430.8,-0.014419,0.179023,-0,0.179602,-21790.9,-7198.4,-0,22949.1,73430.8
step02_gravity_refstate-crust.xmf,133,-4.41658e-07,1.75779e-06,0,1.69465e-06,-4.09858e+08,-4.09707e+08,-4.09828e+08,116253,-0.0133396,0.168847,-0,0.169373,-21954.6,-14922.2,-0,26545.8,116253
step02_gravity_refstate-crust.xmf,134,-8.31265e-07,2.84471e-06,0,1.40391e-06,-5.55644e+08,-5.55392e+08,-5.55587e+08,96308.5,-0.0112343,0.142379,-0,0.142821,-26724.1,-20229.8,-0,33517.5,96308.5
step02_gravity_refstate-crust.xmf,135,-7.89622e-07,2.75827e-06,0,1.62372e-06,-5.53497e+08,-5.53254e+08,-5.53443e+08,111387,-0.0128018,0.148203,-0,0.148755,-24779.7,-20151.7,-0,31939.4,111387
step02_gravity_refstate-crust.xmf,136,-8.30882e-07,2.66188e-06,0,9.81614e-07,-5.11234e+08,-5.10994e+08,-5.11177e+08,67338.7,-0.00796588,0.138029,-0,0.138258,-30534.3,-18612.7,-0,35760,67338.7
step02_gravity_refstate-crust.xmf,137,-8.44571e-07,2.4643e-06,0,4.19721e-07,-4.68325e+08,-4.68098e+08,-4.68267e+08,28792.9,-0.00348405,0.134625,-0,0.13467,-35884.2,-17050.2,-0,39728.9,28792.9
step02_gravity_refstate-crust.xmf,138,-8.39531e-07,2.65126e-06,0,7.56324e-07,-5.05571e+08,-5.05332e+08,-5.05514e+08,51883.8,-0.00618988,0.134935,-0,0.135077,-32659.5,-18406.5,-0,37489.2,51883.8
step02_gravity_refstate-crust.xmf,139,-8.48921e-07,2.42689e-06,0,1.75711e-11,-4.60129e+08,-4.59905e+08,-4.60071e+08,1.20538,-3.33822e-19,0.133618,-0,0.133618,-40000,-16751.8,-0,43366.1,1.20538
step02_gravity_refstate-crust.xmf,140,-5.86126e-07,2.28157e-06,0,1.8811e-06,-5.04529e+08,-5.04333e+08,-5.04489e+08,129044,-0.0143765,0.162264,-0,0.1629,-21846,-18369.1,-0,28542.4,129044
step02_gravity_refstate-crust.xmf,141,-7.13444e-07,2.62434e-06,0,1.84987e-06,-5.5079e+08,-5.50561e+08,-5.50741e+08,126901,-0.0143241,0.155101,-0,0.155761,-22733.4,-20053.2,-0,30314,126901
step02_gravity_refstate-crust.xmf,142,-2.73625e-07,3.28029e-07,0,4.74728e-07,-7.0216e+07,-7.01747e+07,-7.01972e+07,32566.3,-0.0195807,0.182524,-0,0.183571,-21444.1,-2555.68,-0,21595.9,32566.3
step02_gravity_refstate-crust.xmf,143,-2.23457e-07,9.92376e-07,0,1.3187e-06,-2.57546e+08,-2.57462e+08,-2.57531e+08,90462.9,-0.0136454,0.179458,-0,0.179976,-20950.4,-9376.85,-0,22953.1,90462.9
step02_gravity_refstate-crust.xmf,144,-4.466e-07,1.94587e-06,0,1.87233e-06,-4.58115e+08,-4.57951e+08,-4.58085e+08,128442,-0.0142802,0.168984,-0,0.169587,-20921.6,-16679.4,-0,26756.6,128442
step02_gravity_refstate-crust.xmf,145,-3.11985e-07,1.4502e-06,0,1.63028e-06,-3.59473e+08,-3.59352e+08,-3.59451e+08,111838,-0.0134016,0.174946,-0,0.175458,-20951.5,-13087.9,-0,24703.5,111838
step02_gravity_refstate-crust.xmf,146,-8.50192e-07,2.90798e-06,0,1.25666e-06,-5.60907e+08,-5.60649e+08,-5.60849e+08,86207,-0.0101528,0.138468,-0,0.13884,-28028.5,-20421.4,-0,34679,86207
step02_gravity_refstate-crust.xmf,147,-8.44356e-07,2.65181e-06,0,5.72064e-07,-5.03826e+08,-5.03586e+08,-5.03768e+08,39243.6,-0.00471019,0.132773,-0,0.132856,-34420.8,-18343,-0,39003.3,39243.6
step02_gravity_refstate-crust.xmf,148,-8.44536e-07,2.62665e-06,0,2.07051e-07,-4.97758e+08,-4.97519e+08,-4.977e+08,14203.7,-0.0017157,0.130579,-0,0.13059,-37970.7,-18122,-0,42073.5,14203.7
step02_gravity_refstate-crust.xmf,149,-6.09952e-07,2.4525e-06,0,2.05321e-06,-5.47862e+08,-5.47652e+08,-5.4782e+08,140850,-0.0155844,0.162329,-0,0.163075,-20782.5,-19946.8,-0,28806,140850
step02_gravity_refstate-crust.xmf,150,-1.40431e-07,5.30525e-07,0,8.74063e-07,-1.43709e+08,-1.43663e+08,-1.43699e+08,59960.7,-0.0162776,0.184024,-0,0.184742,-20445.2,-5232.12,-0,21104,59960.7
step02_gravity_refstate-crust.xmf,151,-1.40948e-07,5.35003e-08,0,1.15171e-08,-13388.4,-49.219,-3719.34,790.074,-0.0251232,0.186618,-0,0.188301,-20024.7,0,-0,20024.7,790.074
step02_gravity_refstate-crust.xmf,152,-1.88497e-07,1.16121e-06,0,1.52598e-06,-3.09188e+08,-3.09095e+08,-3.09175e+08,104682,-0.0135514,0.180326,-0,0.180835,-19984.7,-11257.3,-0,22937.2,104682
step02_gravity_refstate-crust.xmf,153,-8.8923e-08,7.46254e-07,0,1.18896e-06,-2.12436e+08,-2.12379e+08,-2.1243e+08,81562.6,-0.014497,0.18463,-0,0.185199,-19660.4,-7734.73,-0,21127.2,81562.6
step02_gravity_refstate-crust.xmf,154,-2.98344e-07,1.60216e-06,0,1.82598e-06,-4.09521e+08,-4.09391e+08,-4.09501e+08,125262,-0.0140929,0.175534,-0,0.176098,-19910.9,-14910.3,-0,24874.9,125262
step02_gravity_refstate-crust.xmf,155,-8.66695e-07,2.9773e-06,0,1.09151e-06,-5.68367e+08,-5.68104e+08,-5.68308e+08,74877.7,-0.00888831,0.134241,-0,0.134535,-29516.9,-20693.1,-0,36047.9,74877.7
step02_gravity_refstate-crust.xmf,156,-7.43323e-07,2.7916e-06,0,2.03131e-06,-5.91283e+08,-5.9104e+08,-5.91232e+08,139348,-0.015681,0.155573,-0,0.156361,-21485.3,-21527.6,-0,30414.7,139348
step02_gravity_refstate-crust.xmf,157,-8.90383e-07,3.13826e-06,0,1.2902e-06,-6.00024e+08,-5.99748e+08,-5.99963e+08,88507.9,-0.0105368,0.135081,-0,0.135491,-27662.2,-21845.7,-0,35248.1,88507.9
step02_gravity_refstate-crust.xmf,158,-8.77443e-07,3.07878e-06,0,1.51275e-06,-5.98051e+08,-5.9778e+08,-5.97991e+08,103774,-0.0121757,0.14041,-0,0.140937,-25800.1,-21773.9,-0,33760.1,103774
step02_gravity_refstate-crust.xmf,159,-8.47441e-07,3.0033e-06,0,1.77152e-06,-6.00791e+08,-6.00527e+08,-6.00733e+08,121527,-0.0139993,0.146708,-0,0.147375,-23699.1,-21873.6,-0,32250.6,121527
step02_gravity_refstate-crust.xmf,160,-8.60011e-07,2.9577e-06,0,8.43852e-07,-5.61344e+08,-5.61083e+08,-5.61285e+08,57888.3,-0.00693456,0.130633,-0,0.130816,-31788.1,-20437.4,-0,37791.1,57888.3
step02_gravity_refstate-crust.xmf,161,-8.46539e-07,2.85774e-06,0,4.07946e-07,-5.41175e+08,-5.4092e+08,-5.41116e+08,27985.1,-0.00337012,0.127474,-0,0.127519,-35994.8,-19703,-0,41034.6,27985.1
step02_gravity_refstate-crust.xmf,162,-8.52877e-07,2.91694e-06,0,6.31169e-07,-5.52675e+08,-5.52417e+08,-5.52617e+08,43298.2,-0.00520938,0.128555,-0,0.12866,-33814.8,-20121.8,-0,39348.7,43298.2
step02_gravity_refstate-crust.xmf,163,-8.42236e-07,2.79516e-06,0,3.47685e-10,-5.29229e+08,-5.2898e+08,-5.29172e+08,23.8512,-3.04604e-19,0.127048,-0,0.127048,-40000,-19268,-0,44398.8,23.8512
step02_gravity_refstate-crust.xmf,164,-4.5672e-07,2.10561e-06,0,2.05039e-06,-5.03652e+08,-5.03477e+08,-5.03621e+08,140657,-0.0153763,0.16922,-0,0.169917,-19905.9,-18337.4,-0,27064.8,140657
step02_gravity_refstate-crust.xmf,165,6.31188e-08,2.35337e-07,0,5.62776e-07,-8.1454e+07,-8.14422e+07,-8.14583e+07,38606.4,-0.0192202,0.189891,-0,0.190862,-18599.8,-2966.03,-0,18834.8,38606.4
step02_gravity_refstate-crust.xmf,166,-9.12812e-08,9.33701e-07,0,1.39874e-06,-2.65383e+08,-2.65312e+08,-2.65377e+08,95953.4,-0.0138429,0.184262,-0,0.184781,-19236.8,-9662.6,-0,21527.2,95953.4
step02_gravity_refstate-crust.xmf,167,-2.95734e-07,1.7642e-06,0,2.00608e-06,-4.58051e+08,-4.57909e+08,-4.5803e+08,137617,-0.015012,0.175886,-0,0.176525,-18949.7,-16677.3,-0,25243.3,137617
step02_gravity_refstate-crust.xmf,168,-1.52804e-07,1.29172e-06,0,1.71381e-06,-3.56512e+08,-3.56413e+08,-3.56502e+08,117568,-0.0138537,0.181538,-0,0.182065,-18935.4,-12980.6,-0,22957.4,117568
step02_gravity_refstate-crust.xmf,169,-6.42507e-07,2.61473e-06,0,2.22659e-06,-5.89712e+08,-5.89489e+08,-5.89668e+08,152744,-0.0168455,0.16235,-0,0.163222,-19778,-21470.5,-0,29191.6,152744
step02_gravity_refstate-crust.xmf,170,-8.38008e-07,2.97696e-06,0,1.87806e-07,-5.63557e+08,-5.63295e+08,-5.63499e+08,12883.5,-0.00156318,0.123803,-0,0.123812,-38130.2,-20518.1,-0,43300.2,12883.5
step02_gravity_refstate-crust.xmf,171,-4.73731e-07,2.2523e-06,0,2.22811e-06,-5.47202e+08,-5.47015e+08,-5.4717e+08,152848,-0.0165691,0.169419,-0,0.170228,-18946.1,-19923,-0,27493.3,152848
step02_gravity_refstate-crust.xmf,172,7.20734e-08,5.04592e-07,0,1.01635e-06,-1.66725e+08,-1.66695e+08,-1.6673e+08,69721.7,-0.0156023,0.189827,-0,0.190467,-18207.7,-6070.86,-0,19193.1,69721.7
step02_gravity_refstate-crust.xmf,173,2.63852e-07,-1.0104e-07,0,1.25231e-08,25024.9,-6.65539,6924.7,859.084,-0.0249814,0.193127,-0,0.194736,-17428.6,0,-0,17428.6,859.084
step02_gravity_refstate-crust.xmf,174,-2.56859e-08,1.01432e-06,0,1.56713e-06,-3.04775e+08,-3.04704e+08,-3.04774e+08,107505,-0.0137576,0.18642,-0,0.186927,-18079.8,-11097.1,-0,21213.8,107505
step02_gravity_refstate-crust.xmf,175,7.90475e-08,7.4657e-07,0,1.34932e-06,-2.42969e+08,-2.42923e+08,-2.42974e+08,92563.3,-0.0140594,0.190125,-0,0.190644,-17508.7,-8846.99,-0,19616.9,92563.3
step02_gravity_refstate-crust.xmf,176,-1.14089e-07,1.39786e-06,0,1.92136e-06,-4.08429e+08,-4.08325e+08,-4.08421e+08,131806,-0.0145252,0.182921,-0,0.183496,-17762.5,-14871,-0,23165.8,131806
step02_gravity_refstate-crust.xmf,177,-8.00392e-07,2.97703e-06,0,2.1808e-06,-6.30779e+08,-6.30519e+08,-6.30724e+08,149603,-0.0168364,0.154919,-0,0.155831,-20586.5,-22965.5,-0,30841.8,149603
step02_gravity_refstate-crust.xmf,178,-8.85363e-07,3.26647e-06,0,9.23339e-07,-6.16838e+08,-6.16553e+08,-6.16777e+08,63341,-0.00770699,0.126053,-0,0.126289,-30836.2,-22458.1,-0,38147.5,63341
step02_gravity_refstate-crust.xmf,179,-8.7004e-07,3.13443e-06,0,1.96002e-06,-6.33303e+08,-6.33029e+08,-6.33244e+08,134458,-0.0154716,0.148202,-0,0.149008,-22247,-23057.4,-0,32040.2,134458
step02_gravity_refstate-crust.xmf,180,-9.09283e-07,3.34323e-06,0,1.12081e-06,-6.31552e+08,-6.3126e+08,-6.3149e+08,76887.2,-0.00934679,0.12819,-0,0.12853,-28969.8,-22993.8,-0,36986,76887.2
step02_gravity_refstate-crust.xmf,181,-9.28524e-07,3.35024e-06,0,1.3567e-06,-6.36765e+08,-6.36472e+08,-6.36701e+08,93069.5,-0.0111905,0.13262,-0,0.133092,-26950.6,-23183.5,-0,35550.1,93069.5
step02_gravity_refstate-crust.xmf,182,-9.3269e-07,3.32078e-06,0,1.58796e-06,-6.39623e+08,-6.39332e+08,-6.39559e+08,108934,-0.0129171,0.13771,-0,0.138314,-25093.2,-23287.5,-0,34234.2,108934
step02_gravity_refstate-crust.xmf,183,-8.64607e-07,3.22642e-06,0,7.09893e-07,-6.09434e+08,-6.09153e+08,-6.09374e+08,48698.7,-0.00595107,0.123505,-0,0.123649,-32870,-22188.5,-0,39658.1,48698.7
step02_gravity_refstate-crust.xmf,184,-8.47949e-07,3.1913e-06,0,5.00249e-07,-6.03536e+08,-6.03259e+08,-6.03478e+08,34317.1,-0.00420429,0.1216,-0,0.121672,-34934.2,-21973.9,-0,41270.4,34317.1
step02_gravity_refstate-crust.xmf,185,-8.26219e-07,3.14823e-06,0,7.74293e-10,-5.96673e+08,-5.964e+08,-5.96616e+08,53.1165,-2.8588e-19,0.11975,-0,0.11975,-40000,-21724,-0,45518.5,53.1165
step02_gravity_refstate-crust.xmf,186,-8.35457e-07,3.16469e-06,0,3.17182e-07,-5.99303e+08,-5.99028e+08,-5.99245e+08,21758.7,-0.00266415,0.120516,-0,0.120545,-36778.8,-21819.7,-0,42764.3,21758.7
step02_gravity_refstate-crust.xmf,187,-3.00525e-07,1.90238e-06,0,2.18871e-06,-5.0449e+08,-5.04338e+08,-5.04469e+08,150145,-0.0160942,0.176125,-0,0.176859,-18050.3,-18368.2,-0,25752.7,150145
step02_gravity_refstate-crust.xmf,188,-1.37308e-07,1.5851e-06,0,2.10981e-06,-4.62527e+08,-4.62409e+08,-4.62518e+08,144733,-0.0154765,0.182139,-0,0.182796,-17158.2,-16840.7,-0,24041.8,144733
step02_gravity_refstate-crust.xmf,189,-8.66118e-07,3.17163e-06,0,2.32619e-06,-6.69484e+08,-6.69207e+08,-6.69425e+08,159577,-0.017971,0.154106,-0,0.15515,-19746.9,-24374.7,-0,31369.8,159577
step02_gravity_refstate-crust.xmf,190,-6.91262e-07,2.78048e-06,0,2.39644e-06,-6.30297e+08,-6.30059e+08,-6.3025e+08,164396,-0.0180769,0.161966,-0,0.162972,-18914.7,-22948.1,-0,29738.6,164396
step02_gravity_refstate-crust.xmf,191,-9.39163e-07,3.36893e-06,0,2.46805e-06,-7.06555e+08,-7.06259e+08,-7.0649e+08,169308,-0.0190426,0.153201,-0,0.15438,-18970.3,-25724.3,-0,31962.6,169308
step02_gravity_refstate-crust.xmf,192,-7.60187e-07,2.96818e-06,0,2.5503e-06,-6.69274e+08,-6.69018e+08,-6.69222e+08,174951,-0.0192168,0.161046,-0,0.162189,-18211.5,-24367.1,-0,30420.6,174951
step02_gravity_refstate-crust.xmf,193,-5.00016e-07,2.3935e-06,0,2.41034e-06,-5.89671e+08,-5.89473e+08,-5.89637e+08,165349,-0.0178327,0.169502,-0,0.170437,-18050.3,-21469.2,-0,28048.9,165349
step02_gravity_refstate-crust.xmf,194,2.73053e-07,2.84719e-07,0,8.22951e-07,-1.26718e+08,-1.26717e+08,-1.26737e+08,56454.4,-0.0166847,0.195119,-0,0.195831,-16513,-4614.83,-0,17145.7,56454.4
step02_gravity_refstate-crust.xmf,195,3.98672e-07,3.97903e-08,0,4.53416e-07,-6.20099e+07,-6.20345e+07,-6.20373e+07,31104.3,-0.0197773,0.196793,-0,0.197784,-16025.4,-2259.21,-0,16183.9,31104.3
step02_gravity_refstate-crust.xmf,196,3.23006e-08,1.08334e-06,0,1.72827e-06,-3.45532e+08,-3.4546e+08,-3.45534e+08,118559,-0.0138977,0.188405,-0,0.188917,-16972.2,-12581.3,-0,21126.8,118559
step02_gravity_refstate-crust.xmf,197,-9.38771e-07,3.33913e-06,0,2.08608e-06,-6.71028e+08,-6.70735e+08,-6.70964e+08,143105,-0.0165097,0.147099,-0,0.148022,-21381,-24430.8,-0,32465.6,143105
step02_gravity_refstate-crust.xmf,198,-1.01457e-06,3.54878e-06,0,2.21225e-06,-7.08014e+08,-7.07701e+08,-7.07944e+08,151760,-0.0175285,0.146016,-0,0.147065,-20526.4,-25777.3,-0,32951.6,151760
step02_gravity_refstate-crust.xmf,199,-9.23618e-07,3.28685e-06,0,1.77777e-06,-6.43792e+08,-6.43503e+08,-6.43728e+08,121955,-0.0142996,0.142071,-0,0.142789,-23615,-23439.2,-0,33272.6,121955
step02_gravity_refstate-crust.xmf,200,-8.13404e-07,3.32051e-06,0,1.72257e-07,-6.30306e+08,-6.30023e+08,-6.3025e+08,11816.8,-0.00146093,0.116123,-0,0.116132,-38198.9,-22948.8,-0,44562.3,11816.8
step02_gravity_refstate-crust.xmf,201,-1.53446e-09,1.33528e-06,0,2.01706e-06,-4.2706e+08,-4.26968e+08,-4.2706e+08,138370,-0.0148914,0.186946,-0,0.187538,-16350.5,-15549.6,-0,22563.9,138370
step02_gravity_refstate-crust.xmf,202,-3.08784e-07,2.02298e-06,0,2.37123e-06,-5.48024e+08,-5.47864e+08,-5.48003e+08,162667,-0.0172683,0.176388,-0,0.177231,-17203,-19953.2,-0,26345.3,162667
step02_gravity_refstate-crust.xmf,203,-8.39542e-07,3.15396e-06,0,2.70632e-06,-7.06057e+08,-7.05783e+08,-7.06e+08,185654,-0.0203108,0.160185,-0,0.161468,-17541.2,-25706.2,-0,31120.8,185654
step02_gravity_refstate-crust.xmf,204,2.43867e-07,4.78299e-07,0,1.12965e-06,-1.89979e+08,-1.89962e+08,-1.89995e+08,77494.1,-0.0147018,0.194998,-0,0.195551,-16239.8,-6918.09,-0,17651.9,77494.1
step02_gravity_refstate-crust.xmf,205,6.74581e-07,-2.55485e-07,0,1.06073e-08,64101.3,298.683,17825,727.66,-0.0238007,0.19944,-0,0.200855,-14873.9,0,-0,14873.9,727.66
step02_gravity_refstate-crust.xmf,206,1.5292e-07,8.41105e-07,0,1.55604e-06,-2.95954e+08,-2.95907e+08,-2.95965e+08,106744,-0.0136362,0.192619,-0,0.193101,-16186.6,-10776.4,-0,19445.8,106744
step02_gravity_refstate-crust.xmf,207,8.61337e-08,1.13232e-06,0,1.89342e-06,-3.89388e+08,-3.89316e+08,-3.89393e+08,129889,-0.0142926,0.190083,-0,0.190619,-15935.2,-14178.1,-0,21329.6,129889
step02_gravity_refstate-crust.xmf,208,-1.02651e-06,3.5655e-06,0,2.62145e-06,-7.42253e+08,-7.41938e+08,-7.42183e+08,179832,-0.0201035,0.15254,-0,0.153859,-18180.7,-27023.8,-0,32570.3,179832
step02_gravity_refstate-crust.xmf,209,-8.76316e-07,3.52044e-06,0,7.73412e-07,-6.63153e+08,-6.62852e+08,-6.63093e+08,53056.1,-0.0066231,0.118433,-0,0.118618,-31899.2,-24144.7,-0,40006.6,53056.1
step02_gravity_refstate-crust.xmf,210,-1.09419e-06,3.75098e-06,0,2.34381e-06,-7.42914e+08,-7.42582e+08,-7.42839e+08,160785,-0.0185167,0.145204,-0,0.14638,-19673.7,-27047.9,-0,33446.2,160785
step02_gravity_refstate-crust.xmf,211,-9.11902e-07,3.56019e-06,0,9.77795e-07,-6.68708e+08,-6.68402e+08,-6.68646e+08,67076.8,-0.00833341,0.121379,-0,0.121665,-29946.9,-24346.8,-0,38595.1,67076.8
step02_gravity_refstate-crust.xmf,212,-9.80217e-07,3.47935e-06,0,1.85985e-06,-6.76415e+08,-6.76109e+08,-6.76348e+08,127586,-0.0150433,0.140488,-0,0.141292,-22930.8,-24627,-0,33649.8,127586
step02_gravity_refstate-crust.xmf,213,-9.48579e-07,3.58715e-06,0,1.19544e-06,-6.73546e+08,-6.73234e+08,-6.73481e+08,82006.9,-0.0101028,0.125193,-0,0.1256,-28012.1,-24522.8,-0,37229.6,82006.9
step02_gravity_refstate-crust.xmf,214,-9.79081e-07,3.59472e-06,0,1.41942e-06,-6.77792e+08,-6.77479e+08,-6.77725e+08,97372.4,-0.0118594,0.129652,-0,0.130194,-26166.2,-24677.3,-0,35967.2,97372.4
step02_gravity_refstate-crust.xmf,215,-9.95098e-07,3.57128e-06,0,1.64484e-06,-6.80486e+08,-6.80173e+08,-6.80418e+08,112836,-0.0135472,0.134671,-0,0.135351,-24446.5,-24775.3,-0,34805.9,112836
step02_gravity_refstate-crust.xmf,216,-8.43177e-07,3.48551e-06,0,5.71982e-07,-6.59192e+08,-6.58895e+08,-6.59134e+08,39238,-0.00491522,0.116001,-0,0.116105,-33915.6,-24000.5,-0,41548.7,39238
step02_gravity_refstate-crust.xmf,217,-8.12117e-07,3.48402e-06,0,3.55082e-07,-6.61396e+08,-6.61101e+08,-6.6134e+08,24358.6,-0.00305453,0.113444,-0,0.113485,-36164.2,-24080.9,-0,43448.1,24358.6
step02_gravity_refstate-crust.xmf,218,-7.8925e-07,3.47753e-06,0,1.23297e-09,-6.62644e+08,-6.62351e+08,-6.6259e+08,84.582,-2.8501e-19,0.111791,-0,0.111791,-40000,-24126.4,-0,46712.8,84.582
step02_gravity_refstate-crust.xmf,219,-1.29194e-07,1.68828e-06,0,2.29057e-06,-5.07446e+08,-5.07322e+08,-5.07437e+08,157133,-0.0165215,0.18254,-0,0.183286,-16354,-18476.2,-0,24674.3,157133
step02_gravity_refstate-crust.xmf,220,2.81559e-08,1.39978e-06,0,2.17645e-06,-4.67957e+08,-4.67863e+08,-4.67959e+08,149304,-0.015674,0.187816,-0,0.188468,-15556.6,-17038.7,-0,23072.2,149304
step02_gravity_refstate-crust.xmf,221,-7.01976e-07,2.90112e-06,0,2.92174e-06,-7.06e+08,-7.05753e+08,-7.05952e+08,200431,-0.021336,0.167051,-0,0.168408,-16208.6,-25704.3,-0,30388,200431
step02_gravity_refstate-crust.xmf,222,-9.18137e-07,3.33407e-06,0,2.88025e-06,-7.41729e+08,-7.41438e+08,-7.41666e+08,197585,-0.0214387,0.159778,-0,0.16121,-16810.4,-27004.8,-0,31809.6,197585
step02_gravity_refstate-crust.xmf,223,-6.36019e-07,2.75747e-06,0,2.7414e-06,-6.70528e+08,-6.70295e+08,-6.70484e+08,188060,-0.0201781,0.167355,-0,0.168567,-16865.6,-24412.9,-0,29672.2,188060
step02_gravity_refstate-crust.xmf,224,-5.49633e-07,2.54958e-06,0,2.58938e-06,-6.30979e+08,-6.30767e+08,-6.30941e+08,177632,-0.0190718,0.168951,-0,0.170024,-17333.9,-22973.2,-0,28779,177632
step02_gravity_refstate-crust.xmf,225,-3.21124e-07,2.13204e-06,0,2.56459e-06,-5.9038e+08,-5.90211e+08,-5.90357e+08,175931,-0.018535,0.176704,-0,0.177673,-16380.9,-21495.4,-0,27025.6,175931
step02_gravity_refstate-crust.xmf,226,2.80012e-07,6.09884e-07,0,1.35341e-06,-2.44499e+08,-2.44477e+08,-2.44519e+08,92843.7,-0.0136501,0.196592,-0,0.197066,-15312.8,-8903.32,-0,17713,92843.7
step02_gravity_refstate-crust.xmf,227,4.02191e-07,2.94998e-07,0,9.54557e-07,-1.54222e+08,-1.54229e+08,-1.54249e+08,65482.6,-0.0152179,0.198952,-0,0.199533,-15000.7,-5616.68,-0,16017.7,65482.6
step02_gravity_refstate-crust.xmf,228,5.0099e-07,1.29324e-07,0,7.13103e-07,-1.0723e+08,-1.07256e+08,-1.07264e+08,48918.8,-0.0167816,0.200204,-0,0.200906,-14666,-3906.04,-0,15177.2,48918.8
step02_gravity_refstate-crust.xmf,229,7.21135e-07,-1.0168e-07,0,4.08238e-07,-5.68922e+07,-5.69486e+07,-5.69416e+07,28005.1,-0.0187251,0.202925,-0,0.203787,-13596.3,-2073.98,-0,13753.6,28005.1
step02_gravity_refstate-crust.xmf,230,2.16338e-07,8.99917e-07,0,1.72051e-06,-3.4203e+08,-3.41983e+08,-3.42045e+08,118027,-0.0136369,0.194617,-0,0.195094,-15090.4,-12454.2,-0,19566,118027
step02_gravity_refstate-crust.xmf,231,1.60793e-07,1.15725e-06,0,2.04025e-06,-4.29398e+08,-4.2933e+08,-4.29409e+08,139961,-0.0148132,0.192257,-0,0.192827,-14827.5,-15635.1,-0,21547.9,139961
step02_gravity_refstate-crust.xmf,232,-7.56264e-07,3.02009e-06,0,3.11228e-06,-7.37301e+08,-7.37042e+08,-7.37249e+08,213502,-0.0224581,0.16749,-0,0.168989,-15513.5,-26843.8,-0,31004.2,213502
step02_gravity_refstate-crust.xmf,233,-1.05108e-06,3.6876e-06,0,1.94986e-06,-7.10803e+08,-7.10478e+08,-7.10731e+08,133761,-0.0158367,0.13889,-0,0.13979,-22169.3,-25878.9,-0,34076.3,133761
step02_gravity_refstate-crust.xmf,234,-1.13277e-06,3.91058e-06,0,2.04927e-06,-7.46635e+08,-7.46289e+08,-7.46557e+08,140580,-0.0166644,0.137351,-0,0.138358,-21328.5,-27183.5,-0,34552.1,140580
step02_gravity_refstate-crust.xmf,235,-7.66354e-07,3.63226e-06,0,1.65944e-07,-6.94451e+08,-6.9415e+08,-6.94399e+08,11383.8,-0.00144703,0.108039,-0,0.108049,-38101.5,-25284.7,-0,45727.9,11383.8
step02_gravity_refstate-crust.xmf,236,-1.11009e-07,1.7576e-06,0,2.47827e-06,-5.49644e+08,-5.49516e+08,-5.49636e+08,170009,-0.0176633,0.183338,-0,0.184187,-15511.8,-20012.6,-0,25320.4,170009
step02_gravity_refstate-crust.xmf,237,-5.09834e-07,2.57415e-06,0,3.10388e-06,-7.02624e+08,-7.02412e+08,-7.02589e+08,212926,-0.0220271,0.174225,-0,0.175612,-14939.4,-25581.7,-0,29624.4,212926
step02_gravity_refstate-crust.xmf,238,4.25156e-07,3.8688e-07,0,1.1356e-06,-1.96733e+08,-1.96735e+08,-1.96762e+08,77902.3,-0.0139113,0.200396,-0,0.200878,-14277.9,-7164.56,-0,15974.7,77902.3
step02_gravity_refstate-crust.xmf,239,1.06549e-06,-4.03244e-07,0,1.07197e-08,101259,504.086,28166.6,735.372,-0.0216227,0.205304,-0,0.20644,-12353.1,0,-0,12353.1,735.372
step02_gravity_refstate-crust.xmf,240,3.42286e-07,6.76329e-07,0,1.52485e-06,-2.93611e+08,-2.93588e+08,-2.93634e+08,104605,-0.0131441,0.198723,-0,0.199157,-14207.7,-10691.6,-0,17781.2,104605
step02_gravity_refstate-crust.xmf,241,2.84408e-07,9.15376e-07,0,1.87463e-06,-3.87281e+08,-3.87238e+08,-3.87301e+08,128600,-0.0139176,0.196442,-0,0.196934,-14070.5,-14101.9,-0,19921,128600
step02_gravity_refstate-crust.xmf,242,-1.18931e-06,3.95447e-06,0,2.4899e-06,-7.76686e+08,-7.76333e+08,-7.76605e+08,170807,-0.019499,0.144709,-0,0.146016,-18798.7,-28277.3,-0,33955.8,170807
step02_gravity_refstate-crust.xmf,243,-1.12744e-06,3.76837e-06,0,2.77945e-06,-7.76524e+08,-7.76188e+08,-7.76447e+08,190670,-0.0210943,0.151941,-0,0.153398,-17424.8,-28271.4,-0,33209.9,190670
step02_gravity_refstate-crust.xmf,244,-1.0083e-06,3.50217e-06,0,3.06437e-06,-7.74287e+08,-7.73977e+08,-7.74217e+08,210216,-0.0224972,0.159702,-0,0.161279,-16103.8,-28190,-0,32465.5,210216
step02_gravity_refstate-crust.xmf,245,-1.21226e-06,4.09168e-06,0,2.20224e-06,-7.77341e+08,-7.76977e+08,-7.77258e+08,151073,-0.0177659,0.137681,-0,0.138823,-20237.7,-28301.3,-0,34792.6,151073
step02_gravity_refstate-crust.xmf,246,-8.38572e-07,3.75624e-06,0,6.26756e-07,-7.10335e+08,-7.1002e+08,-7.10277e+08,42995.5,-0.00551112,0.110653,-0,0.11079,-32879.9,-25862.9,-0,41832.7,42995.5
step02_gravity_refstate-crust.xmf,247,-8.86392e-07,3.79387e-06,0,8.17401e-07,-7.12816e+08,-7.12495e+08,-7.12755e+08,56073.7,-0.00715079,0.113504,-0,0.113729,-30944.7,-25953.1,-0,40387.4,56073.7
step02_gravity_refstate-crust.xmf,248,-9.40139e-07,3.82291e-06,0,1.02455e-06,-7.14344e+08,-7.14018e+08,-7.1428e+08,70284,-0.0088871,0.117273,-0,0.117609,-29019.4,-26008.5,-0,38968.8,70284
step02_gravity_refstate-crust.xmf,249,-1.06434e-06,3.824e-06,0,1.70183e-06,-7.20436e+08,-7.20101e+08,-7.20363e+08,116746,-0.0141634,0.13177,-0,0.132529,-23725.4,-26229.8,-0,35368.1,116746
step02_gravity_refstate-crust.xmf,250,-9.92385e-07,3.84435e-06,0,1.24274e-06,-7.16549e+08,-7.16217e+08,-7.16481e+08,85251.8,-0.0106606,0.121611,-0,0.122077,-27156.3,-26088.6,-0,37657.4,85251.8
step02_gravity_refstate-crust.xmf,251,-1.03688e-06,3.85191e-06,0,1.46787e-06,-7.19377e+08,-7.19041e+08,-7.19305e+08,100696,-0.0124217,0.126361,-0,0.12697,-25392.4,-26191.4,-0,36479.6,100696
step02_gravity_refstate-crust.xmf,252,-8.04084e-07,3.694e-06,0,4.66671e-07,-7.02206e+08,-7.01897e+08,-7.02151e+08,32013.6,-0.00409831,0.109502,-0,0.109578,-34669.5,-25567,-0,43077.2,32013.6
step02_gravity_refstate-crust.xmf,253,-7.22563e-07,3.77641e-06,0,1.61025e-09,-7.27326e+08,-7.27017e+08,-7.27276e+08,110.463,-2.6367e-19,0.103247,-0,0.103247,-40000,-26481.9,-0,47971.8,110.463
step02_gravity_refstate-crust.xmf,254,-7.5251e-07,3.78912e-06,0,3.1295e-07,-7.25764e+08,-7.25452e+08,-7.25712e+08,21468.4,-0.00277675,0.10488,-0,0.104917,-36215.8,-26425,-0,44831.5,21468.4
step02_gravity_refstate-crust.xmf,255,6.82028e-08,1.44173e-06,0,2.35187e-06,-5.1017e+08,-5.10076e+08,-5.10175e+08,161338,-0.0166384,0.188895,-0,0.189626,-14714.4,-18575.8,-0,23697.5,161338
step02_gravity_refstate-crust.xmf,256,2.22992e-07,1.17081e-06,0,2.19829e-06,-4.71139e+08,-4.71074e+08,-4.71154e+08,150803,-0.0155436,0.193741,-0,0.194364,-13935,-17155,-0,22101.5,150803
step02_gravity_refstate-crust.xmf,257,-4.98945e-07,2.53461e-06,0,2.92574e-06,-6.76194e+08,-6.75986e+08,-6.7616e+08,200706,-0.0210237,0.173171,-0,0.174442,-15600.8,-24619.4,-0,29146.2,200706
step02_gravity_refstate-crust.xmf,258,-3.50743e-07,2.26489e-06,0,2.78626e-06,-6.35722e+08,-6.35542e+08,-6.35698e+08,191138,-0.0199789,0.176797,-0,0.177922,-15580.1,-23146.2,-0,27901.3,191138
step02_gravity_refstate-crust.xmf,259,-8.80492e-08,1.80218e-06,0,2.67547e-06,-5.89489e+08,-5.89359e+08,-5.89483e+08,183537,-0.0188563,0.184363,-0,0.185325,-14689.7,-21463.4,-0,26008.9,183537
step02_gravity_refstate-crust.xmf,260,-5.35379e-07,2.64308e-06,0,3.31035e-06,-7.3235e+08,-7.32132e+08,-7.32314e+08,227090,-0.0231568,0.175287,-0,0.17681,-14256,-26663.9,-0,30235.7,227090
step02_gravity_refstate-crust.xmf,261,4.72577e-07,4.70818e-07,0,1.30882e-06,-2.44719e+08,-2.44719e+08,-2.44752e+08,89784.8,-0.0128778,0.202453,-0,0.202862,-13264.8,-8911.89,-0,15980.5,89784.8
step02_gravity_refstate-crust.xmf,262,5.79867e-07,1.92085e-07,0,9.04817e-07,-1.50448e+08,-1.50475e+08,-1.50488e+08,62070.4,-0.0144961,0.203483,-0,0.203999,-13306.9,-5479.85,-0,14391,62070.4
step02_gravity_refstate-crust.xmf,263,7.82841e-07,-4.41023e-09,0,6.50699e-07,-1.0296e+08,-1.03014e+08,-1.03013e+08,44637.9,-0.0153723,0.206425,-0,0.206997,-12189.5,-3751.51,-0,12753.7,44637.9
step02_gravity_refstate-crust.xmf,264,1.04546e-06,-2.38175e-07,0,3.58229e-07,-5.35721e+07,-5.36601e+07,-5.36438e+07,24574.5,-0.0166514,0.208828,-0,0.20949,-11036.9,-1954.21,-0,11208.5,24574.5
step02_gravity_refstate-crust.xmf,265,4.11995e-07,7.0772e-07,0,1.67096e-06,-3.40414e+08,-3.40394e+08,-3.40443e+08,114628,-0.0130194,0.200697,-0,0.201118,-13170.2,-12395.9,-0,18086.2,114628
step02_gravity_refstate-crust.xmf,266,3.55936e-07,9.378e-07,0,2.0224e-06,-4.31337e+08,-4.31297e+08,-4.31361e+08,138737,-0.0144238,0.198017,-0,0.198542,-13166.2,-15706.1,-0,20494.7,138737
step02_gravity_refstate-crust.xmf,267,-8.26719e-07,3.14344e-06,0,3.33163e-06,-7.69221e+08,-7.68948e+08,-7.69164e+08,228550,-0.0236144,0.168073,-0,0.169723,-14811.1,-28005.8,-0,31681.1,228550
step02_gravity_refstate-crust.xmf,268,-1.2102e-06,4.18528e-06,0,1.97049e-06,-7.7976e+08,-7.7939e+08,-7.79677e+08,135176,-0.0162839,0.131985,-0,0.132986,-21444.1,-28389.5,-0,35578.3,135176
step02_gravity_refstate-crust.xmf,269,-1.14826e-06,4.09322e-06,0,1.78105e-06,-7.6097e+08,-7.6061e+08,-7.60891e+08,122180,-0.0149191,0.129465,-0,0.130322,-22768.9,-27705.5,-0,35861.1,122180
step02_gravity_refstate-crust.xmf,270,-6.85964e-07,3.91492e-06,0,1.48705e-07,-7.58059e+08,-7.57744e+08,-7.58012e+08,10201.1,-0.00132523,0.099317,-0,0.0993259,-38051.6,-27601.2,-0,47008,10201.1
step02_gravity_refstate-crust.xmf,271,1.18027e-07,1.45441e-06,0,2.53568e-06,-5.50752e+08,-5.50661e+08,-5.5076e+08,173947,-0.0176892,0.190179,-0,0.191,-13884,-20053.4,-0,24390.7,173947
step02_gravity_refstate-crust.xmf,272,-2.73927e-07,2.16825e-06,0,3.02464e-06,-6.66094e+08,-6.65926e+08,-6.66075e+08,207490,-0.0212056,0.180209,-0,0.181452,-14410.5,-24252.1,-0,28210.4,207490
step02_gravity_refstate-crust.xmf,273,-2.6119e-07,2.18003e-06,0,3.25572e-06,-6.99273e+08,-6.99105e+08,-6.99255e+08,223342,-0.022437,0.181811,-0,0.18319,-13626.8,-25460,-0,28877.4,223342
step02_gravity_refstate-crust.xmf,274,6.16852e-07,2.71999e-07,0,1.08263e-06,-1.99019e+08,-1.99042e+08,-1.99061e+08,74268.5,-0.012804,0.205854,-0,0.206251,-12224.5,-7248.39,-0,14211.9,74268.5
step02_gravity_refstate-crust.xmf,275,1.41989e-06,-5.36974e-07,0,1.23684e-08,134957,715.849,37552.3,848.471,-0.0185354,0.210485,-0,0.211299,-9858.69,0,-0,9858.69,848.471
step02_gravity_refstate-crust.xmf,276,5.33739e-07,5.10163e-07,0,1.45091e-06,-2.92741e+08,-2.92742e+08,-2.92777e+08,99532.2,-0.0122754,0.204502,-0,0.20487,-12228.9,-10660.5,-0,16223.2,99532.2
step02_gravity_refstate-crust.xmf,277,4.93345e-07,6.89134e-07,0,1.80618e-06,-3.86552e+08,-3.86538e+08,-3.86586e+08,123904,-0.0131816,0.202521,-0,0.202949,-12204.7,-14075.9,-0,18630.2,123904
step02_gravity_refstate-crust.xmf,278,-1.29096e-06,4.39563e-06,0,2.01895e-06,-8.09255e+08,-8.08864e+08,-8.09166e+08,138500,-0.0166205,0.129924,-0,0.130983,-20860.5,-29463.3,-0,36100.5,138500
step02_gravity_refstate-crust.xmf,279,-1.31207e-06,4.31231e-06,0,2.30524e-06,-8.09073e+08,-8.08687e+08,-8.08983e+08,158139,-0.0184444,0.13654,-0,0.13778,-19459.3,-29456.5,-0,35303.6,158139
step02_gravity_refstate-crust.xmf,280,-1.30383e-06,4.18851e-06,0,2.60949e-06,-8.10056e+08,-8.09679e+08,-8.09967e+08,179011,-0.0202302,0.143489,-0,0.144908,-18085.9,-29492.1,-0,34596,179011
step02_gravity_refstate-crust.xmf,281,-1.2541e-06,4.00267e-06,0,2.93216e-06,-8.10838e+08,-8.10478e+08,-8.10752e+08,201146,-0.021948,0.150972,-0,0.152559,-16740.9,-29520.5,-0,33937,201146
step02_gravity_refstate-crust.xmf,282,-1.14247e-06,3.71557e-06,0,3.29517e-06,-8.11392e+08,-8.11059e+08,-8.11314e+08,226049,-0.023639,0.15954,-0,0.161282,-15333,-29540.7,-0,33282.9,226049
step02_gravity_refstate-crust.xmf,283,-7.63781e-07,3.94628e-06,0,4.61267e-07,-7.54342e+08,-7.54019e+08,-7.54289e+08,31642.9,-0.00413362,0.102804,-0,0.102887,-34171.8,-27465.6,-0,43841.4,31642.9
step02_gravity_refstate-crust.xmf,284,-8.2977e-07,3.99874e-06,0,6.60043e-07,-7.56519e+08,-7.56188e+08,-7.56462e+08,45278.9,-0.00590976,0.105637,-0,0.105802,-31900.1,-27544.7,-0,42146.5,45278.9
step02_gravity_refstate-crust.xmf,285,-8.98977e-07,4.04412e-06,0,8.51563e-07,-7.57513e+08,-7.57174e+08,-7.57451e+08,58417.2,-0.00757107,0.109067,-0,0.109329,-29952,-27580.6,-0,40716.2,58417.2
step02_gravity_refstate-crust.xmf,286,-9.70569e-07,4.07923e-06,0,1.05473e-06,-7.5782e+08,-7.57474e+08,-7.57753e+08,72354.6,-0.00928315,0.113193,-0,0.113573,-28105.7,-27591.6,-0,39385.6,72354.6
step02_gravity_refstate-crust.xmf,287,-1.10215e-06,4.11745e-06,0,1.50591e-06,-7.6059e+08,-7.60232e+08,-7.60514e+08,103305,-0.0128698,0.122958,-0,0.12363,-24597.6,-27691.9,-0,37039,103305
step02_gravity_refstate-crust.xmf,288,-1.03967e-06,4.10584e-06,0,1.27196e-06,-7.58883e+08,-7.5853e+08,-7.58811e+08,87256.4,-0.0110501,0.11782,-0,0.118337,-26324.9,-27630,-0,38163,87256.4
step02_gravity_refstate-crust.xmf,289,-6.19795e-07,4.03939e-06,0,2.41942e-09,-7.90899e+08,-7.90579e+08,-7.90857e+08,165.972,-2.41702e-19,0.0941985,-0,0.0941985,-40000,-28797.2,-0,49287.7,165.972
step02_gravity_refstate-crust.xmf,290,-6.72174e-07,4.03472e-06,0,2.73245e-07,-7.82407e+08,-7.82084e+08,-7.82361e+08,18744.6,-0.00248037,0.0968438,-0,0.0968755,-36172,-28487.9,-0,46043.1,18744.6
step02_gravity_refstate-crust.xmf,291,2.94563e-07,1.15926e-06,0,2.36636e-06,-5.12816e+08,-5.12756e+08,-5.12836e+08,162332,-0.0164153,0.195247,-0,0.195935,-13083.5,-18672.6,-0,22800.1,162332
step02_gravity_refstate-crust.xmf,292,4.38536e-07,9.13683e-07,0,2.16858e-06,-4.7322e+08,-4.73188e+08,-4.73251e+08,148764,-0.0150628,0.199601,-0,0.200168,-12323.1,-17231.3,-0,21184.3,148764
step02_gravity_refstate-crust.xmf,293,1.79974e-07,1.43465e-06,0,2.72925e-06,-5.89221e+08,-5.89135e+08,-5.89233e+08,187227,-0.0187738,0.191746,-0,0.192662,-13069,-21454.1,-0,25121.3,187227
step02_gravity_refstate-crust.xmf,294,-4.62593e-08,1.80509e-06,0,2.89011e-06,-6.27766e+08,-6.27639e+08,-6.27763e+08,198261,-0.0200956,0.185965,-0,0.187048,-13817.7,-22857,-0,26709,198261
step02_gravity_refstate-crust.xmf,295,-5.72487e-07,2.70492e-06,0,3.55198e-06,-7.62834e+08,-7.62609e+08,-7.62795e+08,243666,-0.0243351,0.176493,-0,0.178163,-13576.3,-27773.6,-0,30914.2,243666
step02_gravity_refstate-crust.xmf,296,-8.81766e-07,3.20738e-06,0,3.57748e-06,-7.97155e+08,-7.96874e+08,-7.97094e+08,245415,-0.0247348,0.169499,-0,0.171294,-14083.9,-29022.6,-0,32259.4,245415
step02_gravity_refstate-crust.xmf,297,-2.67314e-07,2.21773e-06,0,3.49572e-06,-7.31484e+08,-7.31314e+08,-7.31466e+08,239806,-0.0236542,0.183164,-0,0.184685,-12954.3,-26632.8,-0,29616.2,239806
step02_gravity_refstate-crust.xmf,298,6.55809e-07,3.35739e-07,0,1.22468e-06,-2.4597e+08,-2.45992e+08,-2.46015e+08,84012.9,-0.0117445,0.207788,-0,0.20812,-11267.9,-8957.97,-0,14394.8,84012.9
step02_gravity_refstate-crust.xmf,299,7.90392e-07,8.90299e-08,0,8.45781e-07,-1.54431e+08,-1.54479e+08,-1.54485e+08,58020.6,-0.012847,0.209035,-0,0.209429,-11052,-5625.54,-0,12401.4,58020.6
step02_gravity_refstate-crust.xmf,300,1.30614e-06,-3.34703e-07,0,3.18491e-07,-5.59498e+07,-5.60624e+07,-5.60394e+07,21848.5,-0.0135645,0.213887,-0,0.214317,-8513.09,-2041.68,-0,8754.49,21848.5
step02_gravity_refstate-crust.xmf,301,1.0153e-06,-9.71232e-08,0,6.0111e-07,-1.08107e+08,-1.08184e+08,-1.08177e+08,41236.2,-0.0130023,0.211885,-0,0.212284,-9759.07,-3939.71,-0,10524.3,41236.2
step02_gravity_refstate-crust.xmf,302,6.13403e-07,5.10388e-07,0,1.57076e-06,-3.40201e+08,-3.40208e+08,-3.40243e+08,107754,-0.0120147,0.206495,-0,0.206844,-11215,-12388.6,-0,16710.9,107754
step02_gravity_refstate-crust.xmf,303,5.75753e-07,6.86051e-07,0,1.94597e-06,-4.32958e+08,-4.32951e+08,-4.32998e+08,133494,-0.0136424,0.203905,-0,0.20436,-11412.2,-15765.7,-0,19462.6,133494
step02_gravity_refstate-crust.xmf,304,-1.2358e-06,4.41499e-06,0,1.76206e-06,-8.05739e+08,-8.05351e+08,-8.05654e+08,120877,-0.0148942,0.124484,-0,0.125372,-22275.6,-29335.6,-0,36834.4,120877
step02_gravity_refstate-crust.xmf,305,-1.11631e-06,3.63169e-06,0,3.56273e-06,-8.26031e+08,-8.25705e+08,-8.25955e+08,244403,-0.0248379,0.16397,-0,0.16584,-14369.7,-30073.6,-0,33330.3,244403
step02_gravity_refstate-crust.xmf,306,-9.43349e-07,3.28514e-06,0,3.82601e-06,-8.23158e+08,-8.22868e+08,-8.23094e+08,262465,-0.0257816,0.171028,-0,0.17296,-13417.7,-29969.2,-0,32835.7,262465
step02_gravity_refstate-crust.xmf,307,-5.6206e-07,4.18406e-06,0,1.32695e-07,-8.27304e+08,-8.26979e+08,-8.27266e+08,9102.85,-0.00118737,0.0891902,-0,0.0891981,-37825.5,-30123,-0,48354.6,9102.85
step02_gravity_refstate-crust.xmf,308,3.76886e-07,1.11712e-06,0,2.53844e-06,-5.51986e+08,-5.51935e+08,-5.52012e+08,174137,-0.0173322,0.196879,-0,0.197641,-12284.1,-20098.9,-0,23555.5,174137
step02_gravity_refstate-crust.xmf,309,9.21509e-09,1.74658e-06,0,3.13398e-06,-6.64269e+08,-6.6415e+08,-6.6427e+08,214991,-0.0213409,0.188013,-0,0.18922,-12949.4,-24186.1,-0,27434.6,214991
step02_gravity_refstate-crust.xmf,310,3.55569e-08,1.74917e-06,0,3.37397e-06,-6.99226e+08,-6.99109e+08,-6.99229e+08,231454,-0.0225892,0.189498,-0,0.19084,-12273.8,-25458.9,-0,28263.1,231454
step02_gravity_refstate-crust.xmf,311,-6.14077e-07,2.73858e-06,0,3.83156e-06,-7.92434e+08,-7.92204e+08,-7.92392e+08,262845,-0.0255188,0.17809,-0,0.179909,-12894.1,-28851.1,-0,31601.3,262845
step02_gravity_refstate-crust.xmf,312,-1.04364e-06,3.42815e-06,0,4.06667e-06,-8.50112e+08,-8.49805e+08,-8.5004e+08,278974,-0.0267254,0.171791,-0,0.173857,-12874.5,-30950.3,-0,33521.2,278974
step02_gravity_refstate-crust.xmf,313,-6.47375e-07,2.74918e-06,0,4.17423e-06,-8.23193e+08,-8.2296e+08,-8.23149e+08,286352,-0.0268173,0.18062,-0,0.1826,-12119.4,-29970.8,-0,32328.5,286352
step02_gravity_refstate-crust.xmf,314,7.9398e-07,1.64711e-07,0,9.93767e-07,-2.0312e+08,-2.03164e+08,-2.03175e+08,68172.4,-0.0112973,0.210855,-0,0.211157,-10167.4,-7398.27,-0,12574.2,68172.4
step02_gravity_refstate-crust.xmf,315,1.71947e-06,-6.5154e-07,0,1.18643e-08,163377,725.732,45421.4,813.889,-0.0146616,0.214769,-0,0.215269,-7383.26,0,-0,7383.26,813.889
step02_gravity_refstate-crust.xmf,316,7.1913e-07,3.46819e-07,0,1.32919e-06,-2.92539e+08,-2.92564e+08,-2.92588e+08,91182.2,-0.0110443,0.209778,-0,0.210068,-10265,-10653.6,-0,14794.2,91182.2
step02_gravity_refstate-crust.xmf,317,7.26425e-07,4.44835e-07,0,1.68206e-06,-3.90566e+08,-3.90585e+08,-3.90615e+08,115389,-0.0120216,0.208561,-0,0.208908,-10185.4,-14222.6,-0,17493.6,115389
step02_gravity_refstate-crust.xmf,318,-1.32379e-06,4.67476e-06,0,1.78543e-06,-8.41343e+08,-8.40932e+08,-8.41253e+08,122480,-0.0149988,0.121403,-0,0.122326,-21598.1,-30631.8,-0,37480.5,122480
step02_gravity_refstate-crust.xmf,319,-1.38914e-06,4.64788e-06,0,2.06667e-06,-8.42064e+08,-8.4165e+08,-8.41968e+08,141773,-0.0168997,0.127661,-0,0.128775,-20180.6,-30657.7,-0,36703.6,141773
step02_gravity_refstate-crust.xmf,320,-8.37794e-07,3.02333e-06,0,4.42582e-06,-8.54969e+08,-8.54704e+08,-8.54911e+08,303611,-0.0278151,0.179729,-0,0.181868,-11810.6,-31127.3,-0,33292.6,303611
step02_gravity_refstate-crust.xmf,321,-1.42786e-06,4.57298e-06,0,2.37659e-06,-8.42268e+08,-8.41856e+08,-8.4217e+08,163034,-0.0188385,0.134542,-0,0.135855,-18798.8,-30664.9,-0,35968.5,163034
step02_gravity_refstate-crust.xmf,322,-1.233e-06,3.8127e-06,0,3.72201e-06,-8.50262e+08,-8.49916e+08,-8.50178e+08,255330,-0.0254852,0.163599,-0,0.165572,-13959.5,-30955.6,-0,33957.5,255330
step02_gravity_refstate-crust.xmf,323,-1.34568e-06,4.08532e-06,0,3.38232e-06,-8.48186e+08,-8.47814e+08,-8.48094e+08,232027,-0.024067,0.156162,-0,0.158006,-15054.4,-30879.9,-0,34354.1,232027
step02_gravity_refstate-crust.xmf,324,-1.4334e-06,4.4498e-06,0,2.70521e-06,-8.42804e+08,-8.424e+08,-8.42705e+08,185578,-0.0207221,0.141766,-0,0.143272,-17474.7,-30684.2,-0,35311.3,185578
step02_gravity_refstate-crust.xmf,325,-1.40007e-06,4.27061e-06,0,3.05313e-06,-8.43869e+08,-8.4348e+08,-8.43773e+08,209444,-0.0225234,0.149336,-0,0.151025,-16194.5,-30722.8,-0,34729.7,209444
step02_gravity_refstate-crust.xmf,326,-7.44192e-07,4.17144e-06,0,5.12087e-07,-7.9895e+08,-7.98613e+08,-7.98899e+08,35129.2,-0.00465011,0.0979077,-0,0.098018,-32839.1,-29090,-0,43870.7,35129.2
step02_gravity_refstate-crust.xmf,327,-1.16489e-06,4.39702e-06,0,1.51783e-06,-8.01515e+08,-8.01133e+08,-8.01435e+08,104123,-0.0130979,0.119251,-0,0.119968,-23836,-29182,-0,37679.5,104123
step02_gravity_refstate-crust.xmf,328,-8.23754e-07,4.23035e-06,0,6.82574e-07,-7.99773e+08,-7.99426e+08,-7.99716e+08,46824.6,-0.00617643,0.100943,-0,0.101132,-30861,-29119.7,-0,42430.6,46824.6
step02_gravity_refstate-crust.xmf,329,-9.10602e-07,4.28618e-06,0,8.64269e-07,-8.00027e+08,-7.9967e+08,-7.99964e+08,59288.8,-0.00776341,0.10463,-0,0.104917,-29012.7,-29128.7,-0,41112.2,59288.8
step02_gravity_refstate-crust.xmf,330,-1.0023e-06,4.3348e-06,0,1.06691e-06,-8.00008e+08,-7.99642e+08,-7.99939e+08,73189.7,-0.00947863,0.109038,-0,0.109449,-27208.2,-29127.8,-0,39858.7,73189.7
step02_gravity_refstate-crust.xmf,331,-1.09006e-06,4.37155e-06,0,1.28557e-06,-8.00385e+08,-8.00011e+08,-8.0031e+08,88190.3,-0.0112576,0.113922,-0,0.114477,-25491.3,-29141.2,-0,38717.1,88190.3
step02_gravity_refstate-crust.xmf,332,-6.83012e-07,4.14338e-06,0,3.74574e-07,-8.01911e+08,-8.0158e+08,-8.01864e+08,25695.7,-0.00340971,0.0953926,-0,0.0954535,-34540.1,-29198,-0,45227.7,25695.7
step02_gravity_refstate-crust.xmf,333,-4.79125e-07,4.264e-06,0,9.58149e-10,-8.53546e+08,-8.5322e+08,-8.53513e+08,65.729,-1.23735e-19,0.0847282,-0,0.0847282,-40000,-31078.8,-0,50654.7,65.729
step02_gravity_refstate-crust.xmf,334,-5.76754e-07,4.24587e-06,0,2.60615e-07,-8.35496e+08,-8.35166e+08,-8.35457e+08,17878.2,-0.00236448,0.0892518,-0,0.0892831,-35633.1,-30421.3,-0,46852.7,17878.2
step02_gravity_refstate-crust.xmf,335,5.38532e-07,8.53615e-07,0,2.31906e-06,-5.1388e+08,-5.13859e+08,-5.13917e+08,159088,-0.0157894,0.201342,-0,0.20196,-11504.9,-18711.8,-0,21965.8,159088
step02_gravity_refstate-crust.xmf,336,6.72975e-07,6.33694e-07,0,2.08513e-06,-4.75985e+08,-4.75987e+08,-4.76031e+08,143040,-0.0142224,0.205335,-0,0.205827,-10680.8,-17332.4,-0,20359,143040
step02_gravity_refstate-crust.xmf,337,7.72729e-07,4.65079e-07,0,1.85275e-06,-4.39456e+08,-4.39477e+08,-4.39509e+08,127099,-0.0127545,0.208646,-0,0.209036,-9884.16,-16002.7,-0,18809.1,127099
step02_gravity_refstate-crust.xmf,338,4.77603e-07,1.03625e-06,0,2.72019e-06,-5.89505e+08,-5.89466e+08,-5.89537e+08,186605,-0.0182664,0.198828,-0,0.199665,-11494.1,-21465,-0,24348.8,186605
step02_gravity_refstate-crust.xmf,339,2.63033e-07,1.37163e-06,0,2.94473e-06,-6.27162e+08,-6.27085e+08,-6.2718e+08,202008,-0.019903,0.193799,-0,0.194818,-12223.5,-22835.6,-0,25901.3,202008
step02_gravity_refstate-crust.xmf,340,-2.75307e-07,2.22939e-06,0,3.75894e-06,-7.61539e+08,-7.61367e+08,-7.6152e+08,257864,-0.0248294,0.184763,-0,0.186424,-12318.3,-27726.9,-0,30340.1,257864
step02_gravity_refstate-crust.xmf,341,4.35567e-08,1.74792e-06,0,3.63639e-06,-7.31868e+08,-7.31752e+08,-7.31871e+08,249456,-0.023808,0.190808,-0,0.192287,-11706.1,-26647.3,-0,29105.2,249456
step02_gravity_refstate-crust.xmf,342,-4.95136e-07,2.47516e-06,0,4.49437e-06,-8.37744e+08,-8.3754e+08,-8.3771e+08,308314,-0.027753,0.186318,-0,0.188374,-11215.8,-30500.7,-0,32497.5,308314
step02_gravity_refstate-crust.xmf,343,8.24293e-07,2.06659e-07,0,1.0988e-06,-2.47861e+08,-2.47903e+08,-2.47917e+08,75378,-0.0102833,0.212525,-0,0.212773,-9303.51,-9027.27,-0,12963.3,75378
step02_gravity_refstate-crust.xmf,344,9.6356e-07,8.06972e-09,0,7.65898e-07,-1.64211e+08,-1.64277e+08,-1.64277e+08,52540.6,-0.0106797,0.21391,-0,0.214176,-8812.2,-5982.18,-0,10650.9,52540.6
step02_gravity_refstate-crust.xmf,345,1.52417e-06,-4.28676e-07,0,2.38265e-07,-5.52282e+07,-5.53621e+07,-5.53327e+07,16345,-0.0100726,0.217807,-0,0.21804,-6026.38,-2016.14,-0,6354.69,16345
step02_gravity_refstate-crust.xmf,346,1.20062e-06,-1.68683e-07,0,5.07502e-07,-1.18375e+08,-1.18469e+08,-1.18457e+08,34814.6,-0.00971152,0.216971,-0,0.217188,-7053.9,-4314.14,-0,8268.58,34814.6
step02_gravity_refstate-crust.xmf,347,8.11253e-07,3.12114e-07,0,1.4063e-06,-3.38946e+08,-3.38981e+08,-3.39002e+08,96471.9,-0.0105983,0.211809,-0,0.212074,-9245.19,-12343.5,-0,15421.9,96471.9
step02_gravity_refstate-crust.xmf,348,-1.23452e-06,4.66903e-06,0,1.52289e-06,-8.40104e+08,-8.39699e+08,-8.40019e+08,104470,-0.0131361,0.115661,-0,0.116405,-23081.1,-30587.1,-0,38318.5,104470
step02_gravity_refstate-crust.xmf,349,-1.18965e-06,3.61275e-06,0,4.33311e-06,-8.78353e+08,-8.78023e+08,-8.78271e+08,297251,-0.027632,0.172411,-0,0.174611,-12350.4,-31978.1,-0,34280.2,297251
step02_gravity_refstate-crust.xmf,350,-1.37348e-06,4.0113e-06,0,3.9284e-06,-8.7686e+08,-8.76491e+08,-8.76766e+08,269488,-0.0262238,0.163762,-0,0.165849,-13438.8,-31923.6,-0,34637,269488
step02_gravity_refstate-crust.xmf,351,-9.47174e-07,3.12655e-06,0,4.73359e-06,-8.80577e+08,-8.80298e+08,-8.80512e+08,324724,-0.0287934,0.181285,-0,0.183557,-11296.4,-32059.3,-0,33991.3,324724
step02_gravity_refstate-crust.xmf,352,-3.97277e-07,4.36414e-06,0,7.05517e-08,-8.84403e+08,-8.84077e+08,-8.84376e+08,4839.85,-0.000588842,0.080079,-0,0.0800812,-38495.8,-32202.7,-0,50189.1,4839.85
step02_gravity_refstate-crust.xmf,353,-4.33603e-07,4.39416e-06,0,1.56392e-07,-8.85261e+08,-8.8493e+08,-8.85231e+08,10728.5,-0.00136575,0.0807502,-0,0.0807617,-36591.6,-32233.9,-0,48764.4,10728.5
step02_gravity_refstate-crust.xmf,354,8.54099e-07,3.34564e-07,0,1.66345e-06,-4.13669e+08,-4.13705e+08,-4.13728e+08,114113,-0.0116067,0.211237,-0,0.211556,-9129.8,-15064,-0,17614.7,114113
step02_gravity_refstate-crust.xmf,355,6.56265e-07,7.57025e-07,0,2.47634e-06,-5.53062e+08,-5.53056e+08,-5.53107e+08,169877,-0.0165618,0.203265,-0,0.203939,-10722.3,-20138.6,-0,22815.2,169877
step02_gravity_refstate-crust.xmf,356,3.76626e-07,1.22648e-06,0,3.20123e-06,-6.6577e+08,-6.65712e+08,-6.65796e+08,219604,-0.0210942,0.196444,-0,0.197573,-11341.4,-24241.5,-0,26763.3,219604
step02_gravity_refstate-crust.xmf,357,3.35359e-07,1.3152e-06,0,3.46244e-06,-7.02693e+08,-7.02626e+08,-7.02716e+08,237523,-0.0224998,0.196259,-0,0.197545,-11065,-25585.6,-0,27875.8,237523
step02_gravity_refstate-crust.xmf,358,-2.63513e-07,2.17143e-06,0,4.05608e-06,-7.89328e+08,-7.89161e+08,-7.8931e+08,278247,-0.0259679,0.187117,-0,0.18891,-11649.3,-28738.6,-0,31009.8,278247
step02_gravity_refstate-crust.xmf,359,-5.46015e-07,2.50099e-06,0,4.76417e-06,-8.58422e+08,-8.58213e+08,-8.58384e+08,326822,-0.0286118,0.188001,-0,0.190166,-10791.2,-31253.4,-0,33063.9,326822
step02_gravity_refstate-crust.xmf,360,-2.18999e-07,2.06779e-06,0,4.37845e-06,-8.14887e+08,-8.14731e+08,-8.14872e+08,300362,-0.0270608,0.190331,-0,0.192245,-10948,-29669.1,-0,31624.6,300362
step02_gravity_refstate-crust.xmf,361,-1.34134e-06,3.77721e-06,0,4.6249e-06,-9.03928e+08,-9.03577e+08,-9.03836e+08,317268,-0.0284847,0.17371,-0,0.17603,-11810.4,-32908.8,-0,34963.9,317268
step02_gravity_refstate-crust.xmf,362,-1.05588e-06,3.20479e-06,0,5.08486e-06,-9.04328e+08,-9.04035e+08,-9.04255e+08,348821,-0.0297285,0.183398,-0,0.185791,-10776.3,-32923.6,-0,34642.4,348821
step02_gravity_refstate-crust.xmf,363,1.94738e-06,-7.39026e-07,0,1.05133e-08,184984,696.492,51393.7,721.215,-0.0101544,0.217978,-0,0.218214,-4919.33,0,-0,4919.33,721.215
step02_gravity_refstate-crust.xmf,364,9.22963e-07,9.04701e-08,0,8.99764e-07,-2.10085e+08,-2.10142e+08,-2.10148e+08,61723.8,-0.00974086,0.214578,-0,0.214799,-8439.05,-7652.22,-0,11391.8,61723.8
step02_gravity_refstate-crust.xmf,365,8.90968e-07,1.91615e-07,0,1.15461e-06,-2.91234e+08,-2.91282e+08,-2.91295e+08,79206.4,-0.00946647,0.214424,-0,0.214632,-8311.98,-10606.6,-0,13475.5,79206.4
step02_gravity_refstate-crust.xmf,366,-1.31139e-06,4.92089e-06,0,1.53764e-06,-8.74412e+08,-8.73985e+08,-8.74322e+08,105482,-0.0130965,0.112737,-0,0.113495,-22295.8,-31836.2,-0,38867,105482
step02_gravity_refstate-crust.xmf,367,-1.4133e-06,4.93626e-06,0,1.80822e-06,-8.74581e+08,-8.74146e+08,-8.74484e+08,124044,-0.0150305,0.118798,-0,0.119745,-20867.6,-31841.9,-0,38070.5,124044
step02_gravity_refstate-crust.xmf,368,-1.49609e-06,4.91404e-06,0,2.1096e-06,-8.7451e+08,-8.7407e+08,-8.74407e+08,144718,-0.0170368,0.125423,-0,0.126575,-19486.1,-31839,-0,37328.7,144718
step02_gravity_refstate-crust.xmf,369,-1.55252e-06,4.84685e-06,0,2.44096e-06,-8.74499e+08,-8.7406e+08,-8.74392e+08,167450,-0.0190729,0.132561,-0,0.133926,-18147.8,-31838.2,-0,36647.2,167450
step02_gravity_refstate-crust.xmf,370,-1.49741e-06,4.3328e-06,0,3.53326e-06,-8.76659e+08,-8.76259e+08,-8.76556e+08,242382,-0.0246261,0.155373,-0,0.157313,-14549.1,-31916.3,-0,35076,242382
step02_gravity_refstate-crust.xmf,371,-1.55743e-06,4.55996e-06,0,3.15628e-06,-8.75424e+08,-8.75005e+08,-8.75317e+08,216521,-0.0229015,0.147582,-0,0.149348,-15686.9,-31871.5,-0,35522.8,216521
step02_gravity_refstate-crust.xmf,372,-1.57334e-06,4.72704e-06,0,2.79355e-06,-8.74561e+08,-8.74128e+08,-8.74453e+08,191637,-0.0210549,0.14004,-0,0.141614,-16877.2,-31840.2,-0,36036.6,191637
step02_gravity_refstate-crust.xmf,373,-1.47198e-06,3.91529e-06,0,4.94647e-06,-9.2734e+08,-9.26971e+08,-9.27239e+08,339328,-0.0293083,0.175727,-0,0.178155,-11254.2,-33760.9,-0,35587.3,339328
step02_gravity_refstate-crust.xmf,374,-6.36317e-07,4.31702e-06,0,3.82473e-07,-8.40637e+08,-8.40298e+08,-8.40594e+08,26237.7,-0.00347532,0.09038,-0,0.0904468,-33682.7,-30608.4,-0,45512.6,26237.7
step02_gravity_refstate-crust.xmf,375,-7.1543e-07,4.38407e-06,0,5.21103e-07,-8.41656e+08,-8.41307e+08,-8.41607e+08,35747.7,-0.0047318,0.0928243,-0,0.0929448,-31777.8,-30645.2,-0,44147,35747.7
step02_gravity_refstate-crust.xmf,376,-1.13603e-06,4.64001e-06,0,1.2796e-06,-8.40009e+08,-8.39613e+08,-8.39931e+08,87780.4,-0.0112655,0.110087,-0,0.110662,-24661.2,-30584,-0,39288.1,87780.4
step02_gravity_refstate-crust.xmf,377,-8.12892e-07,4.45727e-06,0,6.79088e-07,-8.41983e+08,-8.41621e+08,-8.41927e+08,46585.4,-0.0061493,0.0960914,-0,0.0962879,-29896.6,-30656.8,-0,42821.1,46585.4
step02_gravity_refstate-crust.xmf,378,-9.20753e-07,4.52965e-06,0,8.56886e-07,-8.41972e+08,-8.41598e+08,-8.41909e+08,58782.4,-0.00770679,0.100044,-0,0.10034,-28085,-30656.1,-0,41576,58782.4
step02_gravity_refstate-crust.xmf,379,-1.03294e-06,4.59309e-06,0,1.05743e-06,-8.41464e+08,-8.41079e+08,-8.41394e+08,72539.5,-0.00940687,0.104677,-0,0.105099,-26344.8,-30637.3,-0,40406.6,72539.5
step02_gravity_refstate-crust.xmf,380,-2.91649e-07,4.44413e-06,0,2.93332e-09,-9.15445e+08,-9.1512e+08,-9.15425e+08,201.226,-9.72758e-20,0.0749092,-0,0.0749092,-40000,-33333.4,-0,52068.4,201.226
step02_gravity_refstate-crust.xmf,381,-4.86913e-07,4.43726e-06,0,2.60076e-07,-8.83754e+08,-8.83416e+08,-8.83721e+08,17841.2,-0.00228239,0.0825034,-0,0.0825349,-34623.6,-32178.8,-0,47268.1,17841.2
step02_gravity_refstate-crust.xmf,382,7.98214e-07,5.31759e-07,0,2.21479e-06,-5.16142e+08,-5.1616e+08,-5.16197e+08,151934,-0.0148033,0.20714,-0,0.207668,-9926.56,-18794.7,-0,21255.1,151934
step02_gravity_refstate-crust.xmf,383,9.12545e-07,3.47741e-07,0,1.93865e-06,-4.7821e+08,-4.78249e+08,-4.78272e+08,132992,-0.0129957,0.210651,-0,0.211051,-9059.27,-17413.9,-0,19629.5,132992
step02_gravity_refstate-crust.xmf,384,9.81911e-07,2.22394e-07,0,1.66695e-06,-4.39172e+08,-4.39224e+08,-4.3924e+08,114353,-0.0113155,0.21341,-0,0.213709,-8255.18,-15992.8,-0,17997.7,114353
step02_gravity_refstate-crust.xmf,385,9.43693e-07,2.18185e-07,0,1.46161e-06,-3.86791e+08,-3.86841e+08,-3.86856e+08,100266,-0.0102865,0.214023,-0,0.21427,-8176.65,-14085.7,-0,16286.9,100266
step02_gravity_refstate-crust.xmf,386,7.95314e-07,6.17755e-07,0,2.63606e-06,-5.89764e+08,-5.89776e+08,-5.89819e+08,180834,-0.017304,0.205485,-0,0.206212,-9965.28,-21475.1,-0,23674.6,180834
step02_gravity_refstate-crust.xmf,387,6.05489e-07,9.04431e-07,0,2.91379e-06,-6.25569e+08,-6.25548e+08,-6.2561e+08,199886,-0.0191793,0.201245,-0,0.202157,-10693,-22778.3,-0,25163.3,199886
step02_gravity_refstate-crust.xmf,388,6.11187e-07,9.14901e-07,0,3.3269e-06,-6.84077e+08,-6.84056e+08,-6.84119e+08,228226,-0.0213426,0.201338,-0,0.202466,-10294.7,-24908.4,-0,26952,228226
step02_gravity_refstate-crust.xmf,389,8.20303e-08,1.68608e-06,0,3.91434e-06,-7.60994e+08,-7.60884e+08,-7.61e+08,268524,-0.0249287,0.192981,-0,0.194584,-11087.6,-27707.7,-0,29843.8,268524
step02_gravity_refstate-crust.xmf,390,3.8288e-07,1.25366e-06,0,3.7244e-06,-7.336e+08,-7.33541e+08,-7.33627e+08,255494,-0.0236316,0.19796,-0,0.199366,-10542.1,-26710.9,-0,28716,255494
step02_gravity_refstate-crust.xmf,391,-5.98855e-07,2.51845e-06,0,5.10183e-06,-8.81331e+08,-8.81117e+08,-8.81289e+08,349986,-0.0295909,0.19044,-0,0.192725,-10288.8,-32087.2,-0,33696.4,349986
step02_gravity_refstate-crust.xmf,392,-1.64075e-07,1.93694e-06,0,4.69999e-06,-8.36821e+08,-8.36677e+08,-8.3681e+08,322420,-0.028016,0.19374,-0,0.195755,-10320.8,-30467.7,-0,32168.2,322420
step02_gravity_refstate-crust.xmf,393,1.69058e-06,-5.02897e-07,0,1.44371e-07,-5.17098e+07,-5.18603e+07,-5.18258e+07,9903.87,-0.0062295,0.220413,-0,0.220501,-3578.68,-1888.61,-0,4046.45,9903.87
step02_gravity_refstate-crust.xmf,394,9.76118e-07,8.47909e-08,0,9.18366e-07,-2.44215e+08,-2.44276e+08,-2.44282e+08,62999.9,-0.00854906,0.216564,-0,0.216733,-7369.73,-8894.97,-0,11551.3,62999.9
step02_gravity_refstate-crust.xmf,395,1.07724e-06,-2.3529e-08,0,7.02034e-07,-1.88903e+08,-1.88979e+08,-1.88977e+08,48159.5,-0.00821527,0.217764,-0,0.217919,-6720.11,-6881.54,-0,9618.5,48159.5
step02_gravity_refstate-crust.xmf,396,1.40431e-06,-2.90829e-07,0,3.15644e-07,-1.03661e+08,-1.03777e+08,-1.03758e+08,21653.2,-0.0067915,0.220194,-0,0.220299,-4588.77,-3779.12,-0,5944.62,21653.2
step02_gravity_refstate-crust.xmf,397,9.89547e-07,1.31053e-07,0,1.18235e-06,-3.36686e+08,-3.36745e+08,-3.36754e+08,81109.5,-0.00881435,0.216357,-0,0.216536,-7288.66,-12261.6,-0,14264.3,81109.5
step02_gravity_refstate-crust.xmf,398,-1.19255e-06,4.88965e-06,0,1.28574e-06,-8.75759e+08,-8.75341e+08,-8.75677e+08,88201.6,-0.011195,0.106905,-0,0.10749,-23779.2,-31885.6,-0,39776.1,88201.6
step02_gravity_refstate-crust.xmf,399,-1.5353e-06,4.22995e-06,0,4.15772e-06,-9.03556e+08,-9.0316e+08,-9.0345e+08,285220,-0.0269221,0.164208,-0,0.1664,-12895.1,-32895.2,-0,35332.4,285220
step02_gravity_refstate-crust.xmf,400,-1.64515e-06,4.54566e-06,0,3.72019e-06,-9.02074e+08,-9.0165e+08,-9.01962e+08,255205,-0.0252194,0.155621,-0,0.157651,-13975,-32841.3,-0,35691.1,255205
step02_gravity_refstate-crust.xmf,401,-1.15068e-06,3.27827e-06,0,5.45593e-06,-9.26782e+08,-9.26478e+08,-9.26703e+08,374276,-0.0306373,0.186094,-0,0.188599,-10248.4,-33740.9,-0,35262.9,374276
step02_gravity_refstate-crust.xmf,402,-1.70391e-06,4.43132e-06,0,4.42509e-06,-9.28576e+08,-9.28156e+08,-9.2846e+08,303561,-0.0276206,0.165469,-0,0.167759,-12307.5,-33805.7,-0,35976.4,303561
step02_gravity_refstate-crust.xmf,403,-2.26018e-07,4.52255e-06,0,6.46841e-08,-9.40494e+08,-9.40168e+08,-9.40478e+08,4437.33,-0.000432353,0.0711626,-0,0.0711639,-37947.5,-34245.7,-0,51115.4,4437.33
step02_gravity_refstate-crust.xmf,404,-3.02697e-07,4.55394e-06,0,1.46322e-07,-9.33903e+08,-9.33569e+08,-9.33882e+08,10037.7,-0.00109931,0.0734421,-0,0.0734503,-35641.6,-34005.5,-0,49261.5,10037.7
step02_gravity_refstate-crust.xmf,405,9.4479e-07,3.88779e-07,0,2.34414e-06,-5.54098e+08,-5.54136e+08,-5.54163e+08,160808,-0.0153777,0.209187,-0,0.209751,-9198.44,-20176.9,-0,22174.8,160808
step02_gravity_refstate-crust.xmf,406,6.55212e-07,8.6758e-07,0,3.51988e-06,-7.08948e+08,-7.08934e+08,-7.08993e+08,241464,-0.0222122,0.202545,-0,0.203759,-9936.14,-25814,-0,27660.2,241464
step02_gravity_refstate-crust.xmf,407,7.66585e-07,6.8344e-07,0,3.09784e-06,-6.56757e+08,-6.56762e+08,-6.56809e+08,212512,-0.0199022,0.204216,-0,0.205183,-9898.33,-23914,-0,25881.6,212512
step02_gravity_refstate-crust.xmf,408,1.31944e-07,1.56484e-06,0,4.22212e-06,-7.88315e+08,-7.88217e+08,-7.88324e+08,289637,-0.0260058,0.195607,-0,0.197329,-10478,-28702.4,-0,30555.1,289637
step02_gravity_refstate-crust.xmf,409,-1.46353e-07,1.84502e-06,0,5.04304e-06,-8.58993e+08,-8.58856e+08,-8.58983e+08,345952,-0.0289775,0.196725,-0,0.198847,-9796.25,-31274.8,-0,32773.1,345952
step02_gravity_refstate-crust.xmf,410,2.10503e-07,1.4078e-06,0,4.54538e-06,-8.13317e+08,-8.13235e+08,-8.13332e+08,311813,-0.0270018,0.198895,-0,0.200719,-9859.26,-29612.7,-0,31210.8,311813
step02_gravity_refstate-crust.xmf,411,-6.56216e-07,2.49044e-06,0,5.50657e-06,-9.03947e+08,-9.03731e+08,-9.03902e+08,377751,-0.0305762,0.193392,-0,0.195795,-9775.87,-32910.3,-0,34331.5,377751
step02_gravity_refstate-crust.xmf,412,2.08881e-06,-7.92921e-07,0,8.80062e-09,198409,722.266,55116.6,603.723,-0.0051953,0.219968,-0,0.22003,-2459.57,0,-0,2459.57,603.723
step02_gravity_refstate-crust.xmf,413,1.23183e-06,-1.4971e-07,0,4.71624e-07,-1.50453e+08,-1.50548e+08,-1.50538e+08,32353.4,-0.00691833,0.219828,-0,0.219937,-5219.92,-5482.15,-0,7569.78,32353.4
step02_gravity_refstate-crust.xmf,414,1.03923e-06,5.63227e-08,0,9.35281e-07,-2.89683e+08,-2.89751e+08,-2.89755e+08,64160.3,-0.00759076,0.218265,-0,0.218397,-6374.65,-10550.5,-0,12326.8,64160.3
step02_gravity_refstate-crust.xmf,415,-1.25884e-06,5.12251e-06,0,1.29795e-06,-9.0668e+08,-9.06242e+08,-9.06593e+08,89039.2,-0.0110619,0.104438,-0,0.105022,-22911.5,-33011.4,-0,40183.2,89039.2
step02_gravity_refstate-crust.xmf,416,-1.38535e-06,5.1739e-06,0,1.54108e-06,-9.06422e+08,-9.05972e+08,-9.06327e+08,105718,-0.0128923,0.110027,-0,0.110779,-21529.6,-33001.6,-0,39403.4,105718
step02_gravity_refstate-crust.xmf,417,-1.50561e-06,5.20205e-06,0,1.82332e-06,-9.06367e+08,-9.05907e+08,-9.06263e+08,125080,-0.0148834,0.116288,-0,0.117237,-20148.3,-32999.1,-0,38663.9,125080
step02_gravity_refstate-crust.xmf,418,-1.61066e-06,5.19475e-06,0,2.14622e-06,-9.0643e+08,-9.05963e+08,-9.06319e+08,147231,-0.0169966,0.123211,-0,0.124378,-18785.6,-33001,-0,37973.2,147231
step02_gravity_refstate-crust.xmf,419,-1.68312e-06,5.12832e-06,0,2.50432e-06,-9.05258e+08,-9.04791e+08,-9.05143e+08,171797,-0.0191748,0.130817,-0,0.132214,-17486.9,-32958,-0,37309.8,171797
step02_gravity_refstate-crust.xmf,420,-1.70297e-06,4.80931e-06,0,3.28473e-06,-9.02423e+08,-9.01976e+08,-9.02306e+08,225333,-0.0232944,0.146941,-0,0.148776,-15119.6,-32854.2,-0,36166.2,225333
step02_gravity_refstate-crust.xmf,421,-1.716e-06,4.99706e-06,0,2.89431e-06,-9.03789e+08,-9.03328e+08,-9.03671e+08,198549,-0.0213328,0.138915,-0,0.140544,-16245,-32904.1,-0,36695.8,198549
step02_gravity_refstate-crust.xmf,422,-7.12103e-07,2.44748e-06,0,5.96343e-06,-9.26184e+08,-9.25967e+08,-9.26135e+08,409092,-0.0315692,0.197061,-0,0.199574,-9242.82,-33719.6,-0,34963.4,409092
step02_gravity_refstate-crust.xmf,423,-1.2703e-06,3.33569e-06,0,5.89995e-06,-9.49037e+08,-9.48721e+08,-9.4895e+08,404737,-0.0315538,0.18951,-0,0.192118,-9696.79,-34550.7,-0,35885.6,404737
step02_gravity_refstate-crust.xmf,424,-1.61997e-06,4.04897e-06,0,5.3025e-06,-9.49442e+08,-9.49053e+08,-9.4933e+08,363751,-0.0300904,0.178257,-0,0.180779,-10700,-34565.1,-0,36183.4,363751
step02_gravity_refstate-crust.xmf,425,-1.8429e-06,4.58104e-06,0,4.74918e-06,-9.50774e+08,-9.50333e+08,-9.50648e+08,325793,-0.0284014,0.168056,-0,0.170439,-11660.3,-34613.5,-0,36524.8,325793
step02_gravity_refstate-crust.xmf,426,-5.77756e-07,4.50961e-06,0,3.74726e-07,-8.83721e+08,-8.83372e+08,-8.83682e+08,25706.2,-0.00331627,0.084725,-0,0.0847899,-32668.1,-32177.4,-0,45854,25706.2
step02_gravity_refstate-crust.xmf,427,-6.77946e-07,4.59543e-06,0,5.03211e-07,-8.84369e+08,-8.84007e+08,-8.84322e+08,34520.3,-0.00447397,0.0874816,-0,0.0875959,-30776.5,-32200.7,-0,44543,34520.3
step02_gravity_refstate-crust.xmf,428,-1.06602e-06,4.88866e-06,0,1.02533e-06,-8.87359e+08,-8.8695e+08,-8.87286e+08,70338,-0.00900907,0.0996695,-0,0.100076,-25354.4,-32308.4,-0,41069.3,70338
step02_gravity_refstate-crust.xmf,429,-7.97122e-07,4.68479e-06,0,6.54293e-07,-8.83888e+08,-8.83511e+08,-8.83833e+08,44884.5,-0.00582624,0.0910732,-0,0.0912593,-28941.3,-32182.8,-0,43282,44884.5
step02_gravity_refstate-crust.xmf,430,-9.23065e-07,4.77904e-06,0,8.21629e-07,-8.84497e+08,-8.84106e+08,-8.84434e+08,56363.8,-0.00728868,0.0950227,-0,0.0953018,-27201.4,-32204.7,-0,42155.2,56363.8
step02_gravity_refstate-crust.xmf,431,-3.90222e-07,4.61184e-06,0,2.3769e-07,-9.29333e+08,-9.2899e+08,-9.29306e+08,16305.5,-0.00187498,0.0759964,-0,0.0760195,-33626.4,-33838.9,-0,47705.4,16305.5
step02_gravity_refstate-crust.xmf,432,-6.86793e-08,4.58717e-06,0,1.83674e-09,-9.76778e+08,-9.76459e+08,-9.76773e+08,126,1.84751e-21,0.0648217,0,0.0648217,-40000,-35567.4,-0,53526.1,126
step02_gravity_refstate-crust.xmf,433,1.06244e-06,2.04902e-07,0,2.03931e-06,-5.18177e+08,-5.18236e+08,-5.1825e+08,139897,-0.0134049,0.212511,-0,0.212934,-8356.83,-18869.4,-0,20637.1,139897
step02_gravity_refstate-crust.xmf,434,1.17557e-06,2.23618e-08,0,1.6898e-06,-4.79965e+08,-4.80044e+08,-4.80045e+08,115921,-0.0111311,0.216021,-0,0.216308,-7230.9,-17478.4,-0,18915.1,115921
step02_gravity_refstate-crust.xmf,435,1.16757e-06,-3.19066e-10,0,1.39108e-06,-4.31489e+08,-4.31569e+08,-4.31569e+08,95427.8,-0.0093751,0.217629,-0,0.217831,-6590.81,-15713.5,-0,17039.7,95427.8
step02_gravity_refstate-crust.xmf,436,1.11663e-06,2.00669e-07,0,2.476e-06,-5.90365e+08,-5.90428e+08,-5.90442e+08,169853,-0.015916,0.211535,-0,0.212133,-8489.01,-21497.7,-0,23113,169853
step02_gravity_refstate-crust.xmf,437,9.60398e-07,4.29794e-07,0,2.7986e-06,-6.2432e+08,-6.24356e+08,-6.24386e+08,191984,-0.0179806,0.208077,-0,0.208853,-9222.73,-22733.5,-0,24533.1,191984
step02_gravity_refstate-crust.xmf,438,9.35593e-07,4.61797e-07,0,3.28301e-06,-6.85573e+08,-6.85606e+08,-6.85638e+08,225215,-0.020555,0.207261,-0,0.208278,-9187.9,-24963.5,-0,26600.6,225215
step02_gravity_refstate-crust.xmf,439,4.82893e-07,1.10086e-06,0,4.00129e-06,-7.60988e+08,-7.60946e+08,-7.61021e+08,274489,-0.0245983,0.200832,-0,0.202332,-9917.92,-27708.2,-0,29429.7,274489
step02_gravity_refstate-crust.xmf,440,7.13492e-07,7.81915e-07,0,3.75118e-06,-7.35532e+08,-7.35527e+08,-7.35581e+08,257331,-0.0231747,0.204076,-0,0.205388,-9548.32,-26781.9,-0,28433.1,257331
step02_gravity_refstate-crust.xmf,441,-1.43145e-07,1.7785e-06,0,5.41291e-06,-8.81131e+08,-8.80999e+08,-8.81121e+08,371326,-0.0299498,0.199845,-0,0.202077,-9304.3,-32080.6,-0,33402.6,371326
step02_gravity_refstate-crust.xmf,442,2.93281e-07,1.23133e-06,0,4.88575e-06,-8.36552e+08,-8.36488e+08,-8.36572e+08,335162,-0.0279395,0.202373,-0,0.204293,-9291.41,-30458.6,-0,31844.3,335162
step02_gravity_refstate-crust.xmf,443,1.77098e-06,-5.37148e-07,0,5.49845e-08,-5.06946e+07,-5.0853e+07,-5.08161e+07,3771.94,-0.00212992,0.221714,-0,0.221724,-1202.45,-1851.92,-0,2208.06,3771.94
step02_gravity_refstate-crust.xmf,444,1.50812e-06,-3.42672e-07,0,1.63228e-07,-9.99745e+07,-1.00101e+08,-1.00078e+08,11197.5,-0.00354157,0.222028,-0,0.222057,-2323.97,-3645.24,-0,4323.04,11197.5
step02_gravity_refstate-crust.xmf,445,1.10328e-06,-1.65681e-08,0,7.05891e-07,-2.42434e+08,-2.42511e+08,-2.42509e+08,48424.1,-0.00652284,0.219819,-0,0.219916,-5417.19,-8830.48,-0,10359.7,48424.1
step02_gravity_refstate-crust.xmf,446,1.3246e-06,-2.03947e-07,0,3.08291e-07,-1.47725e+08,-1.47829e+08,-1.47815e+08,21148.8,-0.00452925,0.221804,-0,0.22185,-3329.18,-5383.1,-0,6329.39,21148.8
step02_gravity_refstate-crust.xmf,447,1.19567e-06,-1.00582e-07,0,4.92399e-07,-1.93599e+08,-1.93688e+08,-1.93681e+08,33778.5,-0.00555087,0.221006,-0,0.221076,-4407.67,-7052.85,-0,8316.87,33778.5
step02_gravity_refstate-crust.xmf,448,1.13556e-06,-1.7732e-08,0,9.18122e-07,-3.35278e+08,-3.35357e+08,-3.35356e+08,62983.2,-0.00677761,0.219913,-0,0.220017,-5382.54,-12210.7,-0,13344.4,62983.2
step02_gravity_refstate-crust.xmf,449,1.13208e-06,8.79278e-09,0,1.16748e-06,-3.82437e+08,-3.82514e+08,-3.82515e+08,80089.4,-0.00815408,0.218501,-0,0.218653,-6180.15,-13927.6,-0,15237.2,80089.4
step02_gravity_refstate-crust.xmf,450,-7.42963e-07,2.32266e-06,0,6.54133e-06,-9.49137e+08,-9.48926e+08,-9.49086e+08,448735,-0.0326389,0.20219,-0,0.204807,-8632.71,-34554.9,-0,35616.9,448735
step02_gravity_refstate-crust.xmf,451,-1.14681e-06,5.07061e-06,0,1.10898e-06,-9.08036e+08,-9.07609e+08,-9.07957e+08,76075.7,-0.0095569,0.0998746,-0,0.100331,-24120.7,-33061.2,-0,40924.9,76075.7
step02_gravity_refstate-crust.xmf,452,-1.85917e-06,4.87198e-06,0,3.86913e-06,-9.31488e+08,-9.31026e+08,-9.3136e+08,265422,-0.0254465,0.154481,-0,0.156563,-13496.7,-33911.8,-0,36498.9,265422
step02_gravity_refstate-crust.xmf,453,-1.8232e-06,4.97212e-06,0,3.45701e-06,-9.22384e+08,-9.21918e+08,-9.22259e+08,237151,-0.0238129,0.147816,-0,0.149722,-14525.9,-33580.6,-0,36587.7,237151
step02_gravity_refstate-crust.xmf,454,-2.00384e-06,5.02e-06,0,4.21001e-06,-9.54087e+08,-9.53605e+08,-9.53949e+08,288806,-0.0264056,0.157887,-0,0.16008,-12652.9,-34734.2,-0,36967,288806
step02_gravity_refstate-crust.xmf,455,-1.88089e-07,4.69091e-06,0,1.24459e-07,-9.73899e+08,-9.73564e+08,-9.73886e+08,8537.88,-0.000635347,0.0675413,-0,0.0675443,-34570.1,-35462.3,-0,49524.3,8537.88
step02_gravity_refstate-crust.xmf,456,4.02118e-08,4.65245e-06,0,2.28688e-08,-1.00632e+09,-1.006e+09,-1.00632e+09,1568.8,8.45262e-05,0.0600655,0,0.0600655,-38283.6,-36643.3,-0,52994,1568.8
step02_gravity_refstate-crust.xmf,457,-9.7121e-08,4.63945e-06,0,6.86206e-08,-9.81346e+08,-9.81021e+08,-9.8134e+08,4707.37,-0.000218328,0.0649038,-0,0.0649042,-36620.1,-35733.7,-0,51165.7,4707.37
step02_gravity_refstate-crust.xmf,458,-1.44064e-06,3.43847e-06,0,6.35989e-06,-9.70323e+08,-9.69989e+08,-9.70224e+08,436288,-0.0323461,0.192776,-0,0.195471,-9209.49,-35325.1,-0,36505.8,436288
step02_gravity_refstate-crust.xmf,459,-9.81076e-07,2.61039e-06,0,6.8849e-06,-9.69038e+08,-9.68792e+08,-9.68971e+08,472304,-0.033266,0.202858,-0,0.205567,-8440.17,-35278.9,-0,36274.4,472304
step02_gravity_refstate-crust.xmf,460,-4.46915e-07,1.73831e-06,0,7.1244e-06,-9.61014e+08,-9.60865e+08,-9.60984e+08,488734,-0.0334434,0.210679,-0,0.213317,-7898.01,-34987.6,-0,35867.9,488734
step02_gravity_refstate-crust.xmf,461,-5.93445e-07,1.82614e-06,0,7.52787e-06,-9.76611e+08,-9.76445e+08,-9.76571e+08,516412,-0.0340719,0.212882,-0,0.215591,-7663.59,-35554.9,-0,36371.5,516412
step02_gravity_refstate-crust.xmf,462,1.22828e-06,3.07345e-08,0,2.14886e-06,-5.56199e+08,-5.56281e+08,-5.56283e+08,147412,-0.0138454,0.214467,-0,0.214913,-7723.89,-20254,-0,21676.8,147412
step02_gravity_refstate-crust.xmf,463,1.0803e-06,2.90848e-07,0,3.53536e-06,-7.1815e+08,-7.18204e+08,-7.18224e+08,242525,-0.0215285,0.209811,-0,0.210912,-8643.55,-26149.8,-0,27541.3,242525
step02_gravity_refstate-crust.xmf,464,1.14919e-06,1.67514e-07,0,2.97091e-06,-6.57231e+08,-6.57299e+08,-6.5731e+08,203804,-0.0186016,0.21097,-0,0.211789,-8516.4,-23932.1,-0,25402.2,203804
step02_gravity_refstate-crust.xmf,465,5.97452e-07,8.79395e-07,0,4.30887e-06,-7.87486e+08,-7.87467e+08,-7.87527e+08,295589,-0.0255474,0.204047,-0,0.20564,-9318.48,-28673,-0,30149.2,295589
step02_gravity_refstate-crust.xmf,466,3.67831e-07,1.05163e-06,0,5.25462e-06,-8.59149e+08,-8.59102e+08,-8.59174e+08,360467,-0.0288746,0.205918,-0,0.207932,-8778.19,-31281.3,-0,32489.6,360467
step02_gravity_refstate-crust.xmf,467,7.18696e-07,6.57304e-07,0,4.63609e-06,-8.12753e+08,-8.12758e+08,-8.12803e+08,318036,-0.0264632,0.207553,-0,0.209233,-8754.93,-29593,-0,30860.9,318036
step02_gravity_refstate-crust.xmf,468,-1.44068e-07,1.64888e-06,0,5.84521e-06,-9.02662e+08,-9.02539e+08,-9.02652e+08,400982,-0.0309099,0.203325,-0,0.205661,-8826.12,-32864.3,-0,34028.8,400982
step02_gravity_refstate-crust.xmf,469,-1.10382e-07,1.45738e-06,0,6.35241e-06,-9.24322e+08,-9.24214e+08,-9.24314e+08,435775,-0.0318936,0.20797,-0,0.210401,-8290.57,-33652.7,-0,34658.9,435775
step02_gravity_refstate-crust.xmf,470,2.13562e-06,-8.10723e-07,0,6.07818e-09,202854,734.923,56350.5,416.963,1.0601e-07,0.220643,0,0.220643,7.12462e-08,0,0,7.12462e-08,416.963
step02_gravity_refstate-crust.xmf,471,1.15624e-06,-5.12904e-08,0,6.81575e-07,-2.89342e+08,-2.89425e+08,-2.89422e+08,46756,-0.00547314,0.221197,-0,0.221265,-4446.43,-10538.4,-0,11438,46756
step02_gravity_refstate-crust.xmf,472,-1.16287e-06,5.274e-06,0,1.05939e-06,-9.37584e+08,-9.37143e+08,-9.37505e+08,72674.1,-0.00885484,0.0962638,-0,0.0966702,-23551.3,-34137.2,-0,41473,72674.1
step02_gravity_refstate-crust.xmf,473,-1.30654e-06,5.36191e-06,0,1.27062e-06,-9.37862e+08,-9.37404e+08,-9.37772e+08,87164.5,-0.0105093,0.101267,-0,0.101811,-22192.6,-34146.8,-0,40724.9,87164.5
step02_gravity_refstate-crust.xmf,474,-1.45523e-06,5.43382e-06,0,1.52632e-06,-9.37799e+08,-9.37327e+08,-9.37699e+08,104706,-0.0124115,0.107118,-0,0.107835,-20810.6,-34144,-0,39986.2,104706
step02_gravity_refstate-crust.xmf,475,-1.60077e-06,5.48091e-06,0,1.82862e-06,-9.37791e+08,-9.37305e+08,-9.37681e+08,125443,-0.0145104,0.113733,-0,0.114655,-19430.3,-34143.2,-0,39284.8,125443
step02_gravity_refstate-crust.xmf,476,-1.7299e-06,5.51411e-06,0,2.16784e-06,-9.40507e+08,-9.4001e+08,-9.40388e+08,148714,-0.0166959,0.120787,-0,0.121935,-18029.8,-34241.6,-0,38698.4,148714
step02_gravity_refstate-crust.xmf,477,-1.8186e-06,5.39761e-06,0,2.59978e-06,-9.33357e+08,-9.32862e+08,-9.33233e+08,178345,-0.0193317,0.130069,-0,0.131497,-16742.4,-33980.8,-0,37881.4,178345
step02_gravity_refstate-crust.xmf,478,-1.87782e-06,5.27132e-06,0,3.03104e-06,-9.32427e+08,-9.31937e+08,-9.32298e+08,207929,-0.0216124,0.1385,-0,0.140176,-15527.9,-33946.5,-0,37329.4,207929
step02_gravity_refstate-crust.xmf,479,-1.78636e-06,4.19162e-06,0,5.70054e-06,-9.70943e+08,-9.70533e+08,-9.70821e+08,391057,-0.0308236,0.18125,-0,0.183852,-10148.4,-35347.4,-0,36775.4,391057
step02_gravity_refstate-crust.xmf,480,-2.00997e-06,4.75281e-06,0,5.08309e-06,-9.71883e+08,-9.7142e+08,-9.71746e+08,348700,-0.0290456,0.170639,-0,0.173093,-11071.4,-35381.6,-0,37073.4,348700
step02_gravity_refstate-crust.xmf,481,-2.13539e-06,5.16417e-06,0,4.52557e-06,-9.73375e+08,-9.72874e+08,-9.73228e+08,310454,-0.0271452,0.161002,-0,0.163274,-11963,-35436,-0,37400.9,310454
step02_gravity_refstate-crust.xmf,482,-5.05441e-07,4.69864e-06,0,3.40513e-07,-9.27192e+08,-9.26835e+08,-9.27157e+08,23359.2,-0.00278099,0.0787689,-0,0.078818,-31704.5,-33760.6,-0,46313.6,23359.2
step02_gravity_refstate-crust.xmf,483,-6.3125e-07,4.8013e-06,0,4.62118e-07,-9.26279e+08,-9.25906e+08,-9.26235e+08,31701.3,-0.00386214,0.0820008,-0,0.0820917,-29824,-33727,-0,45022,31701.3
step02_gravity_refstate-crust.xmf,484,-1.02119e-06,5.16601e-06,0,8.81992e-07,-9.34399e+08,-9.33975e+08,-9.34329e+08,60504.6,-0.00748784,0.0922962,-0,0.0925994,-24950,-34021.6,-0,42189.7,60504.6
step02_gravity_refstate-crust.xmf,485,-7.6358e-07,4.91254e-06,0,5.96001e-07,-9.26728e+08,-9.26339e+08,-9.26676e+08,40885.6,-0.00504146,0.0854473,-0,0.0855959,-28087.8,-33743,-0,43903.5,40885.6
step02_gravity_refstate-crust.xmf,486,-9.05179e-07,5.0259e-06,0,7.51188e-07,-9.27338e+08,-9.26931e+08,-9.27276e+08,51531.5,-0.00638955,0.0893994,-0,0.0896274,-26423.8,-33764.8,-0,42875.2,51531.5
step02_gravity_refstate-crust.xmf,487,-2.923e-07,4.76965e-06,0,1.98547e-07,-9.71085e+08,-9.70738e+08,-9.71065e+08,13620.4,-0.00116479,0.0699452,-0,0.0699549,-32660.7,-35359.5,-0,48135.4,13620.4
step02_gravity_refstate-crust.xmf,488,1.90891e-07,4.6899e-06,0,1.08354e-09,-1.03772e+09,-1.03742e+09,-1.03774e+09,74.3308,7.05452e-20,0.0545228,0,0.0545228,-40000,-37787.4,-0,55026.3,74.3308
step02_gravity_refstate-crust.xmf,489,-1.67719e-06,3.68694e-06,0,6.76955e-06,-9.91942e+08,-9.91574e+08,-9.91827e+08,464391,-0.0328744,0.194785,-0,0.19754,-8844.57,-36111.6,-0,37178.9,464391
step02_gravity_refstate-crust.xmf,490,-1.26723e-06,2.86143e-06,0,7.44495e-06,-9.9358e+08,-9.93297e+08,-9.93493e+08,510724,-0.0340337,0.205665,-0,0.208462,-8063.77,-36171.6,-0,37059.5,510724
step02_gravity_refstate-crust.xmf,491,-1.25523e-08,1.1604e-06,0,6.89239e-06,-9.4323e+08,-9.43149e+08,-9.43229e+08,472818,-0.0327595,0.213522,-0,0.21602,-7750.62,-34341,-0,35204.7,472818
step02_gravity_refstate-crust.xmf,492,9.94108e-08,8.25348e-07,0,7.47009e-06,-9.6081e+08,-9.6076e+08,-9.60817e+08,512448,-0.0335494,0.219362,-0,0.221913,-7252.33,-34980.9,-0,35724.8,512448
step02_gravity_refstate-crust.xmf,493,1.31771e-06,-1.08787e-07,0,1.82245e-06,-5.24286e+08,-5.24384e+08,-5.24377e+08,125020,-0.0117741,0.217178,-0,0.217497,-6842.07,-19092.3,-0,20281.3,125020
step02_gravity_refstate-crust.xmf,494,1.35713e-06,-1.98406e-07,0,1.3352e-06,-4.67586e+08,-4.67693e+08,-4.67679e+08,91594.7,-0.00875157,0.220034,-0,0.220208,-5562.61,-17028.1,-0,17913.7,91594.7
step02_gravity_refstate-crust.xmf,495,1.31217e-06,-1.70177e-07,0,1.08981e-06,-4.25105e+08,-4.25207e+08,-4.25195e+08,74760.8,-0.0072968,0.220847,-0,0.220968,-4997.55,-15481.4,-0,16268.1,74760.8
step02_gravity_refstate-crust.xmf,496,1.43105e-06,-2.02137e-07,0,2.2427e-06,-5.91872e+08,-5.91984e+08,-5.9197e+08,153849,-0.0141405,0.216913,-0,0.217374,-7052.38,-21553.2,-0,22677.6,153849
step02_gravity_refstate-crust.xmf,497,1.31701e-06,-3.80201e-08,0,2.60802e-06,-6.2486e+08,-6.24953e+08,-6.2495e+08,178910,-0.0163793,0.214234,-0,0.214859,-7796.24,-22753.9,-0,24052.5,178910
step02_gravity_refstate-crust.xmf,498,1.33589e-06,-7.98476e-08,0,3.14339e-06,-6.86748e+08,-6.86845e+08,-6.86839e+08,215637,-0.0191765,0.213783,-0,0.214641,-7925.38,-25007,-0,26232.8,215637
step02_gravity_refstate-crust.xmf,499,9.6474e-07,4.15928e-07,0,3.94278e-06,-7.56161e+08,-7.56199e+08,-7.56227e+08,270475,-0.0234892,0.208903,-0,0.21022,-8716.21,-27533.3,-0,28880.1,270475
step02_gravity_refstate-crust.xmf,500,4.01568e-07,9.37542e-07,0,5.64344e-06,-8.81069e+08,-8.81032e+08,-8.81096e+08,387140,-0.0298248,0.209147,-0,0.211263,-8353.47,-32079.3,-0,33149.1,387140
step02_gravity_refstate-crust.xmf,501,8.46763e-07,4.10019e-07,0,4.99865e-06,-8.37263e+08,-8.37293e+08,-8.37321e+08,342908,-0.0273764,0.211299,-0,0.213065,-8231.97,-30485.5,-0,31577.3,342908
step02_gravity_refstate-crust.xmf,502,1.77244e-06,-5.3883e-07,0,-3.51034e-08,-5.06518e+07,-5.08104e+07,-5.07734e+07,-2408.09,0.00202731,0.221729,0,0.221738,1144.15,-1850.37,0,2175.53,2408.09
step02_gravity_refstate-crust.xmf,503,1.53835e-06,-3.57196e-07,0,1.04275e-08,-1.00195e+08,-1.00325e+08,-1.00301e+08,715.329,-8.97728e-05,0.222688,-0,0.222688,-58.5238,-3653.38,-0,3653.85,715.329
step02_gravity_refstate-crust.xmf,504,1.3816e-06,-2.37246e-07,0,1.14246e-07,-1.45858e+08,-1.45969e+08,-1.45953e+08,7837.31,-0.00163988,0.223005,-0,0.223011,-1186.22,-5315.33,-0,5446.08,7837.31
step02_gravity_refstate-crust.xmf,505,1.19658e-06,-9.19134e-08,0,4.6299e-07,-2.41962e+08,-2.42051e+08,-2.42044e+08,31761.1,-0.00423542,0.222191,-0,0.222231,-3427.33,-8813.58,-0,9456.52,31761.1
step02_gravity_refstate-crust.xmf,506,1.26906e-06,-1.50904e-07,0,2.6772e-07,-1.93451e+08,-1.93548e+08,-1.93538e+08,18365.6,-0.0029733,0.22283,-0,0.22285,-2315.62,-7047.67,-0,7418.34,18365.6
step02_gravity_refstate-crust.xmf,507,1.24482e-06,-1.29944e-07,0,6.18314e-07,-3.35072e+08,-3.35166e+08,-3.35157e+08,42416.3,-0.00452521,0.222475,-0,0.222521,-3490.81,-12203.5,-0,12692.9,42416.3
step02_gravity_refstate-crust.xmf,508,1.27145e-06,-1.45143e-07,0,8.56053e-07,-3.81079e+08,-3.81176e+08,-3.81166e+08,58725.3,-0.00592964,0.221642,-0,0.221722,-4341.16,-13878.5,-0,14541.6,58725.3
step02_gravity_refstate-crust.xmf,509,-1.98862e-06,5.34354e-06,0,3.35406e-06,-9.47663e+08,-9.4716e+08,-9.47526e+08,230089,-0.022927,0.143134,-0,0.144959,-14517.5,-34500.8,-0,37430.8,230089
step02_gravity_refstate-crust.xmf,510,-2.12791e-06,5.48868e-06,0,3.6628e-06,-9.66611e+08,-9.66089e+08,-9.66466e+08,251268,-0.0238704,0.146661,-0,0.148591,-13636.9,-35190.3,-0,37740.2,251268
step02_gravity_refstate-crust.xmf,511,-2.19781e-06,5.463e-06,0,4.05273e-06,-9.76284e+08,-9.75758e+08,-9.76133e+08,278017,-0.0252805,0.152598,-0,0.154678,-12765.6,-35542.2,-0,37765.1,278017
step02_gravity_refstate-crust.xmf,512,-7.60331e-08,4.81669e-06,0,8.79449e-08,-1.01377e+09,-1.01344e+09,-1.01377e+09,6033.02,0.000206446,0.0614895,0,0.0614898,-33610.3,-36914.5,-0,49923.3,6033.02
step02_gravity_refstate-crust.xmf,513,6.59386e-09,4.73985e-06,0,5.36523e-08,-1.01487e+09,-1.01455e+09,-1.01487e+09,3680.55,0.000287547,0.0599012,0,0.0599019,-35376.2,-36954.9,-0,51158,3680.55
step02_gravity_refstate-crust.xmf,514,2.61005e-07,4.72262e-06,0,-2.13809e-09,-1.05525e+09,-1.05495e+09,-1.05527e+09,-146.673,0.000420777,0.0516776,0,0.0516793,-38427.4,-38425.8,-0,54343.5,146.673
step02_gravity_refstate-crust.xmf,515,1.79835e-07,4.74491e-06,0,7.88863e-09,-1.04533e+09,-1.04502e+09,-1.04535e+09,541.16,0.000692186,0.0539166,0,0.0539211,-36719.6,-38064.5,-0,52888.9,541.16
step02_gravity_refstate-crust.xmf,516,-2.00281e-06,4.40775e-06,0,6.08673e-06,-9.92095e+08,-9.91656e+08,-9.91958e+08,417550,-0.0313526,0.183841,-0,0.186495,-9668.26,-36116.9,-0,37388.6,417550
step02_gravity_refstate-crust.xmf,517,-7.25233e-07,1.83841e-06,0,8.09916e-06,-9.95054e+08,-9.94878e+08,-9.95004e+08,555602,-0.0348175,0.216928,-0,0.219704,-7308.18,-36225.9,-0,36955.7,555602
step02_gravity_refstate-crust.xmf,518,6.50555e-08,6.99928e-07,0,8.03239e-06,-9.78156e+08,-9.78112e+08,-9.7816e+08,551022,-0.0343297,0.22355,-0,0.226171,-6921.93,-35612.1,-0,36278.6,551022
step02_gravity_refstate-crust.xmf,519,1.39041e-06,-2.1778e-07,0,1.54081e-06,-5.00505e+08,-5.00615e+08,-5.006e+08,105700,-0.00997413,0.219394,-0,0.219621,-5953.68,-18226.7,-0,19174.4,105700
step02_gravity_refstate-crust.xmf,520,1.50363e-06,-3.13923e-07,0,1.88796e-06,-5.59609e+08,-5.59734e+08,-5.59712e+08,129514,-0.011958,0.219143,-0,0.219469,-6265.14,-20378.7,-0,21320,129514
step02_gravity_refstate-crust.xmf,521,1.52951e-06,-3.18221e-07,0,3.31379e-06,-7.13677e+08,-7.13804e+08,-7.13782e+08,227326,-0.0196984,0.216656,-0,0.21755,-7404.15,-25987.8,-0,27022,227326
step02_gravity_refstate-crust.xmf,522,1.53423e-06,-3.41857e-07,0,2.74454e-06,-6.57056e+08,-6.57185e+08,-6.57161e+08,188276,-0.0167906,0.217092,-0,0.21774,-7170.06,-23926.5,-0,24977.7,188276
step02_gravity_refstate-crust.xmf,523,1.35507e-06,-1.04757e-07,0,3.65558e-06,-7.38085e+08,-7.38185e+08,-7.38178e+08,250773,-0.021564,0.214325,-0,0.215407,-7855.96,-26876,-0,28000.7,250773
step02_gravity_refstate-crust.xmf,524,1.11095e-06,1.45484e-07,0,4.30296e-06,-7.87904e+08,-7.87971e+08,-7.87981e+08,295183,-0.0245978,0.212211,-0,0.213632,-8179.12,-28689.2,-0,29832.3,295183
step02_gravity_refstate-crust.xmf,525,9.14336e-07,2.37347e-07,0,5.38473e-06,-8.60844e+08,-8.6089e+08,-8.60906e+08,369393,-0.0283706,0.214415,-0,0.216284,-7844.25,-31343.9,-0,32310.6,369393
step02_gravity_refstate-crust.xmf,526,1.29784e-06,-1.74411e-07,0,4.62763e-06,-8.13437e+08,-8.13538e+08,-8.13526e+08,317455,-0.0253816,0.216149,-0,0.217635,-7642.46,-29619,-0,30589.1,317455
step02_gravity_refstate-crust.xmf,527,4.71373e-07,6.89888e-07,0,6.09857e-06,-9.02104e+08,-9.02089e+08,-9.02136e+08,418362,-0.0307313,0.213207,-0,0.215411,-7896.85,-32845,-0,33780.9,418362
step02_gravity_refstate-crust.xmf,528,5.99669e-07,3.6013e-07,0,6.61042e-06,-9.22607e+08,-9.22623e+08,-9.22648e+08,453475,-0.0315903,0.218398,-0,0.220671,-7394.32,-33591.4,-0,34395.6,453475
step02_gravity_refstate-crust.xmf,529,2.08505e-06,-7.9202e-07,0,2.91618e-09,198029,662.448,54995,200.05,0.00519502,0.219968,0,0.220029,2459.57,0,0,2459.57,200.05
step02_gravity_refstate-crust.xmf,530,1.2363e-06,-1.25707e-07,0,3.91884e-07,-2.8842e+08,-2.88513e+08,-2.88505e+08,26883.3,-0.00312283,0.223162,-0,0.223184,-2483.56,-10505,-0,10794.6,26883.3
step02_gravity_refstate-crust.xmf,531,-1.00901e-06,5.37873e-06,0,8.12264e-07,-9.69163e+08,-9.68725e+08,-9.69094e+08,55721.3,-0.00638068,0.0876864,-0,0.0879183,-24286.6,-35287.6,-0,42837.5,55721.3
step02_gravity_refstate-crust.xmf,532,-1.18074e-06,5.50327e-06,0,1.00534e-06,-9.69255e+08,-9.68796e+08,-9.69174e+08,68966.4,-0.00793236,0.0925149,-0,0.0928543,-22860.1,-35290.4,-0,42047.6,68966.4
step02_gravity_refstate-crust.xmf,533,-1.34922e-06,5.61407e-06,0,1.22922e-06,-9.69444e+08,-9.68966e+08,-9.69351e+08,84324.6,-0.00966993,0.0978972,-0,0.0983736,-21469.1,-35296.8,-0,41313.3,84324.6
step02_gravity_refstate-crust.xmf,534,-1.51599e-06,5.70048e-06,0,1.49261e-06,-9.68782e+08,-9.68287e+08,-9.68678e+08,102393,-0.0116182,0.103977,-0,0.104624,-20130.7,-35272.2,-0,40612.5,102393
step02_gravity_refstate-crust.xmf,535,-1.66686e-06,5.75994e-06,0,1.77559e-06,-9.68416e+08,-9.67907e+08,-9.68302e+08,121806,-0.0135796,0.110189,-0,0.111023,-18906.9,-35258.3,-0,40007.8,121806
step02_gravity_refstate-crust.xmf,536,-1.87739e-06,5.74206e-06,0,2.34887e-06,-9.6296e+08,-9.62437e+08,-9.62831e+08,161133,-0.0173138,0.122485,-0,0.123702,-16989.5,-35058.8,-0,38958.5,161133
step02_gravity_refstate-crust.xmf,537,-1.92711e-06,5.62502e-06,0,2.66528e-06,-9.55618e+08,-9.551e+08,-9.55486e+08,182838,-0.0192761,0.129346,-0,0.130774,-16178.4,-34791.1,-0,38368.8,182838
step02_gravity_refstate-crust.xmf,538,-2.03098e-06,5.67738e-06,0,2.92077e-06,-9.63876e+08,-9.63347e+08,-9.63737e+08,200365,-0.0204208,0.133392,-0,0.134946,-15368.4,-35091.5,-0,38309.2,200365
step02_gravity_refstate-crust.xmf,539,-2.20915e-06,4.9698e-06,0,5.42693e-06,-9.92889e+08,-9.92397e+08,-9.92738e+08,372287,-0.0295283,0.173164,-0,0.175664,-10523.4,-36145.9,-0,37646.6,372287
step02_gravity_refstate-crust.xmf,540,-2.3191e-06,5.39827e-06,0,4.78279e-06,-9.93526e+08,-9.92997e+08,-9.93367e+08,328099,-0.027456,0.162764,-0,0.165063,-11426.9,-36169.3,-0,37931.4,328099
step02_gravity_refstate-crust.xmf,541,-2.35105e-06,5.70393e-06,0,4.19703e-06,-9.9448e+08,-9.93927e+08,-9.94319e+08,287916,-0.0252839,0.153073,-0,0.155147,-12336.3,-36204.4,-0,38248.4,287916
step02_gravity_refstate-crust.xmf,542,-4.22791e-07,4.87928e-06,0,2.85875e-07,-9.69567e+08,-9.69204e+08,-9.69538e+08,19611,-0.00187929,0.0727614,-0,0.0727856,-30775.9,-35303.9,-0,46835.1,19611
step02_gravity_refstate-crust.xmf,543,-8.48587e-07,5.27435e-06,0,6.38183e-07,-9.71015e+08,-9.70595e+08,-9.70957e+08,43779.4,-0.00493556,0.0830682,-0,0.0832147,-25734.7,-35355.5,-0,43729.7,43779.4
step02_gravity_refstate-crust.xmf,544,-5.56109e-07,5.00497e-06,0,3.85895e-07,-9.70217e+08,-9.69835e+08,-9.70178e+08,26472.4,-0.00271195,0.0757107,-0,0.0757592,-28994.1,-35327.2,-0,45701.9,26472.4
step02_gravity_refstate-crust.xmf,545,-6.9994e-07,5.1421e-06,0,5.01919e-07,-9.71918e+08,-9.71517e+08,-9.7187e+08,34431.7,-0.00368033,0.0789487,-0,0.0790344,-27306.6,-35388.8,-0,44699.1,34431.7
step02_gravity_refstate-crust.xmf,546,-1.8045e-07,4.92228e-06,0,1.39346e-07,-1.01292e+09,-1.01257e+09,-1.0129e+09,9559.11,-5.56241e-05,0.0636846,-0,0.0636846,-31732.8,-36883.1,-0,48655.3,9559.11
step02_gravity_refstate-crust.xmf,547,1.52192e-07,4.83546e-06,0,8.77951e-09,-1.05437e+09,-1.05405e+09,-1.05438e+09,602.275,0.00123336,0.053525,0,0.0535393,-34622.1,-38393.6,-0,51698.7,602.275
step02_gravity_refstate-crust.xmf,548,-2.23461e-06,4.66849e-06,0,6.46142e-06,-1.01228e+09,-1.01181e+09,-1.01213e+09,443254,-0.0316624,0.186182,-0,0.188855,-9243.6,-36851.3,-0,37993,443254
step02_gravity_refstate-crust.xmf,549,-1.9326e-06,3.93867e-06,0,7.2242e-06,-1.01235e+09,-1.01195e+09,-1.01222e+09,495580,-0.0333081,0.197546,-0,0.200335,-8455.12,-36853.9,-0,37811.4,495580
step02_gravity_refstate-crust.xmf,550,-1.47618e-06,2.99818e-06,0,8.0044e-06,-1.01261e+09,-1.0123e+09,-1.0125e+09,549102,-0.0346224,0.209404,-0,0.212247,-7687.9,-36863.6,-0,37656.7,549102
step02_gravity_refstate-crust.xmf,551,2.76243e-08,5.70627e-07,0,8.67419e-06,-9.9567e+08,-9.95633e+08,-9.95672e+08,595049,-0.035094,0.22846,-0,0.231139,-6577.72,-36249.4,-0,36841.3,595049
step02_gravity_refstate-crust.xmf,552,7.5439e-07,-3.34867e-08,0,7.16717e-06,-9.4184e+08,-9.41894e+08,-9.41892e+08,491668,-0.0323776,0.224097,-0,0.226424,-6912.97,-34291.6,-0,34981.5,491668
step02_gravity_refstate-crust.xmf,553,9.07637e-07,-4.50705e-07,0,7.76677e-06,-9.59931e+08,-9.60024e+08,-9.59993e+08,532800,-0.0331174,0.229881,-0,0.232254,-6484.51,-34950.2,-0,35546.7,532800
step02_gravity_refstate-crust.xmf,554,1.43291e-06,-3.10398e-07,0,7.43527e-07,-4.22887e+08,-4.23006e+08,-4.22985e+08,51005.9,-0.00494348,0.223365,-0,0.223419,-3302.49,-15400.9,-0,15751,51005.9
step02_gravity_refstate-crust.xmf,555,1.54831e-06,-3.8782e-07,0,1.56044e-06,-5.30413e+08,-5.30546e+08,-5.3052e+08,107046,-0.00992789,0.220976,-0,0.221199,-5443.83,-19315.9,-0,20068.4,107046
step02_gravity_refstate-crust.xmf,556,1.54885e-06,-4.0724e-07,0,1.26465e-06,-5.00273e+08,-5.00408e+08,-5.0038e+08,86755.3,-0.00811127,0.222203,-0,0.222351,-4688.99,-18218.6,-0,18812.3,86755.3
step02_gravity_refstate-crust.xmf,557,1.50319e-06,-3.7251e-07,0,9.92346e-07,-4.64284e+08,-4.64413e+08,-4.64387e+08,68074.9,-0.00645131,0.222925,-0,0.223019,-3992.75,-16908.2,-0,17373.3,68074.9
step02_gravity_refstate-crust.xmf,558,1.72776e-06,-5.793e-07,0,1.92862e-06,-5.93628e+08,-5.93786e+08,-5.93746e+08,132303,-0.0119527,0.221597,-0,0.221919,-5630.35,-21617.7,-0,22338.9,132303
step02_gravity_refstate-crust.xmf,559,1.66894e-06,-4.92915e-07,0,2.32654e-06,-6.26105e+08,-6.26253e+08,-6.26219e+08,159601,-0.014308,0.219775,-0,0.22024,-6376.58,-22800,-0,23674.9,159601
step02_gravity_refstate-crust.xmf,560,1.73697e-06,-6.11611e-07,0,2.88977e-06,-6.86329e+08,-6.8649e+08,-6.86448e+08,198238,-0.0172517,0.219739,-0,0.220415,-6683.47,-24992.6,-0,25870.8,198238
step02_gravity_refstate-crust.xmf,561,1.43999e-06,-2.40488e-07,0,3.91647e-06,-7.62908e+08,-7.63023e+08,-7.63007e+08,268670,-0.0224905,0.216104,-0,0.217271,-7592.07,-27779.9,-0,28798.6,268670
step02_gravity_refstate-crust.xmf,562,1.72578e-06,-6.00992e-07,0,3.49497e-06,-7.38182e+08,-7.38342e+08,-7.38301e+08,239755,-0.0201579,0.219597,-0,0.220521,-6939.17,-26880.3,-0,27761.5,239755
step02_gravity_refstate-crust.xmf,563,1.01229e-06,2.99112e-08,0,5.78136e-06,-8.81883e+08,-8.81951e+08,-8.81953e+08,396601,-0.0292295,0.218101,-0,0.220051,-7446.02,-32110,-0,32962,396601
step02_gravity_refstate-crust.xmf,564,1.54507e-06,-5.50734e-07,0,5.01315e-06,-8.40369e+08,-8.40513e+08,-8.40475e+08,343902,-0.0261771,0.221072,-0,0.222617,-7067.62,-30599.9,-0,31405.5,343902
step02_gravity_refstate-crust.xmf,565,1.70193e-06,-5.12855e-07,0,-1.23017e-07,-5.01455e+07,-5.02974e+07,-5.02622e+07,-8438.95,0.00618639,0.220421,0,0.220508,3534.47,-1831.69,0,3980.9,8438.95
step02_gravity_refstate-crust.xmf,566,1.51016e-06,-3.45127e-07,0,-1.4218e-07,-1.00295e+08,-1.00422e+08,-1.00399e+08,-9753.52,0.00335013,0.222101,0,0.222127,2198.48,-3656.92,0,4266.89,9753.52
step02_gravity_refstate-crust.xmf,567,1.38486e-06,-2.39925e-07,0,-8.6457e-08,-1.45629e+08,-1.4574e+08,-1.45724e+08,-5930.95,0.0013856,0.223054,0,0.223058,1001.31,-5306.99,0,5400.63,5930.95
step02_gravity_refstate-crust.xmf,568,1.29797e-06,-1.71784e-07,0,2.23745e-08,-1.9342e+08,-1.93521e+08,-1.93509e+08,1534.89,-0.000203796,0.223534,-0,0.223534,-157.473,-7046.63,-0,7048.39,1534.89
step02_gravity_refstate-crust.xmf,569,1.25133e-06,-1.36869e-07,0,1.89307e-07,-2.41261e+08,-2.41357e+08,-2.41347e+08,12986.5,-0.00170789,0.223551,-0,0.223558,-1361.86,-8788.22,-0,8893.11,12986.5
step02_gravity_refstate-crust.xmf,570,1.30901e-06,-1.96582e-07,0,2.95333e-07,-3.34436e+08,-3.34539e+08,-3.34526e+08,20259.8,-0.00214432,0.223963,-0,0.223973,-1627.92,-12180.5,-0,12288.8,20259.8
step02_gravity_refstate-crust.xmf,571,1.3644e-06,-2.48333e-07,0,5.15728e-07,-3.79336e+08,-3.79447e+08,-3.7943e+08,35378.9,-0.00354958,0.2237,-0,0.223728,-2545.14,-13815.3,-0,14047.7,35378.9
step02_gravity_refstate-crust.xmf,572,-1.7828e-06,5.80794e-06,0,2.02267e-06,-9.70097e+08,-9.69577e+08,-9.69975e+08,138755,-0.015164,0.115309,-0,0.116302,-17922.5,-35319.1,-0,39606.3,138755
step02_gravity_refstate-crust.xmf,573,-2.1174e-06,5.70282e-06,0,3.2089e-06,-9.71289e+08,-9.70753e+08,-9.71144e+08,220131,-0.0216858,0.138101,-0,0.139794,-14553.4,-35361,-0,38238.8,220131
step02_gravity_refstate-crust.xmf,574,-2.31365e-06,5.87623e-06,0,3.68484e-06,-9.93459e+08,-9.92897e+08,-9.93301e+08,252780,-0.0232043,0.144488,-0,0.146339,-13257.1,-36167.6,-0,38520.7,252780
step02_gravity_refstate-crust.xmf,575,-8.1557e-07,5.47169e-06,0,5.67748e-07,-1.00453e+09,-1.0041e+09,-1.00448e+09,38947.5,-0.00364185,0.0785319,-0,0.0786163,-25007.7,-36576.2,-0,44308,38947.5
step02_gravity_refstate-crust.xmf,576,-9.98576e-07,5.5976e-06,0,7.43241e-07,-1.00165e+09,-1.0012e+09,-1.00159e+09,50986.3,-0.00513462,0.0835158,-0,0.0836735,-23565.1,-36470.9,-0,43421.6,50986.3
step02_gravity_refstate-crust.xmf,577,6.32036e-08,4.94181e-06,0,2.73015e-08,-1.05548e+09,-1.05514e+09,-1.05548e+09,1872.88,0.00148396,0.0549515,0,0.0549716,-32699.8,-38433.6,-0,50462.1,1872.88
step02_gravity_refstate-crust.xmf,578,-2.43777e-06,5.279e-06,0,5.70335e-06,-1.01352e+09,-1.01299e+09,-1.01335e+09,391250,-0.0296585,0.174828,-0,0.177325,-10077.5,-36896.5,-0,38247.9,391250
step02_gravity_refstate-crust.xmf,579,-8.46451e-07,1.80526e-06,0,8.75977e-06,-1.01266e+09,-1.01248e+09,-1.0126e+09,600920,-0.0354966,0.221729,-0,0.224553,-6940.87,-36866.3,-0,37514,600920
step02_gravity_refstate-crust.xmf,580,8.6214e-07,-5.36997e-07,0,8.40721e-06,-9.79676e+08,-9.79772e+08,-9.79736e+08,576734,-0.0340858,0.234147,-0,0.236615,-6213.45,-35668.8,-0,36205.9,576734
step02_gravity_refstate-crust.xmf,581,1.75836e-06,-6.31115e-07,0,1.55155e-06,-5.63263e+08,-5.63427e+08,-5.63383e+08,106436,-0.00968071,0.223137,-0,0.223347,-4807.7,-20512.3,-0,21068.2,106436
step02_gravity_refstate-crust.xmf,582,1.90984e-06,-8.25918e-07,0,3.06578e-06,-7.12641e+08,-7.12829e+08,-7.12772e+08,210313,-0.0178387,0.221983,-0,0.222698,-6350.65,-25950.9,-0,26716.6,210313
step02_gravity_refstate-crust.xmf,583,1.95216e-06,-8.60283e-07,0,2.42143e-06,-6.61063e+08,-6.61255e+08,-6.61196e+08,166110,-0.0144337,0.223061,-0,0.223528,-5722.27,-24073.2,-0,24744,166110
step02_gravity_refstate-crust.xmf,584,1.66255e-06,-6.2232e-07,0,4.18333e-06,-7.8856e+08,-7.88717e+08,-7.88674e+08,286977,-0.0231047,0.219894,-0,0.221104,-7074.4,-28714.1,-0,29572.7,286977
step02_gravity_refstate-crust.xmf,585,1.45203e-06,-5.241e-07,0,5.45239e-06,-8.64548e+08,-8.64684e+08,-8.64648e+08,374034,-0.0276185,0.221994,-0,0.223705,-7018.44,-31479.8,-0,32252.7,374034
step02_gravity_refstate-crust.xmf,586,1.93255e-06,-1.05309e-06,0,4.45236e-06,-8.12776e+08,-8.12981e+08,-8.12908e+08,305432,-0.0235706,0.224316,-0,0.225551,-6544,-29596.1,-0,30310.9,305432
step02_gravity_refstate-crust.xmf,587,1.19075e-06,-3.86319e-07,0,6.23138e-06,-9.01925e+08,-9.02033e+08,-9.02007e+08,427473,-0.0299643,0.22297,-0,0.224974,-6984.06,-32839.7,-0,33574.1,427473
step02_gravity_refstate-crust.xmf,588,1.3997e-06,-8.38841e-07,0,6.74436e-06,-9.2243e+08,-9.22583e+08,-9.22526e+08,462663,-0.0307102,0.228542,-0,0.230596,-6521.75,-33586.3,-0,34213.7,462663
step02_gravity_refstate-crust.xmf,589,1.94105e-06,-7.38851e-07,0,4.47485e-10,184288,446.834,51132,30.6974,0.0101528,0.217978,0,0.218214,4919.33,0,0,4919.33,30.6974
step02_gravity_refstate-crust.xmf,590,1.27154e-06,-1.58994e-07,0,8.60724e-08,-2.88076e+08,-2.88175e+08,-2.88164e+08,5904.57,-0.00066804,0.224026,-0,0.224027,-526.513,-10492.6,-0,10505.8,5904.57
step02_gravity_refstate-crust.xmf,591,-1.18835e-06,5.74755e-06,0,9.35745e-07,-1.00209e+09,-1.00161e+09,-1.00201e+09,64192.1,-0.00665601,0.0884616,-0,0.0887116,-22141.9,-36486.2,-0,42679.1,64192.1
step02_gravity_refstate-crust.xmf,592,-1.37928e-06,5.87138e-06,0,1.17445e-06,-1.00073e+09,-1.00023e+09,-1.00063e+09,80566.9,-0.00851605,0.0943794,-0,0.0947629,-20760,-36436,-0,41935.2,80566.9
step02_gravity_refstate-crust.xmf,593,-1.56058e-06,5.9692e-06,0,1.43805e-06,-9.99015e+08,-9.98498e+08,-9.98908e+08,98650.4,-0.010481,0.100593,-0,0.101137,-19503,-36373.1,-0,41271.8,98650.4
step02_gravity_refstate-crust.xmf,594,-1.71314e-06,6.01042e-06,0,1.71607e-06,-9.94664e+08,-9.94134e+08,-9.94546e+08,117722,-0.0125276,0.107045,-0,0.107775,-18448.3,-36214.1,-0,40642.3,117722
step02_gravity_refstate-crust.xmf,595,-1.86127e-06,6.02666e-06,0,2.03975e-06,-9.9085e+08,-9.90309e+08,-9.90722e+08,139927,-0.0147057,0.114044,-0,0.114988,-17385.1,-36074.7,-0,40045.3,139927
step02_gravity_refstate-crust.xmf,596,-2.00543e-06,5.98684e-06,0,2.44449e-06,-9.85469e+08,-9.84921e+08,-9.85332e+08,167692,-0.0172523,0.122453,-0,0.123662,-16263.8,-35878.1,-0,39392.3,167692
step02_gravity_refstate-crust.xmf,597,-2.2411e-06,5.99146e-06,0,3.21018e-06,-9.92919e+08,-9.92354e+08,-9.92765e+08,220218,-0.0210471,0.136187,-0,0.137804,-14223.2,-36148.4,-0,38845.9,220218
step02_gravity_refstate-crust.xmf,598,-2.14163e-06,6.03031e-06,0,2.81129e-06,-9.91203e+08,-9.90642e+08,-9.91056e+08,192855,-0.0190976,0.129035,-0,0.130441,-15172.3,-36086.4,-0,39146.2,192855
step02_gravity_refstate-crust.xmf,599,-2.53619e-06,5.71465e-06,0,4.99914e-06,-1.0147e+09,-1.01413e+09,-1.01452e+09,342941,-0.027401,0.163773,-0,0.16605,-10959.8,-36939.6,-0,38531.2,342941
step02_gravity_refstate-crust.xmf,600,-2.53079e-06,5.99416e-06,0,4.35627e-06,-1.01455e+09,-1.01397e+09,-1.01438e+09,298840,-0.0251265,0.153678,-0,0.155718,-11864.6,-36934.9,-0,38793.8,298840
step02_gravity_refstate-crust.xmf,601,-2.47164e-06,6.18068e-06,0,3.77697e-06,-1.01471e+09,-1.01412e+09,-1.01454e+09,259100,-0.0227974,0.144182,-0,0.145973,-12794.5,-36941.1,-0,39094,259100
step02_gravity_refstate-crust.xmf,602,-8.21653e-07,5.64738e-06,0,5.37521e-07,-1.02868e+09,-1.02823e+09,-1.02862e+09,36873.9,-0.00272961,0.0759768,-0,0.0760259,-24203.6,-37455.4,-0,44595,36873.9
step02_gravity_refstate-crust.xmf,603,-3.14471e-07,5.05432e-06,0,2.05607e-07,-1.01322e+09,-1.01285e+09,-1.0132e+09,14104.6,-0.000484101,0.0661936,-0,0.0661954,-29926.9,-36893.9,-0,47505.6,14104.6
step02_gravity_refstate-crust.xmf,604,-6.0062e-07,5.38353e-06,0,3.76597e-07,-1.02083e+09,-1.02042e+09,-1.02079e+09,25834.5,-0.00163916,0.0715502,-0,0.071569,-26460.1,-37170.2,-0,45626.3,25834.5
step02_gravity_refstate-crust.xmf,605,-4.53782e-07,5.20428e-06,0,2.8577e-07,-1.01526e+09,-1.01488e+09,-1.01523e+09,19603.8,-0.001043,0.0688924,-0,0.0689003,-28190,-36967.9,-0,46489.9,19603.8
step02_gravity_refstate-crust.xmf,606,-4.69772e-08,5.06904e-06,0,6.10238e-08,-1.05578e+09,-1.05543e+09,-1.05577e+09,4186.23,0.00151562,0.0569938,0,0.057014,-30860.6,-38444.3,-0,49298.5,4186.23
step02_gravity_refstate-crust.xmf,607,-2.64216e-06,5.52439e-06,0,6.04335e-06,-1.03153e+09,-1.03097e+09,-1.03134e+09,414574,-0.0298018,0.177493,-0,0.179978,-9612.56,-37551.6,-0,38762.4,414574
step02_gravity_refstate-crust.xmf,608,-2.47131e-06,4.93764e-06,0,6.83898e-06,-1.03052e+09,-1.03001e+09,-1.03035e+09,469154,-0.0318356,0.18884,-0,0.191505,-8839.76,-37514.6,-0,38542,469154
step02_gravity_refstate-crust.xmf,609,-2.185e-06,4.18248e-06,0,7.70604e-06,-1.03085e+09,-1.03041e+09,-1.0307e+09,528635,-0.0336139,0.200835,-0,0.203628,-8070.49,-37526.8,-0,38384.8,528635
step02_gravity_refstate-crust.xmf,610,-1.71463e-06,3.16627e-06,0,8.60951e-06,-1.03095e+09,-1.03061e+09,-1.03083e+09,590612,-0.0350793,0.213518,-0,0.21638,-7320.89,-37530.6,-0,38237.9,590612
step02_gravity_refstate-crust.xmf,611,9.90415e-07,-9.49956e-07,0,9.09026e-06,-9.95675e+08,-9.95808e+08,-9.95743e+08,623592,-0.0347343,0.2401,-0,0.242599,-5864.68,-36251.1,-0,36722.4,623592
step02_gravity_refstate-crust.xmf,612,2.39466e-08,3.36142e-07,0,9.41241e-06,-1.01234e+09,-1.01232e+09,-1.01234e+09,645691,-0.0357831,0.234195,-0,0.236913,-6222.81,-36855.8,-0,37377.4,645691
step02_gravity_refstate-crust.xmf,613,1.68404e-06,-1.42219e-06,0,7.28157e-06,-9.41166e+08,-9.41379e+08,-9.41282e+08,499516,-0.031285,0.234961,-0,0.237035,-6050.78,-34268.7,-0,34798.8,499516
step02_gravity_refstate-crust.xmf,614,2.10534e-06,-2.20732e-06,0,7.81593e-06,-9.57923e+08,-9.58219e+08,-9.58068e+08,536173,-0.0315887,0.242475,-0,0.244524,-5555.58,-34879.2,-0,35318.9,536173
step02_gravity_refstate-crust.xmf,615,1.8702e-06,-2.0721e-06,0,8.57296e-06,-9.79008e+08,-9.79279e+08,-9.79137e+08,588105,-0.0330575,0.244967,-0,0.247188,-5496.1,-35646.1,-0,36067.4,588105
step02_gravity_refstate-crust.xmf,616,1.50824e-06,-3.98948e-07,0,3.61235e-07,-4.21519e+08,-4.2165e+08,-4.21623e+08,24780.7,-0.00238727,0.224901,-0,0.224914,-1571.2,-15351.3,-0,15431.5,24780.7
step02_gravity_refstate-crust.xmf,617,1.61406e-06,-5.06274e-07,0,6.07147e-07,-4.63658e+08,-4.63804e+08,-4.63769e+08,41650.3,-0.0039198,0.22498,-0,0.225014,-2373.18,-16885.7,-0,17051.6,41650.3
step02_gravity_refstate-crust.xmf,618,1.75549e-06,-6.40615e-07,0,1.19369e-06,-5.33048e+08,-5.33212e+08,-5.33168e+08,81887.1,-0.00748963,0.224287,-0,0.224412,-3932.64,-19412.3,-0,19806.6,81887.1
step02_gravity_refstate-crust.xmf,619,1.70526e-06,-5.96884e-07,0,8.76741e-07,-5.0097e+08,-5.01128e+08,-5.01087e+08,60144.4,-0.00556464,0.22487,-0,0.224939,-3116.72,-18244.3,-0,18508.6,60144.4
step02_gravity_refstate-crust.xmf,620,1.99208e-06,-9.14161e-07,0,1.53565e-06,-5.959e+08,-5.961e+08,-5.96037e+08,105345,-0.00937975,0.225485,-0,0.22568,-4212.45,-21701,-0,22106.1,105345
step02_gravity_refstate-crust.xmf,621,1.99145e-06,-9.06472e-07,0,1.95262e-06,-6.27211e+08,-6.2741e+08,-6.27348e+08,133950,-0.0117985,0.22446,-0,0.22477,-4983.95,-22840.9,-0,23378.3,133950
step02_gravity_refstate-crust.xmf,622,2.03009e-06,-9.7497e-07,0,2.64211e-06,-6.86889e+08,-6.87095e+08,-6.87028e+08,181249,-0.0155061,0.22384,-0,0.224376,-5744.89,-25013.6,-0,25664.8,181249
step02_gravity_refstate-crust.xmf,623,1.94549e-06,-9.2312e-07,0,3.69893e-06,-7.63015e+08,-7.63212e+08,-7.63149e+08,253747,-0.0206369,0.222858,-0,0.223811,-6492.74,-27784.8,-0,28533.3,253747
step02_gravity_refstate-crust.xmf,624,2.14479e-06,-1.15655e-06,0,3.21276e-06,-7.37408e+08,-7.37635e+08,-7.37555e+08,220395,-0.0181235,0.225079,-0,0.225807,-5907.36,-26853,-0,27495.1,220395
step02_gravity_refstate-crust.xmf,625,1.71171e-06,-9.6707e-07,0,5.76357e-06,-8.8143e+08,-8.81614e+08,-8.81547e+08,395381,-0.0279901,0.226812,-0,0.228532,-6555.59,-32094.8,-0,32757.4,395381
step02_gravity_refstate-crust.xmf,626,2.1169e-06,-1.42667e-06,0,5.22413e-06,-8.59265e+08,-8.59508e+08,-8.5941e+08,358375,-0.0257392,0.229434,-0,0.230874,-6158.87,-31288.7,-0,31889.1,358375
step02_gravity_refstate-crust.xmf,627,2.2516e-06,-1.50279e-06,0,4.69726e-06,-8.34404e+08,-8.34662e+08,-8.34559e+08,322232,-0.0238135,0.229218,-0,0.230452,-6018.38,-30384.1,-0,30974.4,322232
step02_gravity_refstate-crust.xmf,628,1.56321e-06,-4.64349e-07,0,-1.97175e-07,-4.70451e+07,-4.71842e+07,-4.71523e+07,-13526.2,0.0103659,0.217654,0,0.217901,6040.24,-1718.33,0,6279.9,13526.2
step02_gravity_refstate-crust.xmf,629,1.42306e-06,-3.06645e-07,0,-2.91506e-07,-9.95929e+07,-9.97115e+07,-9.96905e+07,-19997.3,0.00681007,0.220192,0,0.220297,4550.65,-3631.06,0,5821.77,19997.3
step02_gravity_refstate-crust.xmf,630,1.32806e-06,-2.08996e-07,0,-2.89696e-07,-1.48271e+08,-1.48376e+08,-1.48362e+08,-19873.2,0.00437735,0.2219,0,0.221943,3217.43,-5403,0,6288.43,19873.2
step02_gravity_refstate-crust.xmf,631,1.27338e-06,-1.56085e-07,0,-2.31268e-07,-1.94873e+08,-1.94971e+08,-1.9496e+08,-15865,0.00264342,0.222987,0,0.223002,2057.97,-7099.44,0,7391.7,15865
step02_gravity_refstate-crust.xmf,632,1.2577e-06,-1.41564e-07,0,-1.16116e-07,-2.39475e+08,-2.39571e+08,-2.39561e+08,-7965.59,0.00110132,0.223692,0,0.223695,876.451,-8723.19,0,8767.11,7965.59
step02_gravity_refstate-crust.xmf,633,1.32805e-06,-2.17834e-07,0,-3.00552e-08,-3.34748e+08,-3.34854e+08,-3.34839e+08,-2061.78,0.000238238,0.224379,0,0.224379,180.107,-12191.9,0,12193.2,2061.78
step02_gravity_refstate-crust.xmf,634,1.40996e-06,-2.99948e-07,0,1.51218e-07,-3.78355e+08,-3.78472e+08,-3.78452e+08,10373.5,-0.00102766,0.224702,-0,0.224704,-729.645,-13779.6,-0,13798.9,10373.5
step02_gravity_refstate-crust.xmf,635,-2.37456e-06,6.29935e-06,0,3.25228e-06,-1.01555e+09,-1.01495e+09,-1.01538e+09,223106,-0.0204072,0.135116,-0,0.136649,-13756.3,-36972.1,-0,39448.4,223106
step02_gravity_refstate-crust.xmf,636,-6.75414e-07,5.56494e-06,0,4.1401e-07,-1.0359e+09,-1.03547e+09,-1.03585e+09,28401.1,-0.00149777,0.071703,-0,0.0717187,-25199.4,-37718.8,-0,45362.1,28401.1
step02_gravity_refstate-crust.xmf,637,-9.59552e-07,5.84038e-06,0,6.38704e-07,-1.03816e+09,-1.03769e+09,-1.03809e+09,43815.1,-0.00322127,0.0782288,-0,0.0782951,-22870.8,-37800.3,-0,44180.8,43815.1
step02_gravity_refstate-crust.xmf,638,-2.78665e-06,6.12119e-06,0,5.18895e-06,-1.03774e+09,-1.03713e+09,-1.03755e+09,355962,-0.0269186,0.164331,-0,0.166521,-10507,-37778.3,-0,39212.2,355962
step02_gravity_refstate-crust.xmf,639,-9.82967e-07,1.78038e-06,0,9.48924e-06,-1.02951e+09,-1.02932e+09,-1.02944e+09,650962,-0.0360791,0.227032,-0,0.229881,-6582.03,-37479.2,-0,38052.7,650962
step02_gravity_refstate-crust.xmf,640,2.56859e-06,-2.97099e-06,0,8.14941e-06,-9.6925e+08,-9.6963e+08,-9.69426e+08,559049,-0.0315113,0.249253,-0,0.251237,-5140.7,-35292.3,-0,35664.7,559049
step02_gravity_refstate-crust.xmf,641,1.97215e-06,-8.98994e-07,0,1.14523e-06,-5.67365e+08,-5.67562e+08,-5.675e+08,78562.6,-0.00707505,0.226289,-0,0.2264,-3362.51,-20662.1,-0,20933.9,78562.6
step02_gravity_refstate-crust.xmf,642,2.25135e-06,-1.27157e-06,0,2.74822e-06,-7.11023e+08,-7.11264e+08,-7.11177e+08,188528,-0.0157107,0.226443,-0,0.226988,-5362.55,-25892.6,-0,26442.1,188528
step02_gravity_refstate-crust.xmf,643,2.2956e-06,-1.3118e-06,0,2.32679e-06,-6.85039e+08,-6.85286e+08,-6.85196e+08,159618,-0.0134718,0.227278,-0,0.227677,-4837.83,-24946.8,-0,25411.5,159618
step02_gravity_refstate-crust.xmf,644,2.22948e-06,-1.39077e-06,0,3.91122e-06,-7.88087e+08,-7.88335e+08,-7.8824e+08,268310,-0.0209709,0.226957,-0,0.227923,-5990.46,-28698,-0,29316.5,268310
step02_gravity_refstate-crust.xmf,645,2.57832e-06,-1.92785e-06,0,4.10862e-06,-8.12141e+08,-8.1245e+08,-8.12318e+08,281852,-0.0210832,0.2318,-0,0.232757,-5456.75,-29574.2,-0,30073.4,281852
step02_gravity_refstate-crust.xmf,646,1.99804e-06,-1.5543e-06,0,6.19468e-06,-9.01691e+08,-9.01935e+08,-9.01828e+08,424955,-0.0285236,0.232416,-0,0.23416,-6088.24,-32832.6,-0,33392.4,424955
step02_gravity_refstate-crust.xmf,647,2.31154e-06,-2.1646e-06,0,6.6916e-06,-9.22539e+08,-9.22846e+08,-9.22697e+08,459044,-0.0291042,0.238541,-0,0.24031,-5649.36,-33591.9,-0,34063.7,459044
step02_gravity_refstate-crust.xmf,648,1.70904e-06,-6.51102e-07,0,-1.79524e-10,162237,330.655,44996.3,-12.3154,0.0146629,0.214769,0,0.215269,7383.26,0,0,7383.26,12.3154
step02_gravity_refstate-crust.xmf,649,1.26638e-06,-1.54778e-07,0,-1.98424e-07,-2.90118e+08,-2.90215e+08,-2.90205e+08,-13611.9,0.00159395,0.223846,0,0.223851,1257.71,-10566.9,0,10641.5,13611.9
step02_gravity_refstate-crust.xmf,650,-1.6059e-06,6.26033e-06,0,1.39636e-06,-1.02974e+09,-1.0292e+09,-1.02963e+09,95790.4,-0.00915676,0.0976115,-0,0.0980401,-18744.9,-37491.8,-0,41916.7,95790.4
step02_gravity_refstate-crust.xmf,651,-1.19713e-06,5.99699e-06,0,8.80175e-07,-1.03333e+09,-1.03283e+09,-1.03325e+09,60380,-0.00525114,0.0849374,-0,0.0850995,-21332.2,-37623.8,-0,43250.5,60380
step02_gravity_refstate-crust.xmf,652,-1.39933e-06,6.14501e-06,0,1.11024e-06,-1.03258e+09,-1.03207e+09,-1.03249e+09,76162.2,-0.00700768,0.0907316,-0,0.0910019,-20017.7,-37596.1,-0,42593.1,76162.2
step02_gravity_refstate-crust.xmf,653,-1.77482e-06,6.22373e-06,0,1.73483e-06,-1.01528e+09,-1.01473e+09,-1.01516e+09,119009,-0.0119851,0.106036,-0,0.106711,-17814,-36964.7,-0,41033.2,119009
step02_gravity_refstate-crust.xmf,654,-1.93312e-06,6.30058e-06,0,2.01063e-06,-1.01619e+09,-1.01562e+09,-1.01606e+09,137929,-0.0136711,0.111637,-0,0.112471,-16860.4,-36997.3,-0,40658,137929
step02_gravity_refstate-crust.xmf,655,-2.24652e-06,6.35828e-06,0,2.77588e-06,-1.01671e+09,-1.01612e+09,-1.01656e+09,190425,-0.017994,0.126463,-0,0.127737,-14761.9,-37015.1,-0,39850.1,190425
step02_gravity_refstate-crust.xmf,656,-2.09625e-06,6.34635e-06,0,2.3706e-06,-1.01644e+09,-1.01586e+09,-1.01629e+09,162623,-0.0157901,0.118786,-0,0.119831,-15792.4,-37005.8,-0,40234.7,162623
step02_gravity_refstate-crust.xmf,657,-2.71878e-06,6.35201e-06,0,4.45646e-06,-1.03576e+09,-1.03514e+09,-1.03557e+09,305713,-0.0244829,0.153368,-0,0.15531,-11460.3,-37706.6,-0,39409.8,305713
step02_gravity_refstate-crust.xmf,658,-2.49394e-06,6.59659e-06,0,3.29795e-06,-1.03627e+09,-1.03565e+09,-1.0361e+09,226240,-0.0196583,0.134401,-0,0.135831,-13296.7,-37726.5,-0,40001.2,226240
step02_gravity_refstate-crust.xmf,659,-2.62127e-06,6.49761e-06,0,3.85376e-06,-1.03524e+09,-1.03462e+09,-1.03506e+09,264368,-0.0221511,0.143818,-0,0.145514,-12356.4,-37688.5,-0,39662.3,264368
step02_gravity_refstate-crust.xmf,660,-6.56521e-07,5.75975e-06,0,3.64352e-07,-1.06397e+09,-1.06353e+09,-1.06392e+09,24994.5,-0.000110916,0.0683784,-0,0.0683785,-24295,-38741.1,-0,45728.7,24994.5
step02_gravity_refstate-crust.xmf,661,-1.86387e-07,5.22139e-06,0,1.10938e-07,-1.05668e+09,-1.05631e+09,-1.05667e+09,7610.37,0.00135774,0.0593932,0,0.0594087,-29099.9,-38476.9,-0,48241.8,7610.37
step02_gravity_refstate-crust.xmf,662,-4.73751e-07,5.56999e-06,0,2.48562e-07,-1.06316e+09,-1.06274e+09,-1.06312e+09,17051.3,0.000711939,0.064495,0,0.0644989,-25871.2,-38712,-0,46561.1,17051.3
step02_gravity_refstate-crust.xmf,663,-3.33366e-07,5.39175e-06,0,1.76493e-07,-1.05884e+09,-1.05845e+09,-1.05882e+09,12107.5,0.00104607,0.0620423,0,0.0620511,-27400.5,-38555.2,-0,47300,12107.5
step02_gravity_refstate-crust.xmf,664,-2.89072e-06,6.18022e-06,0,5.62647e-06,-1.04842e+09,-1.04779e+09,-1.04822e+09,385976,-0.0276927,0.169854,-0,0.172096,-9905.98,-38166.5,-0,39431.1,385976
step02_gravity_refstate-crust.xmf,665,-2.84905e-06,5.79957e-06,0,6.34934e-06,-1.04791e+09,-1.04732e+09,-1.04772e+09,435565,-0.0297358,0.179951,-0,0.182392,-9206.7,-38147.7,-0,39243,435565
step02_gravity_refstate-crust.xmf,666,-2.72454e-06,5.25266e-06,0,7.21822e-06,-1.04819e+09,-1.04764e+09,-1.048e+09,495170,-0.0317964,0.191544,-0,0.194165,-8458.02,-38157.4,-0,39083.6,495170
step02_gravity_refstate-crust.xmf,667,-2.4779e-06,4.50112e-06,0,8.1939e-06,-1.04894e+09,-1.04846e+09,-1.04877e+09,562102,-0.0336807,0.204059,-0,0.20682,-7714.07,-38184.6,-0,38956,562102
step02_gravity_refstate-crust.xmf,668,-2.01305e-06,3.35163e-06,0,9.38777e-06,-1.0505e+09,-1.05013e+09,-1.05036e+09,644001,-0.0354059,0.218734,-0,0.221581,-6914.62,-38241.4,-0,38861.5,644001
step02_gravity_refstate-crust.xmf,669,2.11914e-06,-2.65826e-06,0,9.28612e-06,-9.95667e+08,-9.95995e+08,-9.95813e+08,637028,-0.0336624,0.251501,-0,0.253744,-5173.42,-36252.7,-0,36620,637028
step02_gravity_refstate-crust.xmf,670,1.13644e-06,-1.42604e-06,0,9.88991e-06,-1.01204e+09,-1.01222e+09,-1.01212e+09,678448,-0.0353628,0.246785,-0,0.249306,-5519.36,-36846.8,-0,37257.9,678448
step02_gravity_refstate-crust.xmf,671,5.39219e-08,1.8939e-08,0,1.02604e-05,-1.02848e+09,-1.02848e+09,-1.02849e+09,703861,-0.0363908,0.240839,-0,0.243573,-5860.31,-37443.2,-0,37899,703861
step02_gravity_refstate-crust.xmf,672,-9.89327e-07,1.46334e-06,0,1.03969e-05,-1.04484e+09,-1.04467e+09,-1.04477e+09,713228,-0.0366115,0.234317,-0,0.23716,-6164.39,-38036.6,-0,38532.9,713228
step02_gravity_refstate-crust.xmf,673,2.76816e-06,-2.99105e-06,0,7.15685e-06,-9.41012e+08,-9.41407e+08,-9.41202e+08,490960,-0.0293061,0.245896,-0,0.247636,-5164.02,-34265,-0,34652,490960
step02_gravity_refstate-crust.xmf,674,2.94389e-06,-3.62954e-06,0,8.55161e-06,-9.79805e+08,-9.80256e+08,-9.80007e+08,586641,-0.0315211,0.255002,-0,0.256943,-4830.59,-35677.1,-0,36002.6,586641
step02_gravity_refstate-crust.xmf,675,3.33165e-06,-3.90867e-06,0,7.67741e-06,-9.60262e+08,-9.60758e+08,-9.6049e+08,526670,-0.0294136,0.25436,-0,0.256055,-4680.53,-34966.7,-0,35278.6,526670
step02_gravity_refstate-crust.xmf,676,1.52649e-06,-4.2189e-07,0,-3.48924e-08,-4.19883e+08,-4.20017e+08,-4.19988e+08,-2393.62,0.000245326,0.225331,0,0.225331,161.198,-15291.8,0,15292.6,2393.62
step02_gravity_refstate-crust.xmf,677,1.66325e-06,-5.68117e-07,0,1.8211e-07,-4.6125e+08,-4.61403e+08,-4.61364e+08,12492.7,-0.00116755,0.225978,-0,0.225981,-702.344,-16798.1,-0,16812.8,12492.7
step02_gravity_refstate-crust.xmf,678,1.81059e-06,-7.30959e-07,0,4.30559e-07,-5.02257e+08,-5.02431e+08,-5.02381e+08,29536.4,-0.00271894,0.226569,-0,0.226585,-1489.93,-18291.4,-0,18351.9,29536.4
step02_gravity_refstate-crust.xmf,679,1.94998e-06,-8.92391e-07,0,7.04284e-07,-5.40013e+08,-5.40208e+08,-5.40146e+08,48313.9,-0.00435495,0.22707,-0,0.227111,-2183.49,-19666.2,-0,19787,48313.9
step02_gravity_refstate-crust.xmf,680,2.20055e-06,-1.17966e-06,0,1.08692e-06,-5.98671e+08,-5.98903e+08,-5.98822e+08,74562.5,-0.00656174,0.228377,-0,0.228471,-2839.66,-21802.3,-0,21986.4,74562.5
step02_gravity_refstate-crust.xmf,681,2.26196e-06,-1.25297e-06,0,1.48585e-06,-6.27739e+08,-6.2798e+08,-6.27894e+08,101929,-0.00885081,0.228195,-0,0.228366,-3590.24,-22860.7,-0,23140.9,101929
step02_gravity_refstate-crust.xmf,682,2.29066e-06,-1.29282e-06,0,1.91714e-06,-6.5724e+08,-6.57486e+08,-6.57397e+08,131516,-0.0112645,0.227744,-0,0.228022,-4290.23,-23934.8,-0,24316.2,131516
step02_gravity_refstate-crust.xmf,683,2.43501e-06,-1.57404e-06,0,3.36254e-06,-7.62802e+08,-7.63077e+08,-7.62969e+08,230670,-0.0182876,0.228854,-0,0.229583,-5424.43,-27778,-0,28302.7,230670
step02_gravity_refstate-crust.xmf,684,2.54713e-06,-1.68221e-06,0,2.8266e-06,-7.36384e+08,-7.36674e+08,-7.36558e+08,193905,-0.0156289,0.229986,-0,0.230516,-4863.83,-26816.5,-0,27254,193905
step02_gravity_refstate-crust.xmf,685,2.48436e-06,-2.04397e-06,0,5.56578e-06,-8.80628e+08,-8.80939e+08,-8.80798e+08,381813,-0.0260363,0.235321,-0,0.236757,-5649.05,-32067,-0,32560.8,381813
step02_gravity_refstate-crust.xmf,686,2.77482e-06,-2.32134e-06,0,4.92983e-06,-8.58138e+08,-8.58488e+08,-8.58328e+08,338187,-0.0235786,0.236451,-0,0.237623,-5304.94,-31249,-0,31696.1,338187
step02_gravity_refstate-crust.xmf,687,3.01309e-06,-2.54345e-06,0,4.28391e-06,-8.35656e+08,-8.36037e+08,-8.35862e+08,293876,-0.0209236,0.237514,-0,0.238434,-4889,-30431.1,-0,30821.4,293876
step02_gravity_refstate-crust.xmf,688,1.2812e-06,-3.32602e-07,0,-3.07166e-07,-5.69395e+07,-5.70502e+07,-5.70274e+07,-21071.6,0.0137622,0.213561,0,0.214004,8698.32,-2077.61,0,8943,21071.6
step02_gravity_refstate-crust.xmf,689,1.26889e-06,-2.32166e-07,0,-4.3382e-07,-1.02586e+08,-1.02689e+08,-1.02673e+08,-29760,0.0098404,0.217177,0,0.2174,6850.12,-3739.51,0,7804.36,29760
step02_gravity_refstate-crust.xmf,690,1.22526e-06,-1.52886e-07,0,-4.81062e-07,-1.49212e+08,-1.49306e+08,-1.49296e+08,-33000.9,0.00723392,0.219504,0,0.219624,5463.2,-5436.92,0,7707.57,33000.9
step02_gravity_refstate-crust.xmf,691,1.19835e-06,-1.08574e-07,0,-4.77706e-07,-1.9749e+08,-1.9758e+08,-1.97572e+08,-32770.6,0.00535242,0.221186,0,0.221251,4259.54,-7194.5,0,8360.89,32770.6
step02_gravity_refstate-crust.xmf,692,1.20694e-06,-1.10568e-07,0,-4.22799e-07,-2.50777e+08,-2.50868e+08,-2.5086e+08,-29004,0.0038147,0.222534,0,0.222567,3079.69,-9134.51,0,9639.7,29004
step02_gravity_refstate-crust.xmf,693,1.30051e-06,-1.91891e-07,0,-3.61857e-07,-3.35167e+08,-3.35269e+08,-3.35256e+08,-24823.4,0.00266516,0.223738,0,0.223754,2027.13,-12207,0,12374.2,24823.4
step02_gravity_refstate-crust.xmf,694,1.40315e-06,-2.94375e-07,0,-2.1963e-07,-3.7778e+08,-3.77896e+08,-3.77876e+08,-15066.6,0.00153286,0.224583,0,0.224588,1090.83,-13758.7,0,13801.9,15066.6
step02_gravity_refstate-crust.xmf,695,-1.75553e-06,6.48671e-06,0,1.58538e-06,-1.0444e+09,-1.04383e+09,-1.04427e+09,108757,-0.00980743,0.100895,-0,0.10137,-17539.4,-38025.2,-0,41875.4,108757
step02_gravity_refstate-crust.xmf,696,-2.3417e-06,6.64561e-06,0,2.80495e-06,-1.03851e+09,-1.0379e+09,-1.03835e+09,192419,-0.0171434,0.125487,-0,0.126653,-14247.6,-37809,-0,40404.3,192419
step02_gravity_refstate-crust.xmf,697,-7.95916e-07,5.97106e-06,0,4.56724e-07,-1.07288e+09,-1.07242e+09,-1.07283e+09,31331.2,-0.000416258,0.0707025,-0,0.0707037,-22887.7,-39065.5,-0,45276.5,31331.2
step02_gravity_refstate-crust.xmf,698,-2.98136e-06,6.6658e-06,0,5.07549e-06,-1.06049e+09,-1.05983e+09,-1.06028e+09,348179,-0.0251703,0.160958,-0,0.162914,-10358.2,-38606.3,-0,39971.8,348179
step02_gravity_refstate-crust.xmf,699,-3.06307e-06,6.50085e-06,0,5.78881e-06,-1.06392e+09,-1.06326e+09,-1.06371e+09,397112,-0.027135,0.170853,-0,0.172994,-9581.75,-38730.7,-0,39898.3,397112
step02_gravity_refstate-crust.xmf,700,-1.83409e-06,2.83873e-06,0,1.02842e-05,-1.05972e+09,-1.0594e+09,-1.05959e+09,705498,-0.0361071,0.228189,-0,0.231028,-6400.85,-38577,-0,39104.4,705498
step02_gravity_refstate-crust.xmf,701,2.12889e-06,-1.10255e-06,0,7.79161e-07,-5.75056e+08,-5.75278e+08,-5.75202e+08,53450.4,-0.00477071,0.228337,-0,0.228387,-2180.08,-20942.4,-0,21055.6,53450.4
step02_gravity_refstate-crust.xmf,702,2.60365e-06,-1.72755e-06,0,2.32238e-06,-7.10738e+08,-7.11035e+08,-7.10917e+08,159315,-0.0130387,0.230767,-0,0.231135,-4265.97,-25883,-0,26232.2,159315
step02_gravity_refstate-crust.xmf,703,2.6056e-06,-1.70977e-06,0,1.83969e-06,-6.8452e+08,-6.84816e+08,-6.84699e+08,126203,-0.0104895,0.231159,-0,0.231397,-3627.47,-24928.5,-0,25191.1,126203
step02_gravity_refstate-crust.xmf,704,2.78912e-06,-2.13931e-06,0,3.50432e-06,-7.88494e+08,-7.88832e+08,-7.88686e+08,240397,-0.0182896,0.233357,-0,0.234073,-4911.82,-28713.9,-0,29131,240397
step02_gravity_refstate-crust.xmf,705,3.20367e-06,-2.76392e-06,0,3.61142e-06,-8.12749e+08,-8.13158e+08,-8.12968e+08,247743,-0.0180194,0.238459,-0,0.239139,-4383.86,-29597.6,-0,29920.5,247743
step02_gravity_refstate-crust.xmf,706,2.87332e-06,-2.78312e-06,0,5.94638e-06,-9.0146e+08,-9.01848e+08,-9.01657e+08,407922,-0.026334,0.241449,-0,0.24288,-5194.59,-32825.9,-0,33234.3,407922
step02_gravity_refstate-crust.xmf,707,3.33338e-06,-3.59314e-06,0,6.33576e-06,-9.21543e+08,-9.22018e+08,-9.21771e+08,434633,-0.0264933,0.248253,-0,0.249663,-4749.59,-33557.6,-0,33892.1,434633
step02_gravity_refstate-crust.xmf,708,1.41307e-06,-5.4065e-07,0,-3.84084e-09,134042,17.0234,37105.6,-263.482,0.0185334,0.210485,0,0.211299,9858.69,0,0,9858.69,263.482
step02_gravity_refstate-crust.xmf,709,1.22645e-06,-1.24126e-07,0,-4.7927e-07,-3.00222e+08,-3.00314e+08,-3.00306e+08,-32877.9,0.00375507,0.22282,0,0.222852,2977.11,-10934.6,0,11332.7,32877.9
step02_gravity_refstate-crust.xmf,710,-2.8761e-06,6.82029e-06,0,4.39757e-06,-1.05953e+09,-1.05887e+09,-1.05934e+09,301674,-0.0228543,0.150823,-0,0.152545,-11188.6,-38572.3,-0,40162.3,301674
step02_gravity_refstate-crust.xmf,711,-1.00114e-06,6.11865e-06,0,6.33976e-07,-1.06767e+09,-1.06718e+09,-1.0676e+09,43490.7,-0.00197973,0.0761638,-0,0.0761896,-21641.7,-38875,-0,44493,43490.7
step02_gravity_refstate-crust.xmf,712,-1.386e-06,6.39167e-06,0,1.03939e-06,-1.06136e+09,-1.06083e+09,-1.06127e+09,71302.4,-0.0052574,0.087171,-0,0.0873294,-19374.2,-38644.2,-0,43228.9,71302.4
step02_gravity_refstate-crust.xmf,713,-1.17616e-06,6.30499e-06,0,7.96905e-07,-1.07106e+09,-1.07055e+09,-1.07098e+09,54667.7,-0.00302075,0.08036,-0,0.0804167,-20390.4,-38998,-0,44006.9,54667.7
step02_gravity_refstate-crust.xmf,714,-1.56596e-06,6.47076e-06,0,1.27949e-06,-1.05532e+09,-1.05477e+09,-1.05521e+09,87773.1,-0.00722508,0.0932693,-0,0.0935487,-18443.2,-38423.6,-0,42620.7,87773.1
step02_gravity_refstate-crust.xmf,715,-1.99083e-06,6.60693e-06,0,1.97377e-06,-1.04364e+09,-1.04305e+09,-1.04351e+09,135400,-0.012267,0.1091,-0,0.109788,-16263.6,-37997,-0,41331.3,135400
step02_gravity_refstate-crust.xmf,716,-2.1626e-06,6.66363e-06,0,2.32927e-06,-1.04256e+09,-1.04196e+09,-1.04241e+09,159788,-0.0144089,0.116327,-0,0.117216,-15281.7,-37957.1,-0,40917.8,159788
step02_gravity_refstate-crust.xmf,717,-2.74274e-06,6.85376e-06,0,3.85455e-06,-1.05627e+09,-1.05561e+09,-1.05608e+09,264422,-0.0209354,0.142395,-0,0.143926,-12006,-38454,-0,40284.7,264422
step02_gravity_refstate-crust.xmf,718,-2.42242e-06,6.90559e-06,0,2.83611e-06,-1.05704e+09,-1.0564e+09,-1.05687e+09,194557,-0.0162615,0.124856,-0,0.12591,-13788.1,-38483.3,-0,40878.8,194557
step02_gravity_refstate-crust.xmf,719,-2.59366e-06,6.90165e-06,0,3.32225e-06,-1.0564e+09,-1.05575e+09,-1.05622e+09,227907,-0.0186208,0.133489,-0,0.134781,-12872.4,-38459.4,-0,40556.4,227907
step02_gravity_refstate-crust.xmf,720,-3.0714e-06,6.15961e-06,0,6.61544e-06,-1.06488e+09,-1.06425e+09,-1.06467e+09,453819,-0.029294,0.181883,-0,0.184227,-8842.13,-38765.3,-0,39760.9,453819
step02_gravity_refstate-crust.xmf,721,-2.99325e-06,5.64931e-06,0,7.56439e-06,-1.06574e+09,-1.06515e+09,-1.06554e+09,518917,-0.0314134,0.193894,-0,0.196423,-8113.45,-38796,-0,39635.3,518917
step02_gravity_refstate-crust.xmf,722,-2.81279e-06,4.97598e-06,0,8.59984e-06,-1.06726e+09,-1.06672e+09,-1.06707e+09,589949,-0.0332807,0.206292,-0,0.20896,-7423.38,-38851,-0,39553.8,589949
step02_gravity_refstate-crust.xmf,723,-1.05703e-06,1.37868e-06,0,1.12387e-05,-1.05896e+09,-1.05879e+09,-1.05889e+09,770972,-0.0369319,0.240559,-0,0.243377,-5841.4,-38550.3,-0,38990.3,770972
step02_gravity_refstate-crust.xmf,724,-2.6027e-06,4.31532e-06,0,9.65975e-06,-1.0722e+09,-1.07173e+09,-1.07202e+09,662659,-0.0346124,0.218123,-0,0.220852,-6796.75,-39030.7,-0,39618.1,662659
step02_gravity_refstate-crust.xmf,725,1.27736e-07,-4.77013e-07,0,1.1261e-05,-1.04405e+09,-1.04409e+09,-1.04406e+09,772503,-0.036887,0.248297,-0,0.251022,-5502.73,-38009.4,-0,38405.7,772503
step02_gravity_refstate-crust.xmf,726,3.39074e-06,-4.52066e-06,0,9.17622e-06,-9.95621e+08,-9.96164e+08,-9.95854e+08,629489,-0.0317912,0.262543,-0,0.264461,-4493.46,-36253.3,-0,36530.7,629489
step02_gravity_refstate-crust.xmf,727,2.47255e-06,-3.44526e-06,0,1.00824e-05,-1.01181e+09,-1.01221e+09,-1.01198e+09,691655,-0.0341063,0.259236,-0,0.26147,-4829.45,-36840.6,-0,37155.8,691655
step02_gravity_refstate-crust.xmf,728,1.36225e-06,-2.06174e-06,0,1.08272e-05,-1.02827e+09,-1.02851e+09,-1.02837e+09,742748,-0.0358896,0.254646,-0,0.257163,-5161.05,-37437.6,-0,37791.7,742748
step02_gravity_refstate-crust.xmf,729,3.89909e-06,-4.58288e-06,0,6.71991e-06,-9.41065e+08,-9.41647e+08,-9.41332e+08,460986,-0.026427,0.256006,-0,0.257366,-4297.14,-34269.1,-0,34537.5,460986
step02_gravity_refstate-crust.xmf,730,4.10923e-06,-5.28874e-06,0,8.17609e-06,-9.79073e+08,-9.79718e+08,-9.79355e+08,560880,-0.0290955,0.264548,-0,0.266143,-4158.31,-35652.6,-0,35894.3,560880
step02_gravity_refstate-crust.xmf,731,1.49008e-06,-3.80969e-07,0,-4.25727e-07,-4.18934e+08,-4.19062e+08,-4.19036e+08,-29204.9,0.00285101,0.22466,0,0.224678,1890.44,-15257.1,0,15373.8,29204.9
step02_gravity_refstate-crust.xmf,732,1.64792e-06,-5.52298e-07,0,-2.28558e-07,-4.58277e+08,-4.58428e+08,-4.5839e+08,-15679.1,0.0014953,0.225851,0,0.225856,906.467,-16689.8,0,16714.4,15679.1
step02_gravity_refstate-crust.xmf,733,1.81889e-06,-7.44305e-07,0,-3.51033e-08,-4.97732e+08,-4.97908e+08,-4.97857e+08,-2408.08,0.000234959,0.226943,0,0.226943,129.553,-18126.6,0,18127.1,2408.08
step02_gravity_refstate-crust.xmf,734,1.99327e-06,-9.45885e-07,0,1.73192e-07,-5.34641e+08,-5.34843e+08,-5.34778e+08,11880.9,-0.00105983,0.228003,-0,0.228006,-532.4,-19470.7,-0,19478,11880.9
step02_gravity_refstate-crust.xmf,735,2.16885e-06,-1.15306e-06,0,3.55063e-07,-5.68998e+08,-5.69226e+08,-5.69147e+08,24357.3,-0.00215462,0.229125,-0,0.229135,-990.035,-20721.9,-0,20745.6,24357.3
step02_gravity_refstate-crust.xmf,736,2.33347e-06,-1.35045e-06,0,6.02263e-07,-6.00235e+08,-6.00488e+08,-6.00395e+08,41315.3,-0.00360161,0.230159,-0,0.230187,-1524.7,-21859.5,-0,21912.6,41315.3
step02_gravity_refstate-crust.xmf,737,2.46289e-06,-1.51006e-06,0,9.5707e-07,-6.28864e+08,-6.29136e+08,-6.29033e+08,65655,-0.00563359,0.230832,-0,0.230901,-2218.51,-22902,-0,23009.2,65655
step02_gravity_refstate-crust.xmf,738,2.55574e-06,-1.63285e-06,0,1.3841e-06,-6.57217e+08,-6.57504e+08,-6.57392e+08,94949.1,-0.008019,0.231157,-0,0.231296,-2950.55,-23934.4,-0,24115.6,94949.1
step02_gravity_refstate-crust.xmf,739,2.90961e-06,-2.19865e-06,0,2.89325e-06,-7.62988e+08,-7.63338e+08,-7.63187e+08,198477,-0.0153752,0.234255,-0,0.234759,-4330.45,-27785.7,-0,28121.1,198477
step02_gravity_refstate-crust.xmf,740,2.94875e-06,-2.20603e-06,0,2.31879e-06,-7.37319e+08,-7.37673e+08,-7.37521e+08,159069,-0.0125637,0.23459,-0,0.234926,-3733.7,-26851.4,-0,27109.7,159069
step02_gravity_refstate-crust.xmf,741,3.25997e-06,-3.10583e-06,0,5.19279e-06,-8.80404e+08,-8.8084e+08,-8.80627e+08,356225,-0.0234942,0.243068,-0,0.244201,-4768.06,-32060.4,-0,32413,356225
step02_gravity_refstate-crust.xmf,742,3.67846e-06,-3.43761e-06,0,3.69706e-06,-8.36427e+08,-8.36915e+08,-8.36679e+08,253618,-0.0175494,0.244112,-0,0.244742,-3865.84,-30460.5,-0,30704.8,253618
step02_gravity_refstate-crust.xmf,743,3.50759e-06,-3.31534e-06,0,4.44267e-06,-8.58474e+08,-8.58942e+08,-8.58715e+08,304767,-0.0205933,0.243745,-0,0.244613,-4346.31,-31262.7,-0,31563.3,304767
step02_gravity_refstate-crust.xmf,744,1.09046e-06,-1.37486e-07,0,-5.61816e-07,-1.11597e+08,-1.11681e+08,-1.11671e+08,-38540.6,0.0118549,0.213887,0,0.214215,8768.47,-4066.99,0,9665.74,38540.6
step02_gravity_refstate-crust.xmf,745,1.0673e-06,-2.87095e-07,0,-2.85018e-07,-4.2022e+07,-4.21149e+07,-4.20952e+07,-19552.3,0.0173722,0.208565,0,0.209287,11105.9,-1533.73,0,11211.3,19552.3
step02_gravity_refstate-crust.xmf,746,1.05221e-06,-4.0371e-07,0,-6.03145e-09,99763.7,-112.494,27582,-413.758,0.0216234,0.205303,0,0.206439,12353.1,0,0,12353.1,413.758
step02_gravity_refstate-crust.xmf,747,1.08019e-06,-7.19679e-08,0,-6.47928e-07,-1.51492e+08,-1.51571e+08,-1.51566e+08,-44447.8,0.00970777,0.21612,0,0.216338,7640.94,-5519.49,0,9425.96,44447.8
step02_gravity_refstate-crust.xmf,748,1.07894e-06,-2.95422e-08,0,-6.96482e-07,-1.976e+08,-1.97676e+08,-1.97674e+08,-47778.7,0.00788049,0.218163,0,0.218305,6480.62,-7198.13,0,9685.63,47778.7
step02_gravity_refstate-crust.xmf,749,1.10145e-06,-2.52214e-08,0,-7.07024e-07,-2.45433e+08,-2.45511e+08,-2.45509e+08,-48501.8,0.00652715,0.21981,0,0.219907,5424.97,-8939.67,0,10457,48501.8
step02_gravity_refstate-crust.xmf,750,1.14754e-06,-5.38867e-08,0,-7.0515e-07,-2.92041e+08,-2.92123e+08,-2.92119e+08,-48373.3,0.00567633,0.220983,0,0.221056,4615.67,-10636.6,0,11594.9,48373.3
step02_gravity_refstate-crust.xmf,751,1.22708e-06,-1.21074e-07,0,-6.77059e-07,-3.36098e+08,-3.36191e+08,-3.36183e+08,-46446.2,0.00498765,0.222058,0,0.222114,3861.22,-12240.8,0,12835.3,46446.2
step02_gravity_refstate-crust.xmf,752,1.34426e-06,-2.32317e-07,0,-5.86047e-07,-3.78192e+08,-3.78301e+08,-3.78285e+08,-40202.8,0.00407551,0.223325,0,0.223362,2939.87,-13773.6,0,14083.8,40202.8
step02_gravity_refstate-crust.xmf,753,-1.60588e-06,6.68967e-06,0,1.29401e-06,-1.0746e+09,-1.07403e+09,-1.07449e+09,88768.8,-0.00627707,0.0923282,-0,0.0925413,-17767.9,-39125.7,-0,42971.1,88768.8
step02_gravity_refstate-crust.xmf,754,-1.42626e-06,6.5822e-06,0,1.07008e-06,-1.07771e+09,-1.07716e+09,-1.07761e+09,73407.7,-0.00457832,0.0867756,-0,0.0868963,-18668.9,-39239.5,-0,43454.2,73407.7
step02_gravity_refstate-crust.xmf,755,-2.23891e-06,6.85261e-06,0,2.42366e-06,-1.05641e+09,-1.05578e+09,-1.05625e+09,166263,-0.0141393,0.117153,-0,0.118003,-14731.2,-38461.1,-0,41185.8,166263
step02_gravity_refstate-crust.xmf,756,-2.99953e-06,7.20751e-06,0,4.46077e-06,-1.07951e+09,-1.07881e+09,-1.0793e+09,306009,-0.021579,0.150612,-0,0.15215,-10788.8,-39299.5,-0,40753.5,306009
step02_gravity_refstate-crust.xmf,757,-3.13885e-06,7.09456e-06,0,5.17007e-06,-1.08036e+09,-1.07966e+09,-1.08015e+09,354667,-0.023929,0.161078,-0,0.162845,-9982.13,-39330,-0,40577,354667
step02_gravity_refstate-crust.xmf,758,-3.2404e-06,6.89932e-06,0,5.96781e-06,-1.08139e+09,-1.08069e+09,-1.08117e+09,409391,-0.0262291,0.172089,-0,0.174076,-9215.28,-39366.6,-0,40430.8,409391
step02_gravity_refstate-crust.xmf,759,-2.05636e-06,3.06021e-06,0,1.09003e-05,-1.07259e+09,-1.07224e+09,-1.07245e+09,747760,-0.036068,0.232101,-0,0.234887,-6163.06,-39045.1,-0,39528.5,747760
step02_gravity_refstate-crust.xmf,760,-1.24563e-06,1.44882e-06,0,1.21092e-05,-1.07281e+09,-1.07263e+09,-1.07273e+09,830689,-0.0370246,0.245983,-0,0.248754,-5583.13,-39054,-0,39451,830689
step02_gravity_refstate-crust.xmf,761,1.99205e-08,-5.87277e-07,0,1.22385e-05,-1.05923e+09,-1.05927e+09,-1.05923e+09,839560,-0.0372483,0.254325,-0,0.257038,-5249.89,-38561.4,-0,38917.1,839560
step02_gravity_refstate-crust.xmf,762,4.56678e-06,-5.65476e-06,0,7.09595e-06,-9.60116e+08,-9.60817e+08,-9.6043e+08,486782,-0.0261702,0.264564,-0,0.265855,-3860.24,-34963.7,-0,35176.2,486782
step02_gravity_refstate-crust.xmf,763,2.93523e-06,-2.15625e-06,0,1.76891e-06,-7.11673e+08,-7.12022e+08,-7.11874e+08,121348,-0.00976352,0.234619,-0,0.234822,-3071.44,-25917.7,-0,26099,121348
step02_gravity_refstate-crust.xmf,764,2.86546e-06,-2.04319e-06,0,1.24749e-06,-6.85218e+08,-6.85555e+08,-6.85415e+08,85577.8,-0.0070109,0.234247,-0,0.234352,-2348.79,-24954.5,-0,25064.8,85577.8
step02_gravity_refstate-crust.xmf,765,3.31217e-06,-2.83027e-06,0,2.93856e-06,-7.88774e+08,-7.89195e+08,-7.89001e+08,201585,-0.0149897,0.238908,-0,0.239378,-3824.62,-28725.1,-0,28978.6,201585
step02_gravity_refstate-crust.xmf,766,3.75999e-06,-3.50181e-06,0,2.95547e-06,-8.13468e+08,-8.13966e+08,-8.13726e+08,202745,-0.0144105,0.243976,-0,0.244401,-3335.92,-29624.9,-0,29812.1,202745
step02_gravity_refstate-crust.xmf,767,3.76318e-06,-4.00867e-06,0,5.46636e-06,-9.01431e+08,-9.01964e+08,-9.01689e+08,374993,-0.023399,0.249749,-0,0.250842,-4309.32,-32826.5,-0,33108.2,374993
step02_gravity_refstate-crust.xmf,768,4.32495e-06,-4.96213e-06,0,5.74029e-06,-9.21753e+08,-9.22391e+08,-9.2205e+08,393784,-0.0231974,0.256916,-0,0.257961,-3883.1,-33567.2,-0,33791,393784
step02_gravity_refstate-crust.xmf,769,9.18078e-07,-8.70228e-08,0,-5.861e-07,-9.76051e+07,-9.7674e+07,-9.76681e+07,-40206.4,0.0145456,0.209245,0,0.20975,10966.6,-3556.99,0,11529,40206.4
step02_gravity_refstate-crust.xmf,770,7.30371e-07,-1.05568e-07,0,-4.20674e-07,-5.98199e+07,-5.98772e+07,-5.987e+07,-28858.3,0.018398,0.203454,0,0.204284,13383.7,-2180.59,0,13560.2,28858.3
step02_gravity_refstate-crust.xmf,771,6.62997e-07,-2.53517e-07,0,-7.28691e-09,62897.6,24.7298,17416,-499.882,0.0237991,0.199441,0,0.200856,14873.9,0,0,14873.9,499.882
step02_gravity_refstate-crust.xmf,772,3.94471e-07,1.91076e-08,0,-4.12332e-07,-5.58508e+07,-5.58765e+07,-5.58779e+07,-28286,0.0202106,0.196526,0,0.197563,16130.7,-2034.93,0,16258.5,28286
step02_gravity_refstate-crust.xmf,773,2.61673e-07,-9.99822e-08,0,-6.98021e-09,24827.8,18.2381,6877.02,-478.842,0.0249832,0.193129,0,0.194738,17428.6,0,0,17428.6,478.842
step02_gravity_refstate-crust.xmf,774,-2.83559e-06,7.25227e-06,0,3.83914e-06,-1.07878e+09,-1.07809e+09,-1.07858e+09,263365,-0.0192542,0.140848,-0,0.142158,-11622.9,-39273.8,-0,40957.5,263365
step02_gravity_refstate-crust.xmf,775,-1.811e-06,6.79951e-06,0,1.59967e-06,-1.07163e+09,-1.07104e+09,-1.07151e+09,109737,-0.00844492,0.099469,-0,0.0998268,-16691.1,-39017,-0,42437.3,109737
step02_gravity_refstate-crust.xmf,776,-2.06896e-06,6.93494e-06,0,2.01114e-06,-1.06993e+09,-1.06931e+09,-1.06979e+09,137964,-0.0110095,0.108185,-0,0.108743,-15466.8,-38954.3,-0,41912.5,137964
step02_gravity_refstate-crust.xmf,777,-2.6555e-06,7.23578e-06,0,3.2946e-06,-1.07752e+09,-1.07684e+09,-1.07733e+09,226009,-0.0170269,0.131774,-0,0.132869,-12498.9,-39228.5,-0,41171.5,226009
step02_gravity_refstate-crust.xmf,778,-2.26331e-06,7.10762e-06,0,2.36988e-06,-1.07636e+09,-1.07571e+09,-1.0762e+09,162574,-0.0125788,0.114928,-0,0.115615,-14377.1,-39187.7,-0,41741.8,162574
step02_gravity_refstate-crust.xmf,779,-2.46339e-06,7.19427e-06,0,2.80443e-06,-1.07732e+09,-1.07666e+09,-1.07715e+09,192384,-0.0147383,0.123062,-0,0.123941,-13407.2,-39222.1,-0,41450.2,192384
step02_gravity_refstate-crust.xmf,780,-3.28456e-06,6.58211e-06,0,6.86983e-06,-1.08217e+09,-1.08149e+09,-1.08194e+09,471271,-0.0284998,0.183777,-0,0.185974,-8485.55,-39394.4,-0,40297.9,471271
step02_gravity_refstate-crust.xmf,781,-3.24719e-06,6.11179e-06,0,7.88632e-06,-1.08295e+09,-1.08231e+09,-1.08273e+09,541002,-0.030673,0.196144,-0,0.198528,-7788.56,-39422.1,-0,40184.1,541002
step02_gravity_refstate-crust.xmf,782,-3.10853e-06,5.47627e-06,0,9.01205e-06,-1.08426e+09,-1.08367e+09,-1.08404e+09,618227,-0.0326235,0.209024,-0,0.211554,-7126.81,-39469.4,-0,40107.6,618227
step02_gravity_refstate-crust.xmf,783,-2.81225e-06,4.58029e-06,0,1.02702e-05,-1.08544e+09,-1.08494e+09,-1.08525e+09,704533,-0.0343741,0.222664,-0,0.225302,-6494.69,-39512.4,-0,40042.6,704533
step02_gravity_refstate-crust.xmf,784,-1.44927e-07,-5.72945e-07,0,1.32508e-05,-1.07325e+09,-1.07328e+09,-1.07324e+09,909007,-0.0374027,0.259896,-0,0.262573,-5040.44,-39071.2,-0,39395,909007
step02_gravity_refstate-crust.xmf,785,4.73478e-06,-6.45642e-06,0,8.69846e-06,-9.95588e+08,-9.96356e+08,-9.95913e+08,596715,-0.0290459,0.273019,-0,0.27456,-3816.52,-36254.6,-0,36454.9,596715
step02_gravity_refstate-crust.xmf,786,1.71709e-06,-2.92357e-06,0,1.20196e-05,-1.04555e+09,-1.04586e+09,-1.04566e+09,824546,-0.0363105,0.264222,-0,0.266705,-4784.37,-38066.6,-0,38366.1,824546
step02_gravity_refstate-crust.xmf,787,3.97765e-06,-5.66166e-06,0,9.86942e-06,-1.01166e+09,-1.01232e+09,-1.01193e+09,677043,-0.0318968,0.271313,-0,0.273181,-4145.9,-36837.7,-0,37070.3,677043
step02_gravity_refstate-crust.xmf,788,2.9841e-06,-4.50679e-06,0,1.09758e-05,-1.02769e+09,-1.02821e+09,-1.0279e+09,752941,-0.0343534,0.268341,-0,0.270531,-4470.08,-37419.2,-0,37685.3,752941
step02_gravity_refstate-crust.xmf,789,4.97333e-06,-6.07185e-06,0,5.98259e-06,-9.4134e+08,-9.42098e+08,-9.41681e+08,410406,-0.022777,0.264784,-0,0.265762,-3467.97,-34281.1,-0,34456.1,410406
step02_gravity_refstate-crust.xmf,790,5.30257e-06,-6.96473e-06,0,7.45478e-06,-9.78335e+08,-9.79177e+08,-9.78699e+08,511398,-0.0257717,0.273588,-0,0.274799,-3464.03,-35627.9,-0,35795.9,511398
step02_gravity_refstate-crust.xmf,791,1.23373e-06,-2.57986e-06,0,1.29418e-05,-1.05994e+09,-1.0602e+09,-1.06003e+09,887810,-0.0369589,0.26628,-0,0.268833,-4760.21,-38589.3,-0,38881.8,887810
step02_gravity_refstate-crust.xmf,792,1.39396e-06,-2.70943e-07,0,-8.22097e-07,-4.20239e+08,-4.20354e+08,-4.20335e+08,-56395.8,0.00554668,0.222763,0,0.222833,3749.31,-15304.5,0,15757,56395.8
step02_gravity_refstate-crust.xmf,793,1.58776e-06,-4.82023e-07,0,-5.97652e-07,-4.5644e+08,-4.56582e+08,-4.56549e+08,-40998.9,0.00390482,0.224821,0,0.224855,2403.67,-16622.8,0,16795.7,40998.9
step02_gravity_refstate-crust.xmf,794,1.77151e-06,-6.89658e-07,0,-4.54251e-07,-4.94857e+08,-4.95025e+08,-4.94978e+08,-31161.6,0.00290249,0.226287,0,0.226306,1621.51,-18021.8,0,18094.6,31161.6
step02_gravity_refstate-crust.xmf,795,1.9675e-06,-9.16081e-07,0,-3.04954e-07,-5.31742e+08,-5.3194e+08,-5.31877e+08,-20919.8,0.00191568,0.227743,0,0.227751,971.297,-19365.2,0,19389.5,20919.8
step02_gravity_refstate-crust.xmf,796,2.17438e-06,-1.16189e-06,0,-1.35204e-07,-5.6706e+08,-5.67289e+08,-5.6721e+08,-9274.99,0.000841918,0.229271,0,0.229272,387.832,-20651.4,0,20655,9274.99
step02_gravity_refstate-crust.xmf,797,2.3835e-06,-1.41624e-06,0,7.35141e-08,-5.9999e+08,-6.00251e+08,-6.00154e+08,5043.07,-0.000424998,0.23084,-0,0.230841,-178.848,-21850.7,-0,21851.4,5043.07
step02_gravity_refstate-crust.xmf,798,2.58175e-06,-1.66399e-06,0,3.74269e-07,-6.30392e+08,-6.30683e+08,-6.30569e+08,25674.9,-0.00217539,0.232325,-0,0.232335,-841.041,-22957.9,-0,22973.3,25674.9
step02_gravity_refstate-crust.xmf,799,2.74714e-06,-1.87867e-06,0,7.78083e-07,-6.58523e+08,-6.5884e+08,-6.58711e+08,53376.5,-0.00445208,0.233489,-0,0.233531,-1595.97,-23982.4,-0,24035.4,53376.5
step02_gravity_refstate-crust.xmf,800,3.29755e-06,-2.66001e-06,0,1.67519e-06,-7.38796e+08,-7.39205e+08,-7.39023e+08,114918,-0.00891718,0.238383,-0,0.238549,-2550.01,-26905.8,-0,27026.4,114918
step02_gravity_refstate-crust.xmf,801,3.34539e-06,-2.76897e-06,0,2.28214e-06,-7.64e+08,-7.6442e+08,-7.6423e+08,156555,-0.0118764,0.238922,-0,0.239217,-3197.68,-27823.4,-0,28006.6,156555
step02_gravity_refstate-crust.xmf,802,4.24469e-06,-4.19116e-06,0,2.94587e-06,-8.37085e+08,-8.37664e+08,-8.37376e+08,202087,-0.0136831,0.249376,-0,0.249751,-2880.58,-30485.6,-0,30621.4,202087
step02_gravity_refstate-crust.xmf,803,4.04104e-06,-4.16646e-06,0,4.60612e-06,-8.80746e+08,-8.81309e+08,-8.81023e+08,315980,-0.0202208,0.250285,-0,0.2511,-3863.8,-32074.3,-0,32306.2,315980
step02_gravity_refstate-crust.xmf,804,4.1894e-06,-4.23221e-06,0,3.76209e-06,-8.59114e+08,-8.59691e+08,-8.59401e+08,258079,-0.0169844,0.250052,-0,0.250628,-3397.66,-31287.3,-0,31471.2,258079
step02_gravity_refstate-crust.xmf,805,7.36783e-08,1.50537e-07,0,-4.10672e-07,-5.61787e+07,-5.61734e+07,-5.61837e+07,-28172.1,0.0207701,0.189969,0,0.191101,18637,-2045.77,0,18748.9,28172.1
step02_gravity_refstate-crust.xmf,806,-1.38074e-07,5.29382e-08,0,-8.1274e-09,-13092.9,10.5486,-3621.01,-557.539,0.0251215,0.186616,0,0.1883,20024.7,0,0,20024.7,557.539
step02_gravity_refstate-crust.xmf,807,9.06705e-07,2.18646e-08,0,-7.76652e-07,-1.51788e+08,-1.51849e+08,-1.5185e+08,-53278.3,0.0118419,0.211872,0,0.212202,9793.85,-5529.7,0,11247.1,53278.3
step02_gravity_refstate-crust.xmf,808,9.26244e-07,7.15437e-08,0,-8.76994e-07,-1.98511e+08,-1.98569e+08,-1.98574e+08,-60161.8,0.0100268,0.214224,0,0.214458,8629.88,-7230.84,0,11258.8,60161.8
step02_gravity_refstate-crust.xmf,809,9.64243e-07,8.31816e-08,0,-9.32005e-07,-2.44723e+08,-2.44783e+08,-2.44789e+08,-63935.5,0.00872068,0.216225,0,0.216401,7547.21,-8913.4,0,11679.4,63935.5
step02_gravity_refstate-crust.xmf,810,1.02503e-06,5.68345e-08,0,-9.56514e-07,-2.90224e+08,-2.9029e+08,-2.90294e+08,-65616.8,0.00780038,0.217904,0,0.218044,6576.22,-10570.1,0,12448.9,65616.8
step02_gravity_refstate-crust.xmf,811,1.11126e-06,-7.11486e-09,0,-9.5943e-07,-3.34395e+08,-3.34471e+08,-3.34471e+08,-65816.9,0.00713731,0.219369,0,0.219485,5709.72,-12178.5,0,13450.5,65816.9
step02_gravity_refstate-crust.xmf,812,1.23021e-06,-1.06621e-07,0,-9.33942e-07,-3.79908e+08,-3.8e+08,-3.79993e+08,-64068.4,0.00654333,0.22088,0,0.220977,4841.79,-13835.7,0,14658.5,64068.4
step02_gravity_refstate-crust.xmf,813,-2.26746e-06,3.27995e-06,0,1.16634e-05,-1.08592e+09,-1.08554e+09,-1.08576e+09,800110,-0.0358789,0.237227,-0,0.239924,-5887.61,-39529.9,-0,39965.9,800110
step02_gravity_refstate-crust.xmf,814,-1.40075e-06,1.5225e-06,0,1.30878e-05,-1.08598e+09,-1.08578e+09,-1.08588e+09,897822,-0.0369159,0.252018,-0,0.254707,-5325.08,-39532.8,-0,39889.9,897822
step02_gravity_refstate-crust.xmf,815,5.6837e-06,-7.2197e-06,0,6.22785e-06,-9.60639e+08,-9.61524e+08,-9.61029e+08,427231,-0.0222907,0.273199,-0,0.274107,-3093.43,-34984.8,-0,35121.3,427231
step02_gravity_refstate-crust.xmf,816,1.31943e-06,-2.93033e-06,0,1.40084e-05,-1.07177e+09,-1.07206e+09,-1.07186e+09,960974,-0.0371007,0.272501,-0,0.275015,-4567.3,-39019.5,-0,39285.9,960974
step02_gravity_refstate-crust.xmf,817,3.19604e-06,-2.49359e-06,0,1.09603e-06,-7.13224e+08,-7.13615e+08,-7.13444e+08,75187.7,-0.00596273,0.237513,-0,0.237588,-1819.05,-25974.7,-0,26038.3,75187.7
step02_gravity_refstate-crust.xmf,818,3.04127e-06,-2.26882e-06,0,5.50907e-07,-6.8695e+08,-6.87314e+08,-6.87159e+08,37792.2,-0.00304176,0.236244,-0,0.236264,-995.856,-25017.9,-0,25037.7,37792.2
step02_gravity_refstate-crust.xmf,819,3.77637e-06,-3.4396e-06,0,2.21198e-06,-7.9005e+08,-7.90545e+08,-7.90309e+08,151742,-0.0110687,0.243578,-0,0.243829,-2703.05,-28772.5,-0,28899.2,151742
step02_gravity_refstate-crust.xmf,820,4.23608e-06,-4.12805e-06,0,2.10639e-06,-8.1477e+08,-8.15343e+08,-8.1506e+08,144498,-0.0100859,0.248506,-0,0.24871,-2241.09,-29673.2,-0,29757.8,144498
step02_gravity_refstate-crust.xmf,821,4.60595e-06,-5.15341e-06,0,4.75218e-06,-9.01683e+08,-9.02353e+08,-9.01999e+08,326000,-0.0197753,0.257021,-0,0.257781,-3438.04,-32837.3,-0,33016.8,326000
step02_gravity_refstate-crust.xmf,822,5.24398e-06,-6.21491e-06,0,4.8649e-06,-9.2204e+08,-9.22826e+08,-9.22399e+08,333732,-0.0191332,0.264369,-0,0.265061,-3028.23,-33579.4,-0,33715.6,333732
step02_gravity_refstate-crust.xmf,823,-2.80478e-07,3.15978e-07,0,-4.48483e-07,-6.61403e+07,-6.60993e+07,-6.6121e+07,-30765.9,0.0198372,0.182642,0,0.183716,21416.7,-2407.26,0,21551.5,30765.9
step02_gravity_refstate-crust.xmf,824,-5.30722e-07,2.02954e-07,0,-5.18526e-09,-50348.2,-17.9692,-13940.6,-355.709,0.0242065,0.180164,0,0.181783,22669.8,0,0,22669.8,355.709
step02_gravity_refstate-crust.xmf,825,7.0292e-07,1.35031e-07,0,-8.82983e-07,-1.54058e+08,-1.54097e+08,-1.54106e+08,-60572.6,0.0135506,0.2068,0,0.207243,11984.1,-5611.69,0,13232.9,60572.6
step02_gravity_refstate-crust.xmf,826,6.58566e-07,7.19322e-08,0,-7.27235e-07,-1.15467e+08,-1.15507e+08,-1.15512e+08,-49888.3,0.0155388,0.204169,0,0.20476,13105.8,-4206.46,0,13764.3,49888.3
step02_gravity_refstate-crust.xmf,827,4.53154e-07,1.50259e-07,0,-7.24218e-07,-1.09267e+08,-1.09287e+08,-1.09298e+08,-49681.4,0.0168769,0.199187,0,0.199901,15049.8,-3980.03,0,15567.1,49681.4
step02_gravity_refstate-crust.xmf,828,2.04386e-07,2.6903e-07,0,-7.44029e-07,-1.11517e+08,-1.11512e+08,-1.11531e+08,-51040.4,0.0175127,0.193171,0,0.193963,17283.2,-4061.13,0,17753.9,51040.4
step02_gravity_refstate-crust.xmf,829,-6.05242e-07,4.01988e-07,0,-3.28709e-07,-5.22733e+07,-5.22042e+07,-5.22318e+07,-22549.5,0.0194924,0.176108,0,0.177184,24139.5,-1901.24,0,24214.3,22549.5
step02_gravity_refstate-crust.xmf,830,-8.85251e-07,3.3859e-07,0,-4.68444e-09,-83978.8,-23.3195,-23250.6,-321.352,0.0222514,0.174026,0,0.175443,25371.6,0,0,25371.6,321.352
step02_gravity_refstate-crust.xmf,831,-8.74128e-07,5.25166e-07,0,-2.99324e-07,-5.68367e+07,-5.67407e+07,-5.67767e+07,-20533.7,0.0171439,0.169874,0,0.170737,26908.6,-2066.47,0,26987.8,20533.7
step02_gravity_refstate-crust.xmf,832,-1.22261e-06,4.62684e-07,0,-1.01457e-08,-116193,-581.179,-32321.3,-695.995,0.0193161,0.168468,0,0.169571,28137.7,0,0,28137.7,695.995
step02_gravity_refstate-crust.xmf,833,-1.3084e-07,-8.26399e-07,0,1.4479e-05,-1.08582e+09,-1.08587e+09,-1.08581e+09,993259,-0.0373358,0.267129,-0,0.269726,-4793.16,-39528.5,-0,39818,993259
step02_gravity_refstate-crust.xmf,834,6.08089e-06,-8.38569e-06,0,7.77846e-06,-9.95528e+08,-9.9652e+08,-9.95945e+08,533603,-0.0252793,0.282839,-0,0.283967,-3119.45,-36254.8,-0,36388.8,533603
step02_gravity_refstate-crust.xmf,835,5.51161e-06,-7.89962e-06,0,9.18031e-06,-1.01169e+09,-1.01261e+09,-1.01207e+09,629769,-0.0287097,0.282556,-0,0.284011,-3471.72,-36841.6,-0,37004.8,629769
step02_gravity_refstate-crust.xmf,836,2.72446e-06,-4.7798e-06,0,1.30602e-05,-1.05711e+09,-1.05762e+09,-1.05729e+09,895927,-0.0359543,0.27669,-0,0.279016,-4321.66,-38488.7,-0,38730.6,895927
step02_gravity_refstate-crust.xmf,837,4.74457e-06,-7.11886e-06,0,1.05664e-05,-1.02734e+09,-1.02816e+09,-1.02767e+09,724858,-0.0317341,0.281264,-0,0.283049,-3797.13,-37409.6,-0,37601.8,724858
step02_gravity_refstate-crust.xmf,838,3.7571e-06,-5.99512e-06,0,1.1911e-05,-1.04289e+09,-1.04356e+09,-1.04315e+09,817098,-0.0342719,0.278976,-0,0.281073,-4098.23,-37973.4,-0,38194,817098
step02_gravity_refstate-crust.xmf,839,5.94612e-06,-7.40812e-06,0,4.92874e-06,-9.41753e+08,-9.42669e+08,-9.4216e+08,338112,-0.01831,0.272268,-0,0.272883,-2643.33,-34298,-0,34399.7,338112
step02_gravity_refstate-crust.xmf,840,6.47045e-06,-8.61789e-06,0,6.3789e-06,-9.78746e+08,-9.79781e+08,-9.7919e+08,437593,-0.0215203,0.28218,-0,0.283,-2734.83,-35645.1,-0,35749.8,437593
step02_gravity_refstate-crust.xmf,841,1.29177e-06,-1.58791e-07,0,-1.05055e-06,-4.15429e+08,-4.15528e+08,-4.15517e+08,-72068,0.00710826,0.220863,0,0.220978,4955.21,-15129.1,0,15919.9,72068
step02_gravity_refstate-crust.xmf,842,1.50428e-06,-3.86399e-07,0,-9.29613e-07,-4.61261e+08,-4.6139e+08,-4.61364e+08,-63771.5,0.00608216,0.223217,0,0.2233,3775.76,-16798.1,0,17217.3,63771.5
step02_gravity_refstate-crust.xmf,843,1.67734e-06,-5.78653e-07,0,-8.4386e-07,-4.93248e+08,-4.93402e+08,-4.93363e+08,-57888.8,0.00540542,0.224751,0,0.224816,3082.76,-17963.1,0,18225.7,57888.8
step02_gravity_refstate-crust.xmf,844,1.88499e-06,-8.17881e-07,0,-7.45207e-07,-5.30293e+08,-5.30478e+08,-5.30422e+08,-51121.2,0.00467776,0.226515,0,0.226563,2411.51,-19312.2,0,19462.2,51121.2
step02_gravity_refstate-crust.xmf,845,2.10946e-06,-1.08386e-06,0,-6.30455e-07,-5.65875e+08,-5.66094e+08,-5.6602e+08,-43249.2,0.00388072,0.228375,0,0.228408,1809.77,-20608.1,0,20687.4,43249.2
step02_gravity_refstate-crust.xmf,846,2.3519e-06,-1.37922e-06,0,-4.71884e-07,-5.99968e+08,-6.00224e+08,-6.00129e+08,-32371.2,0.00284707,0.230411,0,0.230428,1202.58,-21849.8,0,21882.9,32371.2
step02_gravity_refstate-crust.xmf,847,2.60033e-06,-1.69098e-06,0,-2.25151e-07,-6.31317e+08,-6.31611e+08,-6.31495e+08,-15445.4,0.00133878,0.23253,0,0.232534,515.267,-22991.6,0,22997.4,15445.4
step02_gravity_refstate-crust.xmf,848,2.84328e-06,-2.00658e-06,0,1.11811e-07,-6.61054e+08,-6.61387e+08,-6.61249e+08,7670.2,-0.000616298,0.234605,-0,0.234605,-217.465,-24074.7,-0,24075.7,7670.2
step02_gravity_refstate-crust.xmf,849,3.55103e-06,-2.9931e-06,0,9.17156e-07,-7.41067e+08,-7.41516e+08,-7.4131e+08,62916.9,-0.00481167,0.24104,-0,0.241088,-1336.53,-26989,-0,27022.1,62916.9
step02_gravity_refstate-crust.xmf,850,3.7024e-06,-3.2382e-06,0,1.54149e-06,-7.66086e+08,-7.66562e+08,-7.6634e+08,105746,-0.00787897,0.242568,-0,0.242696,-2044.24,-27900.1,-0,27974.9,105746
step02_gravity_refstate-crust.xmf,851,4.68789e-06,-4.78345e-06,0,2.08432e-06,-8.38571e+08,-8.39221e+08,-8.38893e+08,142985,-0.00951198,0.253361,-0,0.25354,-1932.95,-30540.6,-0,30601.7,142985
step02_gravity_refstate-crust.xmf,852,4.75801e-06,-4.9912e-06,0,2.92021e-06,-8.59785e+08,-8.60454e+08,-8.60112e+08,200326,-0.0129117,0.255026,-0,0.255353,-2478.97,-31312.9,-0,31410.8,200326
step02_gravity_refstate-crust.xmf,853,4.74595e-06,-5.1124e-06,0,3.80236e-06,-8.80915e+08,-8.81591e+08,-8.81241e+08,260842,-0.0162891,0.25636,-0,0.256877,-2965.76,-32081.9,-0,32218.7,260842
step02_gravity_refstate-crust.xmf,854,-2.92042e-08,3.92156e-07,0,-7.57436e-07,-1.17309e+08,-1.17281e+08,-1.17307e+08,-51960.1,0.0174332,0.187316,0,0.188125,19403.4,-4271.26,0,19867.9,51960.1
step02_gravity_refstate-crust.xmf,855,7.44035e-07,1.92214e-07,0,-1.02242e-06,-2.00256e+08,-2.00293e+08,-2.00307e+08,-70137.8,0.0118151,0.209397,0,0.20973,10795.5,-7293.81,0,13028.5,70137.8
step02_gravity_refstate-crust.xmf,856,7.988e-07,2.12959e-07,0,-1.11537e-06,-2.45923e+08,-2.45963e+08,-2.45978e+08,-76514.5,0.010557,0.211783,0,0.212046,9633.79,-8956.64,0,13154.1,76514.5
step02_gravity_refstate-crust.xmf,857,8.7104e-07,1.95302e-07,0,-1.17246e-06,-2.90476e+08,-2.90523e+08,-2.90536e+08,-80430.7,0.00967616,0.213895,0,0.214114,8553.5,-10578.9,0,13604.3,80430.7
step02_gravity_refstate-crust.xmf,858,9.60981e-07,1.43141e-07,0,-1.20836e-06,-3.34095e+08,-3.34151e+08,-3.34161e+08,-82893.8,0.00909188,0.21571,0,0.215902,7598.05,-12167.2,0,14344.7,82893.8
step02_gravity_refstate-crust.xmf,859,1.07018e-06,5.65046e-08,0,-1.22605e-06,-3.75392e+08,-3.75461e+08,-3.75465e+08,-84107.3,0.00868792,0.217353,0,0.217527,6748.24,-13670.9,0,15245.8,84107.3
step02_gravity_refstate-crust.xmf,860,-1.11212e-06,6.20625e-07,0,-2.63968e-07,-6.02401e+07,-6.01212e+07,-6.01638e+07,-18108.2,0.0142672,0.164633,0,0.16525,29615.7,-2189.56,0,29696.5,18108.2
step02_gravity_refstate-crust.xmf,861,-1.48262e-06,5.61106e-07,0,-9.92494e-09,-140902,-702.038,-39193.9,-680.851,0.0154849,0.163739,0,0.164469,30975.9,0,0,30975.9,680.851
step02_gravity_refstate-crust.xmf,862,6.69142e-06,-8.62056e-06,0,4.95679e-06,-9.60729e+08,-9.61779e+08,-9.61188e+08,340036,-0.0173718,0.280587,-0,0.281124,-2296.52,-34990,-0,35065.3,340036
step02_gravity_refstate-crust.xmf,863,7.28886e-06,-1.01303e-05,0,6.46831e-06,-9.96055e+08,-9.9725e+08,-9.96555e+08,443726,-0.0206316,0.291525,-0,0.292254,-2417.01,-36276.2,-0,36356.6,443726
step02_gravity_refstate-crust.xmf,864,3.49799e-06,-6.24439e-06,0,1.44356e-05,-1.07131e+09,-1.07198e+09,-1.07155e+09,990280,-0.0357861,0.287254,-0,0.289475,-4025.35,-39006.6,-0,39213.7,990280
step02_gravity_refstate-crust.xmf,865,1.82987e-06,-3.95969e-06,0,1.56745e-05,-1.08526e+09,-1.08566e+09,-1.08539e+09,1.07527e+06,-0.0368936,0.282728,-0,0.285125,-4274.91,-39511.3,-0,39741.9,1.07527e+06
step02_gravity_refstate-crust.xmf,866,1.18332e-06,-3.8543e-08,0,-1.2469e-06,-4.14569e+08,-4.14653e+08,-4.1465e+08,-85537.7,0.00852243,0.218671,0,0.218837,6106.03,-15097.5,0,16285.5,85537.7
step02_gravity_refstate-crust.xmf,867,1.35293e-06,-2.18524e-07,0,-1.17639e-06,-4.46998e+08,-4.47106e+08,-4.47091e+08,-80700.4,0.00779683,0.220768,0,0.220905,5123.69,-16278.6,0,17065.9,80700.4
step02_gravity_refstate-crust.xmf,868,3.34917e-06,-2.69647e-06,0,3.57313e-07,-7.16065e+08,-7.1648e+08,-7.16295e+08,24511.7,-0.00192377,0.239171,-0,0.239179,-574.188,-26078.4,-0,26084.8,24511.7
step02_gravity_refstate-crust.xmf,869,3.12234e-06,-2.38676e-06,0,-1.95704e-07,-6.93046e+08,-6.93424e+08,-6.9326e+08,-13425.3,0.0011592,0.237124,0,0.237126,371.284,-25240,0,25242.7,13425.3
step02_gravity_refstate-crust.xmf,870,4.13235e-06,-3.90883e-06,0,1.36222e-06,-7.92428e+08,-7.9298e+08,-7.92712e+08,93448.5,-0.00670883,0.247015,-0,0.247106,-1582.7,-28859.8,-0,28903.2,93448.5
step02_gravity_refstate-crust.xmf,871,4.55307e-06,-4.55814e-06,0,1.25497e-06,-8.17487e+08,-8.18112e+08,-8.178e+08,86091,-0.0059531,0.251454,-0,0.251524,-1283.67,-29772.8,-0,29800.5,86091
step02_gravity_refstate-crust.xmf,872,5.35993e-06,-6.16319e-06,0,3.77213e-06,-9.01801e+08,-9.02592e+08,-9.02169e+08,258768,-0.0153612,0.263139,-0,0.263587,-2550.11,-32843.1,-0,32942,258768
step02_gravity_refstate-crust.xmf,873,6.03694e-06,-7.28361e-06,0,3.68597e-06,-9.2228e+08,-9.23194e+08,-9.22694e+08,252857,-0.0142118,0.270489,-0,0.270862,-2152.63,-33589.7,-0,33658.6,252857
step02_gravity_refstate-crust.xmf,874,-4.52232e-07,5.56904e-07,0,-6.50212e-07,-1.1284e+08,-1.12771e+08,-1.12809e+08,-44604.6,0.0165987,0.17648,0,0.177259,23550.7,-4107.08,0,23906.1,44604.6
step02_gravity_refstate-crust.xmf,875,-2.45012e-07,5.10093e-07,0,-7.5391e-07,-1.24311e+08,-1.24259e+08,-1.24294e+08,-51718.2,0.0168349,0.18157,0,0.182349,21491.6,-4525.45,0,21962.9,51718.2
step02_gravity_refstate-crust.xmf,876,4.87882e-07,2.60586e-07,0,-9.64765e-07,-1.59123e+08,-1.59138e+08,-1.59156e+08,-66182.9,0.0146734,0.201348,0,0.201882,14092.4,-5795.4,0,15237.5,66182.9
step02_gravity_refstate-crust.xmf,877,5.36875e-07,3.32898e-07,0,-1.13639e-06,-2.0449e+08,-2.04504e+08,-2.04527e+08,-77956.5,0.0131702,0.203757,0,0.204182,13001.3,-7447.35,0,14983.2,77956.5
step02_gravity_refstate-crust.xmf,878,2.7585e-07,3.89639e-07,0,-1.00694e-06,-1.63731e+08,-1.63723e+08,-1.6375e+08,-69076.2,0.015334,0.195646,0,0.196246,16157.5,-5962.5,0,17222.6,69076.2
step02_gravity_refstate-crust.xmf,879,6.20648e-08,5.14157e-07,0,-1.01837e-06,-1.67677e+08,-1.67646e+08,-1.67681e+08,-69860.3,0.0155792,0.18955,0,0.19019,18299.4,-6105.5,0,19291,69860.3
step02_gravity_refstate-crust.xmf,880,-6.57754e-07,6.42559e-07,0,-5.77006e-07,-1.12155e+08,-1.12066e+08,-1.1211e+08,-39582.6,0.0153461,0.17106,0,0.171747,25825.3,-4081.46,0,26145.8,39582.6
step02_gravity_refstate-crust.xmf,881,-8.49283e-07,7.2784e-07,0,-4.93579e-07,-1.13566e+08,-1.13458e+08,-1.13508e+08,-33859.5,0.0133872,0.165735,0,0.166275,28313.4,-4132.18,0,28613.4,33859.5
step02_gravity_refstate-crust.xmf,882,-1.28595e-06,6.98884e-07,0,-2.0931e-07,-6.36779e+07,-6.35417e+07,-6.35897e+07,-14358.6,0.0107264,0.160226,0,0.160585,32456.1,-2314.14,0,32538.5,14358.6
step02_gravity_refstate-crust.xmf,883,6.90604e-06,-1.00358e-05,0,7.98478e-06,-1.01221e+09,-1.01337e+09,-1.01268e+09,547756,-0.0246184,0.292673,-0,0.293707,-2805.62,-36862.8,-0,36969.4,547756
step02_gravity_refstate-crust.xmf,884,6.43273e-06,-9.63425e-06,0,9.58937e-06,-1.02759e+09,-1.02869e+09,-1.02803e+09,657831,-0.0280881,0.293099,-0,0.294441,-3139.21,-37421.6,-0,37553.1,657831
step02_gravity_refstate-crust.xmf,885,4.76025e-06,-7.87405e-06,0,1.28311e-05,-1.05713e+09,-1.05799e+09,-1.05745e+09,880214,-0.0338496,0.290354,-0,0.29232,-3755.88,-38492.8,-0,38675.6,880214
step02_gravity_refstate-crust.xmf,886,5.71338e-06,-8.94648e-06,0,1.11964e-05,-1.04254e+09,-1.04354e+09,-1.04293e+09,768071,-0.0312349,0.292277,-0,0.293941,-3460.28,-37963.8,-0,38121.2,768071
step02_gravity_refstate-crust.xmf,887,6.74098e-06,-8.49335e-06,0,3.572e-06,-9.42202e+08,-9.43247e+08,-9.42665e+08,245039,-0.013044,0.278183,-0,0.278489,-1808.65,-34315.9,-0,34363.6,245039
step02_gravity_refstate-crust.xmf,888,7.46561e-06,-1.00327e-05,0,4.94512e-06,-9.79309e+08,-9.8051e+08,-9.79821e+08,339235,-0.0164032,0.289375,-0,0.28984,-1994.11,-35667.4,-0,35723.1,339235
step02_gravity_refstate-crust.xmf,889,1.02187e-06,1.38133e-07,0,-1.47791e-06,-4.11905e+08,-4.11965e+08,-4.11975e+08,-101385,0.0101923,0.215142,0,0.215383,7657.99,-15000.1,0,16841.9,101385
step02_gravity_refstate-crust.xmf,890,1.52607e-06,-3.97815e-07,0,-1.1789e-06,-4.89376e+08,-4.89508e+08,-4.89481e+08,-80872.7,0.00765021,0.222371,0,0.222502,4519.38,-17821.8,0,18385.9,80872.7
step02_gravity_refstate-crust.xmf,891,1.73922e-06,-6.42274e-07,0,-1.15002e-06,-5.27559e+08,-5.27722e+08,-5.27678e+08,-78891.1,0.00726758,0.224287,0,0.224405,3863.39,-19212.3,0,19596.9,78891.1
step02_gravity_refstate-crust.xmf,892,1.97626e-06,-9.21149e-07,0,-1.09409e-06,-5.64907e+08,-5.65105e+08,-5.65042e+08,-75054.3,0.00676668,0.226439,0,0.22654,3228.96,-20572.6,0,20824.4,75054.3
step02_gravity_refstate-crust.xmf,893,2.23899e-06,-1.24106e-06,0,-1.00374e-06,-6.00468e+08,-6.00707e+08,-6.00622e+08,-68856.5,0.00606436,0.22884,0,0.228921,2600.9,-21867.8,0,22021.9,68856.5
step02_gravity_refstate-crust.xmf,894,2.527e-06,-1.60191e-06,0,-8.17959e-07,-6.32875e+08,-6.33159e+08,-6.33049e+08,-56112,0.00482551,0.231534,0,0.231584,1869.42,-23048.2,0,23123.9,56112
step02_gravity_refstate-crust.xmf,895,2.82217e-06,-1.98182e-06,0,-5.2593e-07,-6.62369e+08,-6.62698e+08,-6.62562e+08,-36078.8,0.00302659,0.234286,0,0.234305,1067.27,-24122.5,0,24146.1,36078.8
step02_gravity_refstate-crust.xmf,896,3.67291e-06,-3.16303e-06,0,1.35563e-07,-7.43933e+08,-7.44402e+08,-7.44185e+08,9299.62,-0.00069328,0.24229,-0,0.242291,-189.213,-27093.6,-0,27094.2,9299.62
step02_gravity_refstate-crust.xmf,897,3.93672e-06,-3.55169e-06,0,6.84512e-07,-7.68625e+08,-7.69139e+08,-7.68895e+08,46957.6,-0.00344231,0.244898,-0,0.244922,-870.508,-27993,-0,28006.5,46957.6
step02_gravity_refstate-crust.xmf,898,4.98498e-06,-5.18893e-06,0,1.1461e-06,-8.40405e+08,-8.41103e+08,-8.40747e+08,78622.4,-0.00516363,0.25599,-0,0.256042,-1023.82,-30607.9,-0,30625,78622.4
step02_gravity_refstate-crust.xmf,899,5.1943e-06,-5.57779e-06,0,1.92844e-06,-8.60844e+08,-8.61583e+08,-8.612e+08,132291,-0.0083903,0.258729,-0,0.258865,-1561.92,-31352.3,-0,31391.1,132291
step02_gravity_refstate-crust.xmf,900,5.3354e-06,-5.9041e-06,0,2.79813e-06,-8.81511e+08,-8.82282e+08,-8.81877e+08,191952,-0.0117537,0.261229,-0,0.261494,-2059.67,-32104.7,-0,32170.7,191952
step02_gravity_refstate-crust.xmf,901,-1.3814e-07,6.28268e-07,0,-9.96681e-07,-1.70888e+08,-1.70836e+08,-1.70879e+08,-68372.3,0.0153993,0.183586,0,0.18423,20396.1,-6221.77,0,21324,68372.3
step02_gravity_refstate-crust.xmf,902,6.10594e-07,3.62009e-07,0,-1.26077e-06,-2.493e+08,-2.49317e+08,-2.49342e+08,-86488.9,0.0120217,0.206547,0,0.206897,11729.7,-9079.06,0,14832.9,86488.9
step02_gravity_refstate-crust.xmf,903,6.93375e-07,3.54797e-07,0,-1.34662e-06,-2.92273e+08,-2.92296e+08,-2.92321e+08,-92378.3,0.0112423,0.209058,0,0.20936,10547,-10643.8,0,14984.4,92378.3
step02_gravity_refstate-crust.xmf,904,7.87728e-07,3.15842e-07,0,-1.41346e-06,-3.35287e+08,-3.3532e+08,-3.35342e+08,-96963.3,0.0107525,0.211245,0,0.211519,9484.11,-12210.2,0,15460.8,96963.3
step02_gravity_refstate-crust.xmf,905,8.99986e-07,2.42065e-07,0,-1.457e-06,-3.76171e+08,-3.76216e+08,-3.76232e+08,-99949.9,0.01043,0.213293,0,0.213548,8504.72,-13698.9,0,16124.2,99949.9
step02_gravity_refstate-crust.xmf,906,-1.67851e-06,6.3564e-07,0,-8.77058e-09,-159501,-750.45,-44355.3,-601.662,0.0108787,0.160085,0,0.160455,33894,0,0,33894,601.662
step02_gravity_refstate-crust.xmf,907,-1.03379e-06,8.06089e-07,0,-4.00828e-07,-1.16634e+08,-1.16507e+08,-1.16563e+08,-27496.8,0.0107208,0.160834,0,0.161191,31025.9,-4243.23,0,31314.8,27496.8
step02_gravity_refstate-crust.xmf,908,7.46636e-06,-9.71219e-06,0,3.47299e-06,-9.61814e+08,-9.62993e+08,-9.62327e+08,238247,-0.0119673,0.286298,-0,0.286548,-1524.01,-35031,-0,35064.1,238247
step02_gravity_refstate-crust.xmf,909,8.1512e-06,-1.19154e-05,0,6.45053e-06,-1.01327e+09,-1.01465e+09,-1.01383e+09,442506,-0.0195704,0.301634,-0,0.302269,-2125.06,-36903.8,-0,36964.9,442506
step02_gravity_refstate-crust.xmf,910,8.25744e-06,-1.1563e-05,0,4.86071e-06,-9.97299e+08,-9.98659e+08,-9.97866e+08,333445,-0.0153208,0.298681,-0,0.299074,-1722.97,-36323.2,-0,36364,333445
step02_gravity_refstate-crust.xmf,911,5.96951e-06,-1.01671e-05,0,1.36418e-05,-1.07126e+09,-1.07236e+09,-1.07167e+09,935825,-0.0331948,0.30195,-0,0.303769,-3475.88,-39008.6,-0,39163.2,935825
step02_gravity_refstate-crust.xmf,912,4.94288e-06,-8.75647e-06,0,1.5937e-05,-1.08518e+09,-1.08611e+09,-1.08551e+09,1.09328e+06,-0.0351544,0.299056,-0,0.301115,-3751.16,-39513.3,-0,39691,1.09328e+06
step02_gravity_refstate-crust.xmf,913,1.16226e-06,1.00969e-08,0,-1.49684e-06,-4.49081e+08,-4.4916e+08,-4.4916e+08,-102684,0.0100455,0.216945,0,0.217177,6879.87,-16354,0,17742.2,102684
step02_gravity_refstate-crust.xmf,914,1.33863e-06,-1.78913e-07,0,-1.50252e-06,-4.85484e+08,-4.85588e+08,-4.85576e+08,-103073,0.00981272,0.218981,0,0.219201,6080.37,-17679.7,0,18696,103073
step02_gravity_refstate-crust.xmf,915,3.00895e-06,-2.23669e-06,0,-7.69216e-07,-6.88018e+08,-6.88378e+08,-6.88224e+08,-52768.2,0.00433755,0.235902,0,0.235942,1421.45,-25056.7,0,25097,52768.2
step02_gravity_refstate-crust.xmf,916,3.41896e-06,-2.81513e-06,0,-2.58294e-07,-7.22435e+08,-7.22862e+08,-7.22669e+08,-17719,0.0013688,0.239893,0,0.239897,400.304,-26310.4,0,26313.5,17719
step02_gravity_refstate-crust.xmf,917,4.38362e-06,-4.24141e-06,0,3.66645e-07,-7.97686e+08,-7.98278e+08,-7.97987e+08,25151.9,-0.00173319,0.249388,-0,0.249394,-396.38,-29051.7,-0,29054.4,25151.9
step02_gravity_refstate-crust.xmf,918,4.71617e-06,-4.75445e-06,0,4.66694e-07,-8.20373e+08,-8.21023e+08,-8.20696e+08,32015.2,-0.00218348,0.25305,-0,0.25306,-462.209,-29878.2,-0,29881.8,32015.2
step02_gravity_refstate-crust.xmf,919,5.9554e-06,-6.95483e-06,0,2.57545e-06,-9.02388e+08,-9.03274e+08,-9.02797e+08,176676,-0.0103331,0.267823,-0,0.268023,-1656.34,-32865.7,-0,32907.4,176676
step02_gravity_refstate-crust.xmf,920,6.61057e-06,-8.05365e-06,0,2.31069e-06,-9.22911e+08,-9.23917e+08,-9.23364e+08,158513,-0.00879502,0.274825,-0,0.274965,-1291.71,-33613.8,-0,33638.6,158513
step02_gravity_refstate-crust.xmf,921,-3.32195e-07,7.18307e-07,0,-9.26341e-07,-1.69058e+08,-1.68986e+08,-1.69036e+08,-63547,0.0149264,0.177662,0,0.178288,22585.6,-6154.5,0,23409.1,63547
step02_gravity_refstate-crust.xmf,922,-5.14693e-07,8.03868e-07,0,-8.37823e-07,-1.68458e+08,-1.68368e+08,-1.68423e+08,-57474.7,0.0139757,0.171923,0,0.17249,24834.1,-6132.06,0,25579.9,57474.7
step02_gravity_refstate-crust.xmf,923,3.31211e-07,4.87451e-07,0,-1.22813e-06,-2.14491e+08,-2.14481e+08,-2.14514e+08,-84249.5,0.0139188,0.197916,0,0.198405,15061.3,-7810.87,0,16966.2,84249.5
step02_gravity_refstate-crust.xmf,924,4.00225e-07,5.4028e-07,0,-1.37735e-06,-2.57559e+08,-2.5755e+08,-2.57587e+08,-94486.2,0.0130797,0.200448,0,0.200874,13890.5,-9379.16,0,16760.5,94486.2
step02_gravity_refstate-crust.xmf,925,1.30663e-07,6.38368e-07,0,-1.25565e-06,-2.20308e+08,-2.20273e+08,-2.20317e+08,-86137.9,0.0143152,0.191726,0,0.19226,17159.2,-8022.06,0,18941.8,86137.9
step02_gravity_refstate-crust.xmf,926,-6.35653e-08,7.70433e-07,0,-1.23894e-06,-2.233e+08,-2.23243e+08,-2.23296e+08,-84991.4,0.0143352,0.185362,0,0.185916,19305,-8130.41,0,20947.2,84991.4
step02_gravity_refstate-crust.xmf,927,-1.41016e-06,7.52647e-07,0,-1.32649e-07,-6.47369e+07,-6.45885e+07,-6.46401e+07,-9099.73,0.00678936,0.157106,0,0.157253,35354,-2352.27,0,35432.2,9099.73
step02_gravity_refstate-crust.xmf,928,-1.80108e-06,6.82817e-07,0,-3.57794e-09,-171116,-720.753,-47562,-245.447,0.00565253,0.157741,0,0.157842,36899.5,0,0,36899.5,245.447
step02_gravity_refstate-crust.xmf,929,-6.83494e-07,8.84522e-07,0,-7.30401e-07,-1.6896e+08,-1.68852e+08,-1.68913e+08,-50105.5,0.0125198,0.166408,0,0.166879,27205.4,-6149.76,0,27891.9,50105.5
step02_gravity_refstate-crust.xmf,930,-8.26633e-07,9.55204e-07,0,-6.09203e-07,-1.70441e+08,-1.70319e+08,-1.70384e+08,-41791.3,0.0106345,0.161505,0,0.161855,29620.6,-6203.2,0,30263.2,41791.3
step02_gravity_refstate-crust.xmf,931,-1.09391e-06,9.16496e-07,0,-3.17174e-07,-1.36777e+08,-1.3664e+08,-1.36702e+08,-21758.1,0.00723358,0.156381,0,0.156549,33848.9,-4976.51,0,34212.8,21758.1
step02_gravity_refstate-crust.xmf,932,7.87557e-06,-1.19402e-05,0,8.04972e-06,-1.02864e+09,-1.03e+09,-1.02918e+09,552211,-0.0234697,0.303765,-0,0.30467,-2482.86,-37462,-0,37544.2,552211
step02_gravity_refstate-crust.xmf,933,7.48344e-06,-1.16832e-05,0,9.81488e-06,-1.04315e+09,-1.04447e+09,-1.04367e+09,673301,-0.0270728,0.304644,-0,0.305844,-2821.27,-37989.3,-0,38093.9,673301
step02_gravity_refstate-crust.xmf,934,6.87087e-06,-1.11646e-05,0,1.16816e-05,-1.05764e+09,-1.05888e+09,-1.05812e+09,801361,-0.0304019,0.304206,-0,0.305722,-3154.28,-38515.1,-0,38644.1,801361
step02_gravity_refstate-crust.xmf,935,7.30377e-06,-9.20652e-06,0,2.08699e-06,-9.43983e+08,-9.45116e+08,-9.44484e+08,143167,-0.00747176,0.28245,-0,0.282549,-1004.72,-34381.9,-0,34396.6,143167
step02_gravity_refstate-crust.xmf,936,8.20876e-06,-1.11239e-05,0,3.31128e-06,-9.8098e+08,-9.82306e+08,-9.81543e+08,227154,-0.0108426,0.294975,-0,0.295174,-1273.36,-35729.6,-0,35752.2,227154
step02_gravity_refstate-crust.xmf,937,8.59615e-07,3.26738e-07,0,-1.64834e-06,-4.11131e+08,-4.11167e+08,-4.1119e+08,-113076,0.0115182,0.211397,0,0.211711,9083.2,-14971.6,0,17511.5,113076
step02_gravity_refstate-crust.xmf,938,9.58159e-07,2.41775e-07,0,-1.72196e-06,-4.45114e+08,-4.45163e+08,-4.4518e+08,-118126,0.0116862,0.212663,0,0.212983,8504.75,-16209.1,0,18304.8,118126
step02_gravity_refstate-crust.xmf,939,1.53821e-06,-3.92419e-07,0,-1.50286e-06,-5.24555e+08,-5.24688e+08,-5.24661e+08,-103096,0.00964989,0.221111,0,0.221321,5353.09,-19102.6,0,19838.4,103096
step02_gravity_refstate-crust.xmf,940,1.78026e-06,-6.78817e-07,0,-1.51485e-06,-5.63881e+08,-5.64049e+08,-5.64003e+08,-103919,0.00945656,0.223475,0,0.223675,4672.23,-20534.8,0,21059.6,103919
step02_gravity_refstate-crust.xmf,941,2.0499e-06,-1.00654e-06,0,-1.48959e-06,-6.00876e+08,-6.01085e+08,-6.01016e+08,-102186,0.00907188,0.226158,0,0.22634,3998.94,-21882.2,0,22244.6,102186
step02_gravity_refstate-crust.xmf,942,2.35375e-06,-1.38971e-06,0,-1.39341e-06,-6.34164e+08,-6.34421e+08,-6.34325e+08,-95587.9,0.0082567,0.229223,0,0.229371,3265.65,-23094.7,0,23324.5,95587.9
step02_gravity_refstate-crust.xmf,943,2.71402e-06,-1.86673e-06,0,-1.20456e-06,-6.67911e+08,-6.68225e+08,-6.68097e+08,-82632.8,0.00691929,0.232843,0,0.232946,2443.64,-24324.1,0,24446.5,82632.8
step02_gravity_refstate-crust.xmf,944,3.27901e-06,-2.61784e-06,0,-8.71162e-07,-7.16026e+08,-7.1643e+08,-7.16251e+08,-59761.7,0.00476358,0.238357,0,0.238404,1432.9,-26076.8,0,26116.2,59761.7
step02_gravity_refstate-crust.xmf,945,3.64462e-06,-3.13751e-06,0,-6.41546e-07,-7.4534e+08,-7.45805e+08,-7.4559e+08,-44010,0.0033808,0.242014,0,0.242037,922.053,-27144.7,0,27160.4,44010
step02_gravity_refstate-crust.xmf,946,3.99933e-06,-3.6454e-06,0,-2.27231e-07,-7.70176e+08,-7.707e+08,-7.7045e+08,-15588.1,0.00116522,0.245507,0,0.24551,292.132,-28049.6,0,28051.1,15588.1
step02_gravity_refstate-crust.xmf,947,5.10054e-06,-5.35054e-06,0,1.73967e-07,-8.40955e+08,-8.41672e+08,-8.41305e+08,11934.1,-0.000764075,0.256992,-0,0.256993,-150.218,-30628.2,-0,30628.5,11934.1
step02_gravity_refstate-crust.xmf,948,5.45122e-06,-5.92837e-06,0,8.35732e-07,-8.61737e+08,-8.62518e+08,-8.62111e+08,57331.2,-0.00359178,0.260876,-0,0.260901,-656.627,-31385.3,-0,31392.2,57331.2
step02_gravity_refstate-crust.xmf,949,5.74686e-06,-6.46021e-06,0,1.63301e-06,-8.8216e+08,-8.82998e+08,-8.82554e+08,112025,-0.00676368,0.264541,-0,0.264627,-1155.03,-32129.2,-0,32149.9,112025
step02_gravity_refstate-crust.xmf,950,-2.43749e-07,8.7813e-07,0,-1.17465e-06,-2.22827e+08,-2.2275e+08,-2.2281e+08,-80580.7,0.0140033,0.179181,0,0.179727,21459.9,-8112.6,0,22942.1,80580.7
step02_gravity_refstate-crust.xmf,951,4.99693e-07,5.34413e-07,0,-1.46975e-06,-2.95561e+08,-2.95558e+08,-2.95595e+08,-100825,0.0124489,0.203543,0,0.203923,12548.3,-10763,0,16531.9,100825
step02_gravity_refstate-crust.xmf,952,5.92305e-07,5.09432e-07,0,-1.57153e-06,-3.37012e+08,-3.37017e+08,-3.37052e+08,-107807,0.0121152,0.205925,0,0.206281,11435.7,-12272.4,0,16774.6,107807
step02_gravity_refstate-crust.xmf,953,6.98919e-07,4.66331e-07,0,-1.68771e-06,-3.8735e+08,-3.87366e+08,-3.87398e+08,-115777,0.0121094,0.208039,0,0.208391,10384.6,-14105.4,0,17515.8,115777
step02_gravity_refstate-crust.xmf,954,-1.49526e-06,7.7121e-07,0,-5.22835e-08,-5.94118e+07,-5.92564e+07,-5.93093e+07,-3586.65,0.00328751,0.155761,0,0.155795,37819.8,-2158.09,0,37881.3,3586.65
step02_gravity_refstate-crust.xmf,955,-1.81456e-06,6.8607e-07,0,5.98449e-09,-172475,-932.407,-47996.8,410.536,2.43551e-19,0.156915,0,0.156915,40000,0,0,40000,410.536
step02_gravity_refstate-crust.xmf,956,-9.3115e-07,1.01284e-06,0,-4.91692e-07,-1.73689e+08,-1.73555e+08,-1.73625e+08,-33730.1,0.00862469,0.157739,0,0.157975,31811.6,-6321.11,0,32433.5,33730.1
step02_gravity_refstate-crust.xmf,957,9.02688e-06,-1.37301e-05,0,6.17473e-06,-1.02981e+09,-1.03137e+09,-1.03043e+09,423587,-0.0179706,0.312639,-0,0.313155,-1825.07,-37506.4,-0,37550.8,423587
step02_gravity_refstate-crust.xmf,958,9.04696e-06,-1.3273e-05,0,4.61773e-06,-1.01449e+09,-1.01602e+09,-1.01511e+09,316776,-0.0139437,0.308546,-0,0.30886,-1462.53,-36949.6,-0,36978.5,316776
step02_gravity_refstate-crust.xmf,959,8.01667e-06,-1.05328e-05,0,1.8734e-06,-9.64889e+08,-9.66161e+08,-9.65439e+08,128515,-0.00633216,0.290684,-0,0.290753,-781.515,-35143.9,-0,35152.6,128515
step02_gravity_refstate-crust.xmf,960,8.92426e-06,-1.2587e-05,0,3.11274e-06,-9.99058e+08,-1.00053e+09,-9.9967e+08,213534,-0.00973654,0.303913,-0,0.304069,-1063.41,-36388.3,-0,36403.9,213534
step02_gravity_refstate-crust.xmf,961,7.95079e-06,-1.34876e-05,0,1.17312e-05,-1.07105e+09,-1.07252e+09,-1.0716e+09,804762,-0.0292043,0.315776,-0,0.317123,-2903.04,-39003.9,-0,39111.8,804762
step02_gravity_refstate-crust.xmf,962,7.38831e-06,-1.31393e-05,0,1.38747e-05,-1.08512e+09,-1.08653e+09,-1.08563e+09,951805,-0.0319349,0.314459,-0,0.316077,-3228.22,-39514.4,-0,39646.1,951805
step02_gravity_refstate-crust.xmf,963,6.80681e-06,-1.28189e-05,0,1.59764e-05,-1.09851e+09,-1.09986e+09,-1.09898e+09,1.09598e+06,-0.0334484,0.312525,-0,0.31431,-3497.18,-40000,-0,40152.6,1.09598e+06
step02_gravity_refstate-crust.xmf,964,1.11092e-06,1.02306e-07,0,-1.77316e-06,-4.83615e+08,-4.83684e+08,-4.83691e+08,-121639,0.0117855,0.214628,0,0.214952,7726.69,-17611.1,0,19231.6,121639
step02_gravity_refstate-crust.xmf,965,1.30235e-06,-1.07992e-07,0,-1.82297e-06,-5.21578e+08,-5.21675e+08,-5.21668e+08,-125055,0.0117992,0.216952,0,0.217272,6916.79,-18993.7,0,20213.9,125055
step02_gravity_refstate-crust.xmf,966,2.97742e-06,-2.21797e-06,0,-1.25039e-06,-6.97507e+08,-6.97863e+08,-6.97711e+08,-85776.8,0.00696611,0.2354,0,0.235503,2245.14,-25402,0,25501.1,85776.8
step02_gravity_refstate-crust.xmf,967,4.70355e-06,-4.72979e-06,0,-3.35856e-07,-8.18638e+08,-8.19285e+08,-8.18961e+08,-23039.7,0.00160305,0.252825,0,0.25283,340.873,-29815.1,0,29817,23039.7
step02_gravity_refstate-crust.xmf,968,6.31043e-06,-7.41393e-06,0,1.25166e-06,-9.02581e+08,-9.03523e+08,-9.03014e+08,85863.7,-0.00501867,0.270532,-0,0.270579,-788.992,-32873.4,-0,32882.9,85863.7
step02_gravity_refstate-crust.xmf,969,6.94339e-06,-8.46221e-06,0,6.55837e-07,-9.23864e+08,-9.24921e+08,-9.2434e+08,44990.4,-0.00257188,0.277334,-0,0.277346,-370.7,-33649.2,-0,33651.2,44990.4
step02_gravity_refstate-crust.xmf,970,7.64476e-06,-9.75101e-06,0,5.52826e-07,-9.48252e+08,-9.49445e+08,-9.48776e+08,37923.8,-0.00192184,0.285538,-0,0.285544,-251.714,-34537.9,-0,34538.8,37923.8
step02_gravity_refstate-crust.xmf,971,-4.15007e-07,9.76777e-07,0,-1.07928e-06,-2.22689e+08,-2.22594e+08,-2.22661e+08,-74038.3,0.0132495,0.173012,0,0.173519,23716.4,-8107.05,0,25063.8,74038.3
step02_gravity_refstate-crust.xmf,972,-5.71034e-07,1.06605e-06,0,-9.5839e-07,-2.23458e+08,-2.23345e+08,-2.23418e+08,-65745.5,0.0120625,0.167083,0,0.167518,26061.1,-8134.54,0,27301.1,65745.5
step02_gravity_refstate-crust.xmf,973,3.30978e-07,6.90027e-07,0,-1.54412e-06,-2.99522e+08,-2.99497e+08,-2.99544e+08,-105927,0.0131859,0.198306,0,0.198744,14297.4,-10906.8,0,17982.6,105927
step02_gravity_refstate-crust.xmf,974,1.98005e-07,7.47601e-07,0,-1.47962e-06,-2.76674e+08,-2.76636e+08,-2.76688e+08,-101502,0.0136076,0.194094,0,0.194571,15886.2,-10074.6,0,18811.4,101502
step02_gravity_refstate-crust.xmf,975,-1.04182e-08,9.09274e-07,0,-1.46028e-06,-2.76359e+08,-2.76296e+08,-2.76359e+08,-100175,0.0138245,0.186942,0,0.187453,18231.7,-10062.5,0,20824.2,100175
step02_gravity_refstate-crust.xmf,976,-1.90131e-07,1.04462e-06,0,-1.40156e-06,-2.7676e+08,-2.76676e+08,-2.76747e+08,-96147,0.0135959,0.180347,0,0.180859,20406.8,-10076.6,0,22759.1,96147
step02_gravity_refstate-crust.xmf,977,7.55295e-07,4.79581e-07,0,-1.85562e-06,-4.38277e+08,-4.38296e+08,-4.38329e+08,-127296,0.012843,0.208202,0,0.208598,10034.3,-15959.7,0,18852,127296
step02_gravity_refstate-crust.xmf,978,-1.21708e-06,9.28097e-07,0,-1.40861e-07,-1.28655e+08,-1.28508e+08,-1.28571e+08,-9663.05,0.00345372,0.153907,0,0.153946,37194.9,-4680.32,0,37488.3,9663.05
step02_gravity_refstate-crust.xmf,979,-1.39873e-06,8.16571e-07,0,3.39854e-09,-8.31997e+07,-8.30477e+07,-8.31038e+07,233.14,2.49e-19,0.154638,0,0.154638,40000,-3024.57,0,40114.2,233.14
step02_gravity_refstate-crust.xmf,980,-7.06043e-07,1.1396e-06,0,-8.14319e-07,-2.24106e+08,-2.2398e+08,-2.24058e+08,-55862.3,0.0104908,0.161696,0,0.162036,28471.2,-8157.73,0,29616.8,55862.3
step02_gravity_refstate-crust.xmf,981,-8.15317e-07,1.20095e-06,0,-6.5706e-07,-2.25659e+08,-2.25521e+08,-2.25603e+08,-45074.3,0.00860242,0.157101,0,0.157336,30892.4,-8213.92,0,31965.7,45074.3
step02_gravity_refstate-crust.xmf,982,-9.09421e-07,1.23106e-06,0,-4.66503e-07,-2.22609e+08,-2.22462e+08,-2.22547e+08,-32002.1,0.0063204,0.153385,0,0.153515,33548.1,-8102.53,0,34512.7,32002.1
step02_gravity_refstate-crust.xmf,983,9.78917e-06,-1.49261e-05,0,4.16203e-06,-1.03083e+09,-1.03252e+09,-1.0315e+09,285515,-0.012098,0.318961,-0,0.31919,-1196.56,-37544.8,-0,37563.9,285515
step02_gravity_refstate-crust.xmf,984,8.91786e-06,-1.41247e-05,0,7.80361e-06,-1.04497e+09,-1.04655e+09,-1.04558e+09,535328,-0.021722,0.316165,-0,0.31691,-2155.55,-38057.5,-0,38118.5,535328
step02_gravity_refstate-crust.xmf,985,8.6634e-06,-1.43672e-05,0,9.76137e-06,-1.06099e+09,-1.06257e+09,-1.06159e+09,669630,-0.0255975,0.318654,-0,0.31968,-2511.93,-38639.3,-0,38720.9,669630
step02_gravity_refstate-crust.xmf,986,8.66965e-06,-1.18467e-05,0,1.64382e-06,-9.83638e+08,-9.85046e+08,-9.84233e+08,112766,-0.0053389,0.298824,-0,0.298872,-611.456,-35827.1,-0,35832.3,112766
step02_gravity_refstate-crust.xmf,987,8.76535e-07,3.71396e-07,0,-1.96303e-06,-4.78007e+08,-4.78042e+08,-4.78067e+08,-134664,0.0132038,0.209896,0,0.210311,9297.8,-17406.5,0,19734.1,134664
step02_gravity_refstate-crust.xmf,988,1.53208e-06,-3.63166e-07,0,-1.85363e-06,-5.61554e+08,-5.61684e+08,-5.61659e+08,-127159,0.0117903,0.219603,0,0.219919,6117.27,-20449.6,0,21344.9,127159
step02_gravity_refstate-crust.xmf,989,1.7974e-06,-6.89526e-07,0,-1.90274e-06,-6.0023e+08,-6.00401e+08,-6.00353e+08,-130528,0.0117358,0.222458,0,0.222767,5392.67,-21858.2,0,22513.6,130528
step02_gravity_refstate-crust.xmf,990,2.09091e-06,-1.05906e-06,0,-1.90394e-06,-6.35066e+08,-6.35282e+08,-6.35209e+08,-130610,0.0114217,0.225653,0,0.225942,4678.46,-23127,0,23595.5,130610
step02_gravity_refstate-crust.xmf,991,2.41953e-06,-1.48621e-06,0,-1.83576e-06,-6.65989e+08,-6.66257e+08,-6.66155e+08,-125933,0.0106911,0.229224,0,0.229473,3931.55,-24253.5,0,24570.1,125933
step02_gravity_refstate-crust.xmf,992,2.75733e-06,-1.93607e-06,0,-1.74371e-06,-6.94816e+08,-6.95138e+08,-6.95005e+08,-119618,0.00984474,0.232823,0,0.233031,3272.22,-25303.6,0,25514.3,119618
step02_gravity_refstate-crust.xmf,993,3.10672e-06,-2.40957e-06,0,-1.60374e-06,-7.20763e+08,-7.21142e+08,-7.20976e+08,-110017,0.00876479,0.236455,0,0.236617,2655.51,-26248.9,0,26382.9,110017
step02_gravity_refstate-crust.xmf,994,3.48864e-06,-2.94059e-06,0,-1.39408e-06,-7.46379e+08,-7.4682e+08,-7.46618e+08,-95633.6,0.00736026,0.240379,0,0.240492,2032.77,-27182.2,0,27258.1,95633.6
step02_gravity_refstate-crust.xmf,995,3.89998e-06,-3.52637e-06,0,-1.09579e-06,-7.71689e+08,-7.72199e+08,-7.71957e+08,-75171.4,0.00557301,0.244563,0,0.244627,1403.8,-28104.4,0,28139.5,75171.4
step02_gravity_refstate-crust.xmf,996,4.31773e-06,-4.14056e-06,0,-7.00382e-07,-7.95928e+08,-7.96509e+08,-7.96225e+08,-48046.2,0.0034388,0.248794,0,0.248818,793.352,-28987.6,0,28998.5,48046.2
step02_gravity_refstate-crust.xmf,997,5.04935e-06,-5.29125e-06,0,-8.38008e-07,-8.41138e+08,-8.41847e+08,-8.41484e+08,-57487.4,0.00379155,0.256557,0,0.256585,747.315,-30634.7,0,30643.8,57487.4
step02_gravity_refstate-crust.xmf,998,5.5129e-06,-6.02261e-06,0,-3.04707e-07,-8.62555e+08,-8.63346e+08,-8.62933e+08,-20902.9,0.00133552,0.261423,0,0.261427,242.622,-31415.1,0,31416.1,20902.9
step02_gravity_refstate-crust.xmf,999,5.9385e-06,-6.72031e-06,0,4.0008e-07,-8.82606e+08,-8.83475e+08,-8.83014e+08,27445.5,-0.0016249,0.266052,-0,0.266057,-274.164,-32145.8,-0,32147,27445.5
step02_gravity_refstate-crust.xmf,1000,7.23392e-06,-9.01491e-06,0,-4.72092e-07,-9.34573e+08,-9.35688e+08,-9.35069e+08,-32385.5,0.0016914,0.280871,0,0.280876,233.235,-34039.4,0,34040.2,32385.5
step02_gravity_refstate-crust.xmf,1001,-3.5166e-07,1.15883e-06,0,-1.30551e-06,-2.76578e+08,-2.76474e+08,-2.76554e+08,-89557.7,0.0129953,0.173998,0,0.174482,22589.9,-10069.5,0,24732.5,89557.7
step02_gravity_refstate-crust.xmf,1002,3.91433e-07,7.14635e-07,0,-1.66177e-06,-3.37698e+08,-3.37675e+08,-3.37724e+08,-113997,0.0130821,0.200092,0,0.200519,13389.8,-12296.9,0,18179.7,113997
step02_gravity_refstate-crust.xmf,1003,4.67962e-07,7.08033e-07,0,-1.79993e-06,-3.82144e+08,-3.82128e+08,-3.82176e+08,-123476,0.0132241,0.201895,0,0.202328,12438.5,-13915.3,0,18664.2,123476
step02_gravity_refstate-crust.xmf,1004,5.44305e-07,7.009e-07,0,-1.9515e-06,-4.30022e+08,-4.30011e+08,-4.30059e+08,-133873,0.0137152,0.203179,0,0.203641,11655,-15658.7,0,19520,133873
step02_gravity_refstate-crust.xmf,1005,-1.03485e-06,1.11502e-06,0,-2.8937e-07,-1.87119e+08,-1.86971e+08,-1.87048e+08,-19850.8,0.00470015,0.152821,0,0.152893,35581.2,-6809.78,0,36227,19850.8
step02_gravity_refstate-crust.xmf,1006,9.61246e-06,-1.41712e-05,0,2.72119e-06,-1.01614e+09,-1.01777e+09,-1.0168e+09,186673,-0.00819519,0.313338,-0,0.313446,-839.825,-37010.6,-0,37020.1,186673
step02_gravity_refstate-crust.xmf,1007,9.84834e-06,-1.5664e-05,0,5.6384e-06,-1.04561e+09,-1.04736e+09,-1.04629e+09,386794,-0.0158508,0.32426,-0,0.324647,-1527.28,-38082.1,-0,38112.8,386794
step02_gravity_refstate-crust.xmf,1008,8.36377e-06,-1.1172e-05,0,8.70381e-08,-9.70269e+08,-9.71609e+08,-9.70842e+08,5970.81,-0.000263361,0.294022,-0,0.294022,-31.6161,-35340.1,-0,35340.2,5970.81
step02_gravity_refstate-crust.xmf,1009,9.29931e-06,-1.32092e-05,0,1.3781e-06,-1.00115e+09,-1.00269e+09,-1.00179e+09,94537.9,-0.00428277,0.307202,-0,0.307232,-459.062,-36465.1,-0,36467.9,94537.9
step02_gravity_refstate-crust.xmf,1010,8.9492e-06,-1.57022e-05,0,1.04262e-05,-1.07643e+09,-1.07812e+09,-1.07704e+09,715234,-0.0262185,0.326576,-0,0.327627,-2535.98,-39200.3,-0,39282.3,715234
step02_gravity_refstate-crust.xmf,1011,8.72794e-06,-1.58773e-05,0,1.16793e-05,-1.08636e+09,-1.08805e+09,-1.08696e+09,801203,-0.0280273,0.327615,-0,0.328812,-2744.53,-39560.8,-0,39655.8,801203
step02_gravity_refstate-crust.xmf,1012,8.27008e-06,-1.59977e-05,0,1.32472e-05,-1.09848e+09,-1.10015e+09,-1.09905e+09,908758,-0.0296764,0.328011,-0,0.329351,-2997.53,-40000,-0,40112.2,908758
step02_gravity_refstate-crust.xmf,1013,1.02735e-06,2.46632e-07,0,-2.1085e-06,-5.24455e+08,-5.24509e+08,-5.24526e+08,-144643,0.0138779,0.211543,0,0.211998,8632.52,-19097.9,0,20958.3,144643
step02_gravity_refstate-crust.xmf,1014,1.26985e-06,-3.68695e-08,0,-2.13703e-06,-5.59614e+08,-5.59704e+08,-5.59701e+08,-146600,0.0137427,0.215045,0,0.215484,7553.36,-20378.4,0,21733.2,146600
step02_gravity_refstate-crust.xmf,1015,4.59425e-06,-4.59168e-06,0,-1.23345e-06,-8.19486e+08,-8.20116e+08,-8.19801e+08,-84614.5,0.00581956,0.251858,0,0.251925,1245.59,-29845.7,0,29871.6,84614.5
step02_gravity_refstate-crust.xmf,1016,6.38549e-06,-7.51839e-06,0,5.61372e-08,-9.0117e+08,-9.02124e+08,-9.01608e+08,3851.01,-0.000235035,0.270937,-0,0.270937,-36.4486,-32822.2,-0,32822.2,3851.01
step02_gravity_refstate-crust.xmf,1017,7.71543e-06,-9.91918e-06,0,-9.74408e-07,-9.51568e+08,-9.52777e+08,-9.52097e+08,-66844.4,0.00344203,0.286489,0,0.286509,445.458,-34658.6,0,34661.5,66844.4
step02_gravity_refstate-crust.xmf,1018,6.63777e-06,-7.99512e-06,0,-9.49826e-07,-9.13696e+08,-9.147e+08,-9.14152e+08,-65158.1,0.00361925,0.274066,0,0.27409,543.415,-33278.5,0,33282.9,65158.1
step02_gravity_refstate-crust.xmf,1019,2.43667e-06,-1.52201e-06,0,-2.31609e-06,-6.96887e+08,-6.97159e+08,-6.97054e+08,-158884,0.013256,0.228895,0,0.229279,4558.61,-25378.4,0,25784.5,158884
step02_gravity_refstate-crust.xmf,1020,-4.98323e-07,1.26022e-06,0,-1.17833e-06,-2.77166e+08,-2.77046e+08,-2.77132e+08,-80833.1,0.0120098,0.167788,0,0.168217,24864.7,-10090.5,0,26834.1,80833.1
step02_gravity_refstate-crust.xmf,1021,-6.25524e-07,1.34977e-06,0,-1.02635e-06,-2.79022e+08,-2.78887e+08,-2.78979e+08,-70407.6,0.0106569,0.161945,0,0.162295,27213.3,-10157.6,0,29047.2,70407.6
step02_gravity_refstate-crust.xmf,1022,2.02215e-07,8.8051e-07,0,-1.69427e-06,-3.34173e+08,-3.34127e+08,-3.34187e+08,-116227,0.0136216,0.194177,0,0.194654,15307.9,-12168.1,0,19554.9,116227
step02_gravity_refstate-crust.xmf,1023,1.90428e-08,1.05143e-06,0,-1.66893e-06,-3.31186e+08,-3.31115e+08,-3.31187e+08,-114489,0.0138225,0.187868,0,0.188376,17310.4,-12058.8,0,21096.5,114489
step02_gravity_refstate-crust.xmf,1024,-1.54285e-07,1.20132e-06,0,-1.6102e-06,-3.29471e+08,-3.29378e+08,-3.29461e+08,-110460,0.0136701,0.181384,0,0.181898,19365.8,-11996,0,22780.2,110460
step02_gravity_refstate-crust.xmf,1025,-3.15051e-07,1.33938e-06,0,-1.51515e-06,-3.29364e+08,-3.2925e+08,-3.29342e+08,-103939,0.0131593,0.174782,0,0.175277,21500.6,-11991.6,0,24618.5,103939
step02_gravity_refstate-crust.xmf,1026,6.37224e-07,6.68928e-07,0,-2.08867e-06,-4.7406e+08,-4.74058e+08,-4.74104e+08,-143283,0.0143447,0.20447,0,0.204973,10944.6,-17262.3,0,20439.4,143283
step02_gravity_refstate-crust.xmf,1027,-1.02791e-06,1.1994e-06,0,-1.55464e-07,-2.05926e+08,-2.05773e+08,-2.05856e+08,-10664.8,0.00232377,0.150647,0,0.150665,37760.7,-7494.65,0,38497.2,10664.8
step02_gravity_refstate-crust.xmf,1028,-1.13107e-06,1.04577e-06,0,1.09343e-09,-1.63416e+08,-1.63267e+08,-1.63338e+08,75.0095,1.65197e-19,0.151913,0,0.151913,40000,-5946.36,0,40439.6,75.0095
step02_gravity_refstate-crust.xmf,1029,-7.32088e-07,1.43228e-06,0,-8.5e-07,-2.82969e+08,-2.8282e+08,-2.82919e+08,-58310,0.00892022,0.156512,0,0.156766,29692.4,-10301,0,31428.5,58310
step02_gravity_refstate-crust.xmf,1030,-9.44893e-07,1.32367e-06,0,-3.08868e-07,-2.3893e+08,-2.38775e+08,-2.38865e+08,-21188.3,0.00396593,0.150242,0,0.150295,35921.5,-8696.72,0,36959.2,21188.3
step02_gravity_refstate-crust.xmf,1031,-8.1702e-07,1.47462e-06,0,-6.50283e-07,-2.81879e+08,-2.81721e+08,-2.81823e+08,-44609.4,0.00697819,0.152309,0,0.152469,32188.1,-10261,0,33784.1,44609.4
step02_gravity_refstate-crust.xmf,1032,1.02227e-05,-1.57003e-05,0,2.12744e-06,-1.03247e+09,-1.03424e+09,-1.03317e+09,145943,-0.00620091,0.32321,-0,0.323269,-602.898,-37605,-0,37609.8,145943
step02_gravity_refstate-crust.xmf,1033,1.04e-05,-1.66438e-05,0,3.43875e-06,-1.0465e+09,-1.04835e+09,-1.04721e+09,235898,-0.00974456,0.32985,-0,0.329994,-921.778,-38115.2,-0,38126.3,235898
step02_gravity_refstate-crust.xmf,1034,9.80873e-06,-1.62775e-05,0,7.16098e-06,-1.05988e+09,-1.06167e+09,-1.06055e+09,491243,-0.0193289,0.328844,-0,0.329411,-1836.58,-38600.5,-0,38644.2,491243
step02_gravity_refstate-crust.xmf,1035,8.92263e-06,-1.23552e-05,0,2.8568e-07,-9.88267e+08,-9.89727e+08,-9.88879e+08,19597.6,-0.000930149,0.30169,-0,0.301692,-104.385,-35995.8,-0,35996,19597.6
step02_gravity_refstate-crust.xmf,1036,9.88324e-06,-1.4618e-05,0,8.01279e-07,-1.01745e+09,-1.01913e+09,-1.01812e+09,54967.8,-0.0024151,0.315851,-0,0.31586,-244.534,-37058.5,-0,37059.3,54967.8
step02_gravity_refstate-crust.xmf,1037,9.70448e-06,-1.69897e-05,0,8.43829e-06,-1.07397e+09,-1.07581e+09,-1.07464e+09,578867,-0.0218996,0.333729,-0,0.334447,-2075.25,-39112.1,-0,39167.1,578867
step02_gravity_refstate-crust.xmf,1038,9.55103e-06,-1.76678e-05,0,9.52314e-06,-1.08678e+09,-1.08864e+09,-1.08743e+09,653287,-0.0237169,0.338136,-0,0.338967,-2274.01,-39576.5,-0,39641.8,653287
step02_gravity_refstate-crust.xmf,1039,7.48637e-07,5.69126e-07,0,-2.2199e-06,-5.12001e+08,-5.12013e+08,-5.12052e+08,-152285,0.0148984,0.206207,0,0.206744,10208.8,-18643.8,0,21255.8,152285
step02_gravity_refstate-crust.xmf,1040,1.50276e-06,-3.03795e-07,0,-2.22854e-06,-5.99731e+08,-5.99855e+08,-5.99834e+08,-152878,0.0140401,0.21788,0,0.218332,6798.65,-21839.4,0,22873.2,152878
step02_gravity_refstate-crust.xmf,1041,1.77088e-06,-6.50808e-07,0,-2.32503e-06,-6.36118e+08,-6.36284e+08,-6.36239e+08,-159497,0.014167,0.221054,0,0.221508,6081.73,-23164.7,0,23949.7,159497
step02_gravity_refstate-crust.xmf,1042,2.07349e-06,-1.03765e-06,0,-2.35968e-06,-6.67875e+08,-6.68088e+08,-6.68017e+08,-161874,0.0139603,0.224654,0,0.225087,5357.34,-24321.4,0,24904.5,161874
step02_gravity_refstate-crust.xmf,1043,2.81657e-06,-2.04012e-06,0,-2.2204e-06,-7.22682e+08,-7.23015e+08,-7.22875e+08,-152319,0.0122705,0.23316,0,0.233482,3818.93,-26318.2,0,26593.8,152319
step02_gravity_refstate-crust.xmf,1044,3.22169e-06,-2.605e-06,0,-2.09981e-06,-7.48463e+08,-7.48863e+08,-7.48684e+08,-144047,0.0111715,0.237561,0,0.237824,3150.94,-27257.6,0,27439.1,144047
step02_gravity_refstate-crust.xmf,1045,3.6663e-06,-3.2349e-06,0,-1.91361e-06,-7.73888e+08,-7.74362e+08,-7.7414e+08,-131274,0.0097769,0.242273,0,0.242471,2500.5,-28184,0,28294.7,131274
step02_gravity_refstate-crust.xmf,1046,4.13993e-06,-3.9118e-06,0,-1.60207e-06,-7.9754e+08,-7.98092e+08,-7.97824e+08,-109902,0.00786696,0.247164,0,0.24729,1833.52,-29045.9,0,29103.7,109902
step02_gravity_refstate-crust.xmf,1047,4.85158e-06,-5.04814e-06,0,-1.8189e-06,-8.42442e+08,-8.43121e+08,-8.42775e+08,-124777,0.00824284,0.254943,0,0.255076,1641.01,-30681.8,0,30725.6,124777
step02_gravity_refstate-crust.xmf,1048,5.35627e-06,-5.82955e-06,0,-1.46497e-06,-8.62566e+08,-8.63334e+08,-8.62934e+08,-100497,0.00634956,0.26014,0,0.260217,1165.43,-31415.2,0,31436.8,100497
step02_gravity_refstate-crust.xmf,1049,5.9709e-06,-6.8435e-06,0,-9.2723e-07,-8.86375e+08,-8.87254e+08,-8.86784e+08,-63608,0.00382453,0.266604,0,0.266631,638.078,-32282.9,0,32289.2,63608
step02_gravity_refstate-crust.xmf,1050,7.0998e-06,-8.84789e-06,0,-1.72972e-06,-9.34862e+08,-9.35956e+08,-9.35349e+08,-118659,0.00635268,0.279821,0,0.279893,883.173,-34049.6,0,34061.1,118659
step02_gravity_refstate-crust.xmf,1051,-4.56239e-07,1.45671e-06,0,-1.38663e-06,-3.29624e+08,-3.29493e+08,-3.29593e+08,-95122.8,0.012308,0.168403,0,0.168852,23678.2,-12000.7,0,26545.7,95122.8
step02_gravity_refstate-crust.xmf,1052,2.58498e-07,9.39263e-07,0,-1.8486e-06,-3.8077e+08,-3.80723e+08,-3.80787e+08,-126814,0.0139056,0.195641,0,0.196134,14378.6,-13864.8,0,19974.4,126814
step02_gravity_refstate-crust.xmf,1053,3.96612e-07,9.42946e-07,0,-2.17263e-06,-4.7099e+08,-4.70952e+08,-4.71017e+08,-149042,0.0151347,0.198562,0,0.199138,12629.9,-17149.9,0,21298.7,149042
step02_gravity_refstate-crust.xmf,1054,3.17822e-07,9.57024e-07,0,-2.01744e-06,-4.27307e+08,-4.27263e+08,-4.27329e+08,-138396,0.0144531,0.197007,0,0.197537,13497.8,-15559.3,0,20598.2,138396
step02_gravity_refstate-crust.xmf,1055,-8.77383e-07,1.50966e-06,0,-4.37556e-07,-2.82521e+08,-2.82357e+08,-2.82461e+08,-30016.3,0.00476218,0.14902,0,0.149096,34781.5,-10284.3,0,36270.1,30016.3
step02_gravity_refstate-crust.xmf,1056,1.0452e-05,-1.74628e-05,0,4.8126e-06,-1.06008e+09,-1.06199e+09,-1.06079e+09,330145,-0.0132418,0.335836,-0,0.336097,-1234.26,-38608.4,-0,38628.1,330145
step02_gravity_refstate-crust.xmf,1057,8.16732e-06,-1.08775e-05,0,-1.84762e-06,-9.69491e+08,-9.70798e+08,-9.70051e+08,-126747,0.00623231,0.292557,0,0.292624,755.387,-35311.5,0,35319.6,126747
step02_gravity_refstate-crust.xmf,1058,8.81278e-06,-1.21399e-05,0,-1.1558e-06,-9.8609e+08,-9.87527e+08,-9.86694e+08,-79287.9,0.00374879,0.30033,0,0.300353,424.393,-35916.4,0,35918.9,79287.9
step02_gravity_refstate-crust.xmf,1059,9.40851e-06,-1.34167e-05,0,-3.28796e-07,-1.00238e+09,-1.00395e+09,-1.00303e+09,-22555.4,0.00102656,0.308307,0,0.308309,109.24,-36510.1,0,36510.2,22555.4
step02_gravity_refstate-crust.xmf,1060,1.03704e-05,-1.5975e-05,0,2.58283e-10,-1.03318e+09,-1.03499e+09,-1.03389e+09,17.7182,-6.15262e-06,0.324772,-0,0.324772,-0.585559,-37631.1,-0,37631.1,17.7182
step02_gravity_refstate-crust.xmf,1061,9.19203e-06,-1.80727e-05,0,1.0727e-05,-1.09847e+09,-1.10034e+09,-1.0991e+09,735874,-0.025306,0.340902,-0,0.34184,-2497.35,-40000,-0,40077.9,735874
step02_gravity_refstate-crust.xmf,1062,8.23209e-07,5.1864e-07,0,-2.36306e-06,-5.45468e+08,-5.45489e+08,-5.45524e+08,-162106,0.0156489,0.206937,0,0.207528,9830.41,-19862.4,0,22162,162106
step02_gravity_refstate-crust.xmf,1063,1.01622e-06,2.95396e-07,0,-2.41801e-06,-5.72212e+08,-5.72261e+08,-5.72282e+08,-165875,0.0157109,0.210072,0,0.210658,8906.51,-20836.5,0,22660.2,165875
step02_gravity_refstate-crust.xmf,1064,1.1985e-06,7.94771e-08,0,-2.51289e-06,-6.02513e+08,-6.0259e+08,-6.02596e+08,-172385,0.016009,0.212688,0,0.21329,8182.15,-21940.1,0,23416.1,172385
step02_gravity_refstate-crust.xmf,1065,4.36881e-06,-4.30204e-06,0,-2.06281e-06,-8.20951e+08,-8.21546e+08,-8.21251e+08,-141509,0.00977209,0.249843,0,0.250034,2119.92,-29898.6,0,29973.6,141509
step02_gravity_refstate-crust.xmf,1066,7.47921e-06,-9.62488e-06,0,-2.47596e-06,-9.52877e+08,-9.5405e+08,-9.5339e+08,-169851,0.00874246,0.285004,0,0.285138,1139.37,-34705.8,0,34724.5,169851
step02_gravity_refstate-crust.xmf,1067,6.48115e-06,-7.84219e-06,0,-2.42197e-06,-9.1964e+08,-9.20623e+08,-9.20085e+08,-166147,0.00925415,0.273553,0,0.273709,1379.29,-33494.5,0,33522.9,166147
step02_gravity_refstate-crust.xmf,1068,2.44878e-06,-1.56616e-06,0,-2.75443e-06,-7.25376e+08,-7.25652e+08,-7.25544e+08,-188954,0.0154475,0.228807,0,0.229327,4985.14,-26415.5,0,26881.8,188954
step02_gravity_refstate-crust.xmf,1069,2.079e-06,-1.05406e-06,0,-2.7649e-06,-6.99919e+08,-7.00134e+08,-7.00062e+08,-189672,0.0160894,0.224257,0,0.224833,5759.86,-25488,0,26130.8,189672
step02_gravity_refstate-crust.xmf,1070,-5.79147e-07,1.55984e-06,0,-1.2285e-06,-3.31191e+08,-3.31044e+08,-3.31151e+08,-84275.2,0.0111121,0.162217,0,0.162597,25955.7,-12057.4,0,28619.6,84275.2
step02_gravity_refstate-crust.xmf,1071,-6.81478e-07,1.65408e-06,0,-1.04676e-06,-3.35054e+08,-3.34894e+08,-3.35007e+08,-71808,0.00959383,0.1564,0,0.156694,28321.3,-12197.8,0,30836.4,71808
step02_gravity_refstate-crust.xmf,1072,5.62152e-08,1.13784e-06,0,-1.85574e-06,-3.79528e+08,-3.79454e+08,-3.79532e+08,-127303,0.0141944,0.18914,0,0.189671,16334.8,-13819.1,0,21396.1,127303
step02_gravity_refstate-crust.xmf,1073,-1.24767e-07,1.33444e-06,0,-1.80201e-06,-3.79321e+08,-3.7922e+08,-3.79312e+08,-123618,0.0141183,0.182395,0,0.18294,18344.7,-13811.1,0,22962.5,123618
step02_gravity_refstate-crust.xmf,1074,-4.36339e-07,1.64972e-06,0,-1.58442e-06,-3.80906e+08,-3.80763e+08,-3.80876e+08,-108691,0.0129076,0.16887,0,0.169363,22526.9,-13868.1,0,26453.4,108691
step02_gravity_refstate-crust.xmf,1075,-2.91699e-07,1.50469e-06,0,-1.71244e-06,-3.80001e+08,-3.79878e+08,-3.79981e+08,-117473,0.0136841,0.175572,0,0.176104,20408.2,-13835.5,0,24655.9,117473
step02_gravity_refstate-crust.xmf,1076,4.98109e-07,8.92973e-07,0,-2.30624e-06,-5.09641e+08,-5.09614e+08,-5.09675e+08,-158208,0.0158138,0.200378,0,0.201001,11793,-18557.4,0,21987.5,158208
step02_gravity_refstate-crust.xmf,1077,-9.19446e-07,1.51529e-06,0,-2.16453e-07,-2.80422e+08,-2.80255e+08,-2.80359e+08,-14848.6,0.00236782,0.147114,0,0.147133,37444.6,-10207.7,0,38811,14848.6
step02_gravity_refstate-crust.xmf,1078,-9.78066e-07,1.34677e-06,0,1.54379e-09,-2.41022e+08,-2.40863e+08,-2.40955e+08,105.904,1.66915e-19,0.148533,0,0.148533,40000,-8772.79,0,40950.7,105.904
step02_gravity_refstate-crust.xmf,1079,-7.71565e-07,1.74963e-06,0,-8.30368e-07,-3.42786e+08,-3.42613e+08,-3.42733e+08,-56963.3,0.0076254,0.150689,0,0.150882,30979.3,-12479.1,0,33398.3,56963.3
step02_gravity_refstate-crust.xmf,1080,-8.30501e-07,1.72515e-06,0,-5.80239e-07,-3.30009e+08,-3.29834e+08,-3.29952e+08,-39804.4,0.00555128,0.147542,0,0.147647,33618.6,-12013.6,0,35700.7,39804.4
step02_gravity_refstate-crust.xmf,1081,1.06663e-05,-1.71499e-05,0,1.2236e-06,-1.04723e+09,-1.04914e+09,-1.04796e+09,83938.6,-0.00349031,0.33287,-0,0.332888,-327.108,-38142.1,-0,38143.5,83938.6
step02_gravity_refstate-crust.xmf,1082,1.07784e-05,-1.81422e-05,0,2.53335e-06,-1.06043e+09,-1.06242e+09,-1.06117e+09,173788,-0.00706556,0.340175,-0,0.340248,-651.498,-38621.6,-0,38627.1,173788
step02_gravity_refstate-crust.xmf,1083,1.03728e-05,-1.8208e-05,0,6.13951e-06,-1.07351e+09,-1.07547e+09,-1.07422e+09,421170,-0.0163416,0.341457,-0,0.341848,-1520.95,-39095.9,-0,39125.4,421170
step02_gravity_refstate-crust.xmf,1084,9.88775e-06,-1.46468e-05,0,-1.1777e-06,-1.01831e+09,-1.01999e+09,-1.01899e+09,-80790.6,0.00352158,0.316118,0,0.316137,355.869,-37089.9,0,37091.6,80790.6
step02_gravity_refstate-crust.xmf,1085,1.0131e-05,-1.89068e-05,0,7.29646e-06,-1.08631e+09,-1.0883e+09,-1.087e+09,500537,-0.0187869,0.346611,-0,0.347119,-1772.05,-39559.9,-0,39599.6,500537
step02_gravity_refstate-crust.xmf,1086,9.78137e-06,-1.94873e-05,0,8.37608e-06,-1.09846e+09,-1.10047e+09,-1.09913e+09,574599,-0.0205622,0.351273,-0,0.351874,-1997.54,-40000,-0,40049.8,574599
step02_gravity_refstate-crust.xmf,1087,5.97332e-07,8.02153e-07,0,-2.44778e-06,-5.43642e+08,-5.43628e+08,-5.43683e+08,-167918,0.0164671,0.202153,0,0.202823,11066.6,-19795.5,0,22678.9,167918
step02_gravity_refstate-crust.xmf,1088,1.41609e-06,-1.72705e-07,0,-2.63034e-06,-6.36943e+08,-6.37052e+08,-6.3704e+08,-180441,0.0164311,0.215578,0,0.216204,7483.92,-23194,0,24371.5,180441
step02_gravity_refstate-crust.xmf,1089,1.67237e-06,-5.25937e-07,0,-2.81385e-06,-6.74189e+08,-6.7434e+08,-6.74304e+08,-193030,0.016919,0.218978,0,0.219631,6798.22,-24550.5,0,25474.3,193030
step02_gravity_refstate-crust.xmf,1090,2.84906e-06,-2.12868e-06,0,-2.72579e-06,-7.50744e+08,-7.51085e+08,-7.50939e+08,-186989,0.0147013,0.233491,0,0.233953,4284.89,-27339.8,0,27673.6,186989
step02_gravity_refstate-crust.xmf,1091,3.29297e-06,-2.76475e-06,0,-2.66263e-06,-7.75921e+08,-7.76336e+08,-7.76146e+08,-182657,0.0137572,0.238491,0,0.238887,3623.23,-28257.2,0,28488.5,182657
step02_gravity_refstate-crust.xmf,1092,3.82134e-06,-3.54964e-06,0,-2.54213e-06,-8.0299e+08,-8.03496e+08,-8.03253e+08,-174390,0.0124999,0.244294,0,0.244614,2950.85,-29243.6,0,29392.1,174390
step02_gravity_refstate-crust.xmf,1093,4.51604e-06,-4.6235e-06,0,-2.71025e-06,-8.4394e+08,-8.44567e+08,-8.4425e+08,-185923,0.0123767,0.252108,0,0.252411,2512.57,-30735.6,0,30838.1,185923
step02_gravity_refstate-crust.xmf,1094,5.01513e-06,-5.39439e-06,0,-2.53922e-06,-8.63222e+08,-8.63936e+08,-8.63566e+08,-174191,0.0111083,0.257392,0,0.257631,2079.24,-31438.4,0,31507.1,174191
step02_gravity_refstate-crust.xmf,1095,5.58402e-06,-6.2838e-06,0,-2.23266e-06,-8.82667e+08,-8.83481e+08,-8.8305e+08,-153161,0.00934634,0.263274,0,0.26344,1609.25,-32147.2,0,32187.5,153161
step02_gravity_refstate-crust.xmf,1096,6.10733e-06,-7.12444e-06,0,-1.93488e-06,-9.0092e+08,-9.01828e+08,-9.01339e+08,-132732,0.00772339,0.26897,0,0.26908,1230.99,-32812.6,0,32835.7,132732
step02_gravity_refstate-crust.xmf,1097,6.82321e-06,-8.52763e-06,0,-3.09239e-06,-9.3878e+08,-9.39834e+08,-9.39249e+08,-212138,0.0113465,0.278351,0,0.278582,1581.28,-34191.6,0,34228.2,212138
step02_gravity_refstate-crust.xmf,1098,-5.57383e-07,1.7664e-06,0,-1.42225e-06,-3.81458e+08,-3.81298e+08,-3.81419e+08,-97566.3,0.0118104,0.162461,0,0.162889,24716.7,-13887.8,0,28351.1,97566.3
step02_gravity_refstate-crust.xmf,1099,1.05687e-07,1.21033e-06,0,-2.02231e-06,-4.26296e+08,-4.2622e+08,-4.26303e+08,-138730,0.0148285,0.190426,0,0.191003,15381.3,-15522,0,21852.1,138730
step02_gravity_refstate-crust.xmf,1100,2.40591e-07,1.20881e-06,0,-2.36421e-06,-5.10899e+08,-5.10833e+08,-5.10916e+08,-162185,0.0164622,0.193864,0,0.194561,13454.7,-18602.6,0,22958.4,162185
step02_gravity_refstate-crust.xmf,1101,1.60865e-07,1.23162e-06,0,-2.20575e-06,-4.71651e+08,-4.71577e+08,-4.71662e+08,-151315,0.0156484,0.191924,0,0.192561,14414.8,-17173.5,0,22421.3,151315
step02_gravity_refstate-crust.xmf,1102,-8.69309e-07,1.72105e-06,0,-3.68255e-07,-3.24967e+08,-3.24789e+08,-3.24907e+08,-25262.3,0.003602,0.145481,0,0.145526,35927,-11829.9,0,37824.5,25262.3
step02_gravity_refstate-crust.xmf,1103,1.07603e-05,-1.89997e-05,0,3.84257e-06,-1.07327e+09,-1.07531e+09,-1.07401e+09,263601,-0.0104341,0.346889,-0,0.347046,-960.103,-39087.6,-0,39099.4,263601
step02_gravity_refstate-crust.xmf,1104,7.73337e-06,-1.0293e-05,0,-3.51323e-06,-9.69837e+08,-9.71074e+08,-9.70368e+08,-241008,0.011871,0.289565,0,0.289808,1463.27,-35323.2,0,35353.5,241008
step02_gravity_refstate-crust.xmf,1105,8.50196e-06,-1.1703e-05,0,-2.94575e-06,-9.86255e+08,-9.87641e+08,-9.86839e+08,-202078,0.00953562,0.298108,0,0.298261,1092.31,-35921.9,0,35938.5,202078
step02_gravity_refstate-crust.xmf,1106,9.24633e-06,-1.31848e-05,0,-2.16082e-06,-1.00256e+09,-1.0041e+09,-1.0032e+09,-148232,0.00671804,0.307098,0,0.307171,719.184,-36516.3,0,36523.3,148232
step02_gravity_refstate-crust.xmf,1107,1.02594e-05,-1.58251e-05,0,-2.15683e-06,-1.03395e+09,-1.03574e+09,-1.03466e+09,-147958,0.00626688,0.324047,0,0.324107,606.994,-37659.1,0,37664,147958
step02_gravity_refstate-crust.xmf,1108,1.06943e-05,-1.72463e-05,0,-1.01927e-06,-1.0481e+09,-1.05001e+09,-1.04883e+09,-69921.8,0.00288503,0.333528,0,0.33354,269.855,-38173.5,0,38174.5,69921.8
step02_gravity_refstate-crust.xmf,1109,7.22811e-07,6.76578e-07,0,-2.57632e-06,-5.7503e+08,-5.75033e+08,-5.75079e+08,-176736,0.0170536,0.204265,0,0.204976,10337.6,-20938.5,0,23351.4,176736
step02_gravity_refstate-crust.xmf,1110,8.78205e-07,5.00117e-07,0,-2.70902e-06,-6.06015e+08,-6.06041e+08,-6.06075e+08,-185839,0.0175892,0.206824,0,0.207571,9576.64,-22066.9,0,24055.4,185839
step02_gravity_refstate-crust.xmf,1111,1.05383e-06,2.8725e-07,0,-2.8631e-06,-6.38264e+08,-6.38316e+08,-6.38336e+08,-196409,0.0181743,0.209569,0,0.210355,8853.32,-23241.3,0,24870.5,196409
step02_gravity_refstate-crust.xmf,1112,4.11013e-06,-4.01149e-06,0,-2.80978e-06,-8.26758e+08,-8.27315e+08,-8.2704e+08,-192751,0.0132805,0.247769,0,0.248125,2895.35,-30109.4,0,30248.3,192751
step02_gravity_refstate-crust.xmf,1113,7.09989e-06,-9.15882e-06,0,-3.74422e-06,-9.54801e+08,-9.55917e+08,-9.55288e+08,-256854,0.0132364,0.282583,0,0.282893,1745.7,-34775,0,34818.8,256854
step02_gravity_refstate-crust.xmf,1114,6.21826e-06,-7.53851e-06,0,-3.58788e-06,-9.2657e+08,-9.27514e+08,-9.26997e+08,-246128,0.0136126,0.272431,0,0.272771,2018.2,-33746.2,0,33806.5,246128
step02_gravity_refstate-crust.xmf,1115,5.78362e-06,-6.79181e-06,0,-3.24765e-06,-9.06341e+08,-9.07204e+08,-9.06738e+08,-222789,0.0129514,0.26687,0,0.267184,2074.28,-33009.1,0,33074.2,222789
step02_gravity_refstate-crust.xmf,1116,2.04609e-06,-1.03964e-06,0,-3.16558e-06,-7.28201e+08,-7.28412e+08,-7.28341e+08,-217159,0.0180722,0.223761,0,0.22449,6096.08,-26517.5,0,27209.2,217159
step02_gravity_refstate-crust.xmf,1117,2.40308e-06,-1.54783e-06,0,-3.22944e-06,-7.52782e+08,-7.53053e+08,-7.52947e+08,-221540,0.017754,0.228351,0,0.22904,5411.63,-27413.1,0,27942.2,221540
step02_gravity_refstate-crust.xmf,1118,1.75742e-06,-6.37961e-07,0,-3.10638e-06,-7.06428e+08,-7.06592e+08,-7.06549e+08,-213097,0.0182748,0.219879,0,0.220637,6748.15,-25724.3,0,26594.7,213097
step02_gravity_refstate-crust.xmf,1119,-6.5587e-07,1.87093e-06,0,-1.24077e-06,-3.84821e+08,-3.84648e+08,-3.84776e+08,-85116.9,0.0104558,0.156412,0,0.156761,26940.2,-14010.1,0,30365.4,85116.9
step02_gravity_refstate-crust.xmf,1120,-7.30885e-07,1.95785e-06,0,-1.04334e-06,-3.89423e+08,-3.89238e+08,-3.89373e+08,-71572.9,0.00889343,0.15099,0,0.151251,29179.7,-14177.4,0,32441.6,71572.9
step02_gravity_refstate-crust.xmf,1121,-1.00495e-07,1.43402e-06,0,-1.99274e-06,-4.267e+08,-4.26595e+08,-4.26693e+08,-136702,0.0148366,0.183481,0,0.18408,17331.6,-15536.2,0,23275.7,136702
step02_gravity_refstate-crust.xmf,1122,-2.77053e-07,1.65508e-06,0,-1.90323e-06,-4.29262e+08,-4.29129e+08,-4.29243e+08,-130562,0.0144853,0.176259,0,0.176853,19352.5,-15629.1,0,24875.5,130562
step02_gravity_refstate-crust.xmf,1123,-5.56978e-07,1.97126e-06,0,-1.6034e-06,-4.30362e+08,-4.30188e+08,-4.30323e+08,-109994,0.0126759,0.162425,0,0.162918,23579.7,-15668.5,0,28310.9,109994
step02_gravity_refstate-crust.xmf,1124,-4.32924e-07,1.83544e-06,0,-1.77429e-06,-4.30868e+08,-4.30713e+08,-4.30838e+08,-121716,0.0137585,0.169188,0,0.169746,21421.5,-15687.3,0,26551.3,121716
step02_gravity_refstate-crust.xmf,1125,3.51108e-07,1.13401e-06,0,-2.49812e-06,-5.44186e+08,-5.44132e+08,-5.4421e+08,-171371,0.01717,0.196223,0,0.196973,12518.2,-19814.8,0,23437.8,171371
step02_gravity_refstate-crust.xmf,1126,-8.96667e-07,1.68843e-06,0,5.34314e-10,-3.16215e+08,-3.16038e+08,-3.16153e+08,36.6539,1.41335e-19,0.144377,0,0.144377,40000,-11511.1,0,41623.4,36.6539
step02_gravity_refstate-crust.xmf,1127,-8.11386e-07,1.9964e-06,0,-6.84119e-07,-3.84782e+08,-3.84589e+08,-3.84726e+08,-46930.6,0.00597753,0.144732,0,0.144856,32940.5,-14008.2,0,35795.4,46930.6
step02_gravity_refstate-crust.xmf,1128,-8.69742e-07,1.86267e-06,0,-2.17824e-07,-3.52241e+08,-3.52054e+08,-3.52182e+08,-14942.7,0.00202219,0.142581,0,0.142595,37687.2,-12823.1,0,39808.9,14942.7
step02_gravity_refstate-crust.xmf,1129,-8.42652e-07,1.96696e-06,0,-4.50389e-07,-3.74951e+08,-3.74758e+08,-3.74893e+08,-30896.7,0.004022,0.142657,0,0.142714,35318.2,-13650.1,0,37864.2,30896.7
step02_gravity_refstate-crust.xmf,1130,1.09336e-05,-1.84341e-05,0,2.28303e-07,-1.06094e+09,-1.06296e+09,-1.06169e+09,15661.6,-0.000647993,0.342098,-0,0.342098,-59.4923,-38640.4,-0,38640.5,15661.6
step02_gravity_refstate-crust.xmf,1131,1.09198e-05,-1.94314e-05,0,1.55824e-06,-1.07345e+09,-1.07553e+09,-1.0742e+09,106895,-0.00429241,0.350092,-0,0.350119,-392.66,-39094.2,-0,39096.1,106895
step02_gravity_refstate-crust.xmf,1132,1.05583e-05,-1.97687e-05,0,5.0733e-06,-1.08607e+09,-1.08815e+09,-1.08679e+09,348028,-0.0133543,0.353262,-0,0.353515,-1245.41,-39551.5,-0,39571.1,348028
step02_gravity_refstate-crust.xmf,1133,9.615e-06,-1.42643e-05,0,-3.24809e-06,-1.01935e+09,-1.02098e+09,-1.02001e+09,-222819,0.00969903,0.314229,0,0.314379,987.084,-37127.1,0,37140.3,222819
step02_gravity_refstate-crust.xmf,1134,1.01528e-05,-2.04438e-05,0,6.16369e-06,-1.09846e+09,-1.10056e+09,-1.09916e+09,422829,-0.0155859,0.359219,-0,0.359557,-1498.34,-40000,-0,40028.1,422829
step02_gravity_refstate-crust.xmf,1135,4.47262e-07,1.03823e-06,0,-2.64793e-06,-5.74981e+08,-5.7494e+08,-5.75012e+08,-181648,0.0178736,0.198281,0,0.199085,11743.1,-20936.2,0,24004.7,181648
step02_gravity_refstate-crust.xmf,1136,1.25379e-06,5.54894e-08,0,-3.0249e-06,-6.70568e+08,-6.7065e+08,-6.70654e+08,-207508,0.018799,0.212449,0,0.213279,8195.72,-24417.9,0,25756.6,207508
step02_gravity_refstate-crust.xmf,1137,2.80607e-06,-2.13181e-06,0,-3.27506e-06,-7.77111e+08,-7.7745e+08,-7.77303e+08,-224669,0.0172689,0.233309,0,0.233947,4756.9,-28299.6,0,28696.6,224669
step02_gravity_refstate-crust.xmf,1138,3.258e-06,-2.80211e-06,0,-3.29501e-06,-8.01301e+08,-8.01716e+08,-8.01524e+08,-226038,0.0166084,0.238673,0,0.23925,4133.22,-29181,0,29472.3,226038
step02_gravity_refstate-crust.xmf,1139,3.67105e-06,-3.43198e-06,0,-3.36492e-06,-8.24034e+08,-8.24522e+08,-8.24286e+08,-230833,0.0162343,0.243553,0,0.244094,3688.14,-30009.3,0,30235.1,230833
step02_gravity_refstate-crust.xmf,1140,4.05881e-06,-4.03513e-06,0,-3.46579e-06,-8.4464e+08,-8.45196e+08,-8.44919e+08,-237753,0.0160493,0.248081,0,0.248599,3361.8,-30760.1,0,30943.3,237753
step02_gravity_refstate-crust.xmf,1141,4.53187e-06,-4.77408e-06,0,-3.48277e-06,-8.64591e+08,-8.65229e+08,-8.64902e+08,-238918,0.0154222,0.253401,0,0.25387,2970.05,-31487.2,0,31627,238918
step02_gravity_refstate-crust.xmf,1142,5.09735e-06,-5.66825e-06,0,-3.41007e-06,-8.84552e+08,-8.8529e+08,-8.84901e+08,-233931,0.0143796,0.259526,0,0.259924,2537.07,-32214.8,0,32314.6,233931
step02_gravity_refstate-crust.xmf,1143,6.32849e-06,-7.97926e-06,0,-4.52214e-06,-9.44942e+08,-9.45923e+08,-9.45376e+08,-310219,0.0165408,0.275635,0,0.276131,2320.95,-34414.8,0,34493,310219
step02_gravity_refstate-crust.xmf,1144,1.39801e-06,-1.65076e-07,0,-3.2611e-06,-7.01806e+08,-7.01913e+08,-7.01901e+08,-223711,0.0196352,0.214744,0,0.21564,7748.94,-25555.3,0,26704.3,223711
step02_gravity_refstate-crust.xmf,1145,-7.79019e-07,2.0318e-06,0,-8.7186e-07,-3.96426e+08,-3.96233e+08,-3.96373e+08,-59809.6,0.00746489,0.146856,0,0.147045,31058.9,-14432.3,0,34248.3,59809.6
step02_gravity_refstate-crust.xmf,1146,-6.54152e-07,2.08559e-06,0,-1.41582e-06,-4.32398e+08,-4.3221e+08,-4.32353e+08,-97125.2,0.0113769,0.156116,0,0.15653,25728.1,-15742.5,0,30162.2,97125.2
step02_gravity_refstate-crust.xmf,1147,-5.82928e-08,1.51469e-06,0,-2.16733e-06,-4.72002e+08,-4.71894e+08,-4.71998e+08,-148679,0.0157486,0.184794,0,0.185464,16303.7,-17185.8,0,23688.9,148679
step02_gravity_refstate-crust.xmf,1148,1.3257e-07,1.42112e-06,0,-2.50749e-06,-5.45296e+08,-5.45208e+08,-5.45305e+08,-172014,0.0175256,0.190554,0,0.191358,13862.4,-19854.8,0,24215.3,172014
step02_gravity_refstate-crust.xmf,1149,-5.60114e-09,1.55465e-06,0,-2.38206e-06,-5.20445e+08,-5.20338e+08,-5.20445e+08,-163409,0.0169192,0.186487,0,0.187253,15174.7,-18949.7,0,24276.8,163409
step02_gravity_refstate-crust.xmf,1150,1.07753e-05,-2.03152e-05,0,2.88547e-06,-1.08615e+09,-1.08828e+09,-1.08689e+09,197943,-0.00772598,0.357749,-0,0.357833,-715.846,-39554.4,-0,39560.9,197943
step02_gravity_refstate-crust.xmf,1151,6.93305e-06,-9.1177e-06,0,-5.0242e-06,-9.67582e+08,-9.68683e+08,-9.68058e+08,-344660,0.0173161,0.283396,0,0.283925,2223.61,-35239.7,0,35309.8,344660
step02_gravity_refstate-crust.xmf,1152,7.87936e-06,-1.08349e-05,0,-4.7002e-06,-9.86556e+08,-9.87839e+08,-9.87096e+08,-322434,0.0152873,0.293742,0,0.29414,1792.82,-35931.6,0,35976.3,322434
step02_gravity_refstate-crust.xmf,1153,8.78751e-06,-1.25435e-05,0,-4.13561e-06,-1.0035e+09,-1.00496e+09,-1.0041e+09,-283703,0.0128281,0.30392,0,0.30419,1393.17,-36549.6,0,36576.2,283703
step02_gravity_refstate-crust.xmf,1154,9.94396e-06,-1.53855e-05,0,-4.18994e-06,-1.03579e+09,-1.03752e+09,-1.03647e+09,-287430,0.0120526,0.321848,0,0.322073,1175.76,-37725.2,0,37743.5,287430
step02_gravity_refstate-crust.xmf,1155,1.04935e-05,-1.69449e-05,0,-3.22304e-06,-1.04905e+09,-1.05093e+09,-1.04977e+09,-221101,0.00908347,0.331824,0,0.331948,853.98,-38208,0,38217.5,221101
step02_gravity_refstate-crust.xmf,1156,1.08334e-05,-1.83417e-05,0,-2.10322e-06,-1.06183e+09,-1.06384e+09,-1.06258e+09,-144281,0.00582708,0.341619,0,0.341669,535.935,-38672.6,0,38676.3,144281
step02_gravity_refstate-crust.xmf,1157,1.09861e-05,-1.94878e-05,0,-8.81242e-07,-1.07342e+09,-1.07551e+09,-1.07418e+09,-60453.2,0.00236882,0.350506,0,0.350514,216.504,-39093.3,0,39093.9,60453.2
step02_gravity_refstate-crust.xmf,1158,5.59725e-07,9.25219e-07,0,-2.81449e-06,-6.0778e+08,-6.07755e+08,-6.07818e+08,-193074,0.0186739,0.200439,0,0.201307,10992.8,-22130.5,0,24710.3,193074
step02_gravity_refstate-crust.xmf,1159,6.93703e-07,7.71568e-07,0,-2.99737e-06,-6.40397e+08,-6.40392e+08,-6.40445e+08,-205620,0.0194798,0.202932,0,0.203865,10247.5,-23318.3,0,25470.7,205620
step02_gravity_refstate-crust.xmf,1160,8.59987e-07,5.60465e-07,0,-3.19393e-06,-6.72346e+08,-6.72366e+08,-6.72405e+08,-219104,0.0202353,0.205954,0,0.206946,9485.95,-24481.8,0,26255.3,219104
step02_gravity_refstate-crust.xmf,1161,5.58563e-06,-6.65306e-06,0,-4.60437e-06,-9.25875e+08,-9.26715e+08,-9.26258e+08,-315860,0.0177743,0.26755,0,0.26814,2729.88,-33719.7,0,33830,315860
step02_gravity_refstate-crust.xmf,1162,1.62806e-06,-4.88476e-07,0,-3.44951e-06,-7.29807e+08,-7.29952e+08,-7.29919e+08,-236636,0.020115,0.218177,0,0.219102,7165.84,-26575.2,0,27524.4,236636
step02_gravity_refstate-crust.xmf,1163,1.93378e-06,-9.28748e-07,0,-3.59744e-06,-7.54838e+08,-7.55034e+08,-7.5497e+08,-246784,0.0202114,0.222557,0,0.223473,6497.1,-27487,0,28244.4,246784
step02_gravity_refstate-crust.xmf,1164,2.27153e-06,-1.42536e-06,0,-3.74178e-06,-7.78991e+08,-7.79244e+08,-7.79147e+08,-256686,0.0201997,0.227217,0,0.228113,5872.58,-28366.9,0,28968.4,256686
step02_gravity_refstate-crust.xmf,1165,1.84066e-07,1.40721e-06,0,-2.65646e-06,-5.75904e+08,-5.7582e+08,-5.75916e+08,-182233,0.0183682,0.19172,0,0.192598,13227.5,-20969.3,0,24792.7,182233
step02_gravity_refstate-crust.xmf,1166,-7.2678e-07,2.17735e-06,0,-1.21339e-06,-4.35583e+08,-4.35384e+08,-4.35534e+08,-83238.8,0.00988543,0.150382,0,0.150707,27891,-15858.3,0,32084.2,83238.8
step02_gravity_refstate-crust.xmf,1167,-7.77146e-07,2.24451e-06,0,-1.00614e-06,-4.3876e+08,-4.38553e+08,-4.38707e+08,-69021.5,0.00828904,0.14552,0,0.145756,30011.9,-15973.8,0,33998.2,69021.5
step02_gravity_refstate-crust.xmf,1168,-8.09548e-07,2.2684e-06,0,-7.91171e-07,-4.37213e+08,-4.37002e+08,-4.37158e+08,-54274.3,0.00659012,0.141846,0,0.141999,32146.1,-15917.4,0,35871.1,54274.3
step02_gravity_refstate-crust.xmf,1169,-2.68204e-07,1.76519e-06,0,-2.09428e-06,-4.74201e+08,-4.74061e+08,-4.74182e+08,-143668,0.0154628,0.177234,0,0.177907,18293,-17265.4,0,25154.1,143668
step02_gravity_refstate-crust.xmf,1170,-6.71139e-07,2.30202e-06,0,-1.57768e-06,-4.79032e+08,-4.78828e+08,-4.78986e+08,-108229,0.0123751,0.155495,0,0.155987,24632.4,-17440.5,0,30181.5,108229
step02_gravity_refstate-crust.xmf,1171,-4.53795e-07,2.03776e-06,0,-1.97379e-06,-4.84539e+08,-4.84368e+08,-4.84507e+08,-135402,0.014867,0.168898,0,0.169551,20395.2,-17641.4,0,26966.4,135402
step02_gravity_refstate-crust.xmf,1172,-5.7254e-07,2.16909e-06,0,-1.7756e-06,-4.77279e+08,-4.77091e+08,-4.7724e+08,-121806,0.0136795,0.162207,0,0.162782,22522.8,-17376.9,0,28447,121806
step02_gravity_refstate-crust.xmf,1173,-8.61487e-07,2.05412e-06,0,5.57017e-10,-3.89187e+08,-3.88987e+08,-3.89128e+08,38.2114,1.61577e-19,0.139405,0,0.139405,40000,-14168.4,0,42435.2,38.2114
step02_gravity_refstate-crust.xmf,1174,-8.31916e-07,2.26065e-06,0,-5.49192e-07,-4.31754e+08,-4.31542e+08,-4.31697e+08,-37674.6,0.00462837,0.13909,0,0.139167,34532,-15718.6,0,37941.2,37674.6
step02_gravity_refstate-crust.xmf,1175,-8.46726e-07,2.25339e-06,0,-2.72666e-07,-4.28005e+08,-4.27792e+08,-4.27947e+08,-18704.9,0.00231916,0.137114,0,0.137134,37277.4,-15582,0,40403,18704.9
step02_gravity_refstate-crust.xmf,1176,1.08296e-05,-2.05505e-05,0,7.13019e-07,-1.08621e+09,-1.08836e+09,-1.08695e+09,48913.1,-0.00194679,0.359832,-0,0.359837,-179.839,-39556.4,-0,39556.8,48913.1
step02_gravity_refstate-crust.xmf,1177,1.03753e-05,-2.10601e-05,0,4.05648e-06,-1.09846e+09,-1.10062e+09,-1.09917e+09,278275,-0.0104657,0.364834,-0,0.364984,-999.46,-40000,-0,40012.5,278275
step02_gravity_refstate-crust.xmf,1178,9.03878e-06,-1.3532e-05,0,-5.5277e-06,-1.02277e+09,-1.02431e+09,-1.02339e+09,-379200,0.0163379,0.310614,0,0.311043,1683.81,-37250.4,0,37288.5,379200
step02_gravity_refstate-crust.xmf,1179,1.08064e-05,-1.94902e-05,0,-3.21244e-06,-1.07681e+09,-1.07889e+09,-1.07755e+09,-220374,0.00870375,0.350491,0,0.350599,799.887,-39215.8,0,39224,220374
step02_gravity_refstate-crust.xmf,1180,2.57818e-07,1.33612e-06,0,-2.84167e-06,-6.08692e+08,-6.08618e+08,-6.0871e+08,-194939,0.0192999,0.193654,0,0.194613,12443.5,-22163.2,0,25417.4,194939
step02_gravity_refstate-crust.xmf,1181,9.98417e-07,3.97256e-07,0,-3.40718e-06,-7.03217e+08,-7.03258e+08,-7.03285e+08,-233733,0.0211263,0.208321,0,0.209389,8940.91,-25606,0,27122,233733
step02_gravity_refstate-crust.xmf,1182,2.65716e-06,-1.99993e-06,0,-3.85531e-06,-8.01442e+08,-8.01761e+08,-8.01624e+08,-264474,0.0199512,0.232287,0,0.233142,5260.92,-29184.9,0,29655.3,264474
step02_gravity_refstate-crust.xmf,1183,3.06769e-06,-2.62246e-06,0,-3.95818e-06,-8.22872e+08,-8.23262e+08,-8.23082e+08,-271531,0.0196108,0.23749,0,0.238298,4709.28,-29965.8,0,30333.6,271531
step02_gravity_refstate-crust.xmf,1184,3.47114e-06,-3.25358e-06,0,-4.10323e-06,-8.44183e+08,-8.44644e+08,-8.44421e+08,-281482,0.0194424,0.242556,0,0.243334,4270.17,-30742.3,0,31037.5,281482
step02_gravity_refstate-crust.xmf,1185,3.90896e-06,-3.95113e-06,0,-4.25196e-06,-8.64919e+08,-8.65458e+08,-8.65187e+08,-291684,0.0192255,0.247926,0,0.24867,3867.11,-31497.9,0,31734.4,291684
step02_gravity_refstate-crust.xmf,1186,4.43408e-06,-4.79369e-06,0,-4.35177e-06,-8.85315e+08,-8.85948e+08,-8.85619e+08,-298532,0.0187102,0.25409,0,0.254778,3437.04,-32241.3,0,32424,298532
step02_gravity_refstate-crust.xmf,1187,5.01429e-06,-5.7479e-06,0,-4.44121e-06,-9.05732e+08,-9.0647e+08,-9.06076e+08,-304667,0.018113,0.260785,0,0.261413,3036.59,-32985.5,0,33124.9,304667
step02_gravity_refstate-crust.xmf,1188,6.04617e-06,-7.69046e-06,0,-5.62131e-06,-9.57078e+08,-9.5802e+08,-9.57493e+08,-385622,0.0201121,0.275415,0,0.276148,2766.66,-34855.9,0,34965.6,385622
step02_gravity_refstate-crust.xmf,1189,5.39804e-06,-6.68221e-06,0,-5.66736e-06,-9.43564e+08,-9.44393e+08,-9.43935e+08,-388781,0.0212344,0.268457,0,0.269295,3137.04,-34362.9,0,34505.8,388781
step02_gravity_refstate-crust.xmf,1190,1.19146e-06,1.01346e-07,0,-3.63269e-06,-7.30674e+08,-7.30748e+08,-7.30755e+08,-249203,0.0217358,0.2118,0,0.212912,8285.11,-26605.9,0,27866,249203
step02_gravity_refstate-crust.xmf,1191,-7.10883e-08,1.73481e-06,0,-2.59476e-06,-5.7158e+08,-5.71456e+08,-5.71575e+08,-178001,0.0183218,0.184626,0,0.185533,14888.9,-20811.3,0,25588.9,178001
step02_gravity_refstate-crust.xmf,1192,-7.40696e-07,2.40245e-06,0,-1.3732e-06,-4.81626e+08,-4.8141e+08,-4.81575e+08,-94201.3,0.0109304,0.149531,0,0.14993,26690.4,-17534.8,0,31935,94201.3
step02_gravity_refstate-crust.xmf,1193,-2.29947e-07,1.83519e-06,0,-2.26562e-06,-5.13805e+08,-5.13664e+08,-5.1379e+08,-155422,0.0165141,0.178835,0,0.179596,17190.4,-18707.5,0,25406.3,155422
step02_gravity_refstate-crust.xmf,1194,1.04937e-05,-2.14103e-05,0,2.019e-06,-1.09846e+09,-1.10065e+09,-1.09918e+09,138504,-0.0052554,0.368183,-0,0.368221,-500.036,-40000,-0,40003.1,138504
step02_gravity_refstate-crust.xmf,1195,1.08365e-05,-2.0574e-05,0,-1.2646e-06,-1.08691e+09,-1.08907e+09,-1.08766e+09,-86751.7,0.00338612,0.36008,0,0.360096,313.364,-39582.1,0,39583.4,86751.7
step02_gravity_refstate-crust.xmf,1196,6.98331e-06,-9.59071e-06,0,-6.29575e-06,-9.87602e+08,-9.88739e+08,-9.88081e+08,-431889,0.0206338,0.28756,0,0.288299,2503.86,-35968,0,36055.1,431889
step02_gravity_refstate-crust.xmf,1197,7.97458e-06,-1.14113e-05,0,-6.06412e-06,-1.00472e+09,-1.00605e+09,-1.00527e+09,-415998,0.0188039,0.298308,0,0.2989,2098.49,-36592.5,0,36652.6,415998
step02_gravity_refstate-crust.xmf,1198,9.48853e-06,-1.47727e-05,0,-5.89798e-06,-1.03844e+09,-1.0401e+09,-1.03909e+09,-404601,0.0168282,0.318924,0,0.319367,1657.42,-37820.8,0,37857.1,404601
step02_gravity_refstate-crust.xmf,1199,1.00828e-05,-1.63078e-05,0,-5.34607e-06,-1.05038e+09,-1.05219e+09,-1.05107e+09,-366740,0.0148742,0.328173,0,0.32851,1414.15,-38255.7,0,38281.8,366740
step02_gravity_refstate-crust.xmf,1200,1.05511e-05,-1.78633e-05,0,-4.4287e-06,-1.06282e+09,-1.06477e+09,-1.06354e+09,-303809,0.0121473,0.33855,0,0.338768,1126.28,-38708,0,38724.4,303809
step02_gravity_refstate-crust.xmf,1201,3.53628e-07,1.23888e-06,0,-3.03948e-06,-6.41588e+08,-6.41527e+08,-6.41612e+08,-208509,0.0202661,0.195902,0,0.196947,11659.7,-23361,0,26109.1,208509
step02_gravity_refstate-crust.xmf,1202,4.73969e-07,1.09375e-06,0,-3.25624e-06,-6.73723e+08,-6.7368e+08,-6.73755e+08,-223378,0.0212146,0.198635,0,0.199765,10865.8,-24531.2,0,26829.9,223378
step02_gravity_refstate-crust.xmf,1203,6.06988e-07,9.17135e-07,0,-3.48851e-06,-7.04281e+08,-7.0426e+08,-7.04323e+08,-239312,0.022127,0.201572,0,0.202782,10131.4,-25643.9,0,27572.8,239312
step02_gravity_refstate-crust.xmf,1204,6.00403e-06,-7.87656e-06,0,-6.52699e-06,-9.72557e+08,-9.73509e+08,-9.72969e+08,-447752,0.022562,0.277684,0,0.278599,2979.72,-35419,0,35544.1,447752
step02_gravity_refstate-crust.xmf,1205,4.75759e-06,-5.52155e-06,0,-5.53232e-06,-9.2589e+08,-9.26596e+08,-9.26217e+08,-379517,0.0218754,0.261019,0,0.261934,3522.75,-33718.7,0,33902.2,379517
step02_gravity_refstate-crust.xmf,1206,1.43106e-06,-2.52456e-07,0,-3.85424e-06,-7.57115e+08,-7.57231e+08,-7.57213e+08,-264401,0.0222359,0.215817,0,0.216959,7629.55,-27568.9,0,28605.2,264401
step02_gravity_refstate-crust.xmf,1207,1.71548e-06,-6.82442e-07,0,-4.08577e-06,-7.82741e+08,-7.82905e+08,-7.82858e+08,-280284,0.0226195,0.220377,0,0.221535,6982.14,-28502.3,0,29345.1,280284
step02_gravity_refstate-crust.xmf,1208,2.04436e-06,-1.17572e-06,0,-4.28681e-06,-8.0551e+08,-8.05731e+08,-8.0565e+08,-294075,0.0227662,0.225347,0,0.226494,6357.28,-29331.8,0,30012.9,294075
step02_gravity_refstate-crust.xmf,1209,-1.044e-08,1.72679e-06,0,-2.79221e-06,-6.09114e+08,-6.08995e+08,-6.09113e+08,-191546,0.0194941,0.186538,0,0.187554,13947.1,-22178,0,26199,191546
step02_gravity_refstate-crust.xmf,1210,-7.8962e-07,2.486e-06,0,-1.15493e-06,-4.85851e+08,-4.85626e+08,-4.85797e+08,-79228.3,0.00931078,0.143984,0,0.144284,28818.2,-17688.6,0,33813.8,79228.3
step02_gravity_refstate-crust.xmf,1211,-8.19041e-07,2.53611e-06,0,-9.29575e-07,-4.88066e+08,-4.87835e+08,-4.88009e+08,-63768.9,0.00757342,0.139388,0,0.139594,30977.6,-17769.1,0,35712.1,63768.9
step02_gravity_refstate-crust.xmf,1212,-8.35005e-07,2.55651e-06,0,-6.94864e-07,-4.87719e+08,-4.87486e+08,-4.87661e+08,-47667.7,0.00571077,0.135809,0,0.135929,33227.2,-17756.5,0,37674.1,47667.7
step02_gravity_refstate-crust.xmf,1213,-4.16342e-07,2.08923e-06,0,-2.16217e-06,-5.19643e+08,-5.19471e+08,-5.19615e+08,-148325,0.0160444,0.171421,0,0.17217,18991,-18919.7,0,26806.9,148325
step02_gravity_refstate-crust.xmf,1214,-2.25228e-07,1.91654e-06,0,-2.4388e-06,-5.52132e+08,-5.51985e+08,-5.52116e+08,-167302,0.0175775,0.179416,0,0.180275,16404,-20103,0,25946.5,167302
step02_gravity_refstate-crust.xmf,1215,-7.70638e-07,2.63171e-06,0,-1.51761e-06,-5.27064e+08,-5.2683e+08,-5.27011e+08,-104108,0.0119867,0.148329,0,0.148813,25611.3,-19189.2,0,32002.6,104108
step02_gravity_refstate-crust.xmf,1216,-7.06292e-07,2.52687e-06,0,-1.72677e-06,-5.25586e+08,-5.25364e+08,-5.25537e+08,-118456,0.0134253,0.154411,0,0.154993,23656.4,-19135.5,0,30426.9,118456
step02_gravity_refstate-crust.xmf,1217,-6.22495e-07,2.40786e-06,0,-1.91962e-06,-5.26899e+08,-5.26692e+08,-5.26857e+08,-131686,0.0146749,0.1605,0,0.161169,21804.9,-19183.5,0,29042.4,131686
step02_gravity_refstate-crust.xmf,1218,-8.48801e-07,2.42671e-06,0,-1.09862e-10,-4.60129e+08,-4.59905e+08,-4.60071e+08,-7.53655,1.27252e-19,0.133617,0,0.133617,40000,-16751.8,0,43366.1,7.53655
step02_gravity_refstate-crust.xmf,1219,-8.42706e-07,2.56875e-06,0,-4.55988e-07,-4.87809e+08,-4.87575e+08,-4.87751e+08,-31280.8,0.00377151,0.133144,0,0.133197,35538,-17759.7,0,39728.6,31280.8
step02_gravity_refstate-crust.xmf,1220,1.05297e-05,-2.15263e-05,0,1.42104e-08,-1.09847e+09,-1.10066e+09,-1.09919e+09,974.833,-9.87514e-08,0.369297,-0,0.369297,-4.01542e-10,-40000,-0,40000,974.833
step02_gravity_refstate-crust.xmf,1221,1.06574e-05,-2.05456e-05,0,-3.0996e-06,-1.08954e+09,-1.09168e+09,-1.09028e+09,-212633,0.00821174,0.359942,0,0.360036,765.553,-39677.3,0,39684.6,212633
step02_gravity_refstate-crust.xmf,1222,8.80011e-06,-1.35171e-05,0,-7.0328e-06,-1.03419e+09,-1.03572e+09,-1.03479e+09,-482450,0.0202117,0.312156,0,0.31281,2050.29,-37665.3,0,37721.1,482450
step02_gravity_refstate-crust.xmf,1223,1.04358e-05,-1.85588e-05,0,-5.77152e-06,-1.07551e+09,-1.0775e+09,-1.07623e+09,-395926,0.015368,0.343911,0,0.344254,1427.14,-39168.7,0,39194.7,395926
step02_gravity_refstate-crust.xmf,1224,4.18308e-08,1.67775e-06,0,-3.00475e-06,-6.42367e+08,-6.42254e+08,-6.4237e+08,-206126,0.0205827,0.188517,0,0.189637,13117.4,-23388.8,0,26816,206126
step02_gravity_refstate-crust.xmf,1225,7.62357e-07,7.17865e-07,0,-3.71739e-06,-7.32653e+08,-7.32656e+08,-7.32705e+08,-255013,0.022971,0.204723,0,0.206007,9456.07,-26677.2,0,28303.5,255013
step02_gravity_refstate-crust.xmf,1226,5.0818e-06,-6.36975e-06,0,-6.6484e-06,-9.58437e+08,-9.59222e+08,-9.58785e+08,-456080,0.0242861,0.26834,0,0.269437,3497.73,-34903.5,0,35078.4,456080
step02_gravity_refstate-crust.xmf,1227,2.43328e-06,-1.7593e-06,0,-4.41507e-06,-8.24227e+08,-8.24515e+08,-8.24394e+08,-302874,0.022507,0.230713,0,0.231808,5732.89,-30013.9,0,30556.5,302874
step02_gravity_refstate-crust.xmf,1228,2.81531e-06,-2.36504e-06,0,-4.59198e-06,-8.44079e+08,-8.44435e+08,-8.44272e+08,-315010,0.0223982,0.235957,0,0.237017,5213.08,-30737.3,0,31176.2,315010
step02_gravity_refstate-crust.xmf,1229,3.19708e-06,-2.99103e-06,0,-4.83487e-06,-8.64809e+08,-8.65234e+08,-8.65028e+08,-331672,0.0224735,0.241211,0,0.242256,4783.84,-31492.5,0,31853.8,331672
step02_gravity_refstate-crust.xmf,1230,3.65628e-06,-3.74754e-06,0,-5.07538e-06,-8.85756e+08,-8.86264e+08,-8.86007e+08,-348171,0.0224027,0.24727,0,0.248283,4343.04,-32255.8,0,32546.9,348171
step02_gravity_refstate-crust.xmf,1231,4.18442e-06,-4.62667e-06,0,-5.30225e-06,-9.06075e+08,-9.06679e+08,-9.06362e+08,-363734,0.0221653,0.253939,0,0.254904,3912.91,-32996.3,0,33227.5,363734
step02_gravity_refstate-crust.xmf,1232,4.37834e-06,-5.28924e-06,0,-6.57942e-06,-9.4483e+08,-9.45493e+08,-9.4513e+08,-451348,0.0252674,0.260594,0,0.261816,3941.79,-34407,0,34632.1,451348
step02_gravity_refstate-crust.xmf,1233,9.37043e-07,4.28595e-07,0,-3.98933e-06,-7.59454e+08,-7.59488e+08,-7.59518e+08,-273668,0.0237111,0.208482,0,0.209826,8773.01,-27653.1,0,29011.4,273668
step02_gravity_refstate-crust.xmf,1234,-2.54346e-07,2.06474e-06,0,-2.71909e-06,-6.12086e+08,-6.11927e+08,-6.12069e+08,-186530,0.0193834,0.17945,0,0.180494,15412.4,-22285.8,0,27096.1,186530
step02_gravity_refstate-crust.xmf,1235,-8.14145e-07,2.72033e-06,0,-1.29541e-06,-5.30708e+08,-5.30466e+08,-5.30652e+08,-88865.4,0.0103793,0.14249,0,0.142867,27653.6,-19321.9,0,33735.1,88865.4
step02_gravity_refstate-crust.xmf,1236,-3.7817e-07,2.10831e-06,0,-2.30196e-06,-5.4441e+08,-5.44239e+08,-5.44384e+08,-157914,0.0169266,0.17351,0,0.174334,17976,-19821.5,0,26758.7,157914
step02_gravity_refstate-crust.xmf,1237,-5.43898e-07,2.31738e-06,0,-2.074e-06,-5.34021e+08,-5.33824e+08,-5.33983e+08,-142276,0.0156473,0.165267,0,0.166007,20314.7,-19442.9,0,28119.7,142276
step02_gravity_refstate-crust.xmf,1238,-2.82624e-07,2.06494e-06,0,-2.56475e-06,-5.86079e+08,-5.85918e+08,-5.8606e+08,-175942,0.0184814,0.17786,0,0.178818,16193.8,-21338.8,0,26787.8,175942
step02_gravity_refstate-crust.xmf,1239,-8.44603e-07,2.64513e-06,0,-2.21039e-07,-5.01213e+08,-5.00973e+08,-5.01155e+08,-15163.3,0.00183201,0.130308,0,0.13032,37832.3,-18247.8,0,42003.2,15163.3
step02_gravity_refstate-crust.xmf,1240,1.04924e-05,-2.14147e-05,0,-1.99617e-06,-1.09846e+09,-1.10065e+09,-1.09918e+09,-136937,0.0052553,0.368183,0,0.368221,500.036,-40000,0,40003.1,136937
step02_gravity_refstate-crust.xmf,1241,1.05205e-05,-1.99462e-05,0,-4.91552e-06,-1.0876e+09,-1.08969e+09,-1.08832e+09,-337204,0.0129182,0.354768,0,0.355003,1206.68,-39606.9,0,39625.3,337204
step02_gravity_refstate-crust.xmf,1242,5.87005e-06,-8.06126e-06,0,-7.59468e-06,-9.89352e+08,-9.90308e+08,-9.89755e+08,-520995,0.0252217,0.279977,0,0.281111,3197.3,-36029.6,0,36171.2,520995
step02_gravity_refstate-crust.xmf,1243,6.81747e-06,-9.77654e-06,0,-7.68934e-06,-1.00537e+09,-1.00651e+09,-1.00584e+09,-527488,0.0240536,0.290257,0,0.291252,2802.85,-36614,0,36721.1,527488
step02_gravity_refstate-crust.xmf,1244,7.87239e-06,-1.18534e-05,0,-7.76234e-06,-1.02402e+09,-1.02538e+09,-1.02456e+09,-532497,0.0228184,0.30236,0,0.303219,2440.83,-37294,0,37373.8,532497
step02_gravity_refstate-crust.xmf,1245,9.26886e-06,-1.48487e-05,0,-7.47946e-06,-1.04895e+09,-1.05061e+09,-1.04959e+09,-513091,0.0206172,0.320256,0,0.320919,2012.95,-38202.7,0,38255.7,513091
step02_gravity_refstate-crust.xmf,1246,1.00096e-05,-1.68696e-05,0,-6.75723e-06,-1.06331e+09,-1.06515e+09,-1.064e+09,-463546,0.0182003,0.332529,0,0.333026,1714.31,-38725.3,0,38763.2,463546
step02_gravity_refstate-crust.xmf,1247,1.24775e-07,1.58935e-06,0,-3.23136e-06,-6.74725e+08,-6.74625e+08,-6.74734e+08,-221671,0.0216717,0.19106,0,0.192285,12260.5,-24567,0,27456.5,221671
step02_gravity_refstate-crust.xmf,1248,2.29482e-07,1.45421e-06,0,-3.47553e-06,-7.0559e+08,-7.05506e+08,-7.05605e+08,-238421,0.0227216,0.194055,0,0.195381,11419.9,-25690.9,0,28114.7,238421
step02_gravity_refstate-crust.xmf,1249,3.41369e-07,1.29268e-06,0,-3.73893e-06,-7.34974e+08,-7.34909e+08,-7.34998e+08,-256490,0.0237327,0.197202,0,0.198625,10653.1,-26760.9,0,28803.3,256490
step02_gravity_refstate-crust.xmf,1250,4.92682e-06,-6.41874e-06,0,-7.57188e-06,-9.75703e+08,-9.76482e+08,-9.76041e+08,-519431,0.026637,0.270235,0,0.271545,3678.22,-35531.4,0,35721.3,519431
step02_gravity_refstate-crust.xmf,1251,3.79836e-06,-4.21267e-06,0,-6.25885e-06,-9.26715e+08,-9.27264e+08,-9.26975e+08,-429357,0.0254906,0.253112,0,0.254392,4353.27,-33746.8,0,34026.4,429357
step02_gravity_refstate-crust.xmf,1252,1.84517e-06,-9.66122e-07,0,-4.79859e-06,-8.32478e+08,-8.32671e+08,-8.32605e+08,-329183,0.0249768,0.224246,0,0.225633,6647.83,-30313.2,0,31033.6,329183
step02_gravity_refstate-crust.xmf,1253,1.14521e-06,9.8774e-08,0,-4.27763e-06,-7.86091e+08,-7.86163e+08,-7.8617e+08,-293445,0.0244327,0.212635,0,0.214034,8120.38,-28623.2,0,29752.8,293445
step02_gravity_refstate-crust.xmf,1254,1.38673e-06,-3.01461e-07,0,-4.6408e-06,-8.15059e+08,-8.15175e+08,-8.15154e+08,-318359,0.0252413,0.217493,0,0.218953,7468.26,-29678.2,0,30603.4,318359
step02_gravity_refstate-crust.xmf,1255,-2.27338e-07,2.09148e-06,0,-2.90498e-06,-6.44672e+08,-6.44513e+08,-6.44656e+08,-199282,0.0205108,0.180792,0,0.181952,14622.5,-23472.2,0,27654.3,199282
step02_gravity_refstate-crust.xmf,1256,-8.50166e-07,2.853e-06,0,-5.95359e-07,-5.40724e+08,-5.4047e+08,-5.40666e+08,-40841.6,0.00490865,0.129363,0,0.129456,34176.1,-19686.6,0,39440.7,40841.6
step02_gravity_refstate-crust.xmf,1257,-8.3994e-07,2.80142e-06,0,-1.06767e-06,-5.37512e+08,-5.37262e+08,-5.37454e+08,-73241.9,0.00866024,0.137003,0,0.137276,29744.4,-19569.6,0,35604.8,73241.9
step02_gravity_refstate-crust.xmf,1258,-8.50389e-07,2.84743e-06,0,-8.29596e-07,-5.41522e+08,-5.41269e+08,-5.41464e+08,-56910.3,0.00679683,0.132455,0,0.132629,31950.7,-19715.6,0,37544,56910.3
step02_gravity_refstate-crust.xmf,1259,-5.42062e-07,2.40884e-06,0,-2.24545e-06,-5.67806e+08,-5.67603e+08,-5.67769e+08,-154038,0.0167978,0.166532,0,0.167377,19233.7,-20673.1,0,28236.7,154038
step02_gravity_refstate-crust.xmf,1260,-4.19843e-07,2.25675e-06,0,-2.43251e-06,-5.79984e+08,-5.798e+08,-5.79955e+08,-166870,0.017856,0.172444,0,0.173366,17551.6,-21116.7,0,27458.6,166870
step02_gravity_refstate-crust.xmf,1261,-8.49093e-07,2.94523e-06,0,-1.43778e-06,-5.73462e+08,-5.73201e+08,-5.73403e+08,-98631.8,0.0115394,0.14128,0,0.141751,26439.6,-20878.6,0,33689.3,98631.8
step02_gravity_refstate-crust.xmf,1262,-8.14156e-07,2.86458e-06,0,-1.6526e-06,-5.7191e+08,-5.71658e+08,-5.71854e+08,-113369,0.0130716,0.146899,0,0.147479,24592.6,-20822.1,0,32223.5,113369
step02_gravity_refstate-crust.xmf,1263,-6.71654e-07,2.61718e-06,0,-2.05874e-06,-5.70845e+08,-5.70619e+08,-5.70799e+08,-141230,0.0157386,0.159245,0,0.160021,21041.3,-20783.5,0,29575.2,141230
step02_gravity_refstate-crust.xmf,1264,-7.54484e-07,2.75215e-06,0,-1.86488e-06,-5.70641e+08,-5.704e+08,-5.70589e+08,-127931,0.0145038,0.153068,0,0.153753,22760.3,-20776,0,30816.7,127931
step02_gravity_refstate-crust.xmf,1265,-4.55044e-07,2.37261e-06,0,-2.59174e-06,-6.15112e+08,-6.14918e+08,-6.1508e+08,-177793,0.0189237,0.172249,0,0.173285,16922.3,-22395.6,0,28070,177793
step02_gravity_refstate-crust.xmf,1266,-8.42224e-07,2.79518e-06,0,-3.75267e-10,-5.29229e+08,-5.2898e+08,-5.29172e+08,-25.7433,1.16678e-19,0.127048,0,0.127048,40000,-19268,0,44398.8,25.7433
step02_gravity_refstate-crust.xmf,1267,-8.45678e-07,2.83889e-06,0,-3.86881e-07,-5.37666e+08,-5.37413e+08,-5.37608e+08,-26540,0.00319875,0.127673,0,0.127713,36199.5,-19575.2,0,41153.3,26540
step02_gravity_refstate-crust.xmf,1268,1.03769e-05,-2.10695e-05,0,-4.03447e-06,-1.09846e+09,-1.10062e+09,-1.09917e+09,-276765,0.0104654,0.364834,0,0.364984,999.46,-40000,0,40012.5,276765
step02_gravity_refstate-crust.xmf,1269,1.01691e-05,-1.90412e-05,0,-7.14149e-06,-1.0871e+09,-1.0891e+09,-1.0878e+09,-489906,0.0183469,0.347782,0,0.348266,1730.45,-39588.6,0,39626.4,489906
step02_gravity_refstate-crust.xmf,1270,8.29575e-06,-1.29588e-05,0,-8.41617e-06,-1.03983e+09,-1.04129e+09,-1.0404e+09,-577349,0.0236007,0.309924,0,0.310821,2407.95,-37869.5,0,37946,577349
step02_gravity_refstate-crust.xmf,1271,9.85621e-06,-1.73606e-05,0,-8.1007e-06,-1.0755e+09,-1.07736e+09,-1.07617e+09,-555708,0.0210291,0.336156,0,0.336813,1985.21,-39167.5,0,39217.8,555708
step02_gravity_refstate-crust.xmf,1272,-2.00496e-07,2.06844e-06,0,-3.11737e-06,-6.74421e+08,-6.74265e+08,-6.74407e+08,-213852,0.0216014,0.182685,0,0.183958,13818.9,-24555.4,0,28176.7,213852
step02_gravity_refstate-crust.xmf,1273,4.766e-07,1.10962e-06,0,-3.99928e-06,-7.6195e+08,-7.61907e+08,-7.61983e+08,-274351,0.0246603,0.20056,0,0.20207,9952.76,-27743.2,0,29474.5,274351
step02_gravity_refstate-crust.xmf,1274,4.64454e-06,-6.34549e-06,0,-8.4918e-06,-9.90765e+08,-9.91519e+08,-9.91083e+08,-582538,0.0288314,0.271225,0,0.272753,3862.12,-36078.7,0,36284.9,582538
step02_gravity_refstate-crust.xmf,1275,3.89272e-06,-4.84337e-06,0,-7.59726e-06,-9.63609e+08,-9.64208e+08,-9.63876e+08,-521172,0.0283128,0.259846,0,0.261384,4296.94,-35089.4,0,35351.5,521172
step02_gravity_refstate-crust.xmf,1276,2.26264e-06,-1.58132e-06,0,-4.88182e-06,-8.45176e+08,-8.4544e+08,-8.45332e+08,-334893,0.0244742,0.229932,0,0.231231,6004.79,-30776.2,0,31356.5,334893
step02_gravity_refstate-crust.xmf,1277,2.45222e-06,-1.96421e-06,0,-5.2264e-06,-8.64753e+08,-8.65056e+08,-8.64921e+08,-358531,0.025106,0.233544,0,0.23489,5718.97,-31489.1,0,32004.2,358531
step02_gravity_refstate-crust.xmf,1278,2.83608e-06,-2.62534e-06,0,-5.56443e-06,-8.86149e+08,-8.86523e+08,-8.86343e+08,-381720,0.0253592,0.239475,0,0.240814,5245.92,-32268.5,0,32692.2,381720
step02_gravity_refstate-crust.xmf,1279,3.28885e-06,-3.40472e-06,0,-5.91719e-06,-9.07042e+08,-9.07501e+08,-9.07268e+08,-405919,0.0254933,0.246073,0,0.24739,4784.75,-33029.8,0,33374.6,405919
step02_gravity_refstate-crust.xmf,1280,3.32057e-06,-3.81453e-06,0,-7.12885e-06,-9.45397e+08,-9.45886e+08,-9.45624e+08,-489039,0.0283217,0.25173,0,0.253318,4723.43,-34425.6,0,34748.2,489039
step02_gravity_refstate-crust.xmf,1281,6.11929e-07,8.5691e-07,0,-4.31553e-06,-7.8808e+08,-7.88063e+08,-7.88122e+08,-296045,0.025548,0.204364,0,0.205955,9271.93,-28694.6,0,30155.5,296045
step02_gravity_refstate-crust.xmf,1282,-4.6625e-07,2.4422e-06,0,-2.77081e-06,-6.47509e+08,-6.47309e+08,-6.47477e+08,-190077,0.0200596,0.173122,0,0.174281,16130.7,-23575.1,0,28565.4,190077
step02_gravity_refstate-crust.xmf,1283,-8.68877e-07,3.02914e-06,0,-1.21583e-06,-5.79847e+08,-5.7958e+08,-5.79787e+08,-83406.2,0.00990184,0.13562,0,0.135981,28359.3,-21111.1,0,35354.3,83406.2
step02_gravity_refstate-crust.xmf,1284,-8.36913e-07,2.98405e-06,0,-2.01825e-07,-5.64989e+08,-5.64727e+08,-5.64932e+08,-13845.2,0.00168011,0.123703,0,0.123714,37989.7,-20570.2,0,43201.3,13845.2
step02_gravity_refstate-crust.xmf,1285,1.01565e-05,-2.04692e-05,0,-6.1407e-06,-1.09846e+09,-1.10056e+09,-1.09916e+09,-421252,0.0155854,0.359219,0,0.359557,1498.34,-40000,0,40028.1,421252
step02_gravity_refstate-crust.xmf,1286,5.43547e-06,-7.79865e-06,0,-8.85557e-06,-1.00555e+09,-1.00646e+09,-1.00592e+09,-607492,0.0282773,0.280499,0,0.281921,3491.21,-36617.9,0,36784,607492
step02_gravity_refstate-crust.xmf,1287,6.30531e-06,-9.47781e-06,0,-9.31923e-06,-1.02252e+09,-1.0236e+09,-1.02295e+09,-639299,0.0278157,0.290951,0,0.292278,3162.23,-37236.5,0,37370.6,639299
step02_gravity_refstate-crust.xmf,1288,7.18963e-06,-1.12504e-05,0,-9.72146e-06,-1.03891e+09,-1.04017e+09,-1.0394e+09,-666892,0.0273125,0.301579,0,0.302813,2895,-37834.2,0,37944.8,666892
step02_gravity_refstate-crust.xmf,1289,8.26142e-06,-1.33597e-05,0,-9.56288e-06,-1.05226e+09,-1.05374e+09,-1.05282e+09,-656014,0.0257418,0.31306,0,0.314116,2579.18,-38321.1,0,38407.8,656014
step02_gravity_refstate-crust.xmf,1290,9.2046e-06,-1.54634e-05,0,-8.97137e-06,-1.06432e+09,-1.06601e+09,-1.06495e+09,-615436,0.02357,0.324736,0,0.32559,2270.85,-38760.9,0,38827.4,615436
step02_gravity_refstate-crust.xmf,1291,-1.07666e-07,1.95163e-06,0,-3.38718e-06,-7.07274e+08,-7.07132e+08,-7.07266e+08,-232361,0.0228659,0.186253,0,0.187651,12743.1,-25751.6,0,28732,232361
step02_gravity_refstate-crust.xmf,1292,-3.37775e-08,1.84532e-06,0,-3.66779e-06,-7.37987e+08,-7.37858e+08,-7.37984e+08,-251611,0.0240449,0.189321,0,0.190842,11880.3,-26869.9,0,29379.1,251611
step02_gravity_refstate-crust.xmf,1293,5.05133e-08,1.70985e-06,0,-3.94277e-06,-7.64328e+08,-7.64214e+08,-7.64332e+08,-270474,0.0250674,0.192514,0,0.19414,11126.5,-27829,0,29970.8,270474
step02_gravity_refstate-crust.xmf,1294,3.98063e-06,-5.18176e-06,0,-8.24304e-06,-9.79417e+08,-9.80045e+08,-9.7969e+08,-565473,0.0294339,0.263536,0,0.265175,4235.46,-35664.7,0,35915.3,565473
step02_gravity_refstate-crust.xmf,1295,1.72842e-06,-8.97605e-07,0,-5.32535e-06,-8.60862e+08,-8.61042e+08,-8.60981e+08,-365319,0.0268615,0.224859,0,0.226458,6689.94,-31346.1,0,32052.1,365319
step02_gravity_refstate-crust.xmf,1296,2.8299e-06,-2.87492e-06,0,-6.71206e-06,-9.28011e+08,-9.28403e+08,-9.28206e+08,-460447,0.0282887,0.244472,0,0.246103,5167.3,-33792.2,0,34185,460447
step02_gravity_refstate-crust.xmf,1297,1.37002e-06,-3.4748e-07,0,-5.07757e-06,-8.42802e+08,-8.4292e+08,-8.42896e+08,-348321,0.0266971,0.218964,0,0.220586,7324.08,-30688,0,31549.9,348321
step02_gravity_refstate-crust.xmf,1298,7.58524e-07,5.94436e-07,0,-4.66214e-06,-8.14568e+08,-8.14579e+08,-8.1462e+08,-319823,0.0264805,0.208337,0,0.210013,8649.2,-29659.1,0,30894.5,319823
step02_gravity_refstate-crust.xmf,1299,-4.82025e-07,2.51858e-06,0,-2.98829e-06,-6.83115e+08,-6.82909e+08,-6.83082e+08,-204997,0.0213424,0.174057,0,0.175361,15308.3,-24871.4,0,29205,204997
step02_gravity_refstate-crust.xmf,1300,-8.41761e-07,3.15472e-06,0,-4.26567e-07,-5.96821e+08,-5.96547e+08,-5.96763e+08,-29262.5,0.00357566,0.121643,0,0.121695,35693,-21729.3,0,41787,29262.5
step02_gravity_refstate-crust.xmf,1301,-8.61787e-07,3.15581e-06,0,-7.02053e-07,-5.96461e+08,-5.96186e+08,-5.96402e+08,-48160.8,0.00585975,0.124819,0,0.124956,33002.6,-21716.2,0,39506.5,48160.8
step02_gravity_refstate-crust.xmf,1302,-8.8138e-07,3.15837e-06,0,-9.7477e-07,-5.98076e+08,-5.97799e+08,-5.98016e+08,-66869.2,0.00805903,0.128962,0,0.129213,30466.7,-21774.9,0,37448.2,66869.2
step02_gravity_refstate-crust.xmf,1303,-6.0449e-07,2.61343e-06,0,-2.40667e-06,-6.12991e+08,-6.12771e+08,-6.1295e+08,-165098,0.0180137,0.165262,0,0.166241,18544.8,-22318.2,0,29017.4,165098
step02_gravity_refstate-crust.xmf,1304,-9.05915e-07,3.23534e-06,0,-1.3433e-06,-6.17546e+08,-6.17261e+08,-6.17483e+08,-92150.7,0.0110088,0.134386,0,0.134837,27149.7,-22483.7,0,35250.9,92150.7
step02_gravity_refstate-crust.xmf,1305,-8.95999e-07,3.17302e-06,0,-1.56034e-06,-6.15196e+08,-6.14917e+08,-6.15135e+08,-107040,0.0126052,0.139728,0,0.140295,25375,-22398.1,0,33846.2,107040
step02_gravity_refstate-crust.xmf,1306,-7.22638e-07,2.80765e-06,0,-2.21378e-06,-6.1256e+08,-6.12317e+08,-6.1251e+08,-151865,0.0169252,0.158549,0,0.15945,20162.5,-22302.3,0,30065.2,151865
step02_gravity_refstate-crust.xmf,1307,-8.67007e-07,3.0896e-06,0,-1.78125e-06,-6.14261e+08,-6.1399e+08,-6.14202e+08,-122194,0.0141599,0.145515,0,0.146203,23609.9,-22364.1,0,32520.5,122194
step02_gravity_refstate-crust.xmf,1308,-8.10945e-07,2.96934e-06,0,-2.00227e-06,-6.13398e+08,-6.13138e+08,-6.13342e+08,-137355,0.015624,0.151844,0,0.152646,21862.8,-22332.7,0,31252.7,137355
step02_gravity_refstate-crust.xmf,1309,-6.56453e-07,2.75768e-06,0,-2.592e-06,-6.52017e+08,-6.51782e+08,-6.51972e+08,-177811,0.0192755,0.165223,0,0.166344,17700.7,-23738.9,0,29611.7,177811
step02_gravity_refstate-crust.xmf,1310,-8.26374e-07,3.14827e-06,0,-6.33442e-10,-5.96673e+08,-5.964e+08,-5.96616e+08,-43.4541,9.87874e-20,0.11975,0,0.11975,40000,-21724,0,45518.5,43.4541
step02_gravity_refstate-crust.xmf,1311,9.5922e-06,-1.77135e-05,0,-9.43054e-06,-1.08676e+09,-1.08863e+09,-1.08742e+09,-646935,0.0234677,0.33864,0,0.339452,2247.9,-39576,0,39639.8,646935
step02_gravity_refstate-crust.xmf,1312,9.78541e-06,-1.95306e-05,0,-8.35495e-06,-1.09846e+09,-1.10047e+09,-1.09913e+09,-573150,0.0205623,0.351273,0,0.351874,1997.54,-40000,0,40049.8,573150
step02_gravity_refstate-crust.xmf,1313,9.01771e-06,-1.57586e-05,0,-1.03089e-05,-1.07593e+09,-1.07763e+09,-1.07655e+09,-707190,0.0259258,0.326952,0,0.327978,2503.9,-39182.5,0,39262.5,707190
step02_gravity_refstate-crust.xmf,1314,-3.72774e-07,2.35867e-06,0,-3.26886e-06,-7.1065e+08,-7.10462e+08,-7.10624e+08,-224244,0.0226906,0.179119,0,0.18055,13935.6,-25874.1,0,29388.2,224244
step02_gravity_refstate-crust.xmf,1315,1.61979e-07,1.54788e-06,0,-4.23237e-06,-7.90074e+08,-7.89979e+08,-7.90085e+08,-290340,0.026071,0.196046,0,0.197772,10403.8,-28766.5,0,30590,290340
step02_gravity_refstate-crust.xmf,1316,3.98098e-06,-5.67039e-06,0,-9.49467e-06,-1.00491e+09,-1.00557e+09,-1.00518e+09,-651335,0.0313749,0.26965,0,0.271469,4161.79,-36592.1,0,36828,651335
step02_gravity_refstate-crust.xmf,1317,3.37431e-06,-4.52473e-06,0,-8.98125e-06,-9.9126e+08,-9.91802e+08,-9.91492e+08,-616114,0.031524,0.261327,0,0.263222,4525.02,-36094.5,0,36377,616114
step02_gravity_refstate-crust.xmf,1318,3.00987e-06,-3.73845e-06,0,-8.37037e-06,-9.7575e+08,-9.76213e+08,-9.75957e+08,-574208,0.0311371,0.254686,0,0.256582,4815,-35529.6,0,35854.3,574208
step02_gravity_refstate-crust.xmf,1319,2.00848e-06,-1.47798e-06,0,-5.85363e-06,-8.87129e+08,-8.87368e+08,-8.87267e+08,-401559,0.0276549,0.230843,0,0.232494,6166.26,-32302.7,0,32885.9,401559
step02_gravity_refstate-crust.xmf,1320,2.38557e-06,-2.15415e-06,0,-6.30029e-06,-9.08792e+08,-9.09104e+08,-9.08956e+08,-432200,0.0280798,0.23747,0,0.239125,5649.98,-33091.8,0,33570.7,432200
step02_gravity_refstate-crust.xmf,1321,2.79368e-06,-3.18723e-06,0,-7.78371e-06,-9.60287e+08,-9.60698e+08,-9.60479e+08,-533962,0.0305153,0.249627,0,0.251486,5039.72,-34966.6,0,35327.9,533962
step02_gravity_refstate-crust.xmf,1322,2.31954e-06,-2.39507e-06,0,-7.45544e-06,-9.48072e+08,-9.48396e+08,-9.48232e+08,-511443,0.0306443,0.242766,0,0.244692,5471.22,-34521.2,0,34952.1,511443
step02_gravity_refstate-crust.xmf,1323,8.71607e-07,3.62473e-07,0,-5.05463e-06,-8.40853e+08,-8.40888e+08,-8.40913e+08,-346747,0.0274989,0.212011,0,0.213787,8142.01,-30616.2,0,31680.3,346747
step02_gravity_refstate-crust.xmf,1324,2.36318e-07,1.36329e-06,0,-4.58676e-06,-8.15978e+08,-8.15901e+08,-8.15994e+08,-314651,0.0270983,0.199614,0,0.201445,9750.38,-29709.6,0,31268.6,314651
step02_gravity_refstate-crust.xmf,1325,-6.63287e-07,2.80724e-06,0,-2.77138e-06,-6.78982e+08,-6.78744e+08,-6.78936e+08,-190117,0.0203907,0.166801,0,0.168042,16805,-24720.7,0,29891.8,190117
step02_gravity_refstate-crust.xmf,1326,-9.04515e-07,3.28223e-06,0,-1.15723e-06,-6.21562e+08,-6.21275e+08,-6.215e+08,-79386.1,0.00959719,0.129998,0,0.130352,28709.4,-22630,0,36556.1,79386.1
step02_gravity_refstate-crust.xmf,1327,-8.13259e-07,3.31712e-06,0,-1.67294e-07,-6.29659e+08,-6.29376e+08,-6.29603e+08,-11476.4,0.00142052,0.116183,0,0.116192,38249.1,-22925.2,0,44593.3,11476.4
step02_gravity_refstate-crust.xmf,1328,4.57514e-06,-6.86421e-06,0,-1.03129e-05,-1.02248e+09,-1.02327e+09,-1.0228e+09,-707465,0.031692,0.278539,0,0.280336,3877.58,-37232.4,0,37433.7,707465
step02_gravity_refstate-crust.xmf,1329,5.66014e-06,-8.95351e-06,0,-1.09085e-05,-1.03877e+09,-1.03978e+09,-1.03916e+09,-748323,0.0309694,0.290936,0,0.29258,3465.91,-37826.6,0,37985.1,748323
step02_gravity_refstate-crust.xmf,1330,6.76787e-06,-1.10561e-05,0,-1.13054e-05,-1.0532e+09,-1.05443e+09,-1.05367e+09,-775549,0.0300834,0.302521,0,0.304013,3148.96,-38353.2,0,38482.2,775549
step02_gravity_refstate-crust.xmf,1331,8.0033e-06,-1.34185e-05,0,-1.1041e-05,-1.06506e+09,-1.06653e+09,-1.06561e+09,-757415,0.0282941,0.314715,0,0.315985,2816.62,-38786.2,0,38888.4,757415
step02_gravity_refstate-crust.xmf,1332,8.75405e-06,-1.59894e-05,0,-1.17192e-05,-1.08716e+09,-1.08886e+09,-1.08776e+09,-803938,0.0279767,0.328171,0,0.329361,2740.61,-39589.8,0,39684.6,803938
step02_gravity_refstate-crust.xmf,1333,-3.55772e-07,2.34208e-06,0,-3.52144e-06,-7.40268e+08,-7.40083e+08,-7.40243e+08,-241571,0.0238788,0.181279,0,0.182845,13143.2,-26952.4,0,29986.2,241571
step02_gravity_refstate-crust.xmf,1334,-2.33837e-07,2.11586e-06,0,-4.10853e-06,-7.91894e+08,-7.91733e+08,-7.91878e+08,-281845,0.0261013,0.188137,0,0.189939,11478.6,-28832,0,31033,281845
step02_gravity_refstate-crust.xmf,1335,-3.28023e-07,2.29134e-06,0,-3.79481e-06,-7.67898e+08,-7.67719e+08,-7.67876e+08,-260324,0.0250246,0.183851,0,0.185546,12377.1,-27958.3,0,30575.5,260324
step02_gravity_refstate-crust.xmf,1336,9.96805e-07,9.29852e-08,0,-5.46401e-06,-8.64758e+08,-8.6482e+08,-8.64826e+08,-374831,0.0284339,0.215972,0,0.217835,7672.35,-31486.5,0,32407.8,374831
step02_gravity_refstate-crust.xmf,1337,1.9388e-06,-1.63423e-06,0,-6.96832e-06,-9.31541e+08,-9.31786e+08,-9.31674e+08,-478027,0.0303577,0.235982,0,0.237926,5923.56,-33919,0,34432.3,478027
step02_gravity_refstate-crust.xmf,1338,3.22861e-07,1.17119e-06,0,-4.96322e-06,-8.41192e+08,-8.41134e+08,-8.41214e+08,-340477,0.0281187,0.203373,0,0.205307,9149.68,-30627.6,0,31965,340477
step02_gravity_refstate-crust.xmf,1339,-7.97914e-07,3.07285e-06,0,-2.87738e-06,-7.16553e+08,-7.16288e+08,-7.16499e+08,-197388,0.0212164,0.163667,0,0.165036,16631.8,-26088.4,0,30939,197388
step02_gravity_refstate-crust.xmf,1340,-8.44344e-07,3.4338e-06,0,-5.6601e-07,-6.49205e+08,-6.48912e+08,-6.49147e+08,-38828.3,0.00484339,0.117101,0,0.117202,34043.5,-23636.9,0,41444.7,38828.3
step02_gravity_refstate-crust.xmf,1341,-8.78289e-07,3.44652e-06,0,-7.99371e-07,-6.49397e+08,-6.491e+08,-6.49336e+08,-54836.9,0.00679837,0.120406,0,0.120597,31763.6,-23643.7,0,39597.4,54836.9
step02_gravity_refstate-crust.xmf,1342,-9.10977e-07,3.47538e-06,0,-1.01956e-06,-6.53833e+08,-6.53532e+08,-6.5377e+08,-69941.8,0.00861867,0.1238,0,0.124099,29702.7,-23805.1,0,38064.8,69941.8
step02_gravity_refstate-crust.xmf,1343,-7.9072e-07,3.01373e-06,0,-2.3756e-06,-6.55434e+08,-6.55173e+08,-6.5538e+08,-162966,0.0181695,0.157636,0,0.15868,19300.1,-23863.2,0,30691.2,162966
step02_gravity_refstate-crust.xmf,1344,-9.38741e-07,3.49168e-06,0,-1.22774e-06,-6.57845e+08,-6.57541e+08,-6.57781e+08,-84223.2,0.0102926,0.127567,0,0.127982,27872.7,-23951.1,0,36749.7,84223.2
step02_gravity_refstate-crust.xmf,1345,-9.5438e-07,3.46394e-06,0,-1.4412e-06,-6.57284e+08,-6.56981e+08,-6.57219e+08,-98866.7,0.0119291,0.132354,0,0.132891,26143,-23930.6,0,35441.9,98866.7
step02_gravity_refstate-crust.xmf,1346,-9.54189e-07,3.40641e-06,0,-1.67004e-06,-6.56241e+08,-6.55942e+08,-6.56176e+08,-114565,0.0136028,0.137939,0,0.138608,24389.5,-23892.5,0,34142.3,114565
step02_gravity_refstate-crust.xmf,1347,-8.78767e-07,3.18766e-06,0,-2.14087e-06,-6.55019e+08,-6.5474e+08,-6.54958e+08,-146864,0.0167591,0.15063,0,0.15156,20975.4,-23848,0,31759.9,146864
step02_gravity_refstate-crust.xmf,1348,-9.316e-07,3.31816e-06,0,-1.9038e-06,-6.5563e+08,-6.55338e+08,-6.55566e+08,-130600,0.0152232,0.144011,0,0.144814,22671.5,-23870.2,0,32920.9,130600
step02_gravity_refstate-crust.xmf,1349,-8.63475e-07,3.19515e-06,0,-2.57612e-06,-6.96153e+08,-6.95874e+08,-6.96094e+08,-176722,0.0195533,0.157734,0,0.158941,18275.5,-25345.6,0,31247.3,176722
step02_gravity_refstate-crust.xmf,1350,-7.88915e-07,3.47718e-06,0,-1.05519e-09,-6.62644e+08,-6.62351e+08,-6.6259e+08,-72.3858,1.0115e-19,0.111791,0,0.111791,40000,-24126.4,0,46712.8,72.3858
step02_gravity_refstate-crust.xmf,1351,-8.12571e-07,3.47253e-06,0,-3.49529e-07,-6.59241e+08,-6.58947e+08,-6.59185e+08,-23977.7,0.00301419,0.113673,0,0.113713,36221.5,-24002.4,0,43452.4,23977.7
step02_gravity_refstate-crust.xmf,1352,9.19681e-06,-1.81239e-05,0,-1.07089e-05,-1.09847e+09,-1.10034e+09,-1.0991e+09,-734629,0.0253065,0.340901,0,0.34184,2497.35,-40000,0,40077.9,734629
step02_gravity_refstate-crust.xmf,1353,8.0184e-06,-1.40012e-05,0,-1.21725e-05,-1.07678e+09,-1.07829e+09,-1.07733e+09,-835030,0.029646,0.31776,0,0.31914,2940.66,-39212.2,0,39322.3,835030
step02_gravity_refstate-crust.xmf,1354,3.21021e-06,-4.69618e-06,0,-1.02863e-05,-1.01701e+09,-1.01756e+09,-1.01723e+09,-705642,0.0334473,0.266896,0,0.268984,4450.69,-37031.1,0,37297.6,705642
step02_gravity_refstate-crust.xmf,1355,-6.18755e-07,2.78259e-06,0,-3.11846e-06,-7.20096e+08,-7.19862e+08,-7.20053e+08,-213926,0.022315,0.171148,0,0.172597,15186.8,-26217.6,0,30298.6,213926
step02_gravity_refstate-crust.xmf,1356,-6.20936e-07,2.77508e-06,0,-3.32814e-06,-7.43033e+08,-7.428e+08,-7.4299e+08,-228310,0.0233331,0.173254,0,0.174818,14421.3,-27052.6,0,30656.5,228310
step02_gravity_refstate-crust.xmf,1357,-1.99813e-07,2.06323e-06,0,-4.40698e-06,-8.17816e+08,-8.17661e+08,-8.17802e+08,-302319,0.0271874,0.190764,0,0.192691,10863.6,-29775.8,0,31695.7,302319
step02_gravity_refstate-crust.xmf,1358,1.22434e-06,-3.0065e-07,0,-5.89299e-06,-8.8763e+08,-8.87735e+08,-8.87714e+08,-404259,0.0292309,0.221309,0,0.223231,7127.6,-32319.6,0,33096.2,404259
step02_gravity_refstate-crust.xmf,1359,2.45756e-06,-3.43886e-06,0,-9.87458e-06,-1.00749e+09,-1.0079e+09,-1.00766e+09,-677396,0.0338778,0.257943,0,0.260158,4871.53,-36683.4,0,37005.4,677396
step02_gravity_refstate-crust.xmf,1360,1.90809e-06,-2.06839e-06,0,-8.24576e-06,-9.69973e+08,-9.70246e+08,-9.70104e+08,-565659,0.0325352,0.243138,0,0.245305,5574.21,-35317.4,0,35754.5,565659
step02_gravity_refstate-crust.xmf,1361,2.12932e-06,-2.67302e-06,0,-9.05173e-06,-9.9006e+08,-9.9039e+08,-9.90206e+08,-620948,0.0333444,0.250133,0,0.252345,5224.29,-36048.6,0,36425.2,620948
step02_gravity_refstate-crust.xmf,1362,1.42181e-06,-7.98102e-07,0,-6.53287e-06,-9.13912e+08,-9.14064e+08,-9.1401e+08,-448155,0.030227,0.227568,0,0.229567,6585.55,-33276.4,0,33921.8,448155
step02_gravity_refstate-crust.xmf,1363,1.4655e-06,-1.20257e-06,0,-7.64261e-06,-9.53511e+08,-9.53694e+08,-9.53612e+08,-524283,0.0322384,0.234864,0,0.237066,6103.15,-34717.6,0,35250,524283
step02_gravity_refstate-crust.xmf,1364,3.99954e-07,9.73894e-07,0,-5.37516e-06,-8.65557e+08,-8.65518e+08,-8.65585e+08,-368736,0.0291333,0.207215,0,0.209253,8611.34,-31514.6,0,32669.9,368736
step02_gravity_refstate-crust.xmf,1365,-1.8094e-07,1.94375e-06,0,-4.78342e-06,-8.43159e+08,-8.43013e+08,-8.43147e+08,-328143,0.0282815,0.194163,0,0.196212,10216.6,-30698.3,0,32353.8,328143
step02_gravity_refstate-crust.xmf,1366,3.20948e-06,-4.96291e-06,0,-1.10129e-05,-1.02942e+09,-1.02998e+09,-1.02964e+09,-755486,0.0341905,0.270539,0,0.272691,4374.44,-37482.5,0,37736.9,755486
step02_gravity_refstate-crust.xmf,1367,-7.70696e-07,3.61088e-06,0,-1.67174e-07,-6.89825e+08,-6.89524e+08,-6.89772e+08,-11468.1,0.00145668,0.10865,0,0.108659,38099.8,-25116.2,0,45633.6,11468.1
step02_gravity_refstate-crust.xmf,1368,3.95148e-06,-6.41546e-06,0,-1.1678e-05,-1.04013e+09,-1.04085e+09,-1.04041e+09,-801108,0.0338635,0.279435,0,0.28148,4047.46,-37873.2,0,38088.8,801108
step02_gravity_refstate-crust.xmf,1369,4.90762e-06,-8.3089e-06,0,-1.25544e-05,-1.05465e+09,-1.05555e+09,-1.05498e+09,-861235,0.0334774,0.290596,0,0.292518,3714.25,-38402.4,0,38581.6,861235
step02_gravity_refstate-crust.xmf,1370,6.3427e-06,-1.10803e-05,0,-1.32281e-05,-1.06976e+09,-1.07096e+09,-1.0702e+09,-907449,0.032479,0.304059,0,0.305788,3370.2,-38954.3,0,39099.8,907449
step02_gravity_refstate-crust.xmf,1371,7.34662e-06,-1.33136e-05,0,-1.41306e-05,-1.08658e+09,-1.088e+09,-1.08709e+09,-969358,0.0320722,0.31462,0,0.316251,3247.35,-39567.3,0,39700.3,969358
step02_gravity_refstate-crust.xmf,1372,8.28181e-06,-1.60457e-05,0,-1.32338e-05,-1.09848e+09,-1.10015e+09,-1.09905e+09,-907838,0.0296775,0.328011,0,0.329351,2997.53,-40000,0,40112.2,907838
step02_gravity_refstate-crust.xmf,1373,-8.32776e-07,3.17015e-06,0,-3.08832e-06,-7.47692e+08,-7.47418e+08,-7.47635e+08,-211859,0.0224478,0.164898,0,0.166418,15763.2,-27222,0,31456.6,211859
step02_gravity_refstate-crust.xmf,1374,-6.34437e-07,2.795e-06,0,-3.56034e-06,-7.69113e+08,-7.68878e+08,-7.6907e+08,-244239,0.0244285,0.17513,0,0.176825,13691.3,-28002.1,0,31170,244239
step02_gravity_refstate-crust.xmf,1375,-5.99927e-07,2.67696e-06,0,-4.18141e-06,-8.20963e+08,-8.20738e+08,-8.20922e+08,-286845,0.0268265,0.181698,0,0.183667,12006.5,-29889.7,0,32211,286845
step02_gravity_refstate-crust.xmf,1376,-6.66864e-07,2.83013e-06,0,-3.84232e-06,-7.9824e+08,-7.98e+08,-7.98194e+08,-263583,0.0256201,0.176975,0,0.17882,12969.8,-29062.4,0,31825.1,263583
step02_gravity_refstate-crust.xmf,1377,4.98587e-07,7.21658e-07,0,-5.82624e-06,-8.88514e+08,-8.88498e+08,-8.88548e+08,-399680,0.0300923,0.211648,0,0.213777,8080.82,-32350.4,0,33344.3,399680
step02_gravity_refstate-crust.xmf,1378,1.22788e-06,-6.77061e-07,0,-7.12486e-06,-9.37568e+08,-9.37698e+08,-9.37652e+08,-488765,0.0317199,0.228946,0,0.231133,6522.03,-34137,0,34754.5,488765
step02_gravity_refstate-crust.xmf,1379,-1.45173e-07,1.81258e-06,0,-5.17504e-06,-8.66976e+08,-8.66841e+08,-8.66966e+08,-355007,0.0293268,0.197838,0,0.2,9614.76,-31565.3,0,32997.2,355007
step02_gravity_refstate-crust.xmf,1380,2.05425e-06,-3.19341e-06,0,-1.08456e-05,-1.02612e+09,-1.02648e+09,-1.02626e+09,-744007,0.0352684,0.260018,0,0.262399,4880.09,-37360.4,0,37677.8,744007
step02_gravity_refstate-crust.xmf,1381,-9.87729e-07,3.47207e-06,0,-2.64656e-06,-7.34531e+08,-7.34225e+08,-7.34463e+08,-181554,0.020192,0.154275,0,0.15559,18033,-26742.7,0,32254.7,181554
step02_gravity_refstate-crust.xmf,1382,-8.07753e-07,3.67376e-06,0,-4.61063e-07,-6.98029e+08,-6.97722e+08,-6.97974e+08,-31628.9,0.00404278,0.109959,0,0.110033,34766.3,-25414.9,0,43065.2,31628.9
step02_gravity_refstate-crust.xmf,1383,-8.48715e-07,3.68066e-06,0,-6.54239e-07,-6.95129e+08,-6.94818e+08,-6.95071e+08,-44880.8,0.00570652,0.112877,0,0.113022,32766.2,-25309.1,0,41402.6,44880.8
step02_gravity_refstate-crust.xmf,1384,-8.97389e-07,3.71133e-06,0,-8.68956e-07,-6.96777e+08,-6.96461e+08,-6.96716e+08,-59610.4,0.0075333,0.116252,0,0.116495,30650.5,-25369,0,39787.4,59610.4
step02_gravity_refstate-crust.xmf,1385,-9.44499e-07,3.73293e-06,0,-1.08141e-06,-6.98266e+08,-6.97945e+08,-6.98201e+08,-74185.1,0.00929245,0.120176,0,0.120534,28720.8,-25423,0,38356.4,74185.1
step02_gravity_refstate-crust.xmf,1386,-9.59962e-07,3.41102e-06,0,-2.28241e-06,-6.95687e+08,-6.95387e+08,-6.95621e+08,-156574,0.0178825,0.14943,0,0.150496,20099.8,-25328.6,0,32334.8,156574
step02_gravity_refstate-crust.xmf,1387,-9.85391e-07,3.73519e-06,0,-1.29879e-06,-6.98813e+08,-6.98489e+08,-6.98745e+08,-89096.8,0.0110296,0.124727,0,0.125214,26911.4,-25442.8,0,37034.6,89096.8
step02_gravity_refstate-crust.xmf,1388,-1.01391e-06,3.70741e-06,0,-1.52767e-06,-6.97921e+08,-6.97598e+08,-6.97852e+08,-104798,0.0127751,0.130021,0,0.130648,25167.2,-25410.2,0,35764,104798
step02_gravity_refstate-crust.xmf,1389,-1.02456e-06,3.65079e-06,0,-1.76926e-06,-6.97187e+08,-6.96866e+08,-6.97117e+08,-121371,0.0145254,0.135907,0,0.136681,23451.6,-25383.3,0,34558.5,121371
step02_gravity_refstate-crust.xmf,1390,-1.00922e-06,3.55489e-06,0,-2.02043e-06,-6.963e+08,-6.95987e+08,-6.96231e+08,-138602,0.0162321,0.142358,0,0.143281,21774.7,-25350.9,0,33418.7,138602
step02_gravity_refstate-crust.xmf,1391,-7.21499e-07,3.77572e-06,0,-1.78657e-09,-7.27325e+08,-7.27017e+08,-7.27276e+08,-122.559,1.08063e-19,0.103247,0,0.103247,40000,-26481.9,0,47971.8,122.559
step02_gravity_refstate-crust.xmf,1392,-7.72719e-07,3.70905e-06,0,-3.02269e-07,-7.08792e+08,-7.08484e+08,-7.08739e+08,-20735.7,0.0026761,0.10703,0,0.107063,36444.4,-25806.9,0,44656.3,20735.7
step02_gravity_refstate-crust.xmf,1393,-1.01535e-06,3.50774e-06,0,-2.84296e-06,-7.55202e+08,-7.54892e+08,-7.55133e+08,-195027,0.0213102,0.156551,0,0.157995,17096.5,-27495.2,0,32377.1,195027
step02_gravity_refstate-crust.xmf,1394,-8.75467e-07,3.21954e-06,0,-3.30793e-06,-7.72986e+08,-7.72705e+08,-7.72926e+08,-226924,0.0235255,0.16651,0,0.168164,14994.4,-28142.8,0,31888.1,226924
step02_gravity_refstate-crust.xmf,1395,-5.86148e-07,2.63281e-06,0,-4.50228e-06,-8.44832e+08,-8.44611e+08,-8.44792e+08,-308856,0.0279053,0.184762,0,0.186857,11325.8,-30758.7,0,32777.5,308856
step02_gravity_refstate-crust.xmf,1396,6.32401e-07,4.43652e-07,0,-6.31997e-06,-9.11279e+08,-9.11292e+08,-9.11322e+08,-433550,0.0310556,0.216632,0,0.218847,7564.66,-33179.3,0,34030.7,433550
step02_gravity_refstate-crust.xmf,1397,1.17992e-06,-1.48125e-06,0,-9.64903e-06,-1.00645e+09,-1.00663e+09,-1.00653e+09,-661923,0.0350856,0.245458,0,0.247953,5577.17,-36643.2,0,37065.2,661923
step02_gravity_refstate-crust.xmf,1398,1.00052e-06,-9.51144e-07,0,-8.86487e-06,-9.89753e+08,-9.89886e+08,-9.89821e+08,-608130,0.0344522,0.238567,0,0.241042,5946.51,-36035.5,0,36522.9,608130
step02_gravity_refstate-crust.xmf,1399,8.24554e-07,-4.45252e-07,0,-8.14038e-06,-9.7218e+08,-9.72267e+08,-9.72236e+08,-558430,0.0337589,0.231796,0,0.234242,6362.5,-35395.8,0,35963.1,558430
step02_gravity_refstate-crust.xmf,1400,6.77412e-07,-1.17862e-08,0,-7.48888e-06,-9.53887e+08,-9.53935e+08,-9.53934e+08,-513737,0.0330028,0.2256,0,0.228001,6797.41,-34729.9,0,35388.9,513737
step02_gravity_refstate-crust.xmf,1401,6.38267e-07,2.25944e-07,0,-6.90682e-06,-9.33835e+08,-9.33863e+08,-9.33879e+08,-473808,0.0320877,0.220983,0,0.223301,7166.6,-34000.1,0,34747.2,473808
step02_gravity_refstate-crust.xmf,1402,-1.03383e-07,1.65149e-06,0,-5.61009e-06,-8.89994e+08,-8.89873e+08,-8.89987e+08,-384852,0.0303516,0.201935,0,0.204203,9036.11,-32403.2,0,33639.6,384852
step02_gravity_refstate-crust.xmf,1403,-6.1696e-07,2.57754e-06,0,-4.88062e-06,-8.68922e+08,-8.68703e+08,-8.6888e+08,-334811,0.0289867,0.187973,0,0.190195,10684,-31635.5,0,33390.9,334811
step02_gravity_refstate-crust.xmf,1404,2.32255e-06,-3.86077e-06,0,-1.17909e-05,-1.04174e+09,-1.04217e+09,-1.0419e+09,-808854,0.0357282,0.2676,0,0.269974,4610.18,-37929.1,0,38208.2,808854
step02_gravity_refstate-crust.xmf,1405,-1.0604e-06,3.65219e-06,0,-2.40806e-06,-7.35124e+08,-7.348e+08,-7.35051e+08,-165193,0.0188594,0.147827,0,0.149025,19337.8,-26764.3,0,33019.3,165193
step02_gravity_refstate-crust.xmf,1406,-7.00353e-07,3.90086e-06,0,-1.7454e-07,-7.54167e+08,-7.53851e+08,-7.54119e+08,-11973.4,0.00155701,0.1,0,0.100013,37735.4,-27459.4,0,46668.9,11973.4
step02_gravity_refstate-crust.xmf,1407,-7.42081e-07,3.89835e-06,0,-3.54477e-07,-7.48452e+08,-7.48133e+08,-7.48401e+08,-24317.1,0.0031828,0.10229,0,0.10234,35501.6,-27251.2,0,44754.8,24317.1
step02_gravity_refstate-crust.xmf,1408,2.8451e-06,-5.15295e-06,0,-1.29324e-05,-1.05548e+09,-1.05603e+09,-1.05568e+09,-887161,0.0357868,0.276997,0,0.279299,4296.91,-38429.4,0,38668.9,887161
step02_gravity_refstate-crust.xmf,1409,3.67724e-06,-6.89795e-06,0,-1.42118e-05,-1.06963e+09,-1.07036e+09,-1.06989e+09,-974928,0.0355694,0.287869,0,0.290058,3987.58,-38945.3,0,39148.9,974928
step02_gravity_refstate-crust.xmf,1410,4.87047e-06,-9.23915e-06,0,-1.56823e-05,-1.08312e+09,-1.08409e+09,-1.08345e+09,-1.07581e+06,0.0350501,0.298753,0,0.300802,3738.97,-39437.4,0,39614.2,1.07581e+06
step02_gravity_refstate-crust.xmf,1411,6.83981e-06,-1.27453e-05,0,-1.60619e-05,-1.0985e+09,-1.09985e+09,-1.09897e+09,-1.10185e+06,0.0334501,0.312526,0,0.314311,3497.18,-40000,0,40152.6,1.10185e+06
step02_gravity_refstate-crust.xmf,1412,1.30494e-06,-1.88066e-06,0,-1.03121e-05,-1.01904e+09,-1.01926e+09,-1.01913e+09,-707411,0.0355485,0.250841,0,0.253348,5322.79,-37101.5,0,37481.4,707411
step02_gravity_refstate-crust.xmf,1413,-1.05193e-06,3.58777e-06,0,-3.04579e-06,-7.80708e+08,-7.8039e+08,-7.80636e+08,-208941,0.0224497,0.158263,0,0.159847,16208.2,-28423.8,0,32720.3,208941
step02_gravity_refstate-crust.xmf,1414,-1.16858e-06,3.88233e-06,0,-2.56302e-06,-7.73093e+08,-7.72747e+08,-7.73013e+08,-175823,0.0198729,0.146817,0,0.148156,18484.2,-28146.5,0,33673.3,175823
step02_gravity_refstate-crust.xmf,1415,-8.77988e-07,3.21317e-06,0,-3.5238e-06,-7.92404e+08,-7.92124e+08,-7.92344e+08,-241733,0.0245142,0.169016,0,0.170784,14241.2,-28849.7,0,32173.2,241733
step02_gravity_refstate-crust.xmf,1416,-9.23966e-07,3.19516e-06,0,-4.19521e-06,-8.4682e+08,-8.46537e+08,-8.46756e+08,-287791,0.0271135,0.175691,0,0.177771,12426.1,-30830.5,0,33240.5,287791
step02_gravity_refstate-crust.xmf,1417,-8.77586e-07,3.17152e-06,0,-3.94309e-06,-8.26352e+08,-8.26074e+08,-8.26292e+08,-270496,0.0262234,0.173742,0,0.17571,12992.8,-30085.5,0,32771.2,270496
step02_gravity_refstate-crust.xmf,1418,-5.53856e-08,1.45527e-06,0,-6.08923e-06,-9.11822e+08,-9.11719e+08,-9.11818e+08,-417721,0.0313353,0.206498,0,0.208862,8481.43,-33197.8,0,34264.1,417721
step02_gravity_refstate-crust.xmf,1419,-5.87935e-07,2.43098e-06,0,-5.30666e-06,-8.90764e+08,-8.90557e+08,-8.90724e+08,-364037,0.0300559,0.192514,0,0.194847,9982.89,-32430.5,0,33932.3,364037
step02_gravity_refstate-crust.xmf,1420,8.57852e-07,-1.65025e-06,0,-1.15365e-05,-1.04266e+09,-1.04283e+09,-1.04272e+09,-791402,0.0366669,0.25533,0,0.257949,5175.82,-37959.9,0,38311.1,791402
step02_gravity_refstate-crust.xmf,1421,-7.93715e-07,3.9045e-06,0,-5.27098e-07,-7.4309e+08,-7.42767e+08,-7.43035e+08,-36158.9,0.00470801,0.105164,0,0.105269,33554.3,-27055.8,0,43103.4,36158.9
step02_gravity_refstate-crust.xmf,1422,-8.52785e-07,3.93266e-06,0,-7.14128e-07,-7.41645e+08,-7.41317e+08,-7.41586e+08,-48989.2,0.00634391,0.108333,0,0.108519,31570.8,-27003,0,41543.6,48989.2
step02_gravity_refstate-crust.xmf,1423,-9.19079e-07,3.96797e-06,0,-9.18261e-07,-7.41827e+08,-7.41491e+08,-7.41764e+08,-62992.7,0.0080936,0.11213,0,0.112422,29582,-27009.4,0,40057.5,62992.7
step02_gravity_refstate-crust.xmf,1424,-9.84028e-07,3.99117e-06,0,-1.13194e-06,-7.4158e+08,-7.41239e+08,-7.41513e+08,-77650.8,0.00986664,0.11657,0,0.116987,27712.9,-27000.2,0,38691.2,77650.8
step02_gravity_refstate-crust.xmf,1425,-1.10044e-06,3.80273e-06,0,-2.12776e-06,-7.36086e+08,-7.3575e+08,-7.36011e+08,-145964,0.0171331,0.140503,0,0.141543,20935.4,-26799.4,0,34007.3,145964
step02_gravity_refstate-crust.xmf,1426,-1.04113e-06,3.98923e-06,0,-1.36009e-06,-7.40013e+08,-7.39668e+08,-7.39941e+08,-93302.1,0.0116793,0.121756,0,0.122315,25933.5,-26942.9,0,37396.1,93302.1
step02_gravity_refstate-crust.xmf,1427,-1.08376e-06,3.96204e-06,0,-1.60144e-06,-7.3846e+08,-7.38114e+08,-7.38386e+08,-109859,0.0135059,0.127476,0,0.12819,24224.5,-26886.1,0,36189.6,109859
step02_gravity_refstate-crust.xmf,1428,-1.10536e-06,3.89844e-06,0,-1.8614e-06,-7.36649e+08,-7.36306e+08,-7.36573e+08,-127692,0.0153565,0.133865,0,0.134743,22543.9,-26820,0,35036.3,127692
step02_gravity_refstate-crust.xmf,1429,-6.20171e-07,4.03996e-06,0,-1.36628e-09,-7.90899e+08,-7.90579e+08,-7.90857e+08,-93.7265,7.31371e-20,0.0941993,0,0.0941993,40000,-28797.2,0,49287.7,93.7265
step02_gravity_refstate-crust.xmf,1430,7.91469e-07,-1.23653e-06,0,-1.07387e-05,-1.03081e+09,-1.03095e+09,-1.03087e+09,-736674,0.036301,0.249766,0,0.25239,5412.18,-37529.1,0,37917.4,736674
step02_gravity_refstate-crust.xmf,1431,1.84003e-07,-1.43164e-07,0,-1.01241e-05,-1.02443e+09,-1.02445e+09,-1.02444e+09,-694514,0.0362368,0.240503,0,0.243217,5877.15,-37295.9,0,37756.1,694514
step02_gravity_refstate-crust.xmf,1432,-1.17021e-06,3.8528e-06,0,-2.80143e-06,-7.87192e+08,-7.86848e+08,-7.87112e+08,-192178,0.0212531,0.151087,0,0.152575,17311.2,-28659.8,0,33482.2,192178
step02_gravity_refstate-crust.xmf,1433,-1.01377e-06,3.43979e-06,0,-3.65232e-06,-8.19329e+08,-8.19024e+08,-8.1926e+08,-250549,0.0251507,0.167347,0,0.169226,14005.6,-29829.7,0,32954,250549
step02_gravity_refstate-crust.xmf,1434,-1.12554e-06,3.69054e-06,0,-3.3012e-06,-8.09689e+08,-8.09359e+08,-8.09612e+08,-226463,0.0236764,0.160046,0,0.161788,15289.8,-29478.7,0,33208,226463
step02_gravity_refstate-crust.xmf,1435,-9.80923e-07,3.24647e-06,0,-4.50131e-06,-8.7093e+08,-8.7064e+08,-8.70863e+08,-308790,0.0281294,0.17795,0,0.180159,11806.1,-31708.2,0,33834.8,308790
step02_gravity_refstate-crust.xmf,1436,-4.63561e-09,1.28424e-06,0,-6.59129e-06,-9.3295e+08,-9.32862e+08,-9.3295e+08,-452162,0.0322923,0.211079,0,0.213535,7988.12,-33966.9,0,34893.6,452162
step02_gravity_refstate-crust.xmf,1437,9.91024e-08,2.81247e-07,0,-9.24333e-06,-1.00787e+09,-1.00785e+09,-1.00787e+09,-634093,0.035599,0.23359,0,0.236287,6259.92,-36693.2,0,37223.3,634093
step02_gravity_refstate-crust.xmf,1438,1.0996e-08,6.11392e-07,0,-8.50012e-06,-9.91175e+08,-9.91133e+08,-9.91175e+08,-583108,0.0349016,0.226836,0,0.229505,6685.61,-36085.7,0,36699.8,583108
step02_gravity_refstate-crust.xmf,1439,-2.62359e-08,8.97574e-07,0,-7.80065e-06,-9.729e+08,-9.72837e+08,-9.72898e+08,-535124,0.0340978,0.220838,0,0.223455,7119.06,-35420.7,0,36129,535124
step02_gravity_refstate-crust.xmf,1440,-2.47438e-08,1.09523e-06,0,-7.1776e-06,-9.53405e+08,-9.53328e+08,-9.53403e+08,-492384,0.0332201,0.215768,0,0.21831,7541.8,-34711.2,0,35521.1,492384
step02_gravity_refstate-crust.xmf,1441,-5.91452e-07,2.32652e-06,0,-5.77572e-06,-9.14032e+08,-9.13832e+08,-9.13992e+08,-396214,0.0311363,0.196866,0,0.199313,9357.69,-33277.5,0,34568.1,396214
step02_gravity_refstate-crust.xmf,1442,-1.09622e-06,3.3234e-06,0,-4.89398e-06,-8.9768e+08,-8.97376e+08,-8.97604e+08,-335727,0.0292408,0.18073,0,0.18308,11138.7,-32681.6,0,34527.7,335727
step02_gravity_refstate-crust.xmf,1443,1.126e-06,-2.29145e-06,0,-1.25469e-05,-1.05648e+09,-1.05671e+09,-1.05656e+09,-860718,0.0369508,0.263396,0,0.265975,4865.8,-38463.2,0,38769.8,860718
step02_gravity_refstate-crust.xmf,1444,-1.20478e-06,4.06258e-06,0,-2.22779e-06,-7.74503e+08,-7.74141e+08,-7.7442e+08,-152827,0.0179274,0.138647,0,0.139801,20119.5,-28198,0,34639.8,152827
step02_gravity_refstate-crust.xmf,1445,-5.67697e-07,4.16182e-06,0,-1.15823e-07,-8.21323e+08,-8.20998e+08,-8.21284e+08,-7945.45,0.00103809,0.0899816,0,0.0899876,38141,-29905.2,0,48467.1,7945.45
step02_gravity_refstate-crust.xmf,1446,-6.44391e-07,4.10099e-06,0,-2.54131e-07,-7.99556e+08,-7.9923e+08,-7.99512e+08,-17433.4,0.00230233,0.0942435,0,0.0942716,36255.1,-29112.4,0,46496.9,17433.4
step02_gravity_refstate-crust.xmf,1447,-7.08305e-07,4.10646e-06,0,-4.06187e-07,-7.91809e+08,-7.91478e+08,-7.9176e+08,-27864.4,0.00368818,0.0971737,0,0.0972437,34293.2,-28830.1,0,44801.8,27864.4
step02_gravity_refstate-crust.xmf,1448,1.43325e-06,-3.27318e-06,0,-1.39227e-05,-1.07039e+09,-1.07072e+09,-1.07049e+09,-955096,0.0370378,0.272798,0,0.275301,4550.47,-38969.5,0,39234.3,955096
step02_gravity_refstate-crust.xmf,1449,1.9376e-06,-4.4179e-06,0,-1.55743e-05,-1.08448e+09,-1.08492e+09,-1.08461e+09,-1.0684e+06,0.0368565,0.283024,0,0.285414,4261.32,-39482.6,0,39711.9,1.0684e+06
step02_gravity_refstate-crust.xmf,1450,-1.26345e-06,4.02761e-06,0,-2.93061e-06,-8.13363e+08,-8.13e+08,-8.13277e+08,-201040,0.0219544,0.150651,0,0.152243,16732.6,-29612.4,0,34012.9,201040
step02_gravity_refstate-crust.xmf,1451,-1.31559e-06,4.21622e-06,0,-2.61574e-06,-8.13593e+08,-8.13214e+08,-8.13503e+08,-179440,0.0202708,0.143229,0,0.144656,18034.2,-29620.9,0,34678.9,179440
step02_gravity_refstate-crust.xmf,1452,-1.14593e-06,3.6329e-06,0,-3.84148e-06,-8.46408e+08,-8.4608e+08,-8.46329e+08,-263526,0.0259373,0.167093,0,0.169094,13556.1,-30815.3,0,33665.3,263526
step02_gravity_refstate-crust.xmf,1453,-1.26092e-06,3.7689e-06,0,-4.10298e-06,-8.72376e+08,-8.72031e+08,-8.7229e+08,-281464,0.0268661,0.168354,0,0.170485,12941.1,-31760.5,0,34295.8,281464
step02_gravity_refstate-crust.xmf,1454,-6.31677e-07,2.2614e-06,0,-6.22598e-06,-9.34176e+08,-9.33977e+08,-9.34132e+08,-427102,0.0320464,0.200578,0,0.203122,8872.57,-34010.5,0,35148.8,427102
step02_gravity_refstate-crust.xmf,1455,-1.00779e-06,3.05181e-06,0,-5.37167e-06,-9.14668e+08,-9.14389e+08,-9.14598e+08,-368497,0.0304256,0.187272,0,0.189727,10269.1,-33300,0,34847.5,368497
step02_gravity_refstate-crust.xmf,1456,-3.90493e-07,4.13669e-07,0,-1.08514e-05,-1.04316e+09,-1.0431e+09,-1.04313e+09,-744406,0.0368293,0.241854,0,0.244642,5805.25,-37976.2,0,38417.4,744406
step02_gravity_refstate-crust.xmf,1457,-2.66614e-07,-6.42548e-08,0,-1.18565e-05,-1.05704e+09,-1.05703e+09,-1.05702e+09,-813357,0.0371943,0.250046,0,0.252797,5430.21,-38481.5,0,38862.8,813357
step02_gravity_refstate-crust.xmf,1458,-1.68556e-07,-4.40745e-07,0,-1.29779e-05,-1.07099e+09,-1.07101e+09,-1.07098e+09,-890283,0.0373888,0.258011,0,0.260706,5110.78,-38989,0,39322.6,890283
step02_gravity_refstate-crust.xmf,1459,-1.32195e-06,4.33752e-06,0,-2.3094e-06,-8.12315e+08,-8.11927e+08,-8.12224e+08,-158425,0.018469,0.136274,0,0.137519,19409.9,-29574.5,0,35375.1,158425
step02_gravity_refstate-crust.xmf,1460,-7.7812e-07,4.13902e-06,0,-5.70283e-07,-7.88628e+08,-7.88291e+08,-7.88575e+08,-39121.4,0.00516278,0.100186,0,0.100319,32343.5,-28714.1,0,43250.5,39121.4
step02_gravity_refstate-crust.xmf,1461,-8.56991e-07,4.18188e-06,0,-7.48699e-07,-7.86977e+08,-7.86631e+08,-7.86918e+08,-51360.7,0.00673985,0.103707,0,0.103926,30429.1,-28653.7,0,41796.7,51360.7
step02_gravity_refstate-crust.xmf,1462,-9.42866e-07,4.22542e-06,0,-9.46962e-07,-7.85923e+08,-7.85569e+08,-7.85859e+08,-64961.6,0.00844899,0.107904,0,0.108234,28536.8,-28615.1,0,40412.5,64961.6
step02_gravity_refstate-crust.xmf,1463,-1.02725e-06,4.25137e-06,0,-1.16378e-06,-7.83778e+08,-7.83416e+08,-7.83707e+08,-79835.1,0.0102491,0.112858,0,0.113322,26737.3,-28536.6,0,39105.3,79835.1
step02_gravity_refstate-crust.xmf,1464,-1.19745e-06,4.1594e-06,0,-1.93915e-06,-7.75543e+08,-7.75176e+08,-7.75461e+08,-133026,0.0160276,0.131573,0,0.132546,21694.4,-28236,0,35607.9,133026
step02_gravity_refstate-crust.xmf,1465,-1.10258e-06,4.252e-06,0,-1.40195e-06,-7.80816e+08,-7.80448e+08,-7.8074e+08,-96173.9,0.0121359,0.118535,0,0.119155,25005.3,-28428.5,0,37860.8,96173.9
step02_gravity_refstate-crust.xmf,1466,-1.16171e-06,4.22258e-06,0,-1.66208e-06,-7.77819e+08,-7.7745e+08,-7.7774e+08,-114019,0.0140841,0.124839,0,0.125631,23320.3,-28319.1,0,36685.3,114019
step02_gravity_refstate-crust.xmf,1467,-4.76906e-07,4.26285e-06,0,-2.3916e-09,-8.53545e+08,-8.5322e+08,-8.53513e+08,-164.064,5.46408e-20,0.0847268,0,0.0847268,40000,-31078.8,0,50654.7,164.064
step02_gravity_refstate-crust.xmf,1468,-7.723e-07,1.53122e-06,0,-9.33052e-06,-1.02334e+09,-1.02318e+09,-1.02329e+09,-640074,0.0359741,0.227107,0,0.229939,6597.82,-37255,0,37834.8,640074
step02_gravity_refstate-crust.xmf,1469,-1.29033e-06,3.97082e-06,0,-3.46067e-06,-8.44113e+08,-8.43752e+08,-8.44024e+08,-237402,0.0244166,0.158565,0,0.160434,14791.1,-30731.7,0,34105.9,237402
step02_gravity_refstate-crust.xmf,1470,-1.39244e-06,3.93639e-06,0,-4.37771e-06,-8.98439e+08,-8.98073e+08,-8.98343e+08,-300311,0.0277196,0.169567,0,0.171818,12360.9,-32709,0,34966.7,300311
step02_gravity_refstate-crust.xmf,1471,-6.58104e-07,2.19273e-06,0,-6.72407e-06,-9.54257e+08,-9.54061e+08,-9.54211e+08,-461271,0.0329529,0.20481,0,0.207444,8388.74,-34741.4,0,35739.8,461271
step02_gravity_refstate-crust.xmf,1472,-8.24004e-07,1.82564e-06,0,-8.62578e-06,-1.00924e+09,-1.00906e+09,-1.00919e+09,-591729,0.0353725,0.220793,0,0.223608,7009.79,-36742,0,37404.7,591729
step02_gravity_refstate-crust.xmf,1473,-8.23029e-07,2.00521e-06,0,-7.94418e-06,-9.92777e+08,-9.92583e+08,-9.9272e+08,-544971,0.0346345,0.214509,0,0.217287,7476.18,-36142.8,0,36907.9,544971
step02_gravity_refstate-crust.xmf,1474,-7.60139e-07,2.1236e-06,0,-7.30256e-06,-9.74084e+08,-9.73886e+08,-9.74031e+08,-500955,0.0338182,0.209241,0,0.211956,7936.39,-35462.7,0,36339.9,500955
step02_gravity_refstate-crust.xmf,1475,-1.09835e-06,3.08341e-06,0,-5.77977e-06,-9.35656e+08,-9.35369e+08,-9.35581e+08,-396492,0.0313164,0.190395,0,0.192953,9756.27,-34063.8,0,35433.5,396492
step02_gravity_refstate-crust.xmf,1476,-1.32471e-06,3.65703e-06,0,-5.02833e-06,-9.20277e+08,-9.19935e+08,-9.20186e+08,-344944,0.029583,0.178764,0,0.181195,11045.7,-33503.9,0,35277.7,344944
step02_gravity_refstate-crust.xmf,1477,-1.30745e-06,1.57724e-06,0,-1.18764e-05,-1.07081e+09,-1.07062e+09,-1.07073e+09,-814724,0.0369692,0.244084,0,0.246868,5664.67,-38981.2,0,39390.7,814724
step02_gravity_refstate-crust.xmf,1478,-1.29579e-06,4.42719e-06,0,-2.00364e-06,-8.12421e+08,-8.12029e+08,-8.12332e+08,-137450,0.0165433,0.129328,0,0.130382,20880.2,-29578.6,0,36206,137450
step02_gravity_refstate-crust.xmf,1479,-5.20792e-07,4.27863e-06,0,-1.77866e-07,-8.50414e+08,-8.50085e+08,-8.50378e+08,-12201.6,0.00159846,0.0861474,0,0.0861623,36773.1,-30964.7,0,48073.6,12201.6
step02_gravity_refstate-crust.xmf,1480,-3.9499e-07,4.37065e-06,0,-8.99079e-08,-8.86079e+08,-8.85752e+08,-8.86052e+08,-6167.68,0.000756715,0.0799433,0,0.0799469,38055.1,-32263.8,0,49891.3,6167.68
step02_gravity_refstate-crust.xmf,1481,-2.94658e-07,4.4459e-06,0,-1.13949e-09,-9.15445e+08,-9.1512e+08,-9.15425e+08,-78.1692,1.97599e-20,0.0749111,0,0.0749111,40000,-33333.4,0,52068.4,78.1692
step02_gravity_refstate-crust.xmf,1482,-5.86575e-07,4.28436e-06,0,-2.89503e-07,-8.41848e+08,-8.41514e+08,-8.41808e+08,-19859.9,0.00262329,0.0887526,0,0.0887913,35063.7,-30652.6,0,46573,19859.9
step02_gravity_refstate-crust.xmf,1483,-6.66432e-07,4.31668e-06,0,-4.28232e-07,-8.36238e+08,-8.35896e+08,-8.36192e+08,-29376.7,0.00389143,0.0917361,0,0.0918186,33143.5,-30448.1,0,45006.4,29376.7
step02_gravity_refstate-crust.xmf,1484,-1.23798e-07,-8.92973e-07,0,-1.43947e-05,-1.08481e+09,-1.08486e+09,-1.0848e+09,-987477,0.037351,0.266691,0,0.269294,4807.01,-39491.7,0,39783.2,987477
step02_gravity_refstate-crust.xmf,1485,-8.80954e-07,1.44744e-06,0,-1.00049e-05,-1.0369e+09,-1.03674e+09,-1.03684e+09,-686337,0.0364091,0.231779,0,0.234622,6311.61,-37748.2,0,38272.2,686337
step02_gravity_refstate-crust.xmf,1486,-1.39559e-06,4.25811e-06,0,-3.09078e-06,-8.44974e+08,-8.44586e+08,-8.44878e+08,-212027,0.022721,0.1501,0,0.151809,16047.1,-30763.1,0,34696.9,212027
step02_gravity_refstate-crust.xmf,1487,-1.44231e-06,4.46336e-06,0,-2.73408e-06,-8.4562e+08,-8.45215e+08,-8.45521e+08,-187558,0.0208784,0.142102,0,0.143628,17338.3,-30786.7,0,35333.2,187558
step02_gravity_refstate-crust.xmf,1488,-1.44254e-06,4.60446e-06,0,-2.39343e-06,-8.46414e+08,-8.45999e+08,-8.46315e+08,-164189,0.0189316,0.134489,0,0.135815,18678.1,-30815.8,0,36034.5,164189
step02_gravity_refstate-crust.xmf,1489,-1.43712e-06,4.1771e-06,0,-3.68156e-06,-8.73302e+08,-8.72917e+08,-8.73204e+08,-252555,0.0252681,0.159022,0,0.161017,14126.1,-31794.1,0,34791,252555
step02_gravity_refstate-crust.xmf,1490,-1.59134e-06,4.39299e-06,0,-3.90471e-06,-9.00567e+08,-9.00156e+08,-9.00458e+08,-267863,0.0259941,0.1596,0,0.161703,13507,-32786.4,0,35459.7,267863
step02_gravity_refstate-crust.xmf,1491,-1.542e-06,4.09412e-06,0,-4.64184e-06,-9.20706e+08,-9.2032e+08,-9.20601e+08,-318431,0.0284169,0.170872,0,0.173218,11858,-33519.3,0,35555,318431
step02_gravity_refstate-crust.xmf,1492,-1.2095e-06,3.12369e-06,0,-6.21892e-06,-9.55974e+08,-9.55677e+08,-9.55891e+08,-426618,0.0321575,0.193767,0,0.196417,9267.4,-34803.1,0,36015.9,426618
step02_gravity_refstate-crust.xmf,1493,-1.54366e-06,2.71411e-06,0,-9.23277e-06,-1.03761e+09,-1.03731e+09,-1.0375e+09,-633368,0.0357048,0.220631,0,0.223502,6889.48,-37773,0,38396.2,633368
step02_gravity_refstate-crust.xmf,1494,-1.44876e-06,2.75597e-06,0,-8.60911e-06,-1.02399e+09,-1.02371e+09,-1.0239e+09,-590585,0.0352611,0.215688,0,0.218551,7239,-37278,0,37974.3,590585
step02_gravity_refstate-crust.xmf,1495,-1.4439e-06,3.74537e-06,0,-5.32566e-06,-9.38027e+08,-9.37671e+08,-9.37928e+08,-365340,0.0302589,0.180881,0,0.183395,10605.6,-34149.8,0,35758.7,365340
step02_gravity_refstate-crust.xmf,1496,-1.17346e-06,1.61004e-06,0,-1.10123e-05,-1.05783e+09,-1.05764e+09,-1.05775e+09,-755441,0.0368303,0.238359,0,0.241187,5942.01,-38509,0,38964.7,755441
step02_gravity_refstate-crust.xmf,1497,-1.40518e-06,1.55029e-06,0,-1.29728e-05,-1.08495e+09,-1.08475e+09,-1.08485e+09,-889931,0.0369198,0.251251,0,0.253949,5355.27,-39495.4,0,39856.9,889931
step02_gravity_refstate-crust.xmf,1498,-1.40422e-06,4.69152e-06,0,-2.07009e-06,-8.47425e+08,-8.47007e+08,-8.47329e+08,-142008,0.0169094,0.127211,0,0.12833,20084,-30852.9,0,36814,142008
step02_gravity_refstate-crust.xmf,1499,-7.57955e-07,4.36959e-06,0,-5.83716e-07,-8.33291e+08,-8.32939e+08,-8.33239e+08,-40042.9,0.00530196,0.0950705,0,0.0952182,31216.8,-30340.5,0,43532,40042.9
step02_gravity_refstate-crust.xmf,1500,-8.60122e-07,4.42593e-06,0,-7.58646e-07,-8.30543e+08,-8.3018e+08,-8.30484e+08,-52043.1,0.00685957,0.0990656,0,0.0993029,29346,-30240.1,0,42138.5,52043.1
step02_gravity_refstate-crust.xmf,1501,-9.67304e-07,4.47687e-06,0,-9.55439e-07,-8.27718e+08,-8.27345e+08,-8.27652e+08,-65543.1,0.0085622,0.103727,0,0.10408,27540.3,-30136.9,0,40825.3,65543.1
step02_gravity_refstate-crust.xmf,1502,-1.07399e-06,4.50871e-06,0,-1.1813e-06,-8.23788e+08,-8.23405e+08,-8.23714e+08,-81037.1,0.0104403,0.109252,0,0.109749,25781.7,-29993.5,0,39551.3,81037.1
step02_gravity_refstate-crust.xmf,1503,-1.24642e-06,4.48393e-06,0,-1.71454e-06,-8.15133e+08,-8.1474e+08,-8.15048e+08,-117618,0.0145185,0.122327,0,0.123185,22434.8,-29677.6,0,37203.3,117618
step02_gravity_refstate-crust.xmf,1504,-1.17001e-06,4.51328e-06,0,-1.43563e-06,-8.19384e+08,-8.18994e+08,-8.19304e+08,-98484.5,0.0124494,0.115511,0,0.11618,24075.7,-29832.8,0,38335.8,98484.5
step02_gravity_refstate-crust.xmf,1505,-1.92953e-07,4.52576e-06,0,-4.07379e-08,-9.46113e+08,-9.45789e+08,-9.46099e+08,-2794.62,0.000256904,0.0700542,0,0.0700547,38622.7,-34450.4,0,51754.6,2794.62
step02_gravity_refstate-crust.xmf,1506,-6.76131e-08,4.58547e-06,0,-2.72373e-09,-9.76778e+08,-9.76459e+08,-9.76773e+08,-186.848,-2.20274e-21,0.06482,-0,0.06482,40000,-35567.4,0,53526.1,186.848
step02_gravity_refstate-crust.xmf,1507,-1.6272e-06,2.56668e-06,0,-1.01e-05,-1.05235e+09,-1.05206e+09,-1.05224e+09,-692857,0.0361965,0.227888,0,0.230745,6449.11,-38309.3,0,38848.3,692857
step02_gravity_refstate-crust.xmf,1508,-1.53915e-06,4.49006e-06,0,-3.2694e-06,-8.75009e+08,-8.74595e+08,-8.74903e+08,-224281,0.0234455,0.150024,0,0.151845,15339.1,-31856.3,0,35356.9,224281
step02_gravity_refstate-crust.xmf,1509,-1.77973e-06,4.64182e-06,0,-4.1443e-06,-9.28369e+08,-9.27929e+08,-9.28247e+08,-284299,0.0265704,0.160036,0,0.162227,12914.7,-33798.2,0,36181.6,284299
step02_gravity_refstate-crust.xmf,1510,-1.68127e-06,4.26829e-06,0,-4.87734e-06,-9.40692e+08,-9.40284e+08,-9.40576e+08,-334585,0.0289545,0.171969,0,0.174389,11432.1,-34246.6,0,36104.3,334585
step02_gravity_refstate-crust.xmf,1511,-1.31895e-06,3.17459e-06,0,-6.6971e-06,-9.75858e+08,-9.7555e+08,-9.75767e+08,-459421,0.0329531,0.197524,0,0.200254,8789.67,-35526.7,0,36597.8,459421
step02_gravity_refstate-crust.xmf,1512,-2.0449e-06,3.76677e-06,0,-8.3267e-06,-1.03621e+09,-1.03581e+09,-1.03607e+09,-571212,0.0344964,0.208436,0,0.211271,7573.55,-37721.8,0,38474.5,571212
step02_gravity_refstate-crust.xmf,1513,-1.6737e-06,3.30773e-06,0,-7.91731e-06,-1.01596e+09,-1.01562e+09,-1.01585e+09,-543127,0.0344202,0.2071,0,0.20994,7807.87,-36985.5,0,37800.6,543127
step02_gravity_refstate-crust.xmf,1514,-1.50272e-06,3.24926e-06,0,-7.24155e-06,-9.95733e+08,-9.95407e+08,-9.9563e+08,-496771,0.0336804,0.201591,0,0.204386,8327.31,-36249.6,0,37193.8,496771
step02_gravity_refstate-crust.xmf,1515,-1.59053e-06,3.8743e-06,0,-5.67185e-06,-9.57944e+08,-9.57569e+08,-9.57835e+08,-389089,0.0309418,0.183226,0,0.18582,10142,-34874.5,0,36319.3,389089
step02_gravity_refstate-crust.xmf,1516,-2.00735e-06,3.02687e-06,0,-1.07377e-05,-1.0697e+09,-1.06935e+09,-1.06956e+09,-736607,0.0360865,0.231135,0,0.233935,6219.15,-38939.9,0,39433.4,736607
step02_gravity_refstate-crust.xmf,1517,-2.25881e-06,3.28873e-06,0,-1.15511e-05,-1.08462e+09,-1.08424e+09,-1.08446e+09,-792403,0.0358945,0.236551,0,0.239258,5920.65,-39482.6,0,39924,792403
step02_gravity_refstate-crust.xmf,1518,-1.33403e-06,4.74519e-06,0,-1.75835e-06,-8.49792e+08,-8.49375e+08,-8.497e+08,-120623,0.0148194,0.12009,0,0.121001,21566.6,-30939.5,0,37714.3,120623
step02_gravity_refstate-crust.xmf,1519,-4.37051e-07,4.42041e-06,0,-1.83429e-07,-8.89274e+08,-8.88941e+08,-8.89244e+08,-12583.2,0.00159016,0.080511,0,0.0805267,35963.6,-32380,0,48392.6,12583.2
step02_gravity_refstate-crust.xmf,1520,-2.42629e-07,4.5344e-06,0,-9.77535e-08,-9.39579e+08,-9.39251e+08,-9.39562e+08,-6705.89,0.000693824,0.0717629,0,0.0717663,36862.4,-34212.3,0,50292.4,6705.89
step02_gravity_refstate-crust.xmf,1521,-1.39744e-09,4.6417e-06,0,-3.16136e-08,-9.97926e+08,-9.97608e+08,-9.97926e+08,-2168.69,-2.53669e-05,0.0615588,-0,0.0615588,38004.7,-36337.7,0,52581.2,2168.69
step02_gravity_refstate-crust.xmf,1522,-5.18491e-07,4.46407e-06,0,-2.96415e-07,-8.84422e+08,-8.8408e+08,-8.84386e+08,-20334.1,0.0026073,0.0830734,0,0.0831143,33952.4,-32203.1,0,46795.4,20334.1
step02_gravity_refstate-crust.xmf,1523,-6.17936e-07,4.52282e-06,0,-4.23752e-07,-8.80025e+08,-8.79673e+08,-8.79983e+08,-29069.4,0.00377054,0.0862113,0,0.0862937,32035.4,-32042.7,0,45310.1,29069.4
step02_gravity_refstate-crust.xmf,1524,-1.5842e-06,4.72339e-06,0,-2.86623e-06,-8.77144e+08,-8.76711e+08,-8.77035e+08,-196623,0.0214291,0.141301,0,0.142917,16604.2,-31934.2,0,35993,196623
step02_gravity_refstate-crust.xmf,1525,-1.56998e-06,4.86816e-06,0,-2.48527e-06,-8.7804e+08,-8.77598e+08,-8.77932e+08,-170490,0.0193145,0.133164,0,0.134558,17930.9,-31967.1,0,36652.6,170490
step02_gravity_refstate-crust.xmf,1526,-1.51671e-06,4.95362e-06,0,-2.13749e-06,-8.79474e+08,-8.7903e+08,-8.7937e+08,-146632,0.0171887,0.125574,0,0.126745,19281.7,-32019.7,0,37377.1,146632
step02_gravity_refstate-crust.xmf,1527,-1.69628e-06,4.73447e-06,0,-3.44412e-06,-9.03032e+08,-9.02591e+08,-9.02916e+08,-236266,0.0240291,0.150073,0,0.151984,14678.4,-32876.3,0,36004.2,236266
step02_gravity_refstate-crust.xmf,1528,-1.84853e-06,4.95345e-06,0,-3.63842e-06,-9.27653e+08,-9.27186e+08,-9.27526e+08,-249596,0.0245577,0.150722,0,0.15271,14035.9,-33772.3,0,36572.9,249596
step02_gravity_refstate-crust.xmf,1529,-1.83419e-06,4.64237e-06,0,-4.46071e-06,-9.41945e+08,-9.41501e+08,-9.4182e+08,-306005,0.0275562,0.164108,0,0.166406,12217.3,-34292.2,0,36403.6,306005
step02_gravity_refstate-crust.xmf,1530,-1.75588e-06,4.0117e-06,0,-6.06952e-06,-9.77956e+08,-9.7756e+08,-9.77835e+08,-416369,0.0316078,0.18614,0,0.188804,9657.09,-35602.6,0,36889.1,416369
step02_gravity_refstate-crust.xmf,1531,-2.26499e-06,3.93255e-06,0,-8.96197e-06,-1.05276e+09,-1.05233e+09,-1.0526e+09,-614791,0.0347571,0.213283,0,0.216096,7181.4,-38323.6,0,38990.6,614791
step02_gravity_refstate-crust.xmf,1532,-1.84885e-06,4.46131e-06,0,-5.12842e-06,-9.601e+08,-9.59667e+08,-9.59973e+08,-351810,0.0294271,0.173278,0,0.175759,11009.6,-34952.8,0,36645.8,351810
step02_gravity_refstate-crust.xmf,1533,-1.43226e-06,4.99364e-06,0,-1.81544e-06,-8.81585e+08,-8.81144e+08,-8.81486e+08,-124539,0.0150439,0.118342,0,0.119295,20689.9,-32096.9,0,38187.5,124539
step02_gravity_refstate-crust.xmf,1534,-7.35051e-07,4.59206e-06,0,-5.74334e-07,-8.75802e+08,-8.75437e+08,-8.75752e+08,-39399.3,0.00514404,0.0900571,0,0.0902039,30137,-31888.6,0,43876.2,39399.3
step02_gravity_refstate-crust.xmf,1535,-8.61442e-07,4.66158e-06,0,-7.47465e-07,-8.71606e+08,-8.71227e+08,-8.71547e+08,-51276.1,0.00669533,0.0945247,0,0.0947615,28323.9,-31735.4,0,42536.8,51276.1
step02_gravity_refstate-crust.xmf,1536,-9.92255e-07,4.72841e-06,0,-9.46247e-07,-8.68046e+08,-8.67654e+08,-8.67978e+08,-64912.6,0.00842474,0.0995625,0,0.0999183,26561.2,-31605.4,0,41284.4,64912.6
step02_gravity_refstate-crust.xmf,1537,-1.12685e-06,4.77272e-06,0,-1.18956e-06,-8.62772e+08,-8.62367e+08,-8.62694e+08,-81603.9,0.0104546,0.105762,0,0.106277,24791.9,-31412.9,0,40017.6,81603.9
step02_gravity_refstate-crust.xmf,1538,-1.2441e-06,4.77476e-06,0,-1.46641e-06,-8.5576e+08,-8.55347e+08,-8.55674e+08,-100596,0.0126414,0.11281,0,0.113516,23124.2,-31157.2,0,38800.7,100596
step02_gravity_refstate-crust.xmf,1539,1.91108e-07,4.69015e-06,0,-5.93814e-10,-1.03772e+09,-1.03742e+09,-1.03774e+09,-40.7357,-3.03806e-20,0.0545231,-0,0.0545231,40000,-37787.4,0,55026.3,40.7357
step02_gravity_refstate-crust.xmf,1540,-1.73122e-06,4.97727e-06,0,-3.0029e-06,-9.05643e+08,-9.05183e+08,-9.05525e+08,-205999,0.0218674,0.140883,0,0.14257,15901.9,-32971.6,0,36605.9,205999
step02_gravity_refstate-crust.xmf,1541,-1.98634e-06,5.18188e-06,0,-3.74589e-06,-9.48394e+08,-9.47902e+08,-9.48258e+08,-256968,0.0246564,0.150252,0,0.152261,13630.6,-34527.2,0,37120.4,256968
step02_gravity_refstate-crust.xmf,1542,-1.9992e-06,4.89393e-06,0,-4.59805e-06,-9.61262e+08,-9.60789e+08,-9.61125e+08,-315426,0.027678,0.16381,0,0.166132,11903.9,-34995.2,0,36964.4,315426
step02_gravity_refstate-crust.xmf,1543,-2.05941e-06,5.19049e-06,0,-4.0723e-06,-9.59572e+08,-9.59075e+08,-9.59431e+08,-279360,0.0257581,0.154785,0,0.156913,12878.4,-34933.9,0,37232.1,279360
step02_gravity_refstate-crust.xmf,1544,-1.93391e-06,4.17424e-06,0,-6.50309e-06,-9.97766e+08,-9.97347e+08,-9.97633e+08,-446112,0.0321905,0.189376,0,0.192093,9180.44,-36323.3,0,37465.5,446112
step02_gravity_refstate-crust.xmf,1545,-2.65066e-06,4.90524e-06,0,-7.9247e-06,-1.05329e+09,-1.05277e+09,-1.05311e+09,-543635,0.0329782,0.200164,0,0.202862,7892.48,-38342.8,0,39146.7,543635
step02_gravity_refstate-crust.xmf,1546,-2.42171e-06,4.66631e-06,0,-7.4179e-06,-1.03641e+09,-1.03592e+09,-1.03624e+09,-508868,0.032834,0.196005,0,0.198736,8313.31,-37729,0,38634,508868
step02_gravity_refstate-crust.xmf,1547,-2.16637e-06,4.38222e-06,0,-6.97219e-06,-1.01734e+09,-1.01689e+09,-1.01719e+09,-478292,0.0326506,0.192913,0,0.195656,8715.95,-37035.3,0,38047.1,478292
step02_gravity_refstate-crust.xmf,1548,-2.02905e-06,4.66059e-06,0,-5.43449e-06,-9.80078e+08,-9.7962e+08,-9.79939e+08,-372806,0.0299078,0.175268,0,0.177802,10534.9,-35679.7,0,37202.5,372806
step02_gravity_refstate-crust.xmf,1549,-2.51422e-06,4.19346e-06,0,-9.58394e-06,-1.06859e+09,-1.06813e+09,-1.06841e+09,-657458,0.0347625,0.217968,0,0.220723,6830.56,-38899.3,0,39494.4,657458
step02_gravity_refstate-crust.xmf,1550,-2.7777e-06,4.54754e-06,0,-1.02196e-05,-1.08416e+09,-1.08366e+09,-1.08397e+09,-701062,0.0344467,0.222536,0,0.225186,6509.45,-39465.8,0,39999.1,701062
step02_gravity_refstate-crust.xmf,1551,-1.31993e-06,5.00517e-06,0,-1.50621e-06,-8.85762e+08,-8.85328e+08,-8.85671e+08,-103326,0.0128124,0.111063,0,0.111799,22202.4,-32249.5,0,39153.2,103326
step02_gravity_refstate-crust.xmf,1552,-3.38011e-07,4.5773e-06,0,-1.80952e-07,-9.32267e+08,-9.3193e+08,-9.32244e+08,-12413.3,0.00138462,0.0743551,0,0.074368,34822.4,-33945.8,0,48630.4,12413.3
step02_gravity_refstate-crust.xmf,1553,-1.00576e-07,4.66782e-06,0,-8.28153e-08,-9.85815e+08,-9.85488e+08,-9.85808e+08,-5681.13,0.000239313,0.0646697,0,0.0646702,35706,-35896.4,0,50630.7,5681.13
step02_gravity_refstate-crust.xmf,1554,2.61204e-07,4.7224e-06,0,1.85618e-09,-1.05525e+09,-1.05495e+09,-1.05527e+09,127.334,-0.000421082,0.0516776,-0,0.0516793,38427.4,-38425.8,0,54343.5,127.334
step02_gravity_refstate-crust.xmf,1555,-4.45923e-07,4.64256e-06,0,-2.8248e-07,-9.26481e+08,-9.26132e+08,-9.2645e+08,-19378.2,0.00228022,0.0774151,0,0.0774487,32810.4,-33734.8,0,47059.1,19378.2
step02_gravity_refstate-crust.xmf,1556,-5.73449e-07,4.72031e-06,0,-4.04852e-07,-9.20615e+08,-9.20251e+08,-9.20575e+08,-27772.8,0.00339787,0.0811247,0,0.0811959,30901.1,-33520.9,0,45590.9,27772.8
step02_gravity_refstate-crust.xmf,1557,-1.70195e-06,5.12694e-06,0,-2.58213e-06,-9.06922e+08,-9.06454e+08,-9.06806e+08,-177134,0.0196004,0.132252,0,0.133697,17199.2,-33018.5,0,37229.5,177134
step02_gravity_refstate-crust.xmf,1558,-1.63258e-06,5.20979e-06,0,-2.20666e-06,-9.08658e+08,-9.08188e+08,-9.08546e+08,-151377,0.0173575,0.124309,0,0.125515,18506.8,-33082.1,0,37906.8,151377
step02_gravity_refstate-crust.xmf,1559,-1.53464e-06,5.24243e-06,0,-1.87202e-06,-9.10802e+08,-9.10337e+08,-9.10697e+08,-128421,0.0151734,0.116985,0,0.117965,19831.8,-33160.6,0,38638.4,128421
step02_gravity_refstate-crust.xmf,1560,-1.90939e-06,5.2886e-06,0,-3.12403e-06,-9.36458e+08,-9.35964e+08,-9.36327e+08,-214308,0.0220116,0.139884,0,0.141606,15229.9,-34093.1,0,37340.2,214308
step02_gravity_refstate-crust.xmf,1561,-2.03554e-06,5.43864e-06,0,-3.37582e-06,-9.55376e+08,-9.54863e+08,-9.55236e+08,-231581,0.0228591,0.142708,0,0.144527,14380.7,-34781.6,0,37637.3,231581
step02_gravity_refstate-crust.xmf,1562,-2.87357e-06,5.15052e-06,0,-8.45978e-06,-1.06875e+09,-1.0682e+09,-1.06855e+09,-580341,0.0329484,0.204549,0,0.207185,7499.96,-38905.2,0,39621.5,580341
step02_gravity_refstate-crust.xmf,1563,-2.22781e-06,4.87989e-06,0,-5.78096e-06,-1.00006e+09,-9.99575e+08,-9.9991e+08,-396574,0.0303346,0.177796,0,0.180365,10038.9,-36406.8,0,37765.5,396574
step02_gravity_refstate-crust.xmf,1564,-2.18523e-06,5.14334e-06,0,-4.82645e-06,-9.81923e+08,-9.8142e+08,-9.81773e+08,-331095,0.0279738,0.165018,0,0.167372,11423.8,-35747,0,37528,331095
step02_gravity_refstate-crust.xmf,1565,-1.41574e-06,5.23446e-06,0,-1.57479e-06,-9.13023e+08,-9.12567e+08,-9.12926e+08,-108031,0.0130788,0.110252,0,0.111025,21188.2,-33241.9,0,39420.3,108031
step02_gravity_refstate-crust.xmf,1566,-7.14377e-07,4.80499e-06,0,-5.50782e-07,-9.15085e+08,-9.14707e+08,-9.15036e+08,-37783.6,0.00473636,0.0854038,0,0.085535,29075.4,-33319.1,0,44221.5,37783.6
step02_gravity_refstate-crust.xmf,1567,-8.61198e-07,4.89595e-06,0,-7.18746e-07,-9.11148e+08,-9.10753e+08,-9.11089e+08,-49306,0.00624717,0.0900306,0,0.0902471,27320.2,-33175.4,0,42976.7,49306
step02_gravity_refstate-crust.xmf,1568,-1.02062e-06,4.98013e-06,0,-9.26976e-07,-9.06388e+08,-9.05976e+08,-9.06318e+08,-63590.5,0.00806773,0.0956161,0,0.0959558,25566.8,-33001.5,0,41746.4,63590.5
step02_gravity_refstate-crust.xmf,1569,-1.19633e-06,5.05462e-06,0,-1.20163e-06,-9.01711e+08,-9.01282e+08,-9.01629e+08,-82432,0.0103395,0.102579,0,0.103099,23674,-32830.7,0,40476.1,82432
step02_gravity_refstate-crust.xmf,1570,1.82077e-07,4.75802e-06,0,-8.27995e-09,-1.04672e+09,-1.04641e+09,-1.04673e+09,-568.005,-0.000772256,0.0538192,-0,0.0538247,36400.9,-38115.1,0,52704.7,568.005
step02_gravity_refstate-crust.xmf,1571,-1.84003e-06,5.39116e-06,0,-2.67596e-06,-9.34074e+08,-9.33578e+08,-9.33948e+08,-183571,0.0197279,0.13146,0,0.132932,16507.3,-34006.8,0,37801.5,183571
step02_gravity_refstate-crust.xmf,1572,-2.12493e-06,5.51724e-06,0,-3.6067e-06,-9.672e+08,-9.66676e+08,-9.67055e+08,-247419,0.0236384,0.145718,0,0.147622,13732.9,-35211.8,0,37795.1,247419
step02_gravity_refstate-crust.xmf,1573,-2.25537e-06,5.49487e-06,0,-4.24924e-06,-9.8354e+08,-9.83008e+08,-9.83385e+08,-291498,0.0258312,0.155101,0,0.157238,12356.3,-35806.1,0,37878.2,291498
step02_gravity_refstate-crust.xmf,1574,-3.06515e-06,5.85891e-06,0,-7.4288e-06,-1.0697e+09,-1.06909e+09,-1.06949e+09,-509616,0.0308541,0.191951,0,0.194415,8177.01,-38940.2,0,39789.5,509616
step02_gravity_refstate-crust.xmf,1575,-2.44093e-06,5.12279e-06,0,-6.1479e-06,-1.01938e+09,-1.01886e+09,-1.01922e+09,-421746,0.0306176,0.180529,0,0.183107,9562.43,-37109.7,0,38321.9,421746
step02_gravity_refstate-crust.xmf,1576,-2.88468e-06,5.64507e-06,0,-6.97832e-06,-1.05518e+09,-1.05459e+09,-1.05498e+09,-478713,0.0308516,0.187668,0,0.190187,8611.71,-38411.8,0,39365.3,478713
step02_gravity_refstate-crust.xmf,1577,-2.67703e-06,5.41842e-06,0,-6.51692e-06,-1.03847e+09,-1.03791e+09,-1.03828e+09,-447061,0.0307101,0.18345,0,0.186003,9100.56,-37804,0,38884,447061
step02_gravity_refstate-crust.xmf,1578,-2.37799e-06,5.39292e-06,0,-5.09376e-06,-1.00203e+09,-1.00149e+09,-1.00186e+09,-349432,0.028226,0.166827,0,0.169198,10917,-36478.5,0,38077.1,349432
step02_gravity_refstate-crust.xmf,1579,-3.09032e-06,5.48708e-06,0,-8.97791e-06,-1.08382e+09,-1.08323e+09,-1.08361e+09,-615884,0.0326434,0.208937,0,0.211472,7135.09,-39453.5,0,40093.5,615884
step02_gravity_refstate-crust.xmf,1580,-1.30411e-06,5.21716e-06,0,-1.33993e-06,-9.17187e+08,-9.16739e+08,-9.17097e+08,-91919.2,0.0112972,0.104575,0,0.105183,22362.9,-33393.9,0,40190.2,91919.2
step02_gravity_refstate-crust.xmf,1581,-2.34819e-07,4.73273e-06,0,-1.57478e-07,-9.74589e+08,-9.74249e+08,-9.74573e+08,-10803,0.000818776,0.0682911,0,0.068296,33625,-35487.3,0,48887.5,10803
step02_gravity_refstate-crust.xmf,1582,6.62748e-09,4.79909e-06,0,-5.74874e-08,-1.02462e+09,-1.02429e+09,-1.02462e+09,-3943.64,-0.000514841,0.059007,-0,0.0590093,34280,-37309.8,0,50666.9,3943.64
step02_gravity_refstate-crust.xmf,1583,-3.79972e-07,4.81673e-06,0,-2.54967e-07,-9.65612e+08,-9.65255e+08,-9.65586e+08,-17490.8,0.00167714,0.0722286,0,0.072248,31620.4,-35160,0,47287.2,17490.8
step02_gravity_refstate-crust.xmf,1584,-5.32869e-07,4.90881e-06,0,-3.72755e-07,-9.57777e+08,-9.57404e+08,-9.5774e+08,-25571,0.00276556,0.076468,0,0.0765179,29803.3,-34874.3,0,45874.3,25571
step02_gravity_refstate-crust.xmf,1585,-3.26565e-06,6.18896e-06,0,-7.82843e-06,-1.08413e+09,-1.08348e+09,-1.0839e+09,-537030,0.030453,0.195396,0,0.197755,7814.22,-39465,0,40231.2,537030
step02_gravity_refstate-crust.xmf,1586,-1.75121e-06,5.47306e-06,0,-2.26659e-06,-9.3645e+08,-9.35954e+08,-9.3633e+08,-155488,0.0173357,0.123054,0,0.124269,17780.3,-34093.8,0,38451.6,155488
step02_gravity_refstate-crust.xmf,1587,-1.63552e-06,5.49594e-06,0,-1.91235e-06,-9.38657e+08,-9.38168e+08,-9.38545e+08,-131187,0.0150652,0.11549,0,0.116468,19057.6,-34174.6,0,39129.3,131187
step02_gravity_refstate-crust.xmf,1588,-1.49946e-06,5.47584e-06,0,-1.5994e-06,-9.40818e+08,-9.4034e+08,-9.40715e+08,-109719,0.0128951,0.108528,0,0.109291,20372.6,-34253.8,0,39854.3,109719
step02_gravity_refstate-crust.xmf,1589,-2.26434e-06,5.76713e-06,0,-3.69644e-06,-9.86454e+08,-9.85903e+08,-9.86298e+08,-253576,0.0234884,0.145374,0,0.147259,13322.8,-35912.6,0,38304.2,253576
step02_gravity_refstate-crust.xmf,1590,-2.1874e-06,5.86964e-06,0,-3.2085e-06,-9.83726e+08,-9.83173e+08,-9.83576e+08,-220103,0.0213292,0.136952,0,0.138603,14371.2,-35813.8,0,38589.6,220103
step02_gravity_refstate-crust.xmf,1591,-2.04731e-06,5.68931e-06,0,-2.9947e-06,-9.66101e+08,-9.6557e+08,-9.6596e+08,-205437,0.0208061,0.134801,0,0.136397,15117.6,-35172.4,0,38283.7,205437
step02_gravity_refstate-crust.xmf,1592,-1.97307e-06,5.68999e-06,0,-2.7103e-06,-9.61671e+08,-9.61146e+08,-9.61536e+08,-185926,0.0193613,0.129591,0,0.131029,15962.2,-35011.4,0,38478.4,185926
step02_gravity_refstate-crust.xmf,1593,-2.57831e-06,5.65966e-06,0,-5.38362e-06,-1.0214e+09,-1.02084e+09,-1.02123e+09,-369317,0.0283833,0.169092,0,0.171458,10406.5,-37183.6,0,38612.3,369317
step02_gravity_refstate-crust.xmf,1594,-2.43835e-06,5.7767e-06,0,-4.44728e-06,-1.00452e+09,-1.00395e+09,-1.00435e+09,-305083,0.0259061,0.156284,0,0.158416,11821.4,-36569.6,0,38432.8,305083
step02_gravity_refstate-crust.xmf,1595,-1.35613e-06,5.42422e-06,0,-1.33432e-06,-9.42765e+08,-9.423e+08,-9.42672e+08,-91534.1,0.0109293,0.102379,0,0.102961,21680.5,-34325.2,0,40598.9,91534.1
step02_gravity_refstate-crust.xmf,1596,-6.90575e-07,5.01646e-06,0,-5.10308e-07,-9.53012e+08,-9.52621e+08,-9.52965e+08,-35007.1,0.00402104,0.0807966,0,0.0808966,28041.8,-34700.3,0,44614.5,35007.1
step02_gravity_refstate-crust.xmf,1597,-8.58913e-07,5.12693e-06,0,-6.76759e-07,-9.48672e+08,-9.48261e+08,-9.48613e+08,-46425.7,0.0055212,0.0856821,0,0.0858598,26338.3,-34541.8,0,43437.8,46425.7
step02_gravity_refstate-crust.xmf,1598,-1.04134e-06,5.22943e-06,0,-8.88735e-07,-9.43405e+08,-9.42975e+08,-9.43334e+08,-60967.2,0.00737927,0.0915694,0,0.0918663,24634.1,-34349.5,0,42269.7,60967.2
step02_gravity_refstate-crust.xmf,1599,-1.20626e-06,5.33573e-06,0,-1.10567e-06,-9.4267e+08,-9.42221e+08,-9.42587e+08,-75849,0.00916373,0.096998,0,0.0974299,23069.6,-34322.2,0,41354.8,75849
step02_gravity_refstate-crust.xmf,1600,2.19475e-07,4.85269e-06,0,9.21513e-09,-1.06784e+09,-1.06753e+09,-1.06786e+09,632.158,-0.00155794,0.0511012,-0,0.0511249,34691.4,-38884.3,0,52110.3,632.158
step02_gravity_refstate-crust.xmf,1601,-3.29495e-06,6.69776e-06,0,-6.80519e-06,-1.08461e+09,-1.08393e+09,-1.08439e+09,-466836,0.0281723,0.183079,0,0.185234,8491.87,-39483.4,0,40386.3,466836
step02_gravity_refstate-crust.xmf,1602,-1.86784e-06,5.74817e-06,0,-2.30773e-06,-9.63444e+08,-9.62922e+08,-9.63316e+08,-158310,0.0170486,0.121587,0,0.122776,17115.8,-35076.5,0,39029.6,158310
step02_gravity_refstate-crust.xmf,1603,-2.43246e-06,6.05293e-06,0,-3.84287e-06,-1.00779e+09,-1.00721e+09,-1.00762e+09,-263621,0.0233614,0.145894,0,0.147752,12776.7,-36689.1,0,38850.1,263621
step02_gravity_refstate-crust.xmf,1604,-3.1447e-06,6.36504e-06,0,-6.60519e-06,-1.07114e+09,-1.07049e+09,-1.07093e+09,-453116,0.028823,0.181393,0,0.183668,8784.17,-38993.2,0,39970.4,453116
step02_gravity_refstate-crust.xmf,1605,-2.80062e-06,5.96306e-06,0,-5.68025e-06,-1.04059e+09,-1.03999e+09,-1.0404e+09,-389665,0.0283033,0.171331,0,0.173653,9924.17,-37881.6,0,39160,389665
step02_gravity_refstate-crust.xmf,1606,-3.02963e-06,6.37532e-06,0,-5.98479e-06,-1.06135e+09,-1.0607e+09,-1.06114e+09,-410557,0.0279472,0.174082,0,0.176311,9402.24,-38637,0,39764.5,410557
step02_gravity_refstate-crust.xmf,1607,-2.62132e-06,6.03915e-06,0,-4.69436e-06,-1.024e+09,-1.02341e+09,-1.02382e+09,-322033,0.0259747,0.158269,0,0.160386,11262.9,-37278.6,0,38942.8,322033
step02_gravity_refstate-crust.xmf,1608,-1.52531e-07,4.88967e-06,0,-1.23836e-07,-1.01271e+09,-1.01237e+09,-1.0127e+09,-8495.13,-2.9158e-05,0.063054,-0,0.063054,32286.9,-36875.9,0,49013,8495.13
step02_gravity_refstate-crust.xmf,1609,1.01573e-07,4.92735e-06,0,-1.633e-08,-1.05938e+09,-1.05905e+09,-1.05939e+09,-1120.24,-0.00159329,0.0539984,-0,0.0540219,32960.1,-38575.9,0,50739.2,1120.24
step02_gravity_refstate-crust.xmf,1610,-3.23514e-07,4.98629e-06,0,-2.16758e-07,-1.00097e+09,-1.0006e+09,-1.00094e+09,-14869.6,0.000826084,0.0676189,0,0.0676239,30449.9,-36447.6,0,47493.4,14869.6
step02_gravity_refstate-crust.xmf,1611,-4.90845e-07,5.09046e-06,0,-3.28658e-07,-9.92523e+08,-9.9214e+08,-9.92489e+08,-22545.9,0.00186377,0.0720509,0,0.072075,28762.5,-36139.7,0,46188.3,22545.9
step02_gravity_refstate-crust.xmf,1612,-1.7351e-06,5.75934e-06,0,-1.94046e-06,-9.65797e+08,-9.65283e+08,-9.65678e+08,-133116,0.0147283,0.113903,0,0.114852,18327.1,-35162.7,0,39652.2,133116
step02_gravity_refstate-crust.xmf,1613,-1.58253e-06,5.73257e-06,0,-1.61072e-06,-9.68738e+08,-9.68236e+08,-9.6863e+08,-110495,0.012458,0.106621,0,0.107347,19587.8,-35270.4,0,40344.5,110495
step02_gravity_refstate-crust.xmf,1614,-1.41648e-06,5.66598e-06,0,-1.32448e-06,-9.70999e+08,-9.70514e+08,-9.70902e+08,-90859.6,0.010354,0.100008,0,0.100543,20900.7,-35353.2,0,41069.3,90859.6
step02_gravity_refstate-crust.xmf,1615,-2.09538e-06,6.00999e-06,0,-2.72257e-06,-9.88346e+08,-9.8779e+08,-9.88202e+08,-186769,0.0187719,0.127795,0,0.129167,15421.8,-35982.6,0,39148.1,186769
step02_gravity_refstate-crust.xmf,1616,-2.34723e-06,6.20088e-06,0,-3.29038e-06,-1.00899e+09,-1.0084e+09,-1.00883e+09,-225720,0.0208552,0.136309,0,0.137895,13790.4,-36733.4,0,39236.6,225720
step02_gravity_refstate-crust.xmf,1617,-1.97892e-06,6.03816e-06,0,-2.33009e-06,-9.89992e+08,-9.89442e+08,-9.89856e+08,-159844,0.0164799,0.119938,0,0.121064,16490.4,-36043,0,39636.2,159844
step02_gravity_refstate-crust.xmf,1618,-3.22e-06,6.92005e-06,0,-5.94004e-06,-1.0814e+09,-1.08071e+09,-1.08118e+09,-407487,0.0262204,0.172051,0,0.174038,9217.42,-39367.3,0,40431.9,407487
step02_gravity_refstate-crust.xmf,1619,-2.79445e-06,6.32508e-06,0,-4.9212e-06,-1.04188e+09,-1.04125e+09,-1.04168e+09,-337594,0.0258618,0.160253,0,0.162327,10758.7,-37929,0,39425.4,337594
step02_gravity_refstate-crust.xmf,1620,-2.62326e-06,6.39591e-06,0,-3.99416e-06,-1.03114e+09,-1.03052e+09,-1.03096e+09,-274000,0.0229315,0.146393,0,0.148179,12200.5,-37539,0,39471.9,274000
step02_gravity_refstate-crust.xmf,1621,-1.23887e-06,5.57386e-06,0,-1.06954e-06,-9.73485e+08,-9.73017e+08,-9.734e+08,-73370.2,0.00836093,0.0937877,0,0.0941596,22291.2,-35444.3,0,41871.2,73370.2
step02_gravity_refstate-crust.xmf,1622,-6.59271e-07,5.21579e-06,0,-4.549e-07,-9.88332e+08,-9.87929e+08,-9.88287e+08,-31206.2,0.00300268,0.0762928,0,0.0763519,27115.8,-35986.6,0,45058.9,31206.2
step02_gravity_refstate-crust.xmf,1623,-8.48015e-07,5.35071e-06,0,-6.20036e-07,-9.84232e+08,-9.83806e+08,-9.84173e+08,-42534.4,0.00447987,0.0813545,0,0.0814778,25428.6,-35836.8,0,43941.9,42534.4
step02_gravity_refstate-crust.xmf,1624,-1.04741e-06,5.47428e-06,0,-8.2756e-07,-9.78809e+08,-9.78362e+08,-9.78738e+08,-56770.6,0.00632665,0.08736,0,0.0875888,23796.9,-35638.8,0,42853.4,56770.6
step02_gravity_refstate-crust.xmf,1625,-1.82799e-06,6.03101e-06,0,-1.95577e-06,-9.92222e+08,-9.91683e+08,-9.92096e+08,-134166,0.0141431,0.11223,0,0.113118,17635.8,-36124.8,0,40199.8,134166
step02_gravity_refstate-crust.xmf,1626,-2.22447e-06,6.27201e-06,0,-2.8088e-06,-1.0102e+09,-1.00962e+09,-1.01005e+09,-192684,0.0184212,0.127537,0,0.128861,14815.3,-36778.1,0,39650,192684
step02_gravity_refstate-crust.xmf,1627,-2.49824e-06,6.51044e-06,0,-3.39302e-06,-1.03115e+09,-1.03054e+09,-1.03098e+09,-232761,0.0203432,0.136363,0,0.137872,13216.9,-37540.2,0,39798.9,232761
step02_gravity_refstate-crust.xmf,1628,-2.98957e-06,6.67693e-06,0,-5.09e-06,-1.06094e+09,-1.06027e+09,-1.06073e+09,-349174,0.0251807,0.161117,0,0.163072,10338,-38622.7,0,39982.4,349174
step02_gravity_refstate-crust.xmf,1629,-2.75536e-06,6.51344e-06,0,-4.36816e-06,-1.04303e+09,-1.0424e+09,-1.04284e+09,-299655,0.023775,0.15152,0,0.153374,11473.1,-37971.6,0,39667.1,299655
step02_gravity_refstate-crust.xmf,1630,-7.43364e-08,5.0671e-06,0,-7.41076e-08,-1.05112e+09,-1.05077e+09,-1.05111e+09,-5083.78,-0.00131205,0.0579522,-0,0.057967,30785.8,-38274.6,0,49119.3,5083.78
step02_gravity_refstate-crust.xmf,1631,-2.96725e-07,5.12257e-06,0,-1.91266e-07,-1.02539e+09,-1.02502e+09,-1.02537e+09,-13120.8,8.9281e-05,0.0647446,0,0.0647446,29430.8,-37337.2,0,47542,13120.8
step02_gravity_refstate-crust.xmf,1632,-4.29871e-07,5.25151e-06,0,-2.63707e-07,-1.02535e+09,-1.02496e+09,-1.02532e+09,-18090.3,0.000616992,0.0673992,0,0.0674021,27973,-37335.3,0,46652.1,18090.3
step02_gravity_refstate-crust.xmf,1633,-1.27055e-06,5.8156e-06,0,-1.03037e-06,-1.00313e+09,-1.00264e+09,-1.00304e+09,-70683.6,0.00735981,0.0907384,0,0.0910364,21505,-36523.8,0,42384.6,70683.6
step02_gravity_refstate-crust.xmf,1634,-1.65796e-06,5.99608e-06,0,-1.60769e-06,-9.9595e+08,-9.95425e+08,-9.95836e+08,-110288,0.0117553,0.104594,0,0.105252,18851,-36261.1,0,40868.4,110288
step02_gravity_refstate-crust.xmf,1635,-1.46602e-06,5.92752e-06,0,-1.29166e-06,-1.00073e+09,-1.00023e+09,-1.00063e+09,-88608.2,0.00938196,0.0971333,0,0.0975854,20147.6,-36436,0,41635.4,88608.2
step02_gravity_refstate-crust.xmf,1636,-2.07636e-06,6.34107e-06,0,-2.34759e-06,-1.01591e+09,-1.01533e+09,-1.01576e+09,-161045,0.0157285,0.118543,0,0.119582,15843.9,-36986.5,0,40237.2,161045
step02_gravity_refstate-crust.xmf,1637,-2.33358e-06,6.5536e-06,0,-2.8474e-06,-1.03148e+09,-1.03087e+09,-1.03132e+09,-195332,0.0176996,0.126708,0,0.127939,14303.9,-37552.8,0,40184.7,195332
step02_gravity_refstate-crust.xmf,1638,-1.91943e-06,6.32542e-06,0,-1.96848e-06,-1.01909e+09,-1.01853e+09,-1.01896e+09,-135038,0.0133137,0.110621,0,0.11142,16914.9,-37103.2,0,40777,135038
step02_gravity_refstate-crust.xmf,1639,-3.12257e-06,7.12319e-06,0,-5.1563e-06,-1.08093e+09,-1.08023e+09,-1.08072e+09,-353722,0.0238994,0.161138,0,0.1629,9967.24,-39350.8,0,40593.5,353722
step02_gravity_refstate-crust.xmf,1640,-2.86755e-06,6.86865e-06,0,-4.36247e-06,-1.061e+09,-1.06034e+09,-1.06081e+09,-299266,0.0226818,0.15043,0,0.15213,11190.9,-38626,0,40214.5,299266
step02_gravity_refstate-crust.xmf,1641,-2.74278e-06,6.84957e-06,0,-3.85653e-06,-1.05605e+09,-1.05539e+09,-1.05586e+09,-264558,0.0209638,0.142462,0,0.143997,12004.8,-38446.1,0,40276.8,264558
step02_gravity_refstate-crust.xmf,1642,-2.59438e-06,6.86803e-06,0,-3.34732e-06,-1.05442e+09,-1.05377e+09,-1.05424e+09,-229626,0.0188548,0.134031,0,0.135351,12867.5,-38387.3,0,40486.5,229626
step02_gravity_refstate-crust.xmf,1643,-1.07818e-06,5.69696e-06,0,-8.10723e-07,-1.00655e+09,-1.00609e+09,-1.00648e+09,-55615.6,0.00553791,0.0849143,0,0.0850947,22857.8,-36648.9,0,43192.9,55615.6
step02_gravity_refstate-crust.xmf,1644,-6.05639e-07,5.40787e-06,0,-3.7748e-07,-1.02373e+09,-1.02331e+09,-1.02369e+09,-25895.2,0.0015591,0.0713434,0,0.0713604,26307.7,-37275.7,0,45624.3,25895.2
step02_gravity_refstate-crust.xmf,1645,-8.16027e-07,5.59295e-06,0,-5.36332e-07,-1.02251e+09,-1.02207e+09,-1.02245e+09,-36792.4,0.00290651,0.0763659,0,0.0764212,24500.1,-37230.9,0,44569,36792.4
step02_gravity_refstate-crust.xmf,1646,-1.72358e-06,6.26096e-06,0,-1.6096e-06,-1.02195e+09,-1.02141e+09,-1.02184e+09,-110418,0.0108959,0.102834,0,0.10341,18109,-37208,0,41380.8,110418
step02_gravity_refstate-crust.xmf,1647,-2.17607e-06,6.53737e-06,0,-2.45051e-06,-1.03156e+09,-1.03096e+09,-1.03141e+09,-168105,0.0155836,0.119271,0,0.120285,15242,-37556.1,0,40531.2,168105
step02_gravity_refstate-crust.xmf,1648,-2.41637e-06,6.86868e-06,0,-2.83747e-06,-1.05447e+09,-1.05384e+09,-1.05431e+09,-194650,0.0164223,0.125037,0,0.126111,13840.7,-38390,0,40808.8,194650
step02_gravity_refstate-crust.xmf,1649,-2.99986e-06,7.21406e-06,0,-4.45947e-06,-1.07985e+09,-1.07915e+09,-1.07964e+09,-305919,0.0215458,0.150575,0,0.152109,10784.5,-39312.1,0,40764.5,305919
step02_gravity_refstate-crust.xmf,1650,-1.75793e-07,5.23733e-06,0,-1.04709e-07,-1.05987e+09,-1.0595e+09,-1.05986e+09,-7183.01,-0.0014994,0.0589944,-0,0.0590134,28971.9,-38593.2,0,48257.7,7183.01
step02_gravity_refstate-crust.xmf,1651,-3.31182e-07,5.41521e-06,0,-1.71998e-07,-1.06225e+09,-1.06186e+09,-1.06223e+09,-11799.1,-0.00120165,0.0616732,-0,0.0616849,27249.6,-38679.4,0,47314.2,11799.1
step02_gravity_refstate-crust.xmf,1652,-1.07403e-06,5.91899e-06,0,-7.5017e-07,-1.03599e+09,-1.03551e+09,-1.03591e+09,-51461.7,0.00415692,0.0813685,0,0.0814747,22112.7,-37721,0,43724.6,51461.7
step02_gravity_refstate-crust.xmf,1653,-1.28009e-06,6.06328e-06,0,-9.69778e-07,-1.03347e+09,-1.03297e+09,-1.03338e+09,-66526.8,0.00592825,0.0872095,0,0.0874108,20772.4,-37628.8,0,42981.6,66526.8
step02_gravity_refstate-crust.xmf,1654,-1.50188e-06,6.22578e-06,0,-1.23995e-06,-1.03362e+09,-1.03309e+09,-1.03352e+09,-85060.4,0.00790681,0.0937575,0,0.0940903,19330.6,-37633.7,0,42308,85060.4
step02_gravity_refstate-crust.xmf,1655,-2.03007e-06,6.65166e-06,0,-2.03382e-06,-1.04627e+09,-1.04568e+09,-1.04613e+09,-139520,0.012489,0.110136,0,0.110842,16018.5,-38092.6,0,41323.6,139520
step02_gravity_refstate-crust.xmf,1656,-2.21804e-06,6.79677e-06,0,-2.38326e-06,-1.0525e+09,-1.05188e+09,-1.05235e+09,-163491,0.0141546,0.116661,0,0.117516,14918,-38318.9,0,41120.4,163491
step02_gravity_refstate-crust.xmf,1657,-1.78366e-06,6.54581e-06,0,-1.60544e-06,-1.04818e+09,-1.04761e+09,-1.04806e+09,-110133,0.00974508,0.101048,0,0.101517,17362,-38162.9,0,41926.7,110133
step02_gravity_refstate-crust.xmf,1658,-2.8164e-06,7.26522e-06,0,-3.81348e-06,-1.07874e+09,-1.07805e+09,-1.07854e+09,-261605,0.0192187,0.140695,0,0.142001,11637.4,-39272.3,0,40960.3,261605
step02_gravity_refstate-crust.xmf,1659,-2.65284e-06,7.22909e-06,0,-3.28917e-06,-1.0771e+09,-1.07643e+09,-1.07692e+09,-225637,0.0170346,0.131704,0,0.132801,12516.4,-39213.5,0,41162.6,225637
step02_gravity_refstate-crust.xmf,1660,-2.46194e-06,7.1831e-06,0,-2.80363e-06,-1.07658e+09,-1.07592e+09,-1.07641e+09,-192329,0.014788,0.123087,0,0.123972,13425.7,-39195.1,0,41430.7,192329
step02_gravity_refstate-crust.xmf,1661,-8.99172e-07,5.79549e-06,0,-5.86557e-07,-1.03929e+09,-1.03883e+09,-1.03922e+09,-40237.8,0.0027532,0.0766218,0,0.0766713,23284.3,-37841.6,0,44431.3,40237.8
step02_gravity_refstate-crust.xmf,1662,-5.0624e-07,5.59061e-06,0,-2.69667e-07,-1.06164e+09,-1.06122e+09,-1.0616e+09,-18499.2,-0.0004992,0.0653439,-0,0.0653458,25644.6,-38656.6,0,46389.4,18499.2
step02_gravity_refstate-crust.xmf,1663,-1.61635e-06,6.44842e-06,0,-1.36033e-06,-1.04921e+09,-1.04866e+09,-1.0491e+09,-93318.7,0.00806129,0.0954948,0,0.0958345,18295.9,-38201,0,42356.3,93318.7
step02_gravity_refstate-crust.xmf,1664,-2.25479e-06,7.09775e-06,0,-2.35477e-06,-1.07587e+09,-1.07523e+09,-1.07571e+09,-161537,0.0125309,0.114661,0,0.115344,14425.4,-39169.9,0,41741.7,161537
step02_gravity_refstate-crust.xmf,1665,-6.71335e-07,5.77684e-06,0,-3.73725e-07,-1.06431e+09,-1.06387e+09,-1.06427e+09,-25637.5,0.000170266,0.0686694,0,0.0686696,24166.2,-38753.6,0,45671,25637.5
step02_gravity_refstate-crust.xmf,1666,-8.40407e-07,5.96304e-06,0,-4.98089e-07,-1.06707e+09,-1.0666e+09,-1.06701e+09,-34168.9,0.000985897,0.0723013,0,0.072308,22784.8,-38853.5,0,45041.6,34168.9
step02_gravity_refstate-crust.xmf,1667,-1.03357e-06,6.13928e-06,0,-6.64036e-07,-1.06681e+09,-1.06632e+09,-1.06674e+09,-45552.9,0.00224396,0.0770511,0,0.0770838,21456.2,-38843.7,0,44375.7,45552.9
step02_gravity_refstate-crust.xmf,1668,-1.24344e-06,6.31386e-06,0,-8.72124e-07,-1.06591e+09,-1.06539e+09,-1.06582e+09,-59827.7,0.00382092,0.0826398,0,0.0827281,20135.6,-38810.2,0,43722.7,59827.7
step02_gravity_refstate-crust.xmf,1669,-1.4306e-06,6.50312e-06,0,-1.07746e-06,-1.06963e+09,-1.06909e+09,-1.06953e+09,-73913.6,0.00509342,0.0875375,0,0.0876855,18900.6,-38945.3,0,43289.4,73913.6
step02_gravity_refstate-crust.xmf,1670,-2.0452e-06,6.97411e-06,0,-1.96335e-06,-1.07435e+09,-1.07373e+09,-1.07421e+09,-134686,0.0104494,0.106936,0,0.107445,15484.9,-39115.2,0,42068.7,134686
step02_gravity_refstate-crust.xmf,1671,-1.61423e-06,6.67515e-06,0,-1.30599e-06,-1.07267e+09,-1.0721e+09,-1.07256e+09,-89591,0.00647299,0.0927448,0,0.0929705,17777.4,-39055.3,0,42911,89591
step02_gravity_refstate-crust.xmf,1672,-1.82716e-06,6.83012e-06,0,-1.60951e-06,-1.07329e+09,-1.0727e+09,-1.07317e+09,-110412,0.00838262,0.0994991,0,0.0998515,16621.3,-39077.4,0,42465.4,110412
