Block Name,Point ID,cauchy_strain_0,cauchy_strain_1,cauchy_strain_2,cauchy_strain_3,cauchy_stress_0,cauchy_stress_1,cauchy_stress_2,cauchy_stress_3,displacement_0,displacement_1,displacement_2,displacement_Magnitude,Points_0,Points_1,Points_2,Points_Magnitude,stress_xy
step02_gravity_refstate-mantle.xmf,0,4.36877e-06,2.12018e-06,0,-3.08251e-09,-1.38294e+09,-1.38324e+09,-1.38353e+09,-411.977,-7.31813e-19,0.0172459,-0,0.0172459,-40000,-48814.3,-0,63109.7,411.977
step02_gravity_refstate-mantle.xmf,1,5.13298e-06,1.79305e-06,0,1.22604e-09,-1.45426e+09,-1.4547e+09,-1.45494e+09,163.86,-1.57399e-19,0.012927,-0,0.012927,-40000,-51021.4,-0,64831.9,163.86
step02_gravity_refstate-mantle.xmf,2,4.82193e-06,1.94327e-06,0,-1.83296e-07,-1.42447e+09,-1.42485e+09,-1.42511e+09,-24497.5,0.008425,0.0148453,0,0.0170693,-38251.1,-50099.5,-0,63032.6,24497.5
step02_gravity_refstate-mantle.xmf,3,5.49527e-06,1.66197e-06,0,-1.53397e-07,-1.49303e+09,-1.49354e+09,-1.49377e+09,-20501.5,0.00915753,0.0110033,0,0.0143155,-38331,-52221.3,-0,64779.1,20501.5
step02_gravity_refstate-mantle.xmf,4,5.77362e-06,1.53359e-06,0,8.22116e-10,-1.52588e+09,-1.52645e+09,-1.52666e+09,109.876,-1.61219e-19,0.00923839,-0,0.00923839,-40000,-53237.6,-0,66590.1,109.876
step02_gravity_refstate-mantle.xmf,5,3.99993e-06,2.29515e-06,0,-1.97291e-07,-1.35192e+09,-1.35214e+09,-1.35245e+09,-26367.9,0.00728209,0.0196225,0,0.0209301,-38181,-47853.9,-0,61219.1,26367.9
step02_gravity_refstate-mantle.xmf,6,4.46421e-06,2.14748e-06,0,-3.75572e-07,-1.39334e+09,-1.39365e+09,-1.39394e+09,-50195.2,0.0156227,0.0174573,0,0.023427,-36507.7,-49136.1,-0,61214.1,50195.2
step02_gravity_refstate-mantle.xmf,7,4.14761e-06,2.36695e-06,0,-5.59187e-07,-1.36942e+09,-1.36966e+09,-1.36997e+09,-74735.4,0.0218425,0.0203052,0,0.0298227,-34785,-48395.6,-0,59599.8,74735.4
step02_gravity_refstate-mantle.xmf,8,3.53806e-06,2.5517e-06,0,-4.09413e-07,-1.3164e+09,-1.31654e+09,-1.31688e+09,-54718.1,0.0135535,0.0232398,0,0.0269032,-36199.1,-46754.4,-0,59129.9,54718.1
step02_gravity_refstate-mantle.xmf,9,5.21577e-06,1.82938e-06,0,-3.26636e-07,-1.46369e+09,-1.46414e+09,-1.46439e+09,-43654.9,0.017434,0.01306,0,0.0217832,-36656,-51313.4,-0,63061.3,43654.9
step02_gravity_refstate-mantle.xmf,10,6.04256e-06,1.45298e-06,0,-1.19057e-07,-1.56244e+09,-1.56305e+09,-1.56325e+09,-15912,0.0100594,0.00765844,0,0.0126429,-38332.3,-54368.4,-0,66522.8,15912
step02_gravity_refstate-mantle.xmf,11,3.53151e-06,2.47836e-06,0,-4.14361e-09,-1.31176e+09,-1.3119e+09,-1.31223e+09,-553.794,-5.87213e-19,0.022311,-0,0.022311,-40000,-46610.6,-0,61421.1,553.794
step02_gravity_refstate-mantle.xmf,12,3.47223e-06,2.66659e-06,0,-5.85944e-07,-1.31595e+09,-1.31606e+09,-1.31642e+09,-78311.3,0.0197093,0.0248122,0,0.0316876,-34432.2,-46740.3,-0,58053.7,78311.3
step02_gravity_refstate-mantle.xmf,13,3.78778e-06,2.62438e-06,0,-7.16439e-07,-1.34517e+09,-1.34532e+09,-1.34567e+09,-95752.1,0.0264692,0.023869,0,0.0356419,-33180.4,-47644.8,-0,58060,95752.1
step02_gravity_refstate-mantle.xmf,14,4.89911e-06,2.04724e-06,0,-5.09719e-07,-1.43417e+09,-1.43455e+09,-1.43482e+09,-68124,0.0246859,0.0157344,0,0.029274,-34974,-50400,-0,61346,68124
step02_gravity_refstate-mantle.xmf,15,5.79505e-06,1.59755e-06,0,-2.67955e-07,-1.52847e+09,-1.52903e+09,-1.52925e+09,-35812.1,0.0189798,0.00960208,0,0.0212705,-36719.2,-53317.8,-0,64738.6,35812.1
step02_gravity_refstate-mantle.xmf,16,6.26039e-06,1.36237e-06,0,7.79106e-10,-1.59802e+09,-1.59868e+09,-1.59886e+09,104.128,-1.6325e-19,0.00600754,-0,0.00600754,-40000,-55468.9,-0,68387.1,104.128
step02_gravity_refstate-mantle.xmf,17,3.11552e-06,2.66852e-06,0,-1.85505e-07,-1.27923e+09,-1.27929e+09,-1.27965e+09,-24792.8,0.0057707,0.0252136,0,0.0258656,-38155,-45603.7,-0,59460.1,24792.8
step02_gravity_refstate-mantle.xmf,18,3.00901e-06,2.9439e-06,0,-6.88817e-07,-1.28566e+09,-1.28567e+09,-1.28607e+09,-92060.3,0.0215862,0.0290771,0,0.0362139,-33123.7,-45802.3,-0,56524.6,92060.3
step02_gravity_refstate-mantle.xmf,19,2.8416e-06,2.89447e-06,0,-4.987e-07,-1.26598e+09,-1.26597e+09,-1.26635e+09,-66651.2,0.0150048,0.0286502,0,0.0323416,-34872.1,-45192.9,-0,57083,66651.2
step02_gravity_refstate-mantle.xmf,20,3.32464e-06,2.94982e-06,0,-8.50362e-07,-1.31717e+09,-1.31722e+09,-1.31762e+09,-113651,0.0296547,0.0287614,0,0.0413112,-31539.8,-46777.8,-0,56417.4,113651
step02_gravity_refstate-mantle.xmf,21,2.75482e-06,3.35819e-06,0,-9.50647e-07,-1.28761e+09,-1.28753e+09,-1.28798e+09,-127054,0.0316705,0.0355516,0,0.0476124,-29702.2,-45861.9,-0,54640,127054
step02_gravity_refstate-mantle.xmf,22,2.46365e-06,3.28095e-06,0,-7.65635e-07,-1.25735e+09,-1.25724e+09,-1.25768e+09,-102327,0.0232866,0.0346293,0,0.0417307,-31488,-44924.9,-0,54861.1,102327
step02_gravity_refstate-mantle.xmf,23,4.5632e-06,2.30322e-06,0,-6.85174e-07,-1.40696e+09,-1.40727e+09,-1.40757e+09,-91573.5,0.0307463,0.0189846,0,0.0361351,-33327.9,-49558.1,-0,59722.3,91573.5
step02_gravity_refstate-mantle.xmf,24,4.15872e-06,2.61627e-06,0,-8.47123e-07,-1.37823e+09,-1.37844e+09,-1.37879e+09,-113218,0.0354742,0.0232767,0,0.0424291,-31674.4,-48668.7,-0,58068.1,113218
step02_gravity_refstate-mantle.xmf,25,5.53986e-06,1.78611e-06,0,-4.33674e-07,-1.49838e+09,-1.49888e+09,-1.49912e+09,-57960.5,0.0271912,0.0118557,0,0.0296634,-35087.1,-52387.2,-0,63051.8,57960.5
step02_gravity_refstate-mantle.xmf,26,6.43707e-06,1.335e-06,0,-7.44972e-08,-1.63265e+09,-1.63333e+09,-1.63351e+09,-9956.55,0.0107982,0.00463192,0,0.0117497,-38318.4,-56539.5,-0,68300.9,9956.55
step02_gravity_refstate-mantle.xmf,27,6.26381e-06,1.43902e-06,0,-1.97534e-07,-1.5973e+09,-1.59795e+09,-1.59814e+09,-26400.4,0.0208923,0.00638588,0,0.0218464,-36657.2,-55446.8,-0,66468.8,26400.4
step02_gravity_refstate-mantle.xmf,28,6.56196e-06,1.30072e-06,0,7.15941e-10,-1.67087e+09,-1.67158e+09,-1.67175e+09,95.6855,-1.49831e-19,0.0030156,-0,0.0030156,-40000,-57721,-0,70226.2,95.6855
step02_gravity_refstate-mantle.xmf,29,2.81711e-06,2.83123e-06,0,-3.34649e-07,-1.25897e+09,-1.25897e+09,-1.25935e+09,-44725.9,0.00998782,0.0278053,0,0.0295448,-36513.2,-44976.3,-0,57931.7,44725.9
step02_gravity_refstate-mantle.xmf,30,2.66597e-06,2.83572e-06,0,-5.72614e-09,-1.24058e+09,-1.24056e+09,-1.24093e+09,-765.299,-4.75987e-19,0.0281665,-0,0.0281665,-40000,-44407.1,-0,59766.1,765.299
step02_gravity_refstate-mantle.xmf,31,1.99875e-06,3.58873e-06,0,-7.96585e-07,-1.23564e+09,-1.23543e+09,-1.23591e+09,-106464,0.0238379,0.0401685,0,0.0467093,-30084.6,-44252,-0,53510,106464
step02_gravity_refstate-mantle.xmf,32,1.88099e-06,3.7973e-06,0,-8.87045e-07,-1.23943e+09,-1.23918e+09,-1.23968e+09,-118554,0.0271978,0.0439169,0,0.0516567,-28631.9,-44368.9,-0,52805.2,118554
step02_gravity_refstate-mantle.xmf,33,2.49568e-06,3.66869e-06,0,-1.02855e-06,-1.28189e+09,-1.28173e+09,-1.28222e+09,-137466,0.0351717,0.040864,0,0.0539158,-28048.6,-45684.2,-0,53607.5,137466
step02_gravity_refstate-mantle.xmf,34,3.70284e-06,2.98191e-06,0,-9.81956e-07,-1.35048e+09,-1.35057e+09,-1.35097e+09,-131238,0.0390394,0.0287416,0,0.0484784,-29977.5,-47809.1,-0,56430.1,131238
step02_gravity_refstate-mantle.xmf,35,5.25461e-06,2.02426e-06,0,-6.07796e-07,-1.46945e+09,-1.46988e+09,-1.47015e+09,-81231.9,0.034534,0.0146934,0,0.0375299,-33440.3,-51492,-0,61397.8,81231.9
step02_gravity_refstate-mantle.xmf,36,6.04911e-06,1.60082e-06,0,-3.43971e-07,-1.56188e+09,-1.56248e+09,-1.56269e+09,-45971.7,0.0296738,0.00853033,0,0.0308756,-35082,-54351.7,-0,64690.4,45971.7
step02_gravity_refstate-mantle.xmf,37,6.6172e-06,1.3165e-06,0,-4.09134e-08,-1.69271e+09,-1.69342e+09,-1.69359e+09,-5468.07,0.0105702,0.00215777,0,0.0107882,-38401,-58396,-0,69890.8,5468.07
step02_gravity_refstate-mantle.xmf,38,6.66168e-06,1.3486e-06,0,1.30376e-08,-1.74463e+09,-1.74534e+09,-1.74552e+09,1742.47,9.90335e-19,-2.85083e-20,0,9.90745e-19,-40000,-60000,-0,72111,1742.47
step02_gravity_refstate-mantle.xmf,39,1.725e-06,4.10185e-06,0,-9.7567e-07,-1.24572e+09,-1.2454e+09,-1.24595e+09,-130398,0.031557,0.0496897,0,0.0588635,-26801.9,-44562.8,-0,52001.8,130398
step02_gravity_refstate-mantle.xmf,40,2.23493e-06,3.01849e-06,0,-1.69451e-07,-1.2077e+09,-1.20759e+09,-1.20799e+09,-22647.2,0.00460018,0.0315907,0,0.0319239,-37964.5,-43388.9,-0,57653.3,22647.2
step02_gravity_refstate-mantle.xmf,41,2.12895e-06,3.12857e-06,0,-3.43837e-07,-1.20774e+09,-1.2076e+09,-1.20802e+09,-45953.8,0.00970118,0.0332811,0,0.0346662,-35641.5,-43389.8,-0,56151.5,45953.8
step02_gravity_refstate-mantle.xmf,42,2.06849e-06,3.2806e-06,0,-5.39542e-07,-1.21717e+09,-1.21701e+09,-1.21744e+09,-72109.7,0.0153276,0.035439,0,0.0386116,-33282.5,-43681.1,-0,54915.9,72109.7
step02_gravity_refstate-mantle.xmf,43,1.6173e-06,3.60717e-06,0,-6.14636e-07,-1.20069e+09,-1.20043e+09,-1.20091e+09,-82146.1,0.0175952,0.0412743,0,0.0448683,-31211,-43170,-0,53270.8,82146.1
step02_gravity_refstate-mantle.xmf,44,3.25202e-06,3.3671e-06,0,-1.07352e-06,-1.32756e+09,-1.32754e+09,-1.32799e+09,-143476,0.0415727,0.0350311,0,0.0543642,-28333.4,-47099.2,-0,54964.7,143476
step02_gravity_refstate-mantle.xmf,45,2.71452e-06,3.79056e-06,0,-1.1091e-06,-1.30308e+09,-1.30293e+09,-1.30344e+09,-148231,0.0421495,0.0427876,0,0.0600612,-26771.9,-46340.4,-0,53517.9,148231
step02_gravity_refstate-mantle.xmf,46,1.17956e-06,4.55777e-06,0,-9.26203e-07,-1.23198e+09,-1.23153e+09,-1.23214e+09,-123787,0.0313882,0.0595299,0,0.067298,-25043.5,-44136,-0,50746.1,123787
step02_gravity_refstate-mantle.xmf,47,2.21679e-06,4.20573e-06,0,-1.09681e-06,-1.28443e+09,-1.28416e+09,-1.28473e+09,-146589,0.0421454,0.0511591,0,0.0662834,-25299.9,-45762.1,-0,52290.1,146589
step02_gravity_refstate-mantle.xmf,48,4.90727e-06,2.32573e-06,0,-7.83333e-07,-1.43927e+09,-1.43962e+09,-1.43993e+09,-104692,0.0408364,0.0184978,0,0.0448306,-31752.3,-50558.4,-0,59702.3,104692
step02_gravity_refstate-mantle.xmf,49,4.51644e-06,2.67643e-06,0,-9.37366e-07,-1.41042e+09,-1.41066e+09,-1.41102e+09,-125279,0.0458022,0.0232785,0,0.0513782,-30084.7,-49665.4,-0,58066.7,125279
step02_gravity_refstate-mantle.xmf,50,5.82017e-06,1.80873e-06,0,-4.99513e-07,-1.53077e+09,-1.53131e+09,-1.53155e+09,-66759.9,0.0375636,0.0109874,0,0.0391376,-33531.4,-53389.7,-0,63046.1,66759.9
step02_gravity_refstate-mantle.xmf,51,6.58288e-06,1.37474e-06,0,-1.12435e-07,-1.6748e+09,-1.6755e+09,-1.67568e+09,-15026.9,0.0229431,0.00303668,0,0.0231432,-36509.6,-57842.6,-0,68401.1,15026.9
step02_gravity_refstate-mantle.xmf,52,6.42099e-06,1.50489e-06,0,-2.4563e-07,-1.6259e+09,-1.62655e+09,-1.62676e+09,-32828.5,0.0327981,0.00552286,0,0.0332598,-34875.8,-56331.3,-0,66253.6,32828.5
step02_gravity_refstate-mantle.xmf,53,6.67212e-06,1.38879e-06,0,1.44193e-08,-1.74462e+09,-1.74533e+09,-1.74551e+09,1927.14,0.0162628,-4.1756e-20,0,0.0162628,-37559.4,-60000,-0,70786.4,1927.14
step02_gravity_refstate-mantle.xmf,54,1.24931e-06,3.91205e-06,0,-6.614e-07,-1.19282e+09,-1.19247e+09,-1.19299e+09,-88396.2,0.019224,0.0470181,0,0.0507963,-29421.8,-42925.1,-0,52040.5,88396.2
step02_gravity_refstate-mantle.xmf,55,9.65679e-07,4.2063e-06,0,-7.09787e-07,-1.19279e+09,-1.19236e+09,-1.19292e+09,-94863,0.021095,0.052792,0,0.0568507,-27748.1,-42923.2,-0,51111.2,94863
step02_gravity_refstate-mantle.xmf,56,1.82608e-06,3.15286e-06,0,-1.56613e-09,-1.1694e+09,-1.16922e+09,-1.16964e+09,-209.314,-2.67811e-19,0.0347648,-0,0.0347648,-40000,-42203.5,-0,58147.6,209.314
step02_gravity_refstate-mantle.xmf,57,1.73518e-06,4.63354e-06,0,-1.03378e-06,-1.26975e+09,-1.26937e+09,-1.26998e+09,-138164,0.0417581,0.060661,0,0.0736444,-23837.2,-45306.6,-0,51194.8,138164
step02_gravity_refstate-mantle.xmf,58,7.2963e-07,4.95474e-06,0,-8.44354e-07,-1.22312e+09,-1.22255e+09,-1.22322e+09,-112848,0.0307515,0.0690725,0,0.0756086,-23588.8,-43860.2,-0,49801.1,112848
step02_gravity_refstate-mantle.xmf,59,2.1109e-07,5.36222e-06,0,-6.87661e-07,-1.21155e+09,-1.21086e+09,-1.21157e+09,-91905.9,0.0283818,0.0800242,0,0.0849081,-22253.4,-43500.3,-0,48862,91905.9
step02_gravity_refstate-mantle.xmf,60,1.14856e-06,5.08363e-06,0,-9.06074e-07,-1.25224e+09,-1.25171e+09,-1.25239e+09,-121097,0.0393007,0.0719103,0,0.081949,-22465.1,-44762.8,-0,50083.8,121097
step02_gravity_refstate-mantle.xmf,61,5.68791e-07,4.5693e-06,0,-6.99736e-07,-1.18926e+09,-1.18873e+09,-1.18934e+09,-93519.8,0.021796,0.0606067,0,0.0644068,-26045,-42812.3,-0,50112.2,93519.8
step02_gravity_refstate-mantle.xmf,62,3.77579e-07,5.56462e-06,0,-6.93925e-07,-1.22955e+09,-1.22886e+09,-1.2296e+09,-92743,0.0338562,0.0855112,0,0.0919696,-21168.2,-44058.1,-0,48879.6,92743
step02_gravity_refstate-mantle.xmf,63,4.09035e-06,3.06579e-06,0,-1.05459e-06,-1.3836e+09,-1.38374e+09,-1.38415e+09,-140946,0.0493913,0.0291135,0,0.0573332,-28459.4,-48835.1,-0,56522.6,140946
step02_gravity_refstate-mantle.xmf,64,5.54915e-06,2.08588e-06,0,-6.70099e-07,-1.50044e+09,-1.5009e+09,-1.50118e+09,-89558.7,0.0453088,0.0142222,0,0.0474885,-31838.9,-52451.5,-0,61358.5,89558.7
step02_gravity_refstate-mantle.xmf,65,6.24904e-06,1.67766e-06,0,-3.77859e-07,-1.59085e+09,-1.59146e+09,-1.59168e+09,-50500.8,0.0405924,0.00777849,0,0.0413309,-33476.6,-55247.9,-0,64598.9,50500.8
step02_gravity_refstate-mantle.xmf,66,1.52621e-06,3.30184e-06,0,-1.79901e-07,-1.15277e+09,-1.15253e+09,-1.15297e+09,-24043.7,0.00543709,0.0378403,0,0.0382289,-36617.5,-41688.2,-0,55486.4,24043.7
step02_gravity_refstate-mantle.xmf,67,1.57049e-06,3.24656e-06,0,-8.37647e-08,-1.14969e+09,-1.14946e+09,-1.1499e+09,-11195.2,0.00258977,0.037035,0,0.0371254,-38381.4,-41593.2,-0,56596.2,11195.2
step02_gravity_refstate-mantle.xmf,68,1.38732e-06,3.44213e-06,0,-2.89564e-07,-1.15502e+09,-1.15475e+09,-1.15521e+09,-38700.3,0.00870407,0.0400611,0,0.0409958,-34485.2,-41757.2,-0,54156.2,38700.3
step02_gravity_refstate-mantle.xmf,69,1.13632e-06,3.65691e-06,0,-3.65434e-07,-1.15313e+09,-1.1528e+09,-1.15329e+09,-48840.3,0.0111516,0.0438325,0,0.0452288,-32468,-41697.8,-0,52847.7,48840.3
step02_gravity_refstate-mantle.xmf,70,7.6791e-07,3.94882e-06,0,-3.96453e-07,-1.14807e+09,-1.14765e+09,-1.14818e+09,-52985.9,0.0125931,0.0493545,0,0.0509358,-30470.8,-41539.8,-0,51517.2,52985.9
step02_gravity_refstate-mantle.xmf,71,8.606e-08,4.97217e-06,0,-6.23549e-07,-1.18312e+09,-1.18247e+09,-1.18313e+09,-83337.3,0.021079,0.070156,0,0.0732543,-24425.6,-42620.5,-0,49123.5,83337.3
step02_gravity_refstate-mantle.xmf,72,-8.14222e-07,5.82153e-06,0,-3.71501e-07,-1.18018e+09,-1.1793e+09,-1.18007e+09,-49651.1,0.0192306,0.0934789,0,0.0954365,-21257,-42525.8,-0,47542.7,49651.1
step02_gravity_refstate-mantle.xmf,73,-5.07698e-07,5.41485e-06,0,-4.57518e-07,-1.1737e+09,-1.17291e+09,-1.17363e+09,-61147.2,0.0185411,0.0818107,0,0.0838854,-22874.4,-42326.6,-0,48112.2,61147.2
step02_gravity_refstate-mantle.xmf,74,3.6357e-06,3.48175e-06,0,-1.12387e-06,-1.35902e+09,-1.35904e+09,-1.3595e+09,-150205,0.0516094,0.0360443,0,0.0629501,-26898.9,-48073.8,-0,55087.6,150205
step02_gravity_refstate-mantle.xmf,75,3.17118e-06,3.91459e-06,0,-1.13968e-06,-1.33747e+09,-1.33737e+09,-1.3379e+09,-152318,0.052767,0.0440678,0,0.0687483,-25394.5,-47406.3,-0,53779.5,152318
step02_gravity_refstate-mantle.xmf,76,2.6977e-06,4.35888e-06,0,-1.10082e-06,-1.31858e+09,-1.31836e+09,-1.31894e+09,-147124,0.0529724,0.0532383,0,0.0751025,-23950.3,-46820.6,-0,52590.8,147124
step02_gravity_refstate-mantle.xmf,77,2.15733e-06,4.81511e-06,0,-1.00409e-06,-1.29862e+09,-1.29826e+09,-1.29891e+09,-134196,0.051403,0.0639432,0,0.0820427,-22592.3,-46201.6,-0,51429.6,134196
step02_gravity_refstate-mantle.xmf,78,1.51642e-06,5.29423e-06,0,-8.4116e-07,-1.27684e+09,-1.27634e+09,-1.27704e+09,-112421,0.0478356,0.076762,0,0.0904469,-21265.1,-45525.8,-0,50247.5,112421
step02_gravity_refstate-mantle.xmf,79,7.77401e-07,5.78587e-06,0,-6.07938e-07,-1.25426e+09,-1.25359e+09,-1.25436e+09,-81250.9,0.042321,0.091704,0,0.100998,-19976.5,-44824.5,-0,49074.4,81250.9
step02_gravity_refstate-mantle.xmf,80,-4.16845e-07,6.05939e-06,0,-3.93506e-07,-1.20772e+09,-1.20686e+09,-1.20767e+09,-52592.1,0.0269266,0.10119,0,0.104712,-19880.3,-43379.8,-0,47718.3,52592.1
step02_gravity_refstate-mantle.xmf,81,5.22286e-06,2.4259e-06,0,-8.32311e-07,-1.47016e+09,-1.47053e+09,-1.47086e+09,-111238,0.0518373,0.0184547,0,0.0550243,-30147.7,-51514.8,-0,59688,111238
step02_gravity_refstate-mantle.xmf,82,4.85313e-06,2.80984e-06,0,-9.64342e-07,-1.44145e+09,-1.44172e+09,-1.4421e+09,-128884,0.0567931,0.0236866,0,0.0615346,-28530.6,-50626.6,-0,58112.3,128884
step02_gravity_refstate-mantle.xmf,83,6.06747e-06,1.91495e-06,0,-5.23374e-07,-1.56223e+09,-1.56278e+09,-1.56304e+09,-69948.9,0.049071,0.0103607,0,0.0501529,-31880.6,-54363.2,-0,63021.7,69948.9
step02_gravity_refstate-mantle.xmf,84,6.52371e-06,1.63282e-06,0,-2.60804e-07,-1.6416e+09,-1.64225e+09,-1.64247e+09,-34856.5,0.0434488,0.00525055,0,0.0437649,-33289.4,-56817.3,-0,65851.2,34856.5
step02_gravity_refstate-mantle.xmf,85,6.6447e-06,1.53332e-06,0,-1.3924e-07,-1.6885e+09,-1.68918e+09,-1.68939e+09,-18609.4,0.0382813,0.00271896,0,0.0383778,-34214,-58266.6,-0,67569.2,18609.4
step02_gravity_refstate-mantle.xmf,86,6.69099e-06,1.51154e-06,0,6.50996e-09,-1.74461e+09,-1.7453e+09,-1.7455e+09,870.056,0.0318247,-4.04685e-20,0,0.0318247,-35231.4,-60000,-0,69579.1,870.056
step02_gravity_refstate-mantle.xmf,87,-1.60245e-06,6.60049e-06,0,4.7155e-08,-1.17787e+09,-1.17677e+09,-1.17765e+09,6302.27,0.0153517,0.119986,0,0.120964,-18688,-42451.1,-0,46382.5,6302.27
step02_gravity_refstate-mantle.xmf,88,-1.04168e-07,6.28037e-06,0,-2.98898e-07,-1.22987e+09,-1.22902e+09,-1.22986e+09,-39947.7,0.034326,0.108935,0,0.114215,-18744.7,-44066.8,-0,47887.8,39947.7
step02_gravity_refstate-mantle.xmf,89,3.87704e-07,4.25916e-06,0,-3.99366e-07,-1.14509e+09,-1.14457e+09,-1.14514e+09,-53375.3,0.0132909,0.0555669,0,0.0571343,-28676.3,-41445.8,-0,50399.2,53375.3
step02_gravity_refstate-mantle.xmf,90,-1.63219e-08,4.60264e-06,0,-3.81503e-07,-1.14435e+09,-1.14374e+09,-1.14435e+09,-50987.8,0.0135345,0.0628729,0,0.0643132,-26923.3,-41421.3,-0,49402.3,50987.8
step02_gravity_refstate-mantle.xmf,91,1.08422e-06,3.37011e-06,0,1.10279e-08,-1.09821e+09,-1.0979e+09,-1.09835e+09,1473.88,6.86813e-19,0.0419751,0,0.0419751,-40000,-40000,-0,56568.5,1473.88
step02_gravity_refstate-mantle.xmf,92,1.02817e-06,3.41903e-06,0,-3.77323e-08,-1.09821e+09,-1.09789e+09,-1.09835e+09,-5042.92,0.00242072,0.0427018,0,0.0427704,-37707.6,-40000,-0,54971.4,5042.92
step02_gravity_refstate-mantle.xmf,93,-4.81654e-07,4.97736e-06,0,-3.1129e-07,-1.14217e+09,-1.14144e+09,-1.1421e+09,-41603.9,0.0127552,0.0716157,0,0.0727427,-25268.8,-41351.6,-0,48461,41603.9
step02_gravity_refstate-mantle.xmf,94,-4.75277e-07,6.99562e-06,0,3.59775e-07,-1.2305e+09,-1.2295e+09,-1.23044e+09,48083.9,0.0339559,0.137072,0,0.141216,-16544.8,-44085.5,-0,47087.8,48083.9
step02_gravity_refstate-mantle.xmf,95,3.71521e-07,6.5423e-06,0,-3.45616e-08,-1.25064e+09,-1.24982e+09,-1.25069e+09,-4619.16,0.042323,0.117755,0,0.12513,-17652.9,-44712.1,-0,48070.7,4619.16
step02_gravity_refstate-mantle.xmf,96,-1.00298e-06,6.78048e-06,0,1.06297e-07,-1.20674e+09,-1.2057e+09,-1.20661e+09,14206.6,0.0248475,0.12778,0,0.130174,-17580,-43347.4,-0,46776.7,14206.6
step02_gravity_refstate-mantle.xmf,97,1.46949e-07,7.28212e-06,0,7.99533e-07,-1.25287e+09,-1.25192e+09,-1.25289e+09,106858,0.0437539,0.147457,0,0.153811,-15552.9,-44781.3,-0,47405.3,106858
step02_gravity_refstate-mantle.xmf,98,-1.36023e-06,7.49667e-06,0,9.10625e-07,-1.21112e+09,-1.20993e+09,-1.21093e+09,121705,0.0240459,0.160604,0,0.162394,-15340.9,-43482,-0,46108.9,121705
step02_gravity_refstate-mantle.xmf,99,4.43861e-06,3.2311e-06,0,-1.05563e-06,-1.41402e+09,-1.41418e+09,-1.41461e+09,-141085,0.0602106,0.03009,0,0.0673106,-26975.8,-49777.6,-0,56617.1,141085
step02_gravity_refstate-mantle.xmf,100,5.82383e-06,2.22474e-06,0,-6.76781e-07,-1.53191e+09,-1.53239e+09,-1.53268e+09,-90451.7,0.0567852,0.0138857,0,0.0584583,-30240.4,-53425.7,-0,61390.5,90451.7
step02_gravity_refstate-mantle.xmf,101,6.41784e-06,1.82466e-06,0,-3.70108e-07,-1.61914e+09,-1.61976e+09,-1.62e+09,-49465,0.0516693,0.00705617,0,0.0521489,-31902.1,-56123.5,-0,64556.9,49465
step02_gravity_refstate-mantle.xmf,102,-1.53229e-06,6.26985e-06,0,-5.35122e-08,-1.16731e+09,-1.16627e+09,-1.16711e+09,-7151.9,0.01379,0.108069,0,0.108946,-19965.3,-42124.6,-0,46616.4,7151.9
step02_gravity_refstate-mantle.xmf,103,-1.81137e-06,7.22188e-06,0,5.73228e-07,-1.19125e+09,-1.19005e+09,-1.19101e+09,76611.9,0.0167177,0.14737,0,0.148315,-16436.6,-42864.7,-0,45908,76611.9
step02_gravity_refstate-mantle.xmf,104,8.75813e-07,3.5418e-06,0,-7.30008e-08,-1.09824e+09,-1.09788e+09,-1.09835e+09,-9756.56,0.00450246,0.0447847,0,0.0450105,-35524.6,-40000,-0,53497.6,9756.56
step02_gravity_refstate-mantle.xmf,105,3.32766e-07,3.97782e-06,0,-1.02819e-07,-1.09832e+09,-1.09783e+09,-1.09836e+09,-13741.7,0.00704441,0.0527018,0,0.0531705,-31466.4,-40000,-0,50893.4,13741.7
step02_gravity_refstate-mantle.xmf,106,6.39813e-07,3.7279e-06,0,-9.30198e-08,-1.09827e+09,-1.09786e+09,-1.09836e+09,-12432.1,0.00608182,0.0481301,0,0.0485128,-33445.9,-40000,-0,52140.4,12432.1
step02_gravity_refstate-mantle.xmf,107,-4.74894e-08,4.26108e-06,0,-6.28252e-08,-1.09838e+09,-1.0978e+09,-1.09837e+09,-8396.59,0.00731428,0.0584991,0,0.0589546,-29581.4,-40000,-0,49750,8396.59
step02_gravity_refstate-mantle.xmf,108,-1.01605e-06,5.38345e-06,0,-1.78537e-07,-1.1386e+09,-1.13774e+09,-1.13846e+09,-23861.4,0.0108423,0.0820667,0,0.0827798,-23676.8,-41238.8,-0,47552.4,23861.4
step02_gravity_refstate-mantle.xmf,109,-1.56383e-06,5.80822e-06,0,-1.15692e-08,-1.13689e+09,-1.1359e+09,-1.13668e+09,-1546.22,0.00844579,0.0939974,0,0.0943761,-22122.8,-41183.4,-0,46749.2,1546.22
step02_gravity_refstate-mantle.xmf,110,-4.15429e-07,7.70532e-06,0,1.35529e-06,-1.23958e+09,-1.23849e+09,-1.23952e+09,181135,0.0372542,0.169534,0,0.173579,-14473.1,-44368,-0,46668.9,181135
step02_gravity_refstate-mantle.xmf,111,3.99867e-06,3.67999e-06,0,-1.0921e-06,-1.38883e+09,-1.38887e+09,-1.38937e+09,-145959,0.0623465,0.0377355,0,0.072877,-25467.3,-48997.7,-0,55221,145959
step02_gravity_refstate-mantle.xmf,112,3.59277e-06,4.14121e-06,0,-1.06196e-06,-1.36948e+09,-1.36941e+09,-1.36996e+09,-141932,0.0641083,0.0463078,0,0.0790841,-23995.6,-48398.5,-0,54020.4,141932
step02_gravity_refstate-mantle.xmf,113,3.09602e-06,4.60183e-06,0,-9.88575e-07,-1.34685e+09,-1.34665e+09,-1.34726e+09,-132123,0.0633814,0.0564246,0,0.0848583,-22669.8,-47697.1,-0,52810.3,132123
step02_gravity_refstate-mantle.xmf,114,7.53203e-07,6.8597e-06,0,3.49235e-07,-1.2693e+09,-1.26848e+09,-1.2694e+09,46675.2,0.0504133,0.127528,0,0.137131,-16627.4,-45291.7,-0,48247.4,46675.2
step02_gravity_refstate-mantle.xmf,115,2.5547e-06,5.07896e-06,0,-8.51076e-07,-1.32475e+09,-1.32441e+09,-1.32509e+09,-113746,0.0613382,0.0683411,0,0.0918307,-21359.7,-47012.1,-0,51636.9,113746
step02_gravity_refstate-mantle.xmf,116,1.9644e-06,5.55522e-06,0,-6.52549e-07,-1.30273e+09,-1.30225e+09,-1.303e+09,-87213.1,0.057709,0.0820314,0,0.100297,-20101.9,-46329.3,-0,50502.4,87213.1
step02_gravity_refstate-mantle.xmf,117,1.34315e-06,6.08734e-06,0,-3.33182e-07,-1.28199e+09,-1.28135e+09,-1.28217e+09,-44529.8,0.0531384,0.099515,0,0.112814,-18690.4,-45685.7,-0,49361,44529.8
step02_gravity_refstate-mantle.xmf,118,5.16305e-06,3.02949e-06,0,-9.17638e-07,-1.47213e+09,-1.47242e+09,-1.47282e+09,-122642,0.0682629,0.0243193,0,0.0724655,-27027.8,-51577,-0,58229.6,122642
step02_gravity_refstate-mantle.xmf,119,5.52523e-06,2.59738e-06,0,-8.13252e-07,-1.50206e+09,-1.50246e+09,-1.5028e+09,-108691,0.063248,0.0184345,0,0.0658798,-28623.8,-52502.9,-0,59798.6,108691
step02_gravity_refstate-mantle.xmf,120,6.27823e-06,2.09424e-06,0,-4.94758e-07,-1.59257e+09,-1.59313e+09,-1.59341e+09,-66124.5,0.0604304,0.00975011,0,0.0612119,-30318.8,-55302.3,-0,63068,66124.5
step02_gravity_refstate-mantle.xmf,121,6.65239e-06,1.78612e-06,0,-1.95626e-07,-1.68224e+09,-1.68289e+09,-1.68313e+09,-26145.5,0.0532534,0.00351003,0,0.053369,-31946.6,-58074.1,-0,66281.1,26145.5
step02_gravity_refstate-mantle.xmf,122,6.72195e-06,1.71145e-06,0,1.06523e-08,-1.74458e+09,-1.74525e+09,-1.74548e+09,1423.68,0.0467212,-5.7131e-20,0,0.0467212,-33009.9,-60000,-0,68481,1423.68
step02_gravity_refstate-mantle.xmf,123,-2.09909e-06,6.22309e-06,0,1.92313e-07,-1.1362e+09,-1.13508e+09,-1.13591e+09,25702.6,0.00562285,0.106999,0,0.107147,-20679.3,-41159.5,-0,46062.3,25702.6
step02_gravity_refstate-mantle.xmf,124,-1.58029e-06,7.84007e-06,0,1.46548e-06,-1.20953e+09,-1.20827e+09,-1.20932e+09,195862,0.0216462,0.180826,0,0.182117,-14265.1,-43432.3,-0,45715,195862
step02_gravity_refstate-mantle.xmf,125,-2.66972e-06,6.64044e-06,0,4.60442e-07,-1.13457e+09,-1.13333e+09,-1.13422e+09,61538,0.00189707,0.121563,0,0.121578,-19321.9,-41106.7,-0,45421.3,61538
step02_gravity_refstate-mantle.xmf,126,-2.41081e-06,7.09446e-06,0,5.1987e-07,-1.16677e+09,-1.1655e+09,-1.16645e+09,69480.6,0.0083299,0.14006,0,0.140308,-17309.6,-42104.2,-0,45523.4,69480.6
step02_gravity_refstate-mantle.xmf,127,-2.80417e-06,7.62468e-06,0,1.08789e-06,-1.17209e+09,-1.1707e+09,-1.17171e+09,145396,0.00585771,0.166901,0,0.167004,-15507.6,-42267.1,-0,45022.2,145396
step02_gravity_refstate-mantle.xmf,128,-2.78535e-06,7.90386e-06,0,1.46067e-06,-1.18057e+09,-1.17914e+09,-1.18019e+09,195218,0.00728124,0.182458,0,0.182603,-14545.1,-42529.8,-0,44948.2,195218
step02_gravity_refstate-mantle.xmf,129,-9.93556e-07,8.07589e-06,0,1.91982e-06,-1.22598e+09,-1.22477e+09,-1.22585e+09,256584,0.0294543,0.192174,0,0.194418,-13515.2,-43945.1,-0,45976.4,256584
step02_gravity_refstate-mantle.xmf,130,-9.60255e-07,4.9647e-06,0,7.6694e-08,-1.09852e+09,-1.09772e+09,-1.09839e+09,10250.1,0.00561124,0.0738845,0,0.0740973,-26077.3,-40000,-0,47749.6,10250.1
step02_gravity_refstate-mantle.xmf,131,-4.83635e-07,4.59284e-06,0,-3.46119e-09,-1.09844e+09,-1.09777e+09,-1.09838e+09,-462.589,0.0068452,0.0655465,0,0.0659029,-27786.5,-40000,-0,48704.1,462.589
step02_gravity_refstate-mantle.xmf,132,-1.49452e-06,5.34025e-06,0,2.18322e-07,-1.0986e+09,-1.09769e+09,-1.0984e+09,29178.7,0.00361327,0.0835631,0,0.0836412,-24449.7,-40000,-0,46880.6,29178.7
step02_gravity_refstate-mantle.xmf,133,3.12915e-07,8.06702e-06,0,2.05435e-06,-1.26074e+09,-1.2597e+09,-1.26078e+09,274564,0.0480267,0.181394,0,0.187644,-13612,-45027.5,-0,47040,274564
step02_gravity_refstate-mantle.xmf,134,8.35354e-07,7.68039e-06,0,1.47121e-06,-1.27596e+09,-1.27505e+09,-1.27607e+09,196627,0.0549727,0.158652,0,0.167906,-14590.5,-45500.2,-0,47782.3,196627
step02_gravity_refstate-mantle.xmf,135,1.31694e-06,6.51508e-06,0,6.42292e-08,-1.28657e+09,-1.28588e+09,-1.28675e+09,8584.24,0.0563747,0.112257,0,0.125617,-17509.9,-45828.3,-0,49059.4,8584.24
step02_gravity_refstate-mantle.xmf,136,1.31181e-06,7.26313e-06,0,9.36935e-07,-1.29115e+09,-1.29036e+09,-1.29133e+09,125221,0.0606842,0.13759,0,0.150378,-15628.5,-45971.6,-0,48555.5,125221
step02_gravity_refstate-mantle.xmf,137,4.72582e-06,3.49672e-06,0,-9.82467e-07,-1.44127e+09,-1.44143e+09,-1.4419e+09,-131307,0.0711709,0.0317046,0,0.0779132,-25524.3,-50621.9,-0,56692.7,131307
step02_gravity_refstate-mantle.xmf,138,6.07006e-06,2.44337e-06,0,-6.20006e-07,-1.56481e+09,-1.56529e+09,-1.56562e+09,-82863.8,0.0683379,0.013378,0,0.0696351,-28732.2,-54444.3,-0,61560.7,82863.8
step02_gravity_refstate-mantle.xmf,139,6.52962e-06,2.00496e-06,0,-3.41466e-07,-1.64382e+09,-1.64443e+09,-1.64469e+09,-45636.9,0.0612552,0.00631919,0,0.0615803,-30568.3,-56886.9,-0,64579.7,45636.9
step02_gravity_refstate-mantle.xmf,140,-3.2008e-06,7.052e-06,0,7.55447e-07,-1.13371e+09,-1.13234e+09,-1.13328e+09,100966,-0.00216801,0.137378,-0,0.137395,-18042.9,-41077.3,-0,44865.3,100966
step02_gravity_refstate-mantle.xmf,141,-3.00846e-06,7.42894e-06,0,9.35345e-07,-1.15965e+09,-1.15825e+09,-1.15925e+09,125009,0.0026982,0.156139,0,0.156162,-16336,-41880.9,-0,44954.2,125009
step02_gravity_refstate-mantle.xmf,142,-3.81466e-06,7.95499e-06,0,1.61378e-06,-1.15467e+09,-1.1531e+09,-1.15416e+09,215682,-0.00483914,0.18388,-0,0.183943,-14804,-41723.3,-0,44271.8,215682
step02_gravity_refstate-mantle.xmf,143,-2.68299e-06,8.21066e-06,0,1.97045e-06,-1.18831e+09,-1.18685e+09,-1.18795e+09,263350,0.00850763,0.20227,0,0.202448,-13490,-42770.4,-0,44847.3,263350
step02_gravity_refstate-mantle.xmf,144,-1.70412e-06,8.44096e-06,0,2.57897e-06,-1.21221e+09,-1.21085e+09,-1.21198e+09,344679,0.0203362,0.216687,0,0.217639,-12598.5,-43515.8,-0,45302.9,344679
step02_gravity_refstate-mantle.xmf,145,-2.3869e-07,8.4303e-06,0,2.69583e-06,-1.24539e+09,-1.24423e+09,-1.24535e+09,360298,0.0397483,0.206078,0,0.209876,-12677.2,-44550.5,-0,46319.1,360298
step02_gravity_refstate-mantle.xmf,146,-9.0232e-07,8.78028e-06,0,3.44624e-06,-1.23101e+09,-1.22972e+09,-1.23089e+09,460589,0.0307119,0.232627,0,0.234646,-11777,-44102.9,-0,45648.3,460589
step02_gravity_refstate-mantle.xmf,147,-1.11008e-07,9.2744e-06,0,4.55025e-06,-1.24766e+09,-1.24641e+09,-1.24765e+09,608141,0.0408149,0.250307,0,0.253612,-10982.4,-44623.8,-0,45955.3,608141
step02_gravity_refstate-mantle.xmf,148,-1.46936e-06,9.10912e-06,0,4.30849e-06,-1.21848e+09,-1.21706e+09,-1.21828e+09,575830,0.0215682,0.26116,0,0.262049,-10899.6,-43712.7,-0,45051.1,575830
step02_gravity_refstate-mantle.xmf,149,-2.06031e-06,5.74299e-06,0,3.91863e-07,-1.09869e+09,-1.09765e+09,-1.09841e+09,52372.5,0.000864836,0.094635,0,0.0946389,-22899.8,-40000,-0,46091.2,52372.5
step02_gravity_refstate-mantle.xmf,150,-2.6567e-06,6.15631e-06,0,6.10068e-07,-1.09879e+09,-1.09761e+09,-1.09843e+09,81535.6,-0.00260905,0.107156,-0,0.107188,-21423.9,-40000,-0,45376,81535.6
step02_gravity_refstate-mantle.xmf,151,4.39908e-07,8.93258e-06,0,3.71732e-06,-1.26206e+09,-1.26092e+09,-1.26211e+09,496819,0.0494116,0.222353,0,0.227777,-11841.3,-45071.2,-0,46600.8,496819
step02_gravity_refstate-mantle.xmf,152,4.3327e-06,3.96591e-06,0,-9.67906e-07,-1.41783e+09,-1.41788e+09,-1.41841e+09,-129361,0.0734253,0.039705,0,0.0834731,-24113.5,-49896.5,-0,55417.6,129361
step02_gravity_refstate-mantle.xmf,153,3.9093e-06,4.45022e-06,0,-8.95277e-07,-1.39522e+09,-1.39515e+09,-1.39574e+09,-119654,0.0743722,0.049173,0,0.0891584,-22752.3,-49196.4,-0,54202.9,119654
step02_gravity_refstate-mantle.xmf,154,3.44761e-06,4.94803e-06,0,-7.58319e-07,-1.37278e+09,-1.37258e+09,-1.37324e+09,-101349,0.0739208,0.0604128,0,0.0954672,-21425.9,-48501.5,-0,53023.3,101349
step02_gravity_refstate-mantle.xmf,155,1.79684e-06,6.83594e-06,0,4.80702e-07,-1.30809e+09,-1.30742e+09,-1.30833e+09,64245.9,0.0659358,0.118334,0,0.135464,-16695.6,-46497,-0,49403.6,64245.9
step02_gravity_refstate-mantle.xmf,156,2.96176e-06,5.42153e-06,0,-5.71577e-07,-1.3509e+09,-1.35057e+09,-1.35129e+09,-76391.3,0.0719083,0.0729403,0,0.102426,-20207.2,-47823.4,-0,51917.4,76391.3
step02_gravity_refstate-mantle.xmf,157,2.43494e-06,5.87641e-06,0,-3.39039e-07,-1.32844e+09,-1.32798e+09,-1.32877e+09,-45312.5,0.0681853,0.0872018,0,0.110695,-19049.6,-47127.5,-0,50832,45312.5
step02_gravity_refstate-mantle.xmf,158,2.22158e-06,6.39022e-06,0,8.04824e-08,-1.32351e+09,-1.32295e+09,-1.3238e+09,10756.5,0.0694189,0.101379,0,0.122869,-17801.2,-46974.9,-0,50234.7,10756.5
step02_gravity_refstate-mantle.xmf,159,5.43064e-06,3.4052e-06,0,-7.842e-07,-1.50298e+09,-1.50325e+09,-1.50371e+09,-104808,0.0809011,0.0254328,0,0.0848045,-25417.9,-52532.6,-0,58358.7,104808
step02_gravity_refstate-mantle.xmf,160,5.78412e-06,2.86394e-06,0,-7.29609e-07,-1.53394e+09,-1.53433e+09,-1.53472e+09,-97512.2,0.0748226,0.01839,0,0.0770494,-27162.6,-53490.1,-0,59991.6,97512.2
step02_gravity_refstate-mantle.xmf,161,6.47354e-06,2.34368e-06,0,-3.97442e-07,-1.63398e+09,-1.63453e+09,-1.63484e+09,-53118.2,0.0719475,0.00811852,0,0.072404,-28858.4,-56583.4,-0,63517.7,53118.2
step02_gravity_refstate-mantle.xmf,162,6.67551e-06,2.14718e-06,0,-1.93277e-07,-1.69119e+09,-1.69179e+09,-1.69208e+09,-25831.5,0.0676402,0.00360381,0,0.0677361,-29815.6,-58351.4,-0,65527.5,25831.5
step02_gravity_refstate-mantle.xmf,163,6.73551e-06,2.00836e-06,0,7.14704e-09,-1.74456e+09,-1.74519e+09,-1.74546e+09,955.201,0.0609926,-6.30555e-20,0,0.0609926,-30889.1,-60000,-0,67484.3,955.201
step02_gravity_refstate-mantle.xmf,164,-3.27845e-06,6.57257e-06,0,8.77501e-07,-1.09889e+09,-1.09757e+09,-1.09845e+09,117278,-0.00677217,0.121181,-0,0.12137,-20018.5,-40000,-0,44729.6,117278
step02_gravity_refstate-mantle.xmf,165,-3.9205e-06,6.98532e-06,0,1.19917e-06,-1.09899e+09,-1.09753e+09,-1.09847e+09,160269,-0.0115812,0.136762,-0,0.137251,-18680.2,-40000,-0,44146.9,160269
step02_gravity_refstate-mantle.xmf,166,-3.8432e-06,7.46806e-06,0,1.17395e-06,-1.13142e+09,-1.12991e+09,-1.13091e+09,156898,-0.007535,0.155881,-0,0.156063,-16774,-41003.5,-0,44301.9,156898
step02_gravity_refstate-mantle.xmf,167,-4.26577e-06,7.81235e-06,0,1.55631e-06,-1.13532e+09,-1.13371e+09,-1.13475e+09,208000,-0.0107421,0.174429,-0,0.17476,-15582.8,-41122,-0,43975.5,208000
step02_gravity_refstate-mantle.xmf,168,-4.05759e-06,8.22671e-06,0,2.01683e-06,-1.15603e+09,-1.15439e+09,-1.15549e+09,269550,-0.00760593,0.201069,-0,0.201213,-13928.8,-41764.2,-0,44025.7,269550
step02_gravity_refstate-mantle.xmf,169,-6.33009e-07,9.62457e-06,0,5.49662e-06,-1.23446e+09,-1.23309e+09,-1.23437e+09,734624,0.0317436,0.280571,0,0.282361,-10142.4,-44213.3,-0,45361.7,734624
step02_gravity_refstate-mantle.xmf,170,-2.3521e-06,8.78719e-06,0,3.46111e-06,-1.20177e+09,-1.20028e+09,-1.20145e+09,462578,0.0118577,0.244894,0,0.245181,-11621.2,-43189.9,-0,44726,462578
step02_gravity_refstate-mantle.xmf,171,6.52671e-07,9.99919e-06,0,5.95911e-06,-1.26411e+09,-1.26286e+09,-1.2642e+09,796435,0.0515765,0.269518,0,0.274408,-10202.4,-45138.9,-0,46277.5,796435
step02_gravity_refstate-mantle.xmf,172,1.04604e-06,9.6238e-06,0,4.99589e-06,-1.27778e+09,-1.27663e+09,-1.27792e+09,667700,0.0591939,0.239999,0,0.247191,-11031.6,-45562.7,-0,46879.2,667700
step02_gravity_refstate-mantle.xmf,173,9.97599e-07,8.59624e-06,0,3.0027e-06,-1.27982e+09,-1.27881e+09,-1.27996e+09,401311,0.0585718,0.19536,0,0.203952,-12745.4,-45623,-0,47369.8,401311
step02_gravity_refstate-mantle.xmf,174,1.86203e-06,7.82456e-06,0,1.74959e-06,-1.31338e+09,-1.31259e+09,-1.31363e+09,233833,0.0718108,0.148376,0,0.16484,-14661.2,-46663.4,-0,48912.4,233833
step02_gravity_refstate-mantle.xmf,175,1.47619e-06,8.23968e-06,0,2.38383e-06,-1.29773e+09,-1.29683e+09,-1.29793e+09,318599,0.0663723,0.170822,0,0.183263,-13670.3,-46178.3,-0,48159.3,318599
step02_gravity_refstate-mantle.xmf,176,2.23411e-06,7.37577e-06,0,1.17101e-06,-1.32913e+09,-1.32844e+09,-1.32943e+09,156505,0.0761605,0.127784,0,0.148759,-15704.8,-47151.2,-0,49697.9,156505
step02_gravity_refstate-mantle.xmf,177,4.95107e-06,3.87246e-06,0,-8.26743e-07,-1.46664e+09,-1.46679e+09,-1.4673e+09,-110494,0.0820967,0.0337069,0,0.0887469,-24131.2,-51408.1,-0,56790,110494
step02_gravity_refstate-mantle.xmf,178,6.26222e-06,2.73489e-06,0,-5.10495e-07,-1.59997e+09,-1.60044e+09,-1.6008e+09,-68227.7,0.0792566,0.0123085,0,0.0802066,-27390.5,-55532.4,-0,61920,68227.7
step02_gravity_refstate-mantle.xmf,179,-4.57724e-06,7.38692e-06,0,1.57995e-06,-1.0991e+09,-1.0975e+09,-1.09849e+09,211161,-0.0169883,0.15395,-0,0.154885,-17405.7,-40000,-0,43622.9,211161
step02_gravity_refstate-mantle.xmf,180,-5.07152e-06,8.19381e-06,0,2.19903e-06,-1.1286e+09,-1.12682e+09,-1.12792e+09,293901,-0.0191061,0.19708,-0,0.198004,-14463.6,-40910,-0,43391.5,293901
step02_gravity_refstate-mantle.xmf,181,-3.36603e-06,8.61456e-06,0,2.88281e-06,-1.18013e+09,-1.17853e+09,-1.17968e+09,385287,4.72907e-05,0.232869,0,0.23287,-12291.9,-42514.2,-0,44255.5,385287
step02_gravity_refstate-mantle.xmf,182,-2.51911e-07,1.08119e-05,0,8.35623e-06,-1.2396e+09,-1.23812e+09,-1.23956e+09,1.11681e+06,0.0348491,0.335526,0,0.337331,-8617.03,-44377.7,-0,45206.5,1.11681e+06
step02_gravity_refstate-mantle.xmf,183,2.14416e-07,1.03933e-05,0,7.07892e-06,-1.25135e+09,-1.24999e+09,-1.25138e+09,946098,0.0434245,0.301459,0,0.304571,-9393.75,-44742.9,-0,45718.4,946098
step02_gravity_refstate-mantle.xmf,184,-1.2145e-06,9.96923e-06,0,6.72425e-06,-1.22309e+09,-1.2216e+09,-1.22293e+09,898697,0.0227464,0.313486,0,0.31431,-9312.22,-43859.2,-0,44836.9,898697
step02_gravity_refstate-mantle.xmf,185,-2.39126e-06,9.3761e-06,0,5.33651e-06,-1.20222e+09,-1.20065e+09,-1.20191e+09,713224,0.00842194,0.293445,0,0.293566,-10044.8,-43205.3,-0,44357.6,713224
step02_gravity_refstate-mantle.xmf,186,-2.85326e-06,9.05482e-06,0,4.31329e-06,-1.19382e+09,-1.19223e+09,-1.19344e+09,576471,0.0044449,0.270404,0,0.270441,-10826.4,-42941.8,-0,44285.5,576471
step02_gravity_refstate-mantle.xmf,187,9.546e-07,1.14955e-05,0,8.9443e-06,-1.2672e+09,-1.2658e+09,-1.26733e+09,1.19541e+06,0.054944,0.323849,0,0.328476,-8667.7,-45240.3,-0,46063.1,1.19541e+06
step02_gravity_refstate-mantle.xmf,188,1.44853e-06,9.26563e-06,0,4.15857e-06,-1.29284e+09,-1.2918e+09,-1.29304e+09,555792,0.0665227,0.212758,0,0.222915,-11874.9,-46029.9,-0,47537,555792
step02_gravity_refstate-mantle.xmf,189,4.56686e-06,4.37395e-06,0,-7.58178e-07,-1.44234e+09,-1.44237e+09,-1.44295e+09,-101330,0.0840067,0.0424706,0,0.0941322,-22803.6,-50656.2,-0,55552.3,101330
step02_gravity_refstate-mantle.xmf,190,4.17151e-06,4.88803e-06,0,-6.2025e-07,-1.42e+09,-1.41991e+09,-1.42056e+09,-82896.4,0.0849468,0.052682,0,0.0999567,-21509.7,-49964.8,-0,54398.1,82896.4
step02_gravity_refstate-mantle.xmf,191,3.75664e-06,5.40428e-06,0,-4.13303e-07,-1.39824e+09,-1.39802e+09,-1.39874e+09,-55238,0.0846429,0.0645929,0,0.106474,-20258.8,-49291,-0,53291.9,55238
step02_gravity_refstate-mantle.xmf,192,2.61727e-06,6.91011e-06,0,6.69582e-07,-1.34589e+09,-1.34532e+09,-1.34624e+09,89489.7,0.0798049,0.109109,0,0.13518,-16784.1,-47670.3,-0,50538.7,89489.7
step02_gravity_refstate-mantle.xmf,193,3.33896e-06,5.90133e-06,0,-1.44227e-07,-1.37752e+09,-1.37717e+09,-1.37796e+09,-19275.9,0.0831605,0.0779801,0,0.114002,-19076.9,-48649.5,-0,52256.1,19275.9
step02_gravity_refstate-mantle.xmf,194,2.97269e-06,6.41784e-06,0,2.28732e-07,-1.36131e+09,-1.36085e+09,-1.36171e+09,30570,0.0819108,0.0927632,0,0.123751,-17900.1,-48147.8,-0,51367.6,30570
step02_gravity_refstate-mantle.xmf,195,5.36233e-06,3.91291e-06,0,-6.68749e-07,-1.50724e+09,-1.50743e+09,-1.50796e+09,-89378.2,0.0893909,0.0294507,0,0.0941173,-23952.1,-52665,-0,57855.9,89378.2
step02_gravity_refstate-mantle.xmf,196,5.9797e-06,3.23289e-06,0,-5.86756e-07,-1.56668e+09,-1.56705e+09,-1.56748e+09,-78420,0.0861876,0.0179822,0,0.0880435,-25795.4,-54503.6,-0,60299.6,78420
step02_gravity_refstate-mantle.xmf,197,6.49847e-06,2.77642e-06,0,-3.3585e-07,-1.64778e+09,-1.64828e+09,-1.64865e+09,-44886.3,0.083379,0.00843876,0,0.0838049,-27198.2,-57011,-0,63166.4,44886.3
step02_gravity_refstate-mantle.xmf,198,6.64503e-06,2.57875e-06,0,-1.95471e-07,-1.69253e+09,-1.69307e+09,-1.69341e+09,-26124.7,0.0800709,0.00421702,0,0.0801818,-27953.9,-58393.7,-0,64739.8,26124.7
step02_gravity_refstate-mantle.xmf,199,6.72099e-06,2.41623e-06,0,6.08258e-09,-1.74452e+09,-1.7451e+09,-1.74542e+09,812.937,0.0746211,-7.23006e-20,0,0.0746211,-28863.5,-60000,-0,66581.5,812.937
step02_gravity_refstate-mantle.xmf,200,5.07339e-07,1.1957e-05,0,1.04288e-05,-1.25485e+09,-1.25332e+09,-1.25492e+09,1.39382e+06,0.0465987,0.360416,0,0.363416,-7914.02,-44856.9,-0,45549.7,1.39382e+06
step02_gravity_refstate-mantle.xmf,201,-8.39731e-07,1.11431e-05,0,9.90289e-06,-1.22828e+09,-1.22667e+09,-1.22816e+09,1.32352e+06,0.025463,0.371586,0,0.372458,-7880.96,-44024.9,-0,44724.7,1.32352e+06
step02_gravity_refstate-mantle.xmf,202,-4.68003e-06,8.56627e-06,0,2.74638e-06,-1.15168e+09,-1.14991e+09,-1.15105e+09,367053,-0.0147433,0.226439,-0,0.226919,-12856.1,-41626.4,-0,43566.5,367053
step02_gravity_refstate-mantle.xmf,203,-5.24908e-06,7.77215e-06,0,2.02385e-06,-1.09921e+09,-1.09747e+09,-1.09851e+09,270487,-0.0229393,0.172793,-0,0.174309,-16192.1,-40000,-0,43153.1,270487
step02_gravity_refstate-mantle.xmf,204,-5.65168e-06,8.52982e-06,0,2.80225e-06,-1.12688e+09,-1.12499e+09,-1.12613e+09,374521,-0.0256547,0.220037,-0,0.221527,-13410.5,-40854,-0,42998.7,374521
step02_gravity_refstate-mantle.xmf,205,-5.91793e-06,8.13164e-06,0,2.5379e-06,-1.09933e+09,-1.09745e+09,-1.09854e+09,339191,-0.0293845,0.193341,-0,0.195561,-15036.5,-40000,-0,42732.8,339191
step02_gravity_refstate-mantle.xmf,206,-1.70544e-06,1.03089e-05,0,8.08245e-06,-1.21364e+09,-1.21204e+09,-1.21341e+09,1.08022e+06,0.0142081,0.34751,0,0.347801,-8535.52,-43564.9,-0,44393.2,1.08022e+06
step02_gravity_refstate-mantle.xmf,207,-3.86439e-06,8.8984e-06,0,3.80491e-06,-1.17518e+09,-1.17347e+09,-1.17466e+09,508526,-0.00667193,0.260758,-0,0.260843,-11321.9,-42358.7,-0,43845.7,508526
step02_gravity_refstate-mantle.xmf,208,1.31609e-06,1.10373e-05,0,7.69839e-06,-1.28017e+09,-1.27887e+09,-1.28035e+09,1.02889e+06,0.0625935,0.29054,0,0.297206,-9429.27,-45642.1,-0,46605.9,1.02889e+06
step02_gravity_refstate-mantle.xmf,209,1.60956e-06,1.059e-05,0,6.5607e-06,-1.29371e+09,-1.29251e+09,-1.29392e+09,876838,0.0695109,0.258914,0,0.268083,-10237.1,-46061,-0,47184.9,876838
step02_gravity_refstate-mantle.xmf,210,1.86289e-06,1.0162e-05,0,5.54373e-06,-1.30769e+09,-1.30658e+09,-1.30794e+09,740920,0.0756968,0.229717,0,0.241867,-11069.5,-46493.6,-0,47793.1,740920
step02_gravity_refstate-mantle.xmf,211,2.07033e-06,8.98103e-06,0,3.47772e-06,-1.31991e+09,-1.31898e+09,-1.32018e+09,464798,0.0782427,0.182022,0,0.198126,-12851.8,-46869.3,-0,48599.4,464798
step02_gravity_refstate-mantle.xmf,212,2.60929e-06,8.12238e-06,0,2.0752e-06,-1.35103e+09,-1.35029e+09,-1.35138e+09,277350,0.0870345,0.13778,0,0.162967,-14736.5,-47832.1,-0,50050.7,277350
step02_gravity_refstate-mantle.xmf,213,2.33247e-06,8.58173e-06,0,2.76514e-06,-1.33554e+09,-1.3347e+09,-1.33585e+09,369561,0.0831825,0.159182,0,0.179606,-13760.1,-47352.8,-0,49311.6,369561
step02_gravity_refstate-mantle.xmf,214,2.92451e-06,7.63245e-06,0,1.45262e-06,-1.368e+09,-1.36737e+09,-1.36839e+09,194143,0.0904121,0.117763,0,0.148467,-15771.5,-48357.1,-0,50864.1,194143
step02_gravity_refstate-mantle.xmf,215,5.06659e-06,4.36714e-06,0,-6.0865e-07,-1.48676e+09,-1.48685e+09,-1.48744e+09,-81346.1,0.0920554,0.0363877,0,0.0989861,-22819.5,-52031.6,-0,56815.6,81346.1
step02_gravity_refstate-mantle.xmf,216,5.72194e-06,3.74483e-06,0,-5.80584e-07,-1.54508e+09,-1.54534e+09,-1.54584e+09,-77595,0.0920248,0.0236249,0,0.0950089,-24390.3,-53835.8,-0,59103.1,77595
step02_gravity_refstate-mantle.xmf,217,6.31675e-06,3.20986e-06,0,-3.93119e-07,-1.62443e+09,-1.62484e+09,-1.62527e+09,-52540.4,0.0905023,0.0120984,0,0.0913074,-25873,-56289.5,-0,61950.9,52540.4
step02_gravity_refstate-mantle.xmf,218,1.4983e-06,1.30295e-05,0,1.11427e-05,-1.28232e+09,-1.28078e+09,-1.28252e+09,1.48922e+06,0.0661462,0.347937,0,0.354169,-7953.09,-45714.9,-0,46401.5,1.48922e+06
step02_gravity_refstate-mantle.xmf,219,-1.16146e-07,1.24476e-05,0,1.21086e-05,-1.24213e+09,-1.24045e+09,-1.24212e+09,1.61832e+06,0.0366935,0.398835,0,0.400519,-7213.05,-44461,-0,45042.3,1.61832e+06
step02_gravity_refstate-mantle.xmf,220,-6.59255e-06,8.45554e-06,0,3.1323e-06,-1.09945e+09,-1.09744e+09,-1.09857e+09,418632,-0.0362611,0.21564,-0,0.218667,-13936,-40000,-0,42358.1,418632
step02_gravity_refstate-mantle.xmf,221,-5.05747e-06,8.83588e-06,0,3.48802e-06,-1.15145e+09,-1.14959e+09,-1.15077e+09,466174,-0.019671,0.251593,-0,0.252361,-11879.3,-41617.6,-0,43279.8,466174
step02_gravity_refstate-mantle.xmf,222,-2.77873e-06,9.71383e-06,0,6.76028e-06,-1.19676e+09,-1.19509e+09,-1.19639e+09,903511,0.00186487,0.328336,0,0.328341,-9136.78,-43034.7,-0,43993.9,903511
step02_gravity_refstate-mantle.xmf,223,-2.37235e-06,1.05181e-05,0,9.63546e-06,-1.20291e+09,-1.20119e+09,-1.20259e+09,1.28778e+06,0.00366285,0.383013,0,0.383031,-7821.3,-43229.5,-0,43931.3,1.28778e+06
step02_gravity_refstate-mantle.xmf,224,-4.12189e-06,9.16216e-06,0,4.842e-06,-1.1739e+09,-1.17212e+09,-1.17335e+09,647133,-0.0112863,0.289879,-0,0.290099,-10394.7,-42318.1,-0,43576.1,647133
step02_gravity_refstate-mantle.xmf,225,-1.52174e-06,1.14438e-05,0,1.16915e-05,-1.2169e+09,-1.21517e+09,-1.2167e+09,1.56257e+06,0.0148722,0.409816,0,0.410086,-7184.16,-43669.8,-0,44256.7,1.56257e+06
step02_gravity_refstate-mantle.xmf,226,1.76601e-06,1.2438e-05,0,9.68082e-06,-1.29531e+09,-1.29389e+09,-1.29555e+09,1.29384e+06,0.073144,0.312639,0,0.321081,-8686.09,-46116.4,-0,46927.3,1.29384e+06
step02_gravity_refstate-mantle.xmf,227,2.08246e-06,9.73998e-06,0,4.63189e-06,-1.32118e+09,-1.32015e+09,-1.32146e+09,619051,0.0807707,0.203431,0,0.218879,-11913.2,-46910.6,-0,48399.7,619051
step02_gravity_refstate-mantle.xmf,228,4.71895e-06,4.9056e-06,0,-4.66728e-07,-1.46499e+09,-1.46497e+09,-1.46562e+09,-62378.2,0.0942356,0.0455773,0,0.104679,-21558.7,-51358.3,-0,55699.7,62378.2
step02_gravity_refstate-mantle.xmf,229,4.3499e-06,5.47438e-06,0,-2.39748e-07,-1.44377e+09,-1.44362e+09,-1.44435e+09,-32042.3,0.0954655,0.05663,0,0.110998,-20299.5,-50701.6,-0,54614.3,32042.3
step02_gravity_refstate-mantle.xmf,230,3.97219e-06,6.03494e-06,0,6.2871e-08,-1.42288e+09,-1.4226e+09,-1.42341e+09,8402.71,0.0954515,0.0694189,0,0.118025,-19096.6,-50055.3,-0,53574.4,8402.71
step02_gravity_refstate-mantle.xmf,231,3.2579e-06,7.11992e-06,0,9.10842e-07,-1.38546e+09,-1.38495e+09,-1.3859e+09,121734,0.0929364,0.0998274,0,0.136392,-16838.3,-48897.5,-0,51715.5,121734
step02_gravity_refstate-mantle.xmf,232,3.60525e-06,6.58134e-06,0,4.43006e-07,-1.40337e+09,-1.40297e+09,-1.40385e+09,59207.8,0.0945204,0.0837744,0,0.126302,-17949.4,-49451.6,-0,52608.4,59207.8
step02_gravity_refstate-mantle.xmf,233,5.45713e-06,4.35809e-06,0,-4.77512e-07,-1.52935e+09,-1.5295e+09,-1.53008e+09,-63819.4,0.0981537,0.0302329,0,0.102704,-22921.5,-53349.8,-0,58065.4,63819.4
step02_gravity_refstate-mantle.xmf,234,6.06635e-06,3.74316e-06,0,-4.15261e-07,-1.59727e+09,-1.59758e+09,-1.59808e+09,-55499.6,0.0971438,0.0174231,0,0.0986939,-24455.5,-55450.2,-0,60603.6,55499.6
step02_gravity_refstate-mantle.xmf,235,6.53292e-06,3.21438e-06,0,-1.96325e-07,-1.68601e+09,-1.68645e+09,-1.68688e+09,-26238.9,0.0931133,0.00589818,0,0.0932999,-25945.4,-58193.3,-0,63715.1,26238.9
step02_gravity_refstate-mantle.xmf,236,6.65716e-06,2.95036e-06,0,6.82828e-09,-1.74449e+09,-1.74499e+09,-1.74538e+09,912.6,0.0875681,-1.07886e-19,0,0.0875681,-26927.8,-60000,-0,65765.5,912.6
step02_gravity_refstate-mantle.xmf,237,1.09728e-06,1.38746e-05,0,1.31223e-05,-1.26969e+09,-1.26799e+09,-1.26984e+09,1.75379e+06,0.058389,0.39088,0,0.395217,-7144.85,-45324.2,-0,45883.9,1.75379e+06
step02_gravity_refstate-mantle.xmf,238,-6.23497e-06,8.8111e-06,0,3.52416e-06,-1.12576e+09,-1.12375e+09,-1.12493e+09,471004,-0.0323942,0.245087,-0,0.247219,-12390.1,-40816.2,-0,42655.3,471004
step02_gravity_refstate-mantle.xmf,239,-7.26343e-06,8.7376e-06,0,3.81282e-06,-1.09957e+09,-1.09743e+09,-1.0986e+09,509583,-0.0435125,0.239739,-0,0.243656,-12888,-40000,-0,42025,509583
step02_gravity_refstate-mantle.xmf,240,-3.29452e-06,9.89843e-06,0,8.06111e-06,-1.18895e+09,-1.18718e+09,-1.18851e+09,1.07737e+06,-0.00672724,0.359772,-0,0.359835,-8431.97,-42790.4,-0,43613.3,1.07737e+06
step02_gravity_refstate-mantle.xmf,241,-4.1837e-06,9.36937e-06,0,5.94489e-06,-1.17462e+09,-1.17281e+09,-1.17406e+09,794534,-0.0140828,0.31762,-0,0.317932,-9593.33,-42340.6,-0,43413.8,794534
step02_gravity_refstate-mantle.xmf,242,-5.48865e-06,9.04432e-06,0,4.44085e-06,-1.15e+09,-1.14806e+09,-1.14927e+09,593519,-0.0257337,0.279966,-0,0.281147,-10917.7,-41570.6,-0,42980.3,593519
step02_gravity_refstate-mantle.xmf,243,-3.09257e-06,1.05809e-05,0,1.14903e-05,-1.19214e+09,-1.19031e+09,-1.19173e+09,1.53568e+06,-0.00798686,0.420919,-0,0.420995,-7136.1,-42892.2,-0,43481.8,1.53568e+06
step02_gravity_refstate-mantle.xmf,244,1.99212e-06,1.19245e-05,0,8.42972e-06,-1.30932e+09,-1.30799e+09,-1.30958e+09,1.12663e+06,0.0797376,0.279521,0,0.290672,-9446.56,-46549.2,-0,47498.1,1.12663e+06
step02_gravity_refstate-mantle.xmf,245,2.18619e-06,1.1409e-05,0,7.2341e-06,-1.32377e+09,-1.32254e+09,-1.32406e+09,966837,0.0855695,0.247895,0,0.262248,-10260.8,-46995.7,-0,48102.8,966837
step02_gravity_refstate-mantle.xmf,246,2.33165e-06,1.08713e-05,0,6.0832e-06,-1.33745e+09,-1.33631e+09,-1.33776e+09,813020,0.0901667,0.218881,0,0.236725,-11110.3,-47417.7,-0,48701.9,813020
step02_gravity_refstate-mantle.xmf,247,2.48203e-06,1.04303e-05,0,5.1661e-06,-1.3514e+09,-1.35034e+09,-1.35174e+09,690449,0.0943775,0.194259,0,0.215972,-11901.8,-47848.7,-0,49306.7,690449
step02_gravity_refstate-mantle.xmf,248,3.07601e-06,8.56876e-06,0,2.38955e-06,-1.38853e+09,-1.38779e+09,-1.38894e+09,319364,0.100377,0.127103,0,0.161959,-14797.1,-48994.7,-0,51180.4,319364
step02_gravity_refstate-mantle.xmf,249,2.63168e-06,9.66865e-06,0,4.02108e-06,-1.35887e+09,-1.35793e+09,-1.35922e+09,537417,0.0949672,0.17033,0,0.195016,-12871.2,-48078.4,-0,49771.5,537417
step02_gravity_refstate-mantle.xmf,250,2.82578e-06,9.11075e-06,0,3.1536e-06,-1.37228e+09,-1.37144e+09,-1.37266e+09,421478,0.0975556,0.148136,0,0.177373,-13811.8,-48492.6,-0,50421.2,421478
step02_gravity_refstate-mantle.xmf,251,3.37207e-06,8.0136e-06,0,1.71599e-06,-1.40661e+09,-1.40598e+09,-1.40706e+09,229342,0.102863,0.107661,0,0.148902,-15825.6,-49553.6,-0,52019.3,229342
step02_gravity_refstate-mantle.xmf,252,5.1347e-06,4.95957e-06,0,-3.28544e-07,-1.50887e+09,-1.50889e+09,-1.50955e+09,-43909.9,0.101863,0.0385488,0,0.108914,-21623.8,-52716.4,-0,56979,43909.9
step02_gravity_refstate-mantle.xmf,253,5.78044e-06,4.35999e-06,0,-3.55994e-07,-1.57479e+09,-1.57498e+09,-1.57556e+09,-47578.5,0.103174,0.0236747,0,0.105855,-23053.6,-54755.6,-0,59410.8,47578.5
step02_gravity_refstate-mantle.xmf,254,6.28479e-06,3.79436e-06,0,-2.64541e-07,-1.64851e+09,-1.64884e+09,-1.64935e+09,-35355.9,0.100951,0.0114506,0,0.101598,-24456.1,-57034.6,-0,62056.8,35355.9
step02_gravity_refstate-mantle.xmf,255,1.98087e-06,1.42332e-05,0,1.19037e-05,-1.3097e+09,-1.30806e+09,-1.30996e+09,1.59093e+06,0.0828897,0.334501,0,0.344618,-7995.71,-46566.8,-0,47248.3,1.59093e+06
step02_gravity_refstate-mantle.xmf,256,1.77145e-06,1.50007e-05,0,1.3506e-05,-1.29733e+09,-1.29557e+09,-1.29757e+09,1.80508e+06,0.0769062,0.370614,0,0.378509,-7306.66,-46185.4,-0,46759.8,1.80508e+06
step02_gravity_refstate-mantle.xmf,257,2.99216e-07,1.41471e-05,0,1.45897e-05,-1.25356e+09,-1.25171e+09,-1.2536e+09,1.94992e+06,0.0462471,0.42836,0,0.430849,-6566.61,-44821.2,-0,45299.7,1.94992e+06
step02_gravity_refstate-mantle.xmf,258,-8.59208e-07,1.28754e-05,0,1.41567e-05,-1.23003e+09,-1.2282e+09,-1.22992e+09,1.89204e+06,0.0259488,0.439658,0,0.440423,-6543.95,-44083.4,-0,44566.5,1.89204e+06
step02_gravity_refstate-mantle.xmf,259,9.23006e-07,1.55686e-05,0,1.56375e-05,-1.27111e+09,-1.26915e+09,-1.27123e+09,2.08995e+06,0.0601942,0.427622,0,0.431838,-6432.17,-45371.2,-0,45824.8,2.08995e+06
step02_gravity_refstate-mantle.xmf,260,-6.75758e-06,9.03429e-06,0,4.34532e-06,-1.1253e+09,-1.12319e+09,-1.1244e+09,580751,-0.0390514,0.271934,-0,0.274724,-11416.9,-40799.1,-0,42366.3,580751
step02_gravity_refstate-mantle.xmf,261,-4.20919e-06,9.53244e-06,0,7.08285e-06,-1.1751e+09,-1.17326e+09,-1.17454e+09,946623,-0.0165997,0.344049,-0,0.344449,-8906.74,-42355.6,-0,43281.9,946623
step02_gravity_refstate-mantle.xmf,262,-4.05638e-06,9.89188e-06,0,9.58398e-06,-1.17809e+09,-1.17623e+09,-1.17755e+09,1.2809e+06,-0.0187662,0.393901,-0,0.394348,-7759.81,-42450.1,-0,43153.5,1.2809e+06
step02_gravity_refstate-mantle.xmf,263,-5.8026e-06,9.20935e-06,0,5.52002e-06,-1.14949e+09,-1.14748e+09,-1.14871e+09,737751,-0.0312855,0.310131,-0,0.311705,-10005.5,-41552.9,-0,42740.6,737751
step02_gravity_refstate-mantle.xmf,264,-2.21037e-06,1.16383e-05,0,1.38925e-05,-1.20651e+09,-1.20466e+09,-1.20622e+09,1.85673e+06,0.00402708,0.450612,0,0.45063,-6511.93,-43344.8,-0,43831.2,1.85673e+06
step02_gravity_refstate-mantle.xmf,265,2.09375e-06,1.35629e-05,0,1.04661e-05,-1.32185e+09,-1.32032e+09,-1.32213e+09,1.3988e+06,0.0880055,0.302082,0,0.31464,-8681.62,-46941.1,-0,47737.2,1.3988e+06
step02_gravity_refstate-mantle.xmf,266,4.78179e-06,5.58873e-06,0,-9.39309e-08,-1.48768e+09,-1.48757e+09,-1.48832e+09,-12553.9,0.104329,0.048719,0,0.115144,-20360.6,-52061.3,-0,55901.1,12553.9
step02_gravity_refstate-mantle.xmf,267,4.41373e-06,6.2335e-06,0,2.37229e-07,-1.46655e+09,-1.46631e+09,-1.46714e+09,31705.6,0.105639,0.0608554,0,0.121914,-19130.4,-51407.7,-0,54851.8,31705.6
step02_gravity_refstate-mantle.xmf,268,4.04768e-06,6.86553e-06,0,6.56576e-07,-1.44605e+09,-1.44568e+09,-1.44659e+09,87751.4,0.10581,0.0747735,0,0.129564,-17961.1,-50773.7,-0,53856.9,87751.4
step02_gravity_refstate-mantle.xmf,269,3.70139e-06,7.44817e-06,0,1.14064e-06,-1.42611e+09,-1.42561e+09,-1.42661e+09,152447,0.104791,0.0901611,0,0.13824,-16881,-50157,-0,52921.6,152447
step02_gravity_refstate-mantle.xmf,270,5.45222e-06,5.04181e-06,0,-2.11135e-07,-1.55339e+09,-1.55345e+09,-1.55412e+09,-28218.3,0.108192,0.0313763,0,0.11265,-21689.6,-54094.1,-0,58280.5,28218.3
step02_gravity_refstate-mantle.xmf,271,6.02435e-06,4.41113e-06,0,-2.32689e-07,-1.62323e+09,-1.62345e+09,-1.62404e+09,-31098.8,0.107465,0.0169557,0,0.108795,-23111.8,-56253.8,-0,60816.5,31098.8
step02_gravity_refstate-mantle.xmf,272,6.36472e-06,4.0159e-06,0,-1.18853e-07,-1.69854e+09,-1.69885e+09,-1.69939e+09,-15884.7,0.105357,0.00576812,0,0.105515,-24106.6,-58581.1,-0,63347.3,15884.7
step02_gravity_refstate-mantle.xmf,273,6.51728e-06,3.63689e-06,0,2.65618e-09,-1.74447e+09,-1.74485e+09,-1.74534e+09,354.999,0.0997582,-1.09287e-19,0,0.0997582,-25077,-60000,-0,65029.6,354.999
step02_gravity_refstate-mantle.xmf,274,1.45363e-06,1.63069e-05,0,1.56297e-05,-1.28963e+09,-1.28765e+09,-1.28983e+09,2.08891e+06,0.0731419,0.409671,0,0.416149,-6594.22,-45948.7,-0,46419.5,2.08891e+06
step02_gravity_refstate-mantle.xmf,275,3.80131e-07,1.6397e-05,0,1.73333e-05,-1.26258e+09,-1.26044e+09,-1.26263e+09,2.3166e+06,0.0538803,0.460862,0,0.464001,-5931.85,-45106.2,-0,45494.6,2.3166e+06
step02_gravity_refstate-mantle.xmf,276,9.74689e-07,1.77529e-05,0,1.78462e-05,-1.28257e+09,-1.28032e+09,-1.2827e+09,2.38514e+06,0.0690839,0.44853,0,0.453819,-5959.73,-45731,-0,46117.7,2.38514e+06
step02_gravity_refstate-mantle.xmf,277,-7.91564e-06,8.96193e-06,0,4.5916e-06,-1.09969e+09,-1.09744e+09,-1.09863e+09,613667,-0.0510763,0.26569,-0,0.270555,-11890.1,-40000,-0,41729.8,613667
step02_gravity_refstate-mantle.xmf,278,-5.03049e-06,9.50953e-06,0,8.147e-06,-1.16423e+09,-1.16229e+09,-1.16356e+09,1.08885e+06,-0.0283595,0.370302,-0,0.371387,-8363.33,-42014.3,-0,42838.6,1.08885e+06
step02_gravity_refstate-mantle.xmf,279,-5.97744e-06,9.32865e-06,0,6.85089e-06,-1.1499e+09,-1.14786e+09,-1.1491e+09,915622,-0.0364749,0.344686,-0,0.34661,-9076.03,-41564.9,-0,42544.3,915622
step02_gravity_refstate-mantle.xmf,280,-7.26746e-06,9.15446e-06,0,5.34677e-06,-1.1247e+09,-1.1225e+09,-1.12373e+09,714596,-0.0460642,0.301097,-0,0.3046,-10481.7,-40777.3,-0,42102.9,714596
step02_gravity_refstate-mantle.xmf,281,-3.66057e-06,1.04694e-05,0,1.38954e-05,-1.1831e+09,-1.18121e+09,-1.18261e+09,1.85711e+06,-0.0190482,0.462651,-0,0.463043,-6446.06,-42608.7,-0,43093.5,1.85711e+06
step02_gravity_refstate-mantle.xmf,282,-4.7934e-06,9.67269e-06,0,1.15427e-05,-1.16733e+09,-1.16539e+09,-1.16668e+09,1.54268e+06,-0.0319748,0.433113,-0,0.434291,-7055.6,-42111.9,-0,42698.9,1.54268e+06
step02_gravity_refstate-mantle.xmf,283,2.35538e-06,1.24002e-05,0,7.77441e-06,-1.3543e+09,-1.35296e+09,-1.35462e+09,1.03905e+06,0.0994013,0.2348,0,0.254974,-10322.2,-47942.4,-0,49041,1.03905e+06
step02_gravity_refstate-mantle.xmf,284,2.24978e-06,1.32701e-05,0,9.41073e-06,-1.34082e+09,-1.33934e+09,-1.34112e+09,1.25774e+06,0.0956673,0.269508,0,0.285984,-9378.69,-47527.4,-0,48443.9,1.25774e+06
step02_gravity_refstate-mantle.xmf,285,1.95388e-06,1.55305e-05,0,1.25997e-05,-1.33351e+09,-1.3317e+09,-1.33377e+09,1.68394e+06,0.0951655,0.323324,0,0.337039,-8000.13,-47305.6,-0,47977.3,1.68394e+06
step02_gravity_refstate-mantle.xmf,286,2.46654e-06,1.17657e-05,0,6.56617e-06,-1.36794e+09,-1.3667e+09,-1.36827e+09,877569,0.10292,0.207141,0,0.2313,-11150,-48362.9,-0,49631.6,877569
step02_gravity_refstate-mantle.xmf,287,2.60753e-06,1.11774e-05,0,5.49634e-06,-1.38218e+09,-1.38103e+09,-1.38252e+09,734586,0.10613,0.182066,0,0.21074,-11983.6,-48802,-0,50251.8,734586
step02_gravity_refstate-mantle.xmf,288,3.30441e-06,9.12618e-06,0,2.62899e-06,-1.42611e+09,-1.42534e+09,-1.42656e+09,351365,0.111866,0.115945,0,0.161113,-14854.3,-50158.6,-0,52311.9,351365
step02_gravity_refstate-mantle.xmf,289,3.03426e-06,9.75852e-06,0,3.45935e-06,-1.40817e+09,-1.40727e+09,-1.40857e+09,462342,0.109619,0.136822,0,0.175319,-13858.8,-49604.1,-0,51503.7,462342
step02_gravity_refstate-mantle.xmf,290,2.81191e-06,1.04053e-05,0,4.38e-06,-1.39355e+09,-1.39254e+09,-1.39393e+09,585387,0.107564,0.158458,0,0.191518,-12925,-49152.8,-0,50823.7,585387
step02_gravity_refstate-mantle.xmf,291,3.61596e-06,8.50084e-06,0,1.91146e-06,-1.44633e+09,-1.44568e+09,-1.44682e+09,255467,0.113849,0.0968547,0,0.149474,-15876.8,-50783.7,-0,53207.7,255467
step02_gravity_refstate-mantle.xmf,292,5.08954e-06,5.74701e-06,0,2.1916e-08,-1.53121e+09,-1.53112e+09,-1.53189e+09,2929.08,0.11172,0.0408496,0,0.118954,-20402.8,-53408.3,-0,57172.7,2929.08
step02_gravity_refstate-mantle.xmf,293,5.68878e-06,5.14862e-06,0,-1.17148e-07,-1.60026e+09,-1.60033e+09,-1.60102e+09,-15656.8,0.113383,0.0237995,0,0.115854,-21745.2,-55543.7,-0,59648.6,15656.8
step02_gravity_refstate-mantle.xmf,294,6.15285e-06,4.44121e-06,0,-1.63705e-07,-1.66526e+09,-1.66549e+09,-1.66609e+09,-21879.2,0.109852,0.0110847,0,0.11041,-23174.2,-57553.1,-0,62043.5,21879.2
step02_gravity_refstate-mantle.xmf,295,1.82405e-06,1.65144e-05,0,1.42489e-05,-1.32388e+09,-1.32191e+09,-1.32412e+09,1.90437e+06,0.0917187,0.35582,0,0.367451,-7346.16,-47009.5,-0,47580.1,1.90437e+06
step02_gravity_refstate-mantle.xmf,296,1.62917e-06,1.76264e-05,0,1.6104e-05,-1.31292e+09,-1.31078e+09,-1.31314e+09,2.1523e+06,0.0871204,0.392899,0,0.402442,-6681.95,-46672.6,-0,47148.5,2.1523e+06
step02_gravity_refstate-mantle.xmf,297,-4.96519e-07,1.48045e-05,0,1.69339e-05,-1.24185e+09,-1.23981e+09,-1.24179e+09,2.26322e+06,0.0361869,0.471077,0,0.472464,-5931.23,-44456,-0,44849.9,2.26322e+06
step02_gravity_refstate-mantle.xmf,298,-1.60499e-06,1.32625e-05,0,1.67e-05,-1.21971e+09,-1.21772e+09,-1.21949e+09,2.23196e+06,0.0155804,0.48256,0,0.482811,-5905.03,-43760.6,-0,44157.2,2.23196e+06
step02_gravity_refstate-mantle.xmf,299,2.26502e-07,1.90975e-05,0,2.02713e-05,-1.27382e+09,-1.2713e+09,-1.27385e+09,2.70925e+06,0.0629766,0.490488,0,0.494514,-5361.98,-45459.2,-0,45774.3,2.70925e+06
step02_gravity_refstate-mantle.xmf,300,-2.8144e-06,1.16536e-05,0,1.66427e-05,-1.19723e+09,-1.1953e+09,-1.19685e+09,2.22429e+06,-0.00673319,0.494574,-0,0.49462,-5856.27,-43054,-0,43450.5,2.22429e+06
step02_gravity_refstate-mantle.xmf,301,-8.53979e-06,9.11042e-06,0,5.48236e-06,-1.09981e+09,-1.09746e+09,-1.09867e+09,732718,-0.0588822,0.293548,-0,0.299396,-10939.7,-40000,-0,41469,732718
step02_gravity_refstate-mantle.xmf,302,-5.84032e-06,9.3148e-06,0,9.67118e-06,-1.15353e+09,-1.1515e+09,-1.15275e+09,1.29255e+06,-0.0415177,0.403897,-0,0.406025,-7706.43,-41677.8,-0,42384.3,1.29255e+06
step02_gravity_refstate-mantle.xmf,303,-7.68175e-06,9.2043e-06,0,6.4769e-06,-1.1243e+09,-1.12204e+09,-1.12327e+09,865638,-0.0530546,0.332316,-0,0.336524,-9591.43,-40762.3,-0,41875.6,865638
step02_gravity_refstate-mantle.xmf,304,2.0386e-06,1.47876e-05,0,1.13004e-05,-1.34249e+09,-1.34079e+09,-1.34276e+09,1.5103e+06,0.0981039,0.296684,0,0.312483,-8582.51,-47581.5,-0,48349.4,1.5103e+06
step02_gravity_refstate-mantle.xmf,305,4.71505e-06,6.47016e-06,0,3.55707e-07,-1.5102e+09,-1.50997e+09,-1.51083e+09,47540.2,0.114135,0.0519283,0,0.125392,-19179.4,-52758.8,-0,56136.8,47540.2
step02_gravity_refstate-mantle.xmf,306,4.33545e-06,7.20514e-06,0,8.01275e-07,-1.48963e+09,-1.48924e+09,-1.4902e+09,107090,0.115483,0.0649739,0,0.132506,-17996.6,-52122.5,-0,55141.9,107090
step02_gravity_refstate-mantle.xmf,307,3.9573e-06,7.88614e-06,0,1.31707e-06,-1.46821e+09,-1.46769e+09,-1.46874e+09,176026,0.115327,0.0799327,0,0.140319,-16903.5,-51460.3,-0,54165.4,176026
step02_gravity_refstate-mantle.xmf,308,5.30839e-06,5.92333e-06,0,9.42764e-08,-1.57607e+09,-1.57599e+09,-1.57678e+09,12600,0.117791,0.0325428,0,0.122204,-20447.6,-54796.1,-0,58486.9,12600
step02_gravity_refstate-mantle.xmf,309,5.85079e-06,5.28879e-06,0,-5.42824e-08,-1.65422e+09,-1.65429e+09,-1.655e+09,-7254.85,0.117847,0.0151016,0,0.11881,-21735.4,-57211.9,-0,61201.5,7254.85
step02_gravity_refstate-mantle.xmf,310,6.08552e-06,4.92977e-06,0,-5.55902e-08,-1.70185e+09,-1.702e+09,-1.70266e+09,-7429.63,0.115696,0.0065639,0,0.115882,-22461.1,-58683.9,-0,62835.5,7429.63
step02_gravity_refstate-mantle.xmf,311,6.27545e-06,4.5071e-06,0,7.56793e-10,-1.74445e+09,-1.74468e+09,-1.74529e+09,101.145,0.111081,-1.19826e-19,0,0.111081,-23306.5,-60000,-0,64367.6,101.145
step02_gravity_refstate-mantle.xmf,312,1.26138e-06,1.91216e-05,0,1.82445e-05,-1.30397e+09,-1.30158e+09,-1.30414e+09,2.43838e+06,0.0829699,0.432103,0,0.439997,-6032.29,-46397.5,-0,46788,2.43838e+06
step02_gravity_refstate-mantle.xmf,313,6.50973e-07,2.08894e-05,0,2.06137e-05,-1.29481e+09,-1.2921e+09,-1.29489e+09,2.75502e+06,0.077905,0.47412,0,0.480478,-5412.06,-46115,-0,46431.5,2.75502e+06
step02_gravity_refstate-mantle.xmf,314,-5.1381e-06,9.17784e-06,0,1.41154e-05,-1.15953e+09,-1.15761e+09,-1.15884e+09,1.88652e+06,-0.0432962,0.476858,-0,0.478819,-6330.73,-41867.5,-0,42343.4,1.88652e+06
step02_gravity_refstate-mantle.xmf,315,-3.99553e-06,1.00521e-05,0,1.67186e-05,-1.17564e+09,-1.17376e+09,-1.17511e+09,2.23444e+06,-0.0291565,0.506788,-0,0.507626,-5783.45,-42375.1,-0,42767.9,2.23444e+06
step02_gravity_refstate-mantle.xmf,316,-4.88952e-07,1.75248e-05,0,1.99738e-05,-1.25289e+09,-1.25049e+09,-1.25283e+09,2.66949e+06,0.0457116,0.503883,0,0.505953,-5341.95,-44804,-0,45121.3,2.66949e+06
step02_gravity_refstate-mantle.xmf,317,-6.84297e-06,9.18354e-06,0,8.40457e-06,-1.13995e+09,-1.13781e+09,-1.13904e+09,1.12327e+06,-0.049854,0.380237,-0,0.383491,-8299.86,-41251.5,-0,42078.2,1.12327e+06
step02_gravity_refstate-mantle.xmf,318,-8.14525e-06,9.14253e-06,0,7.76578e-06,-1.1217e+09,-1.11939e+09,-1.12061e+09,1.0379e+06,-0.061574,0.364962,-0,0.37012,-8777.72,-40678.7,-0,41615,1.0379e+06
step02_gravity_refstate-mantle.xmf,319,-9.10535e-06,9.15688e-06,0,6.49564e-06,-1.09993e+09,-1.09749e+09,-1.09872e+09,868143,-0.0668554,0.323374,-0,0.330213,-10034.7,-40000,-0,41239.5,868143
step02_gravity_refstate-mantle.xmf,320,-6.79075e-06,8.78519e-06,0,1.18358e-05,-1.14018e+09,-1.1381e+09,-1.13927e+09,1.58186e+06,-0.0590589,0.447787,-0,0.451665,-6929.5,-41257.8,-0,41835.7,1.58186e+06
step02_gravity_refstate-mantle.xmf,321,2.15852e-06,1.35191e-05,0,8.16191e-06,-1.3844e+09,-1.38288e+09,-1.38469e+09,1.09084e+06,0.110728,0.22116,0,0.247331,-10377.8,-48873.7,-0,49963.4,1.09084e+06
step02_gravity_refstate-mantle.xmf,322,1.42211e-06,1.79998e-05,0,1.47921e-05,-1.34666e+09,-1.34444e+09,-1.34685e+09,1.97696e+06,0.101999,0.34265,0,0.357509,-7369.23,-47714.4,-0,48280.1,1.97696e+06
step02_gravity_refstate-mantle.xmf,323,2.01094e-06,1.44014e-05,0,9.61375e-06,-1.37202e+09,-1.37037e+09,-1.37229e+09,1.28488e+06,0.108012,0.250234,0,0.27255,-9562.56,-48492.6,-0,49426.4,1.28488e+06
step02_gravity_refstate-mantle.xmf,324,1.61034e-06,1.67692e-05,0,1.30233e-05,-1.3553e+09,-1.35328e+09,-1.35552e+09,1.74057e+06,0.104434,0.310967,0,0.328035,-8037.38,-47979.5,-0,48648.1,1.74057e+06
step02_gravity_refstate-mantle.xmf,325,1.81602e-06,1.55467e-05,0,1.13115e-05,-1.36281e+09,-1.36097e+09,-1.36305e+09,1.51178e+06,0.10611,0.281011,0,0.300378,-8754.03,-48209.6,-0,48997.9,1.51178e+06
step02_gravity_refstate-mantle.xmf,326,2.31419e-06,1.27617e-05,0,6.89448e-06,-1.39813e+09,-1.39673e+09,-1.39844e+09,921447,0.113504,0.194588,0,0.225272,-11194.2,-49296.8,-0,50551.8,921447
step02_gravity_refstate-mantle.xmf,327,2.51458e-06,1.19989e-05,0,5.70662e-06,-1.41248e+09,-1.41122e+09,-1.41282e+09,762689,0.115928,0.169547,0,0.205391,-12059.4,-49739.6,-0,51180.7,762689
step02_gravity_refstate-mantle.xmf,328,3.33503e-06,9.7715e-06,0,2.765e-06,-1.46391e+09,-1.46305e+09,-1.46436e+09,369542,0.121626,0.104361,0,0.160263,-14892.9,-51328,-0,53444.9,369542
step02_gravity_refstate-mantle.xmf,329,3.0264e-06,1.04918e-05,0,3.636e-06,-1.44432e+09,-1.44332e+09,-1.44472e+09,485951,0.119837,0.124683,0,0.172936,-13908.6,-50722.6,-0,52595,485951
step02_gravity_refstate-mantle.xmf,330,2.75515e-06,1.12305e-05,0,4.61533e-06,-1.4274e+09,-1.42626e+09,-1.42777e+09,616839,0.117932,0.146368,0,0.187967,-12965.2,-50200,-0,51847.2,616839
step02_gravity_refstate-mantle.xmf,331,3.66158e-06,9.09948e-06,0,2.04506e-06,-1.48502e+09,-1.48429e+09,-1.48551e+09,273322,0.123074,0.0866214,0,0.150501,-15850.9,-51980.5,-0,54343.6,273322
step02_gravity_refstate-mantle.xmf,332,4.90005e-06,6.74574e-06,0,4.17509e-07,-1.55452e+09,-1.55427e+09,-1.55518e+09,55800,0.121213,0.0427009,0,0.128514,-19207.6,-54129.7,-0,57436.6,55800
step02_gravity_refstate-mantle.xmf,333,5.43932e-06,6.13335e-06,0,1.21464e-07,-1.62314e+09,-1.62305e+09,-1.62387e+09,16233.7,0.122769,0.0237748,0,0.12505,-20446.2,-56251.4,-0,59852.1,16233.7
step02_gravity_refstate-mantle.xmf,334,1.24957e-06,1.92668e-05,0,1.66718e-05,-1.33645e+09,-1.33404e+09,-1.33661e+09,2.22818e+06,0.0985752,0.377498,0,0.390156,-6722.39,-47401,-0,47875.4,2.22818e+06
step02_gravity_refstate-mantle.xmf,335,9.99563e-07,2.07501e-05,0,1.87294e-05,-1.32634e+09,-1.3237e+09,-1.32647e+09,2.50319e+06,0.0947335,0.415119,0,0.425791,-6090.87,-47090.8,-0,47483.1,2.50319e+06
step02_gravity_refstate-mantle.xmf,336,-3.47762e-07,2.30883e-05,0,2.32735e-05,-1.28509e+09,-1.28196e+09,-1.28505e+09,3.1105e+06,0.0713904,0.520495,0,0.525368,-4807.16,-45813.8,-0,46065.4,3.1105e+06
step02_gravity_refstate-mantle.xmf,337,-5.12513e-06,8.41793e-06,0,1.68803e-05,-1.15464e+09,-1.15283e+09,-1.15395e+09,2.25606e+06,-0.0516944,0.519846,-0,0.52241,-5679.98,-41714.6,-0,42099.5,2.25606e+06
step02_gravity_refstate-mantle.xmf,338,-1.37464e-06,1.54562e-05,0,1.98891e-05,-1.23147e+09,-1.22922e+09,-1.23128e+09,2.65818e+06,0.0260308,0.516469,0,0.517124,-5320.96,-44130.9,-0,44450.5,2.65818e+06
step02_gravity_refstate-mantle.xmf,339,-2.315e-06,1.3434e-05,0,1.98948e-05,-1.20995e+09,-1.20784e+09,-1.20964e+09,2.65894e+06,0.00473289,0.528934,0,0.528955,-5283.94,-43454.7,-0,43774.8,2.65894e+06
step02_gravity_refstate-mantle.xmf,340,-9.35154e-07,2.07882e-05,0,2.34281e-05,-1.26391e+09,-1.26101e+09,-1.26379e+09,3.13117e+06,0.0547701,0.538174,0,0.540953,-4765.06,-45149.7,-0,45400.4,3.13117e+06
step02_gravity_refstate-mantle.xmf,341,-3.23005e-06,1.13145e-05,0,1.99132e-05,-1.18864e+09,-1.1867e+09,-1.18821e+09,2.6614e+06,-0.0174486,0.54067,-0,0.540951,-5237,-42785,-0,43104.3,2.6614e+06
step02_gravity_refstate-mantle.xmf,342,-7.76337e-06,8.77352e-06,0,9.98157e-06,-1.12835e+09,-1.12614e+09,-1.12731e+09,1.33404e+06,-0.0651217,0.414959,-0,0.420038,-7626.58,-40885.7,-0,41590.9,1.33404e+06
step02_gravity_refstate-mantle.xmf,343,-9.58798e-06,9.07364e-06,0,7.65389e-06,-1.10004e+09,-1.09755e+09,-1.09876e+09,1.02294e+06,-0.0749026,0.355231,-0,0.363042,-9172.9,-40000,-0,41038.3,1.02294e+06
step02_gravity_refstate-mantle.xmf,344,-6.44342e-06,7.8551e-06,0,1.4797e-05,-1.13815e+09,-1.13624e+09,-1.13728e+09,1.97762e+06,-0.0666026,0.497046,-0,0.501489,-6095.69,-41194.9,-0,41643.4,1.97762e+06
step02_gravity_refstate-mantle.xmf,345,4.48276e-06,7.57459e-06,0,8.47694e-07,-1.53364e+09,-1.53322e+09,-1.53423e+09,113294,0.123421,0.0545668,0,0.134946,-18042.5,-53483.9,-0,56445.2,113294
step02_gravity_refstate-mantle.xmf,346,4.02391e-06,8.52725e-06,0,1.47285e-06,-1.51441e+09,-1.51381e+09,-1.51495e+09,196846,0.125264,0.0690722,0,0.143045,-16812.3,-52889.3,-0,55497.1,196846
step02_gravity_refstate-mantle.xmf,347,5.01036e-06,7.02338e-06,0,4.09339e-07,-1.60085e+09,-1.60058e+09,-1.60152e+09,54708.2,0.12692,0.0327217,0,0.13107,-19231.2,-55562.2,-0,58796.3,54708.2
step02_gravity_refstate-mantle.xmf,348,5.45804e-06,6.39245e-06,0,1.18102e-07,-1.66462e+09,-1.66449e+09,-1.66535e+09,15784.3,0.126508,0.0160838,0,0.127527,-20313.2,-57533.4,-0,61014.1,15784.3
step02_gravity_refstate-mantle.xmf,349,5.68325e-06,6.01791e-06,0,2.64083e-08,-1.70126e+09,-1.70121e+09,-1.70202e+09,3529.47,0.12489,0.0081283,0,0.125154,-20895.3,-58665.7,-0,62275.9,3529.47
step02_gravity_refstate-mantle.xmf,350,5.90396e-06,5.5834e-06,0,-1.29108e-09,-1.74444e+09,-1.74448e+09,-1.74523e+09,-172.553,0.121405,-1.40709e-19,0,0.121405,-21611.7,-60000,-0,63773.6,172.553
step02_gravity_refstate-mantle.xmf,351,5.81438e-07,2.25709e-05,0,2.10109e-05,-1.3164e+09,-1.31346e+09,-1.31648e+09,2.8081e+06,0.0903743,0.456036,0,0.464904,-5470.29,-46785.8,-0,47104.5,2.8081e+06
step02_gravity_refstate-mantle.xmf,352,-1.89407e-07,2.49454e-05,0,2.36621e-05,-1.30638e+09,-1.30303e+09,-1.30636e+09,3.16244e+06,0.0851103,0.501861,0,0.509027,-4847.07,-46477.3,-0,46729.4,3.16244e+06
step02_gravity_refstate-mantle.xmf,353,-4.07673e-06,9.18486e-06,0,1.99371e-05,-1.16794e+09,-1.16617e+09,-1.16739e+09,2.6646e+06,-0.0397457,0.552217,-0,0.553646,-5171.02,-42134.4,-0,42450.6,2.6646e+06
step02_gravity_refstate-mantle.xmf,354,-1.65864e-06,1.86084e-05,0,2.35505e-05,-1.24236e+09,-1.23965e+09,-1.24214e+09,3.14752e+06,0.0355165,0.553199,0,0.554338,-4743.56,-44473.5,-0,44725.8,3.14752e+06
step02_gravity_refstate-mantle.xmf,355,-8.5142e-06,8.89777e-06,0,8.97552e-06,-1.11852e+09,-1.1162e+09,-1.11739e+09,1.19958e+06,-0.0693453,0.392264,-0,0.398346,-8167.4,-40577.6,-0,41391.4,1.19958e+06
step02_gravity_refstate-mantle.xmf,356,-9.95889e-06,8.83017e-06,0,8.97668e-06,-1.10014e+09,-1.09763e+09,-1.09881e+09,1.19973e+06,-0.0829147,0.38918,-0,0.397914,-8352.15,-40000,-0,40862.7,1.19973e+06
step02_gravity_refstate-mantle.xmf,357,-8.58873e-06,8.19388e-06,0,1.14651e-05,-1.11766e+09,-1.11542e+09,-1.11651e+09,1.53231e+06,-0.0795098,0.445559,-0,0.452597,-7081.79,-40548.6,-0,41162.4,1.53231e+06
step02_gravity_refstate-mantle.xmf,358,-5.9308e-06,6.98397e-06,0,1.7284e-05,-1.138e+09,-1.13628e+09,-1.13721e+09,2.31e+06,-0.0702342,0.534218,-0,0.538815,-5528.08,-41191.7,-0,41561,2.31e+06
step02_gravity_refstate-mantle.xmf,359,-4.83497e-06,7.14492e-06,0,1.98498e-05,-1.14831e+09,-1.14671e+09,-1.14766e+09,2.65292e+06,-0.0613423,0.56282,-0,0.566153,-5095.9,-41517.7,-0,41829.3,2.65292e+06
step02_gravity_refstate-mantle.xmf,360,1.68844e-06,1.47569e-05,0,8.39345e-06,-1.41418e+09,-1.41243e+09,-1.4144e+09,1.12178e+06,0.119889,0.207484,0,0.239631,-10403.3,-49793.5,-0,50868.6,1.12178e+06
step02_gravity_refstate-mantle.xmf,361,1.49903e-06,1.56614e-05,0,9.83254e-06,-1.39971e+09,-1.39782e+09,-1.39991e+09,1.31412e+06,0.116999,0.235863,0,0.263287,-9613.12,-49347.7,-0,50275.3,1.31412e+06
step02_gravity_refstate-mantle.xmf,362,4.26969e-07,2.10062e-05,0,1.70395e-05,-1.35883e+09,-1.35608e+09,-1.35889e+09,2.27733e+06,0.107044,0.362535,0,0.378008,-6745.46,-48091.5,-0,48562.3,2.27733e+06
step02_gravity_refstate-mantle.xmf,363,7.20381e-07,1.9462e-05,0,1.50424e-05,-1.36862e+09,-1.36612e+09,-1.36872e+09,2.01042e+06,0.10987,0.328151,0,0.346055,-7412.78,-48392,-0,48956.4,2.01042e+06
step02_gravity_refstate-mantle.xmf,364,1.28549e-06,1.67389e-05,0,1.14284e-05,-1.3877e+09,-1.38563e+09,-1.38787e+09,1.52741e+06,0.114441,0.265452,0,0.28907,-8847.58,-48977.9,-0,49770.7,1.52741e+06
step02_gravity_refstate-mantle.xmf,365,1.01349e-06,1.80396e-05,0,1.31906e-05,-1.37782e+09,-1.37554e+09,-1.37795e+09,1.76293e+06,0.112207,0.296318,0,0.316852,-8105.58,-48674.3,-0,49344.6,1.76293e+06
step02_gravity_refstate-mantle.xmf,366,1.91691e-06,1.3898e-05,0,7.05878e-06,-1.43013e+09,-1.42852e+09,-1.43038e+09,943406,0.122705,0.180539,0,0.218291,-11231.5,-50285.5,-0,51524.6,943406
step02_gravity_refstate-mantle.xmf,367,2.18423e-06,1.30333e-05,0,5.82792e-06,-1.44605e+09,-1.4446e+09,-1.44634e+09,778901,0.124991,0.155907,0,0.199824,-12091.9,-50776.8,-0,52196.8,778901
step02_gravity_refstate-mantle.xmf,368,3.21549e-06,1.04552e-05,0,2.80023e-06,-1.49957e+09,-1.4986e+09,-1.5e+09,374251,0.12937,0.0932793,0,0.159492,-14887.4,-52430.6,-0,54503.2,374251
step02_gravity_refstate-mantle.xmf,369,2.84697e-06,1.12888e-05,0,3.68966e-06,-1.4799e+09,-1.47877e+09,-1.48028e+09,493123,0.12822,0.11244,0,0.170538,-13926.2,-51822.6,-0,53661.2,493123
step02_gravity_refstate-mantle.xmf,370,2.49487e-06,1.21678e-05,0,4.71226e-06,-1.46239e+09,-1.46109e+09,-1.46272e+09,629794,0.126817,0.133406,0,0.184064,-12982.9,-51281.4,-0,52899.4,629794
step02_gravity_refstate-mantle.xmf,371,3.55497e-06,9.73966e-06,0,2.13724e-06,-1.51771e+09,-1.51688e+09,-1.51819e+09,285642,0.129937,0.0783415,0,0.151727,-15732.7,-52991.3,-0,55277.4,285642
step02_gravity_refstate-mantle.xmf,372,4.55014e-06,7.92154e-06,0,7.95718e-07,-1.57844e+09,-1.57799e+09,-1.57905e+09,106348,0.129679,0.0434615,0,0.136768,-18101.7,-54869.3,-0,57778.1,106348
step02_gravity_refstate-mantle.xmf,373,5.04774e-06,7.26878e-06,0,3.19106e-07,-1.64657e+09,-1.64627e+09,-1.64724e+09,42648.5,0.130896,0.0225458,0,0.132824,-19254.1,-56975.3,-0,60140.7,42648.5
step02_gravity_refstate-mantle.xmf,374,-1.58608e-06,2.7584e-05,0,2.6644e-05,-1.29569e+09,-1.2918e+09,-1.29548e+09,3.56097e+06,0.0780887,0.551934,0,0.557431,-4253.93,-46144.5,-0,46340.2,3.56097e+06
step02_gravity_refstate-mantle.xmf,375,1.45244e-07,2.26365e-05,0,1.91168e-05,-1.34871e+09,-1.34571e+09,-1.34873e+09,2.55496e+06,0.103767,0.398495,0,0.411784,-6123.26,-47781.2,-0,48172,2.55496e+06
step02_gravity_refstate-mantle.xmf,376,-2.03001e-07,2.4537e-05,0,2.13824e-05,-1.33859e+09,-1.33528e+09,-1.33856e+09,2.85776e+06,0.100085,0.437295,0,0.448602,-5516.4,-47470.9,-0,47790.3,2.85776e+06
step02_gravity_refstate-mantle.xmf,377,-1.93928e-06,2.56765e-05,0,2.67791e-05,-1.27533e+09,-1.27164e+09,-1.27507e+09,3.57903e+06,0.0633581,0.570439,0,0.573947,-4234.72,-45508.2,-0,45704.8,3.57903e+06
step02_gravity_refstate-mantle.xmf,378,-2.25477e-06,1.58115e-05,0,2.36429e-05,-1.22109e+09,-1.21868e+09,-1.22079e+09,3.15988e+06,0.0147716,0.565839,0,0.566032,-4729.27,-43805.5,-0,44060,3.15988e+06
step02_gravity_refstate-mantle.xmf,379,-2.82117e-06,1.30937e-05,0,2.37719e-05,-1.20035e+09,-1.19822e+09,-1.19997e+09,3.17712e+06,-0.00670862,0.578391,-0,0.57843,-4690.7,-43153.9,-0,43408,3.17712e+06
step02_gravity_refstate-mantle.xmf,380,-2.60236e-06,2.30947e-05,0,2.81283e-05,-1.25318e+09,-1.24974e+09,-1.25283e+09,3.75935e+06,0.044209,0.596447,0,0.598083,-4124.7,-44812.9,-0,45002.3,3.75935e+06
step02_gravity_refstate-mantle.xmf,381,-3.30978e-06,1.03355e-05,0,2.37797e-05,-1.18002e+09,-1.1782e+09,-1.17958e+09,3.17816e+06,-0.0285669,0.589894,-0,0.590585,-4641.44,-42515.7,-0,42768.3,3.17816e+06
step02_gravity_refstate-mantle.xmf,382,-1.01479e-05,8.35944e-06,0,1.04663e-05,-1.10022e+09,-1.09775e+09,-1.09887e+09,1.39882e+06,-0.090762,0.425279,-0,0.434856,-7570.51,-40000,-0,40710.1,1.39882e+06
step02_gravity_refstate-mantle.xmf,383,-8.20666e-06,7.58809e-06,0,1.32408e-05,-1.11928e+09,-1.11717e+09,-1.11818e+09,1.76964e+06,-0.0831938,0.479857,-0,0.487016,-6456.26,-40599.7,-0,41109.8,1.76964e+06
step02_gravity_refstate-mantle.xmf,384,-7.31261e-06,6.18224e-06,0,1.60038e-05,-1.11961e+09,-1.11781e+09,-1.11864e+09,2.1389e+06,-0.0887721,0.527149,-0,0.534571,-5689.94,-40612.3,-0,41009,2.1389e+06
step02_gravity_refstate-mantle.xmf,385,-5.76822e-06,5.30626e-06,0,1.92464e-05,-1.12928e+09,-1.1278e+09,-1.12851e+09,2.57228e+06,-0.0822529,0.567777,-0,0.573704,-5078.87,-40919.1,-0,41233.1,2.57228e+06
step02_gravity_refstate-mantle.xmf,386,4.12804e-06,8.73464e-06,0,1.27841e-06,-1.55621e+09,-1.55559e+09,-1.55676e+09,170859,0.130991,0.055627,0,0.142313,-17096.4,-54181.6,-0,56814.9,170859
step02_gravity_refstate-mantle.xmf,387,3.63652e-06,9.81117e-06,0,1.86548e-06,-1.54763e+09,-1.54681e+09,-1.54812e+09,249321,0.133722,0.0662595,0,0.149238,-16058.3,-53916.3,-0,56256.9,249321
step02_gravity_refstate-mantle.xmf,388,4.45941e-06,8.45077e-06,0,6.95639e-07,-1.62656e+09,-1.62602e+09,-1.62715e+09,92972.1,0.13558,0.032115,0,0.139332,-17930.6,-56356.3,-0,59140,92972.1
step02_gravity_refstate-mantle.xmf,389,5.07929e-06,7.45089e-06,0,1.73244e-07,-1.6969e+09,-1.69659e+09,-1.69758e+09,23154,0.133582,0.0110771,0,0.13404,-19252.5,-58530.9,-0,61615.9,23154
step02_gravity_refstate-mantle.xmf,390,5.37792e-06,6.88959e-06,0,-4.74258e-09,-1.74444e+09,-1.74424e+09,-1.74516e+09,-633.846,0.130571,-1.94993e-19,0,0.130571,-19987.9,-60000,-0,63241.7,633.846
step02_gravity_refstate-mantle.xmf,391,-6.98534e-07,2.68348e-05,0,2.38311e-05,-1.32847e+09,-1.32479e+09,-1.32838e+09,3.18503e+06,0.0958643,0.479315,0,0.488808,-4923.93,-47161,-0,47417.4,3.18503e+06
step02_gravity_refstate-mantle.xmf,392,-1.92761e-06,3.04298e-05,0,2.7005e-05,-1.31764e+09,-1.31331e+09,-1.31738e+09,3.60922e+06,0.0902464,0.534474,0,0.542039,-4218.45,-46827.3,-0,47016.9,3.60922e+06
step02_gravity_refstate-mantle.xmf,393,-3.65624e-06,3.1003e-05,0,3.03301e-05,-1.28656e+09,-1.28193e+09,-1.28607e+09,4.05362e+06,0.070406,0.601809,0,0.605913,-3729.04,-45857.3,-0,46008.7,4.05362e+06
step02_gravity_refstate-mantle.xmf,394,-3.73485e-06,7.62784e-06,0,2.35412e-05,-1.16017e+09,-1.15866e+09,-1.15967e+09,3.14628e+06,-0.050393,0.599531,-0,0.601645,-4591.93,-41892.9,-0,42143.8,3.14628e+06
step02_gravity_refstate-mantle.xmf,395,-2.80395e-06,1.91602e-05,0,2.80733e-05,-1.2315e+09,-1.22856e+09,-1.23112e+09,3.75199e+06,0.0237876,0.606001,0,0.606468,-4180.37,-44131.8,-0,44329.4,3.75199e+06
step02_gravity_refstate-mantle.xmf,396,-1.00735e-05,7.55433e-06,0,1.21786e-05,-1.10028e+09,-1.09792e+09,-1.09893e+09,1.62767e+06,-0.0982728,0.463581,-0,0.473883,-6826.09,-40000,-0,40578.3,1.62767e+06
step02_gravity_refstate-mantle.xmf,397,-4.12662e-06,4.98356e-06,0,2.2943e-05,-1.14029e+09,-1.13908e+09,-1.13974e+09,3.06633e+06,-0.0725432,0.607349,-0,0.611666,-4543.8,-41269.4,-0,41518.8,3.06633e+06
step02_gravity_refstate-mantle.xmf,398,9.20724e-07,1.62383e-05,0,8.4573e-06,-1.44753e+09,-1.44548e+09,-1.44765e+09,1.13032e+06,0.127967,0.191778,0,0.230553,-10393.8,-50822.3,-0,51874.3,1.13032e+06
step02_gravity_refstate-mantle.xmf,399,-1.12438e-06,2.46002e-05,0,1.9204e-05,-1.37049e+09,-1.36705e+09,-1.37034e+09,2.56662e+06,0.110153,0.381888,0,0.397457,-6140.09,-48450.4,-0,48837.9,2.56662e+06
step02_gravity_refstate-mantle.xmf,400,7.91856e-07,1.69763e-05,0,9.8874e-06,-1.42646e+09,-1.4243e+09,-1.42657e+09,1.32145e+06,0.123959,0.222099,0,0.25435,-9623.76,-50172.7,-0,51087.4,1.32145e+06
step02_gravity_refstate-mantle.xmf,401,5.03542e-07,1.81274e-05,0,1.14719e-05,-1.41328e+09,-1.41092e+09,-1.41334e+09,1.53322e+06,0.121321,0.250753,0,0.27856,-8877.78,-49766.4,-0,50552,1.53322e+06
step02_gravity_refstate-mantle.xmf,402,-6.99148e-07,2.27529e-05,0,1.70668e-05,-1.38122e+09,-1.37809e+09,-1.38113e+09,2.28098e+06,0.113381,0.346147,0,0.364243,-6776.1,-48780,-0,49248.4,2.28098e+06
step02_gravity_refstate-mantle.xmf,403,-2.68982e-07,2.10465e-05,0,1.50651e-05,-1.39167e+09,-1.38882e+09,-1.39164e+09,2.01345e+06,0.11626,0.312434,0,0.333364,-7447.32,-49101.3,-0,49662.9,2.01345e+06
step02_gravity_refstate-mantle.xmf,404,1.45046e-07,1.94896e-05,0,1.32015e-05,-1.40199e+09,-1.3994e+09,-1.40201e+09,1.76438e+06,0.118821,0.280822,0,0.304925,-8148.9,-49418.7,-0,50086.1,1.76438e+06
step02_gravity_refstate-mantle.xmf,405,1.32541e-06,1.50918e-05,0,6.97401e-06,-1.46375e+09,-1.46191e+09,-1.46393e+09,932076,0.130356,0.164508,0,0.209894,-11277.6,-51323.4,-0,52547.8,932076
step02_gravity_refstate-mantle.xmf,406,3.05343e-06,1.10433e-05,0,2.67884e-06,-1.53378e+09,-1.53272e+09,-1.53419e+09,358027,0.135312,0.0814579,0,0.157939,-14927.9,-53487.8,-0,55531.8,358027
step02_gravity_refstate-mantle.xmf,407,1.68018e-06,1.41331e-05,0,5.74654e-06,-1.48089e+09,-1.47923e+09,-1.48112e+09,768025,0.132516,0.140892,0,0.19342,-12113.7,-51852.7,-0,53248.9,768025
step02_gravity_refstate-mantle.xmf,408,2.56536e-06,1.20815e-05,0,3.59051e-06,-1.51515e+09,-1.51388e+09,-1.5155e+09,479872,0.134965,0.099546,0,0.167705,-13938.7,-52911.7,-0,54716.8,479872
step02_gravity_refstate-mantle.xmf,409,2.09219e-06,1.31365e-05,0,4.62592e-06,-1.49782e+09,-1.49634e+09,-1.4981e+09,618254,0.134065,0.119441,0,0.179554,-12990.6,-52375.7,-0,53962.7,618254
step02_gravity_refstate-mantle.xmf,410,4.06479e-06,9.11417e-06,0,1.08183e-06,-1.59833e+09,-1.59765e+09,-1.59887e+09,144586,0.136219,0.0437954,0,0.143086,-17126,-55483.4,-0,58066.4,144586
step02_gravity_refstate-mantle.xmf,411,4.59288e-06,8.34371e-06,0,4.2195e-07,-1.66681e+09,-1.66631e+09,-1.66743e+09,56393.6,0.136919,0.0204433,0,0.138436,-18276.2,-57600.4,-0,60430.4,56393.6
step02_gravity_refstate-mantle.xmf,412,-3.57417e-06,3.35754e-05,0,2.99753e-05,-1.30395e+09,-1.29898e+09,-1.30347e+09,4.00619e+06,0.0817386,0.585975,0,0.591649,-3705.1,-46401.5,-0,46549.2,4.00619e+06
step02_gravity_refstate-mantle.xmf,413,-1.59638e-06,2.66826e-05,0,2.14663e-05,-1.36032e+09,-1.35654e+09,-1.3601e+09,2.86897e+06,0.106775,0.418878,0,0.432273,-5541.52,-48138.4,-0,48456.3,2.86897e+06
step02_gravity_refstate-mantle.xmf,414,-2.12787e-06,2.91209e-05,0,2.39414e-05,-1.35017e+09,-1.34599e+09,-1.34989e+09,3.19977e+06,0.103044,0.458645,0,0.470078,-4958.59,-47827.6,-0,48084,3.19977e+06
step02_gravity_refstate-mantle.xmf,415,-4.0324e-06,2.89158e-05,0,3.14473e-05,-1.26878e+09,-1.26437e+09,-1.26824e+09,4.20293e+06,0.0563254,0.622057,0,0.624602,-3689.28,-45300.1,-0,45450,4.20293e+06
step02_gravity_refstate-mantle.xmf,416,-2.85154e-06,1.55024e-05,0,2.83004e-05,-1.21111e+09,-1.20866e+09,-1.21073e+09,3.78235e+06,0.00309111,0.618865,0,0.618872,-4160.6,-43492.3,-0,43690.8,3.78235e+06
step02_gravity_refstate-mantle.xmf,417,-2.86073e-06,1.19231e-05,0,2.84398e-05,-1.19108e+09,-1.1891e+09,-1.1907e+09,3.80098e+06,-0.0181836,0.631666,-0,0.631927,-4114.68,-42864.3,-0,43061.4,3.80098e+06
step02_gravity_refstate-mantle.xmf,418,-3.86734e-06,2.28991e-05,0,3.30461e-05,-1.23931e+09,-1.23574e+09,-1.2388e+09,4.41661e+06,0.0296421,0.648647,0,0.649324,-3662.21,-44375.7,-0,44526.5,4.41661e+06
step02_gravity_refstate-mantle.xmf,419,-2.83167e-06,8.50984e-06,0,2.81553e-05,-1.17182e+09,-1.17031e+09,-1.17145e+09,3.76296e+06,-0.0391656,0.641315,-0,0.64251,-4076.34,-42261,-0,42457.2,3.76296e+06
step02_gravity_refstate-mantle.xmf,420,-9.63122e-06,6.36217e-06,0,1.409e-05,-1.10028e+09,-1.09814e+09,-1.09899e+09,1.88313e+06,-0.105248,0.504116,-0,0.514986,-6117.1,-40000,-0,40465,1.88313e+06
step02_gravity_refstate-mantle.xmf,421,-6.8714e-06,4.35215e-06,0,1.81201e-05,-1.11272e+09,-1.11122e+09,-1.1118e+09,2.42175e+06,-0.100196,0.567281,-0,0.576061,-5120.14,-40397.7,-0,40720.9,2.42175e+06
step02_gravity_refstate-mantle.xmf,422,-4.88138e-06,2.42752e-06,0,2.17426e-05,-1.11834e+09,-1.11736e+09,-1.11768e+09,2.90589e+06,-0.097321,0.612938,-0,0.620616,-4504.99,-40579.5,-0,40828.8,2.90589e+06
step02_gravity_refstate-mantle.xmf,423,2.17427e-07,1.7253e-05,0,7.75019e-06,-1.48503e+09,-1.48275e+09,-1.48506e+09,1.03581e+06,0.134625,0.166967,0,0.214481,-10640.5,-51978.7,-0,53056.6,1.03581e+06
step02_gravity_refstate-mantle.xmf,424,3.50867e-06,1.02888e-05,0,1.66104e-06,-1.58555e+09,-1.58464e+09,-1.58602e+09,221998,0.13869,0.054255,0,0.148924,-16087.4,-55087.9,-0,57388.9,221998
step02_gravity_refstate-mantle.xmf,425,2.85868e-06,1.15876e-05,0,2.40343e-06,-1.57021e+09,-1.56905e+09,-1.57059e+09,321218,0.140285,0.0680875,0,0.155935,-14993.9,-54613.1,-0,56634,321218
step02_gravity_refstate-mantle.xmf,426,3.55466e-06,1.03976e-05,0,1.20936e-06,-1.62956e+09,-1.62865e+09,-1.63004e+09,161631,0.142029,0.0383951,0,0.147127,-16381.9,-56448,-0,58777.1,161631
step02_gravity_refstate-mantle.xmf,427,4.05933e-06,9.46047e-06,0,6.92415e-07,-1.66008e+09,-1.65936e+09,-1.66062e+09,92541.3,0.140764,0.0252396,0,0.143009,-17293.8,-57391.6,-0,59940.6,92541.3
step02_gravity_refstate-mantle.xmf,428,4.16192e-06,9.39997e-06,0,3.46677e-07,-1.70031e+09,-1.69961e+09,-1.70087e+09,46333.4,0.141691,0.0129355,0,0.14228,-17521.6,-58635,-0,61197,46333.4
step02_gravity_refstate-mantle.xmf,429,4.67363e-06,8.43879e-06,0,-6.15798e-09,-1.74447e+09,-1.74397e+09,-1.74509e+09,-823.014,0.138395,-2.52649e-19,0,0.138395,-18430.4,-60000,-0,62766.9,823.014
step02_gravity_refstate-mantle.xmf,430,-2.82507e-06,3.22046e-05,0,2.67254e-05,-1.34013e+09,-1.33545e+09,-1.33975e+09,3.57185e+06,0.0988203,0.502637,0,0.512259,-4371.78,-47520.8,-0,47721.4,3.57185e+06
step02_gravity_refstate-mantle.xmf,431,-4.00188e-06,3.64099e-05,0,3.02845e-05,-1.31931e+09,-1.31391e+09,-1.31877e+09,4.04752e+06,0.0892595,0.573641,0,0.580544,-3645.92,-46880.3,-0,47021.9,4.04752e+06
step02_gravity_refstate-mantle.xmf,432,-3.33094e-06,2.87958e-05,0,2.10657e-05,-1.38214e+09,-1.37785e+09,-1.3817e+09,2.81544e+06,0.111141,0.399301,0,0.41448,-5563.01,-48806.3,-0,49122.3,2.81544e+06
step02_gravity_refstate-mantle.xmf,433,-6.23256e-06,3.81151e-05,0,3.36764e-05,-1.29659e+09,-1.29066e+09,-1.29576e+09,4.50085e+06,0.0748711,0.632673,0,0.637088,-3245.76,-46168,-0,46282,4.50085e+06
step02_gravity_refstate-mantle.xmf,434,-6.35453e-06,3.51488e-05,0,3.51091e-05,-1.28e+09,-1.27445e+09,-1.27915e+09,4.69234e+06,0.0629569,0.651913,0,0.654946,-3246.35,-45647.1,-0,45762.3,4.69234e+06
step02_gravity_refstate-mantle.xmf,435,-4.35816e-06,2.65504e-05,0,3.33593e-05,-1.25408e+09,-1.24994e+09,-1.25349e+09,4.45847e+06,0.0430332,0.644536,0,0.645971,-3585.53,-44837.7,-0,44980.9,4.45847e+06
step02_gravity_refstate-mantle.xmf,436,-2.75877e-06,5.18938e-06,0,2.7632e-05,-1.15259e+09,-1.15153e+09,-1.15222e+09,3.69302e+06,-0.0604908,0.650212,-0,0.653019,-4023.1,-41658.9,-0,41852.7,3.69302e+06
step02_gravity_refstate-mantle.xmf,437,-3.53862e-06,1.90571e-05,0,3.34701e-05,-1.22193e+09,-1.21891e+09,-1.22146e+09,4.47328e+06,0.0125902,0.660128,0,0.660248,-3661.9,-43831.1,-0,43983.8,4.47328e+06
step02_gravity_refstate-mantle.xmf,438,-8.72244e-06,4.72629e-06,0,1.6257e-05,-1.10022e+09,-1.09842e+09,-1.09905e+09,2.17275e+06,-0.111422,0.546889,-0,0.558125,-5441.79,-40000,-0,40368.5,2.17275e+06
step02_gravity_refstate-mantle.xmf,439,-2.55983e-06,1.88753e-06,0,2.6568e-05,-1.13328e+09,-1.13269e+09,-1.13294e+09,3.55082e+06,-0.0821039,0.656856,-0,0.661967,-3971.85,-41055.3,-0,41247,3.55082e+06
step02_gravity_refstate-mantle.xmf,440,7.12064e-08,1.80169e-05,0,9.6843e-06,-1.45048e+09,-1.44808e+09,-1.45049e+09,1.29431e+06,0.128895,0.208371,0,0.245015,-9652.39,-50912.5,-0,51819.4,1.29431e+06
step02_gravity_refstate-mantle.xmf,441,-2.63778e-06,2.65078e-05,0,1.88467e-05,-1.39294e+09,-1.38905e+09,-1.39259e+09,2.51887e+06,0.114677,0.363086,0,0.380765,-6167.36,-49138.8,-0,49524.3,2.51887e+06
step02_gravity_refstate-mantle.xmf,442,-4.03798e-07,1.95179e-05,0,1.13706e-05,-1.43757e+09,-1.43491e+09,-1.43752e+09,1.51968e+06,0.126383,0.23706,0,0.268645,-8864.62,-50514.4,-0,51286.3,1.51968e+06
step02_gravity_refstate-mantle.xmf,443,-8.99734e-07,2.09952e-05,0,1.29971e-05,-1.42686e+09,-1.42393e+09,-1.42674e+09,1.73706e+06,0.123974,0.264619,0,0.292221,-8170.63,-50183.9,-0,50844.7,1.73706e+06
step02_gravity_refstate-mantle.xmf,444,-2.02653e-06,2.44959e-05,0,1.67664e-05,-1.40427e+09,-1.40073e+09,-1.404e+09,2.24083e+06,0.118043,0.32835,0,0.348924,-6802.88,-49487.7,-0,49953.1,2.24083e+06
step02_gravity_refstate-mantle.xmf,445,-1.45026e-06,2.26679e-05,0,1.48133e-05,-1.41566e+09,-1.41243e+09,-1.41546e+09,1.97979e+06,0.121165,0.295383,0,0.319268,-7473.14,-49838.5,-0,50395.7,1.97979e+06
step02_gravity_refstate-mantle.xmf,446,-3.30538e-07,1.85928e-05,0,9.16325e-06,-1.47186e+09,-1.46933e+09,-1.47182e+09,1.22467e+06,0.132514,0.191446,0,0.232833,-9851.61,-51571.7,-0,52504.2,1.22467e+06
step02_gravity_refstate-mantle.xmf,447,6.63223e-07,1.6178e-05,0,6.57302e-06,-1.49873e+09,-1.49666e+09,-1.49882e+09,878484,0.136452,0.145941,0,0.199795,-11365.9,-52402.2,-0,53620.7,878484
step02_gravity_refstate-mantle.xmf,448,2.21595e-06,1.28648e-05,0,3.30945e-06,-1.55246e+09,-1.55103e+09,-1.55275e+09,442308,0.140587,0.084969,0,0.164269,-13956.3,-54063.6,-0,55835.9,442308
step02_gravity_refstate-mantle.xmf,449,1.06602e-06,1.52405e-05,0,5.46971e-06,-1.51581e+09,-1.51392e+09,-1.51596e+09,731026,0.138406,0.125175,0,0.186614,-12107.8,-52930.2,-0,54297.3,731026
step02_gravity_refstate-mantle.xmf,450,1.5932e-06,1.41327e-05,0,4.37815e-06,-1.53396e+09,-1.53228e+09,-1.53417e+09,585140,0.139904,0.104595,0,0.17468,-12964.9,-53491.3,-0,55040,585140
step02_gravity_refstate-mantle.xmf,451,-6.01044e-06,4.06751e-05,0,3.26981e-05,-1.31291e+09,-1.30667e+09,-1.31211e+09,4.3701e+06,0.084376,0.611413,0,0.617207,-3257.03,-46680.4,-0,46793.8,4.3701e+06
step02_gravity_refstate-mantle.xmf,452,-4.47424e-06,3.65003e-05,0,2.94521e-05,-1.33445e+09,-1.32897e+09,-1.33385e+09,3.93627e+06,0.0950702,0.546336,0,0.554546,-3791.1,-47345.1,-0,47496.6,3.93627e+06
step02_gravity_refstate-mantle.xmf,453,-4.14015e-06,3.14748e-05,0,2.34737e-05,-1.37179e+09,-1.36703e+09,-1.37123e+09,3.13726e+06,0.107377,0.437407,0,0.450394,-4981.6,-48487.8,-0,48743.1,3.13726e+06
step02_gravity_refstate-mantle.xmf,454,-5.11739e-06,3.47104e-05,0,2.61156e-05,-1.36206e+09,-1.35674e+09,-1.36138e+09,3.49035e+06,0.103353,0.477509,0,0.488565,-4418.47,-48189.3,-0,48391.5,3.49035e+06
step02_gravity_refstate-mantle.xmf,455,-6.26711e-06,3.20515e-05,0,3.67486e-05,-1.26385e+09,-1.25873e+09,-1.26301e+09,4.91145e+06,0.0496504,0.670956,0,0.672791,-3226.42,-45140.9,-0,45256.1,4.91145e+06
step02_gravity_refstate-mantle.xmf,456,-2.91197e-06,1.44918e-05,0,3.39753e-05,-1.20291e+09,-1.20058e+09,-1.20252e+09,4.5408e+06,-0.00705234,0.675663,-0,0.6757,-3606.97,-43235.9,-0,43386.1,4.5408e+06
step02_gravity_refstate-mantle.xmf,457,-2.20864e-06,1.00157e-05,0,3.39123e-05,-1.18363e+09,-1.182e+09,-1.18334e+09,4.53238e+06,-0.0275181,0.687996,-0,0.688546,-3558.55,-42633.8,-0,42782.1,4.53238e+06
step02_gravity_refstate-mantle.xmf,458,-5.69806e-06,2.79116e-05,0,3.80837e-05,-1.24835e+09,-1.24386e+09,-1.24759e+09,5.08989e+06,0.0358598,0.687012,0,0.687947,-3212.28,-44655.4,-0,44770.8,5.08989e+06
step02_gravity_refstate-mantle.xmf,459,-4.82721e-06,2.34229e-05,0,3.89361e-05,-1.23224e+09,-1.22846e+09,-1.23159e+09,5.20381e+06,0.0208053,0.700484,0,0.700793,-3207.76,-44152.1,-0,44268.5,5.20381e+06
step02_gravity_refstate-mantle.xmf,460,-1.58213e-06,5.29623e-06,0,3.32599e-05,-1.1637e+09,-1.16278e+09,-1.16349e+09,4.44518e+06,-0.0491694,0.696779,-0,0.698512,-3519.08,-42010.1,-0,42157.2,4.44518e+06
step02_gravity_refstate-mantle.xmf,461,-7.08671e-06,2.30446e-06,0,1.85963e-05,-1.10006e+09,-1.09881e+09,-1.09912e+09,2.48539e+06,-0.116504,0.591847,-0,0.603205,-4798.49,-40000,-0,40286.8,2.48539e+06
step02_gravity_refstate-mantle.xmf,462,-2.25702e-06,-1.34346e-06,0,2.53781e-05,-1.11509e+09,-1.11497e+09,-1.11479e+09,3.39179e+06,-0.102907,0.665762,-0,0.673668,-3871.88,-40487.2,-0,40671.9,3.39179e+06
step02_gravity_refstate-mantle.xmf,463,-1.09852e-06,2.02453e-05,0,1.07825e-05,-1.46013e+09,-1.45728e+09,-1.45998e+09,1.44108e+06,0.13013,0.219562,0,0.255228,-8998.31,-51208.4,-0,51993,1.44108e+06
step02_gravity_refstate-mantle.xmf,464,-5.61233e-07,1.83683e-05,0,7.21601e-06,-1.51657e+09,-1.51404e+09,-1.51649e+09,964419,0.138866,0.149076,0,0.203734,-10670.5,-52950.6,-0,54015,964419
step02_gravity_refstate-mantle.xmf,465,-1.23354e-06,1.98179e-05,0,8.56331e-06,-1.50276e+09,-1.49995e+09,-1.5026e+09,1.14449e+06,0.136576,0.172327,0,0.219885,-9890.13,-52523.3,-0,53446.3,1.14449e+06
step02_gravity_refstate-mantle.xmf,466,2.64091e-06,1.21134e-05,0,1.99544e-06,-1.60995e+09,-1.60869e+09,-1.61031e+09,266690,0.144426,0.0531293,0,0.153889,-15046.1,-55840.6,-0,57832.2,266690
step02_gravity_refstate-mantle.xmf,467,1.8215e-06,1.36327e-05,0,2.86839e-06,-1.59124e+09,-1.58966e+09,-1.59149e+09,383360,0.145066,0.069197,0,0.160724,-13947.1,-55261.1,-0,56993.9,383360
step02_gravity_refstate-mantle.xmf,468,3.24766e-06,1.10989e-05,0,8.64435e-07,-1.6732e+09,-1.67215e+09,-1.67363e+09,115532,0.145666,0.024881,0,0.147775,-16146.1,-57795.8,-0,60008.8,115532
step02_gravity_refstate-mantle.xmf,469,3.75161e-06,1.02681e-05,0,-4.01811e-09,-1.74452e+09,-1.74365e+09,-1.74502e+09,-537.02,0.144687,-1.99401e-19,0,0.144687,-16934.8,-60000,-0,62344.1,537.02
step02_gravity_refstate-mantle.xmf,470,-6.09003e-06,4.20147e-05,0,3.2271e-05,-1.3288e+09,-1.32237e+09,-1.32799e+09,4.31302e+06,0.090817,0.588399,0,0.595366,-3290.45,-47174.1,-0,47288.7,4.31302e+06
step02_gravity_refstate-mantle.xmf,471,-9.03015e-06,4.87128e-05,0,3.47367e-05,-1.32235e+09,-1.31464e+09,-1.32115e+09,4.64256e+06,0.085303,0.631712,0,0.637445,-2846.52,-46972.3,-0,47058.5,4.64256e+06
step02_gravity_refstate-mantle.xmf,472,-9.48101e-06,4.68291e-05,0,3.61375e-05,-1.30604e+09,-1.29851e+09,-1.30477e+09,4.82978e+06,0.0773663,0.657315,0,0.661852,-2833.33,-46460.4,-0,46546.7,4.82978e+06
step02_gravity_refstate-mantle.xmf,473,-6.38485e-06,3.87958e-05,0,2.90013e-05,-1.35346e+09,-1.34742e+09,-1.3526e+09,3.87603e+06,0.0990267,0.519427,0,0.528782,-3868.41,-47925.4,-0,48081.3,3.87603e+06
step02_gravity_refstate-mantle.xmf,474,-5.19267e-06,3.08007e-05,0,2.02165e-05,-1.40452e+09,-1.39971e+09,-1.40383e+09,2.70194e+06,0.113671,0.378635,0,0.39533,-5569.44,-49490.3,-0,49802.6,2.70194e+06
step02_gravity_refstate-mantle.xmf,475,-6.24791e-06,3.35972e-05,0,2.24358e-05,-1.3933e+09,-1.38797e+09,-1.39246e+09,2.99854e+06,0.109563,0.415535,0,0.429736,-4992.55,-49143.7,-0,49396.6,2.99854e+06
step02_gravity_refstate-mantle.xmf,476,-9.61152e-06,4.30497e-05,0,3.86678e-05,-1.28985e+09,-1.28281e+09,-1.28856e+09,5.16795e+06,0.0667996,0.680887,0,0.684156,-2827.89,-45949.8,-0,46036.7,5.16795e+06
step02_gravity_refstate-mantle.xmf,477,-9.1943e-06,3.8946e-05,0,4.10223e-05,-1.27372e+09,-1.26729e+09,-1.27249e+09,5.48263e+06,0.0545406,0.702581,0,0.704695,-2820.34,-45444,-0,45531.4,5.48263e+06
step02_gravity_refstate-mantle.xmf,478,-6.4757e-07,8.75409e-07,0,3.24593e-05,-1.14324e+09,-1.14304e+09,-1.14316e+09,4.33818e+06,-0.0716276,0.709035,-0,0.712644,-3415.95,-41373.2,-0,41514,4.33818e+06
step02_gravity_refstate-mantle.xmf,479,-3.72012e-06,1.84543e-05,0,3.98488e-05,-1.21443e+09,-1.21147e+09,-1.21393e+09,5.3258e+06,0.00329676,0.716714,0,0.716721,-3166.18,-43596.7,-0,43711.5,5.3258e+06
step02_gravity_refstate-mantle.xmf,480,8.60216e-07,6.03679e-07,0,3.80944e-05,-1.15473e+09,-1.15476e+09,-1.15484e+09,5.09131e+06,-0.0588275,0.751437,-0,0.753736,-3012.06,-41737.4,-0,41846,5.09131e+06
step02_gravity_refstate-mantle.xmf,481,-3.69112e-07,5.93529e-06,0,4.05542e-05,-1.17472e+09,-1.17388e+09,-1.17467e+09,5.42007e+06,-0.037589,0.752952,-0,0.753889,-2981.31,-42360.4,-0,42465.2,5.42007e+06
step02_gravity_refstate-mantle.xmf,482,-4.60099e-06,-8.92527e-07,0,2.12209e-05,-1.09979e+09,-1.09929e+09,-1.09918e+09,2.83618e+06,-0.120075,0.638876,-0,0.650062,-4185.58,-40000,-0,40218.4,2.83618e+06
step02_gravity_refstate-mantle.xmf,483,-3.90354e-07,-1.90913e-06,0,2.96556e-05,-1.12678e+09,-1.12698e+09,-1.12673e+09,3.96346e+06,-0.0898266,0.699272,-0,0.705018,-3511.85,-40859.3,-0,41009.9,3.96346e+06
step02_gravity_refstate-mantle.xmf,484,-4.32941e-06,2.84327e-05,0,1.81364e-05,-1.4165e+09,-1.41212e+09,-1.41592e+09,2.42393e+06,0.117547,0.343284,0,0.362851,-6167.18,-49860,-0,50239.9,2.42393e+06
step02_gravity_refstate-mantle.xmf,485,-1.97338e-06,2.2376e-05,0,1.25203e-05,-1.45199e+09,-1.44874e+09,-1.45173e+09,1.67333e+06,0.127789,0.24686,0,0.277975,-8203.52,-50956.7,-0,51612.8,1.67333e+06
step02_gravity_refstate-mantle.xmf,486,-2.77745e-06,2.43195e-05,0,1.42872e-05,-1.44103e+09,-1.43741e+09,-1.44066e+09,1.90948e+06,0.124724,0.276905,0,0.303698,-7478.37,-50617.5,-0,51167,1.90948e+06
step02_gravity_refstate-mantle.xmf,487,-3.50266e-06,2.62427e-05,0,1.61479e-05,-1.42854e+09,-1.42457e+09,-1.42807e+09,2.15817e+06,0.121258,0.309141,0,0.332072,-6811.8,-50231.9,-0,50691.7,2.15817e+06
step02_gravity_refstate-mantle.xmf,488,-2.11235e-06,2.16624e-05,0,1.01442e-05,-1.48996e+09,-1.48678e+09,-1.48967e+09,1.35577e+06,0.133779,0.19923,0,0.239978,-9040.58,-52126.6,-0,52904.8,1.35577e+06
step02_gravity_refstate-mantle.xmf,489,-1.16891e-08,1.71666e-05,0,6.06917e-06,-1.53038e+09,-1.52808e+09,-1.53038e+09,811145,0.140689,0.129338,0,0.191107,-11385.4,-53377.8,-0,54578.5,811145
step02_gravity_refstate-mantle.xmf,490,1.03059e-06,1.51185e-05,0,3.90334e-06,-1.57213e+09,-1.57025e+09,-1.57227e+09,521681,0.144556,0.0878106,0,0.169137,-12928.5,-54669.3,-0,56177.2,521681
step02_gravity_refstate-mantle.xmf,491,1.43602e-07,1.67968e-05,0,5.20905e-06,-1.55272e+09,-1.55049e+09,-1.55274e+09,696189,0.143132,0.110482,0,0.180812,-11868,-54067.9,-0,55355.1,696189
step02_gravity_refstate-mantle.xmf,492,2.35195e-06,1.27164e-05,0,1.48919e-06,-1.65158e+09,-1.65019e+09,-1.65189e+09,199031,0.147698,0.0375037,0,0.152385,-14991.5,-57125.9,-0,59060.3,199031
step02_gravity_refstate-mantle.xmf,493,3.19788e-06,1.12181e-05,0,3.61322e-07,-1.71325e+09,-1.71217e+09,-1.71367e+09,48290.7,0.14689,0.0109307,0,0.147297,-16201.6,-59032.8,-0,61215.7,48290.7
step02_gravity_refstate-mantle.xmf,494,-1.43387e-05,5.78635e-05,0,3.89683e-05,-1.31532e+09,-1.30567e+09,-1.3134e+09,5.20812e+06,0.0772135,0.680888,0,0.685252,-2418.81,-46742.8,-0,46805.4,5.20812e+06
step02_gravity_refstate-mantle.xmf,495,-8.10092e-06,4.32739e-05,0,3.15574e-05,-1.3461e+09,-1.33923e+09,-1.34501e+09,4.21765e+06,0.0944401,0.561583,0,0.569468,-3352.77,-47698,-0,47815.7,4.21765e+06
step02_gravity_refstate-mantle.xmf,496,-7.60597e-06,3.6993e-05,0,2.4786e-05,-1.38309e+09,-1.37713e+09,-1.38207e+09,3.31266e+06,0.105165,0.453703,0,0.465732,-4435.57,-48827.9,-0,49029,3.31266e+06
step02_gravity_refstate-mantle.xmf,497,-9.39986e-06,4.12244e-05,0,2.72883e-05,-1.37401e+09,-1.36724e+09,-1.37275e+09,3.64708e+06,0.100336,0.493052,0,0.503157,-3894.88,-48546.3,-0,48702.3,3.64708e+06
step02_gravity_refstate-mantle.xmf,498,-8.4006e-06,3.45182e-05,0,4.3107e-05,-1.25823e+09,-1.2525e+09,-1.25711e+09,5.76125e+06,0.0416182,0.722142,0,0.72334,-2804.95,-44959.5,-0,45047,5.76125e+06
step02_gravity_refstate-mantle.xmf,499,-2.15621e-06,1.30354e-05,0,4.18027e-05,-1.1966e+09,-1.19457e+09,-1.19632e+09,5.58693e+06,-0.0150189,0.744537,-0,0.744689,-2998.63,-43042.6,-0,43146.9,5.58693e+06
step02_gravity_refstate-mantle.xmf,500,-6.94203e-06,2.89762e-05,0,4.45403e-05,-1.24212e+09,-1.23732e+09,-1.24119e+09,5.95282e+06,0.0274995,0.7387,0,0.739212,-2799.84,-44457.2,-0,44545.3,5.95282e+06
step02_gravity_refstate-mantle.xmf,501,-5.27984e-06,2.32415e-05,0,4.54982e-05,-1.22583e+09,-1.22202e+09,-1.22512e+09,6.08083e+06,0.012574,0.753278,0,0.753383,-2788.83,-43950.5,-0,44038.9,6.08083e+06
step02_gravity_refstate-mantle.xmf,502,1.7359e-06,1.18281e-06,0,4.31707e-05,-1.16362e+09,-1.16369e+09,-1.16385e+09,5.76976e+06,-0.0488587,0.783452,-0,0.784974,-2732.29,-42019.4,-0,42108.1,5.76976e+06
step02_gravity_refstate-mantle.xmf,503,-1.44167e-05,5.37322e-05,0,4.25236e-05,-1.29925e+09,-1.29014e+09,-1.29732e+09,5.68328e+06,0.0680027,0.70987,0,0.71312,-2412.32,-46235.4,-0,46298.2,5.68328e+06
step02_gravity_refstate-mantle.xmf,504,1.41642e-06,-5.95139e-06,0,2.94958e-05,-1.11351e+09,-1.11449e+09,-1.1137e+09,3.94212e+06,-0.104458,0.717549,-0,0.725113,-3303.06,-40451.1,-0,40585.7,3.94212e+06
step02_gravity_refstate-mantle.xmf,505,-8.47119e-07,-5.24264e-06,0,2.40128e-05,-1.09934e+09,-1.09993e+09,-1.09922e+09,3.20931e+06,-0.121678,0.687773,-0,0.698453,-3601.4,-40000,-0,40161.8,3.20931e+06
step02_gravity_refstate-mantle.xmf,506,-3.17328e-06,2.3688e-05,0,1.17243e-05,-1.47954e+09,-1.47595e+09,-1.47912e+09,1.56695e+06,0.130652,0.226847,0,0.261781,-8220.98,-51803,-0,52451.3,1.56695e+06
step02_gravity_refstate-mantle.xmf,507,-1.18117e-06,1.91735e-05,0,6.46438e-06,-1.5473e+09,-1.54458e+09,-1.54714e+09,863964,0.142017,0.129792,0,0.192392,-10758.8,-53897.9,-0,54961.2,863964
step02_gravity_refstate-mantle.xmf,508,-2.0955e-06,2.09211e-05,0,7.80098e-06,-1.53341e+09,-1.53034e+09,-1.53313e+09,1.0426e+06,0.139464,0.152698,0,0.206801,-9910.76,-53467.2,-0,54378,1.0426e+06
step02_gravity_refstate-mantle.xmf,509,-3.07047e-06,2.2803e-05,0,9.26895e-06,-1.5195e+09,-1.51605e+09,-1.51909e+09,1.2388e+06,0.136285,0.178211,0,0.224349,-9077.2,-53035.8,-0,53807,1.2388e+06
step02_gravity_refstate-mantle.xmf,510,1.42727e-06,1.43472e-05,0,2.27662e-06,-1.63109e+09,-1.62936e+09,-1.63128e+09,304270,0.148409,0.0522996,0,0.157355,-13907.8,-56491.1,-0,58177.9,304270
step02_gravity_refstate-mantle.xmf,511,5.14918e-07,1.59494e-05,0,3.23239e-06,-1.61056e+09,-1.60849e+09,-1.61063e+09,432010,0.147914,0.069634,0,0.163485,-12904.6,-55854.9,-0,57326.2,432010
step02_gravity_refstate-mantle.xmf,512,2.04826e-06,1.33249e-05,0,7.48486e-07,-1.70164e+09,-1.70013e+09,-1.70191e+09,100035,0.150136,0.0178456,0,0.151193,-14854.2,-58671.8,-0,60523,100035
step02_gravity_refstate-mantle.xmf,513,2.58318e-06,1.24182e-05,0,-1.56183e-08,-1.74459e+09,-1.74328e+09,-1.74494e+09,-2087.38,0.149251,-3.06175e-19,0,0.149251,-15496.7,-60000,-0,61968.9,2087.38
step02_gravity_refstate-mantle.xmf,514,-9.283e-06,4.97557e-05,0,3.44439e-05,-1.33863e+09,-1.33074e+09,-1.33739e+09,4.60343e+06,0.0894704,0.604571,0,0.611156,-2877.23,-47476,-0,47563.1,4.60343e+06
step02_gravity_refstate-mantle.xmf,515,-1.33419e-05,5.9676e-05,0,3.60292e-05,-1.33121e+09,-1.32145e+09,-1.32943e+09,4.8153e+06,0.0831634,0.650197,0,0.655494,-2431.5,-47245.2,-0,47307.7,4.8153e+06
step02_gravity_refstate-mantle.xmf,516,-1.15225e-05,4.63957e-05,0,3.00434e-05,-1.36507e+09,-1.35733e+09,-1.36353e+09,4.01531e+06,0.0950832,0.533988,0,0.542387,-3382.76,-48269.3,-0,48387.7,4.01531e+06
step02_gravity_refstate-mantle.xmf,517,-6.98031e-06,3.24018e-05,0,1.89674e-05,-1.42714e+09,-1.42188e+09,-1.42621e+09,2.535e+06,0.114708,0.357027,0,0.375002,-5562.74,-50181.2,-0,50488.6,2.535e+06
step02_gravity_refstate-mantle.xmf,518,-8.18039e-06,3.53476e-05,0,2.09742e-05,-1.41523e+09,-1.40941e+09,-1.41414e+09,2.80321e+06,0.110254,0.392293,0,0.407492,-4996.64,-49812.7,-0,50062.7,2.80321e+06
step02_gravity_refstate-mantle.xmf,519,-9.72455e-06,3.87309e-05,0,2.2994e-05,-1.40405e+09,-1.39758e+09,-1.40275e+09,3.07314e+06,0.105385,0.429193,0,0.441942,-4443.17,-49465.8,-0,49664.9,3.07314e+06
step02_gravity_refstate-mantle.xmf,520,-1.34127e-05,4.81439e-05,0,4.58913e-05,-1.2833e+09,-1.27507e+09,-1.2815e+09,6.13337e+06,0.0570493,0.735608,0,0.737817,-2410.32,-45735.1,-0,45798.6,6.13337e+06
step02_gravity_refstate-mantle.xmf,521,-1.18677e-05,4.20771e-05,0,4.86938e-05,-1.26716e+09,-1.25995e+09,-1.26557e+09,6.50793e+06,0.0447715,0.758891,0,0.760211,-2406.11,-45231.4,-0,45295.3,6.50793e+06
step02_gravity_refstate-mantle.xmf,522,2.31127e-06,-4.96371e-06,0,3.46443e-05,-1.12873e+09,-1.1297e+09,-1.12904e+09,4.63021e+06,-0.0868006,0.750919,-0,0.75592,-2996.52,-40929.8,-0,41039.3,4.63021e+06
step02_gravity_refstate-mantle.xmf,523,-3.7351e-06,1.83629e-05,0,4.61568e-05,-1.2119e+09,-1.20894e+09,-1.2114e+09,6.16886e+06,-0.000656379,0.765609,-0,0.765609,-2761.41,-43518,-0,43605.5,6.16886e+06
step02_gravity_refstate-mantle.xmf,524,2.46178e-06,1.80597e-06,0,4.89773e-05,-1.17093e+09,-1.17101e+09,-1.17125e+09,6.54581e+06,-0.040608,0.820578,-0,0.821582,-2432.32,-42251.5,-0,42321.5,6.54581e+06
step02_gravity_refstate-mantle.xmf,525,2.47912e-06,-3.7231e-06,0,3.82672e-05,-1.14224e+09,-1.14307e+09,-1.14257e+09,5.11442e+06,-0.0718636,0.76734,-0,0.770698,-2862.75,-41351.3,-0,41450.3,5.11442e+06
step02_gravity_refstate-mantle.xmf,526,3.97037e-06,-3.94036e-06,0,4.51256e-05,-1.15413e+09,-1.15519e+09,-1.15466e+09,6.03103e+06,-0.05789,0.810898,-0,0.812962,-2503.47,-41728.1,-0,41803.1,6.03103e+06
step02_gravity_refstate-mantle.xmf,527,-2.22592e-05,7.41949e-05,0,4.16849e-05,-1.32395e+09,-1.31106e+09,-1.32098e+09,5.57119e+06,0.0731196,0.703876,0,0.707664,-2000,-46998.5,-0,47041,5.57119e+06
step02_gravity_refstate-mantle.xmf,528,-2.07604e-05,6.69491e-05,0,4.77983e-05,-1.30803e+09,-1.29631e+09,-1.30526e+09,6.38824e+06,0.0657615,0.739145,0,0.742065,-2000,-46498.1,-0,46541.1,6.38824e+06
step02_gravity_refstate-mantle.xmf,529,-5.89655e-06,3.00585e-05,0,1.71022e-05,-1.43998e+09,-1.43517e+09,-1.43919e+09,2.28571e+06,0.11903,0.32213,0,0.343418,-6170.75,-50578.9,-0,50953.9,2.28571e+06
step02_gravity_refstate-mantle.xmf,530,-4.06786e-06,2.57917e-05,0,1.34689e-05,-1.46693e+09,-1.46294e+09,-1.46639e+09,1.80012e+06,0.127042,0.256675,0,0.286395,-7488.23,-51412.9,-0,51955.4,1.80012e+06
step02_gravity_refstate-mantle.xmf,531,-4.9793e-06,2.78746e-05,0,1.5248e-05,-1.45364e+09,-1.44925e+09,-1.45298e+09,2.0379e+06,0.123131,0.288528,0,0.313703,-6805.61,-51001.5,-0,51453.6,2.0379e+06
step02_gravity_refstate-mantle.xmf,532,-4.14144e-06,2.48663e-05,0,1.08115e-05,-1.5065e+09,-1.50263e+09,-1.50595e+09,1.44495e+06,0.132588,0.205497,0,0.244558,-8268.73,-52632.4,-0,53278,1.44495e+06
step02_gravity_refstate-mantle.xmf,533,-4.89447e-07,1.77196e-05,0,4.34208e-06,-1.59256e+09,-1.59013e+09,-1.5925e+09,580319,0.1466,0.088858,0,0.171427,-11901.8,-55296.9,-0,56563.2,580319
step02_gravity_refstate-mantle.xmf,534,1.00283e-06,1.50809e-05,0,1.57301e-06,-1.67118e+09,-1.6693e+09,-1.67131e+09,210233,0.150717,0.0348259,0,0.154688,-13777.8,-57728.5,-0,59349.8,210233
step02_gravity_refstate-mantle.xmf,535,-1.39495e-05,5.19454e-05,0,3.2743e-05,-1.35635e+09,-1.34754e+09,-1.35449e+09,4.3761e+06,0.089535,0.576127,0,0.583043,-2904.1,-47997.8,-0,48085.6,4.3761e+06
step02_gravity_refstate-mantle.xmf,536,-1.17463e-05,4.27982e-05,0,2.49347e-05,-1.394e+09,-1.38671e+09,-1.39243e+09,3.33252e+06,0.100065,0.466678,0,0.477285,-3912.97,-49152.1,-0,49307.6,3.33252e+06
step02_gravity_refstate-mantle.xmf,537,-1.48877e-05,4.83107e-05,0,2.63587e-05,-1.38664e+09,-1.3782e+09,-1.38465e+09,3.52284e+06,0.093352,0.504326,0,0.512893,-3362.61,-48918.1,-0,49033.5,3.52284e+06
step02_gravity_refstate-mantle.xmf,538,-9.97062e-06,3.5661e-05,0,5.07922e-05,-1.25131e+09,-1.24521e+09,-1.24998e+09,6.78838e+06,0.0319793,0.778388,0,0.779044,-2403.64,-44738.2,-0,44802.7,6.78838e+06
step02_gravity_refstate-mantle.xmf,539,1.62167e-08,8.29666e-06,0,4.97313e-05,-1.18669e+09,-1.18558e+09,-1.18669e+09,6.64658e+06,-0.0253229,0.811781,-0,0.812176,-2481.19,-42738.7,-0,42810.7,6.64658e+06
step02_gravity_refstate-mantle.xmf,540,-7.52034e-06,2.87802e-05,0,5.21189e-05,-1.23503e+09,-1.23017e+09,-1.23402e+09,6.9657e+06,0.0182718,0.795346,0,0.795555,-2398.18,-44233.9,-0,44298.8,6.9657e+06
step02_gravity_refstate-mantle.xmf,541,-5.00767e-06,2.1973e-05,0,5.26125e-05,-1.21923e+09,-1.21562e+09,-1.21856e+09,7.03166e+06,0.0045369,0.807541,0,0.807554,-2399.64,-43745.2,-0,43811,7.03166e+06
step02_gravity_refstate-mantle.xmf,542,-2.394e-06,1.50658e-05,0,5.17439e-05,-1.2032e+09,-1.20087e+09,-1.20288e+09,6.91557e+06,-0.00980922,0.812215,-0,0.812274,-2433,-43250,-0,43318.4,6.91557e+06
step02_gravity_refstate-mantle.xmf,543,-1.88389e-05,5.94102e-05,0,5.21632e-05,-1.29205e+09,-1.2816e+09,-1.28954e+09,6.97161e+06,0.0562357,0.770749,0,0.772797,-2000,-45998.2,-0,46041.6,6.97161e+06
step02_gravity_refstate-mantle.xmf,544,5.97816e-06,-1.18027e-05,0,3.39864e-05,-1.11183e+09,-1.1142e+09,-1.11263e+09,4.54228e+06,-0.103751,0.769067,-0,0.776033,-2777.61,-40414.6,-0,40510,4.54228e+06
step02_gravity_refstate-mantle.xmf,545,4.64381e-06,-1.11574e-05,0,2.70052e-05,-1.09864e+09,-1.10075e+09,-1.09926e+09,3.60925e+06,-0.120661,0.738168,-0,0.747965,-3044.18,-40000,-0,40115.7,3.60925e+06
step02_gravity_refstate-mantle.xmf,546,-8.46539e-06,3.38746e-05,0,1.75805e-05,-1.44981e+09,-1.44416e+09,-1.44868e+09,2.34964e+06,0.114796,0.333878,0,0.353061,-5565.39,-50875.4,-0,51178.9,2.34964e+06
step02_gravity_refstate-mantle.xmf,547,-5.30017e-06,2.69942e-05,0,1.23777e-05,-1.49366e+09,-1.48935e+09,-1.49296e+09,1.65428e+06,0.128386,0.23477,0,0.267581,-7495.86,-52233.4,-0,52768.6,1.65428e+06
step02_gravity_refstate-mantle.xmf,548,-1.63723e-06,1.97226e-05,0,5.5576e-06,-1.57796e+09,-1.57511e+09,-1.57775e+09,742773,0.144516,0.109367,0,0.181235,-10900.2,-54843.4,-0,55916.1,742773
step02_gravity_refstate-mantle.xmf,549,-2.82048e-06,2.1793e-05,0,6.85374e-06,-1.56421e+09,-1.56092e+09,-1.56384e+09,916002,0.141582,0.131627,0,0.193316,-9958.96,-54416,-0,55319.8,916002
step02_gravity_refstate-mantle.xmf,550,-3.97584e-06,2.38509e-05,0,8.25643e-06,-1.54949e+09,-1.54577e+09,-1.54896e+09,1.10347e+06,0.137906,0.156466,0,0.208566,-9088.37,-53958.8,-0,54718.8,1.10347e+06
step02_gravity_refstate-mantle.xmf,551,-5.14534e-06,2.59568e-05,0,9.69664e-06,-1.53526e+09,-1.5311e+09,-1.53457e+09,1.29596e+06,0.133717,0.18282,0,0.226502,-8278.28,-53516.7,-0,54153.2,1.29596e+06
step02_gravity_refstate-mantle.xmf,552,5.97753e-08,1.66608e-05,0,2.43329e-06,-1.64857e+09,-1.64635e+09,-1.64857e+09,325209,0.150183,0.0508809,0,0.158568,-12856,-57027.7,-0,58458.9,325209
step02_gravity_refstate-mantle.xmf,553,-1.03933e-06,1.84995e-05,0,3.41439e-06,-1.62997e+09,-1.62736e+09,-1.62983e+09,456333,0.148802,0.0680982,0,0.163644,-11887.8,-56450.8,-0,57688.9,456333
step02_gravity_refstate-mantle.xmf,554,2.80304e-07,1.62865e-05,0,8.1843e-07,-1.71051e+09,-1.70837e+09,-1.71054e+09,109383,0.152117,0.0173273,0,0.153101,-13317.9,-58941.6,-0,60427.5,109383
step02_gravity_refstate-mantle.xmf,555,1.19085e-06,1.48278e-05,0,-1.20303e-08,-1.74469e+09,-1.74287e+09,-1.74485e+09,-1607.86,0.151856,-3.24951e-19,0,0.151856,-14111.6,-60000,-0,61637.2,1607.86
step02_gravity_refstate-mantle.xmf,556,-1.2239e-05,6.00424e-05,0,3.80903e-05,-1.34722e+09,-1.33756e+09,-1.34559e+09,5.09077e+06,0.08386,0.619062,0,0.624716,-2446.67,-47748,-0,47810.7,5.09077e+06
step02_gravity_refstate-mantle.xmf,557,-2.11067e-05,7.99742e-05,0,3.25184e-05,-1.3394e+09,-1.32589e+09,-1.33658e+09,4.34609e+06,0.0765191,0.665349,0,0.669735,-2000,-47498.2,-0,47540.3,4.34609e+06
step02_gravity_refstate-mantle.xmf,558,-1.808e-05,5.42745e-05,0,2.85919e-05,-1.37449e+09,-1.36482e+09,-1.37207e+09,3.82131e+06,0.0872577,0.54766,0,0.554567,-2899.04,-48536.4,-0,48622.9,3.82131e+06
step02_gravity_refstate-mantle.xmf,559,-9.84478e-06,3.65829e-05,0,1.92312e-05,-1.43762e+09,-1.43142e+09,-1.43631e+09,2.57025e+06,0.109862,0.367766,0,0.383825,-4994.01,-50496.4,-0,50742.8,2.57025e+06
step02_gravity_refstate-mantle.xmf,560,-1.15363e-05,4.00776e-05,0,2.09529e-05,-1.42582e+09,-1.41893e+09,-1.42428e+09,2.80035e+06,0.104402,0.40354,0,0.416826,-4431.33,-50129.6,-0,50325.1,2.80035e+06
step02_gravity_refstate-mantle.xmf,561,-1.34858e-05,4.3897e-05,0,2.25542e-05,-1.41462e+09,-1.40695e+09,-1.41282e+09,3.01436e+06,0.098635,0.439749,0,0.450675,-3906.4,-49780.2,-0,49933.3,3.01436e+06
step02_gravity_refstate-mantle.xmf,562,-1.6412e-05,5.15447e-05,0,5.55858e-05,-1.27601e+09,-1.26693e+09,-1.27382e+09,7.42904e+06,0.0454452,0.798464,0,0.799756,-2000,-45498.8,-0,45542.7,7.42904e+06
step02_gravity_refstate-mantle.xmf,563,-1.35807e-05,4.34932e-05,0,5.81401e-05,-1.25991e+09,-1.25229e+09,-1.2581e+09,7.77042e+06,0.0338635,0.822187,0,0.822884,-2000,-44999.8,-0,45044.2,7.77042e+06
step02_gravity_refstate-mantle.xmf,564,6.20817e-06,-9.55148e-06,0,4.2264e-05,-1.13746e+09,-1.13956e+09,-1.13829e+09,5.64858e+06,-0.0747772,0.81317,-0,0.816601,-2454.79,-41213.6,-0,41286.7,5.64858e+06
step02_gravity_refstate-mantle.xmf,565,3.40264e-06,2.55846e-06,0,5.87135e-05,-1.17874e+09,-1.17886e+09,-1.1792e+09,7.84705e+06,-0.0317342,0.879759,-0,0.880331,-2000,-42501.2,-0,42548.2,7.84705e+06
step02_gravity_refstate-mantle.xmf,566,6.80391e-06,-5.54072e-06,0,5.61365e-05,-1.16251e+09,-1.16416e+09,-1.16342e+09,7.50265e+06,-0.046439,0.879035,-0,0.880261,-2000,-42001.8,-0,42049.4,7.50265e+06
step02_gravity_refstate-mantle.xmf,567,7.61674e-06,-1.3021e-05,0,3.87915e-05,-1.12202e+09,-1.12478e+09,-1.12304e+09,5.18449e+06,-0.090466,0.809924,-0,0.814961,-2432.4,-40737.3,-0,40809.9,5.18449e+06
step02_gravity_refstate-mantle.xmf,568,-7.51341e-06,3.17049e-05,0,1.58407e-05,-1.46489e+09,-1.45964e+09,-1.46388e+09,2.11711e+06,0.119166,0.300099,0,0.322893,-6125.47,-51341.7,-0,51705.8,2.11711e+06
step02_gravity_refstate-mantle.xmf,569,-6.43663e-06,2.9424e-05,0,1.41391e-05,-1.47959e+09,-1.47479e+09,-1.47873e+09,1.88969e+06,0.123748,0.266945,0,0.294233,-6765.72,-51797.2,-0,52237.2,1.88969e+06
step02_gravity_refstate-mantle.xmf,570,-6.38707e-06,2.82096e-05,0,1.11905e-05,-1.52117e+09,-1.51654e+09,-1.52031e+09,1.4956e+06,0.128966,0.211309,0,0.247556,-7499.48,-53078.8,-0,53606,1.4956e+06
step02_gravity_refstate-mantle.xmf,571,-2.25166e-06,2.05198e-05,0,4.53712e-06,-1.61286e+09,-1.60981e+09,-1.61256e+09,606386,0.146398,0.0875736,0,0.170592,-10912.8,-55919.1,-0,56974,606386
step02_gravity_refstate-mantle.xmf,572,-3.02925e-07,1.71819e-05,0,1.63014e-06,-1.68196e+09,-1.67963e+09,-1.68192e+09,217868,0.151435,0.0338572,0,0.155174,-12774.2,-58058.3,-0,59447,217868
step02_gravity_refstate-mantle.xmf,573,-2.33265e-05,6.47762e-05,0,3.00902e-05,-1.36605e+09,-1.35427e+09,-1.36293e+09,4.02156e+06,0.0802014,0.586073,0,0.591535,-2466.36,-48267.5,-0,48330.5,4.02156e+06
step02_gravity_refstate-mantle.xmf,574,-1.9105e-05,5.44308e-05,0,2.52751e-05,-1.39042e+09,-1.38059e+09,-1.38787e+09,3.37801e+06,0.0845732,0.522986,0,0.52978,-2865.08,-49022.1,-0,49105.8,3.37801e+06
step02_gravity_refstate-mantle.xmf,575,-1.11551e-05,3.76142e-05,0,1.74756e-05,-1.45984e+09,-1.45332e+09,-1.45835e+09,2.33561e+06,0.108894,0.342307,0,0.35921,-4999.24,-51176.6,-0,51420.2,2.33561e+06
step02_gravity_refstate-mantle.xmf,576,-1.51283e-05,4.72909e-05,0,2.39346e-05,-1.40434e+09,-1.396e+09,-1.40232e+09,3.19886e+06,0.0940177,0.471136,0,0.480425,-3517.55,-49460.6,-0,49585.5,3.19886e+06
step02_gravity_refstate-mantle.xmf,577,-1.84024e-05,5.19927e-05,0,2.32878e-05,-1.40432e+09,-1.39491e+09,-1.40186e+09,3.11242e+06,0.0860509,0.49254,0,0.5,-3039.18,-49449.9,-0,49543.2,3.11242e+06
step02_gravity_refstate-mantle.xmf,578,-1.04463e-05,3.53446e-05,0,5.98856e-05,-1.24374e+09,-1.23762e+09,-1.24234e+09,8.00371e+06,0.0217046,0.841885,0,0.842164,-2000,-44500.2,-0,44545.1,8.00371e+06
step02_gravity_refstate-mantle.xmf,579,-3.91216e-07,1.0772e-05,0,6.02704e-05,-1.19504e+09,-1.19355e+09,-1.19499e+09,8.05514e+06,-0.0176199,0.876438,-0,0.876615,-2000,-43000.2,-0,43046.7,8.05514e+06
step02_gravity_refstate-mantle.xmf,580,-7.12037e-06,2.71671e-05,0,6.08092e-05,-1.2275e+09,-1.22292e+09,-1.22655e+09,8.12716e+06,0.00906338,0.857511,0,0.857559,-2000,-44000,-0,44045.4,8.12716e+06
step02_gravity_refstate-mantle.xmf,581,-3.86789e-06,1.89027e-05,0,6.09987e-05,-1.21129e+09,-1.20825e+09,-1.21077e+09,8.15248e+06,-0.00403684,0.869033,-0,0.869043,-2000,-43499.8,-0,43545.8,8.15248e+06
step02_gravity_refstate-mantle.xmf,582,1.01307e-05,-1.34674e-05,0,5.24848e-05,-1.14626e+09,-1.14942e+09,-1.14762e+09,7.01459e+06,-0.061716,0.874323,-0,0.876499,-2000,-41501.9,-0,41550,7.01459e+06
step02_gravity_refstate-mantle.xmf,583,7.906e-06,-1.69007e-05,0,3.76307e-05,-1.11015e+09,-1.11347e+09,-1.11121e+09,5.02934e+06,-0.101931,0.81102,-0,0.817401,-2365.5,-40362.8,-0,40432,5.02934e+06
step02_gravity_refstate-mantle.xmf,584,1.37623e-05,-1.90167e-05,0,3.15022e-05,-1.09732e+09,-1.1017e+09,-1.09916e+09,4.21027e+06,-0.116009,0.789385,-0,0.797864,-2511.47,-40000,-0,40078.8,4.21027e+06
step02_gravity_refstate-mantle.xmf,585,-9.68544e-06,3.48911e-05,0,1.62343e-05,-1.46948e+09,-1.46353e+09,-1.46819e+09,2.16972e+06,0.114058,0.31401,0,0.334083,-5540.13,-51477.4,-0,51774.7,2.16972e+06
step02_gravity_refstate-mantle.xmf,586,-7.74159e-06,3.05869e-05,0,1.27116e-05,-1.50693e+09,-1.5018e+09,-1.50589e+09,1.6989e+06,0.123617,0.242384,0,0.272087,-6741.65,-52636,-0,53066,1.6989e+06
step02_gravity_refstate-mantle.xmf,587,-3.47928e-06,2.25719e-05,0,5.76007e-06,-1.59645e+09,-1.59297e+09,-1.59599e+09,769834,0.143104,0.1091,0,0.179949,-9993.96,-55409.4,-0,56303.5,769834
step02_gravity_refstate-mantle.xmf,588,-4.77364e-06,2.47419e-05,0,7.07624e-06,-1.58068e+09,-1.57674e+09,-1.58005e+09,945740,0.138948,0.132913,0,0.192282,-9101.67,-54919.3,-0,55668.3,945740
step02_gravity_refstate-mantle.xmf,589,-6.0746e-06,2.6946e-05,0,8.43415e-06,-1.56532e+09,-1.56091e+09,-1.56451e+09,1.12722e+06,0.134173,0.158533,0,0.20769,-8268.63,-54441.7,-0,55066.1,1.12722e+06
step02_gravity_refstate-mantle.xmf,590,-7.38972e-06,2.92033e-05,0,9.82647e-06,-1.54986e+09,-1.54497e+09,-1.54887e+09,1.31331e+06,0.12889,0.18626,0,0.226507,-7486.58,-53960.9,-0,54477.8,1.31331e+06
step02_gravity_refstate-mantle.xmf,591,-1.43893e-06,1.90574e-05,0,2.38939e-06,-1.66666e+09,-1.66392e+09,-1.66647e+09,319343,0.150203,0.0468674,0,0.157345,-11883.9,-57582.8,-0,58796.3,319343
step02_gravity_refstate-mantle.xmf,592,-2.74425e-06,2.11544e-05,0,3.4011e-06,-1.64835e+09,-1.64515e+09,-1.64798e+09,454558,0.147652,0.0647028,0,0.161207,-10919.9,-57013.7,-0,58050,454558
step02_gravity_refstate-mantle.xmf,593,-1.51288e-06,1.91718e-05,0,1.1474e-06,-1.70739e+09,-1.70463e+09,-1.70719e+09,153350,0.151257,0.0223223,0,0.152896,-12000.4,-58840.9,-0,60052.1,153350
step02_gravity_refstate-mantle.xmf,594,-4.79121e-07,1.75546e-05,0,-1.8333e-08,-1.74483e+09,-1.74242e+09,-1.74477e+09,-2450.21,0.152329,-4.12189e-19,0,0.152329,-12775.3,-60000,-0,61345,2450.21
step02_gravity_refstate-mantle.xmf,595,-3.17369e-05,6.3719e-05,0,2.7158e-05,-1.3593e+09,-1.34654e+09,-1.35505e+09,3.62966e+06,0.0706719,0.624879,0,0.628863,-2000,-48000,-0,48041.6,3.62966e+06
step02_gravity_refstate-mantle.xmf,596,-2.24178e-05,5.93998e-05,0,2.45654e-05,-1.38452e+09,-1.37358e+09,-1.38152e+09,3.28317e+06,0.0767341,0.553083,0,0.558381,-2444.32,-48830.4,-0,48891.5,3.28317e+06
step02_gravity_refstate-mantle.xmf,597,-1.29464e-05,4.08622e-05,0,1.87903e-05,-1.44846e+09,-1.44127e+09,-1.44673e+09,2.51132e+06,0.102743,0.375851,0,0.389641,-4422.38,-50821.4,-0,51013.5,2.51132e+06
step02_gravity_refstate-mantle.xmf,598,-2.14211e-05,5.67385e-05,0,2.24824e-05,-1.40218e+09,-1.39173e+09,-1.39931e+09,3.00478e+06,0.0772415,0.515666,0,0.521418,-2580.27,-49375.7,-0,49443.1,3.00478e+06
step02_gravity_refstate-mantle.xmf,599,-1.7835e-05,4.96455e-05,0,2.10443e-05,-1.42384e+09,-1.41482e+09,-1.42146e+09,2.81257e+06,0.0877078,0.452955,0,0.461368,-3264.9,-50050.7,-0,50157.1,2.81257e+06
step02_gravity_refstate-mantle.xmf,600,-1.514e-05,4.48559e-05,0,1.99902e-05,-1.43683e+09,-1.42881e+09,-1.4348e+09,2.67169e+06,0.0958224,0.411865,0,0.422865,-3851.4,-50457.6,-0,50604.4,2.67169e+06
step02_gravity_refstate-mantle.xmf,601,1.31916e-05,-2.10473e-05,0,4.73688e-05,-1.13003e+09,-1.13461e+09,-1.13179e+09,6.33085e+06,-0.077393,0.865713,-0,0.869166,-2000,-41001.5,-0,41050.3,6.33085e+06
step02_gravity_refstate-mantle.xmf,602,1.54425e-05,-2.84388e-05,0,3.91799e-05,-1.11398e+09,-1.11984e+09,-1.11604e+09,5.23639e+06,-0.0928497,0.853392,-0,0.858428,-2000,-40501.8,-0,40551.1,5.23639e+06
step02_gravity_refstate-mantle.xmf,603,-9.40622e-06,3.37181e-05,0,1.4536e-05,-1.49031e+09,-1.48455e+09,-1.48905e+09,1.94273e+06,0.117039,0.280484,0,0.303923,-5929.43,-52119.5,-0,52455.7,1.94273e+06
step02_gravity_refstate-mantle.xmf,604,-1.19898e-05,3.78808e-05,0,1.55911e-05,-1.48312e+09,-1.47645e+09,-1.48151e+09,2.08375e+06,0.108259,0.313173,0,0.331356,-5069.28,-51890.7,-0,52137.7,2.08375e+06
step02_gravity_refstate-mantle.xmf,605,-8.77723e-06,3.15917e-05,0,1.11995e-05,-1.53503e+09,-1.52964e+09,-1.53386e+09,1.49681e+06,0.123121,0.215455,0,0.248152,-6743.15,-53499.8,-0,53923.1,1.49681e+06
step02_gravity_refstate-mantle.xmf,606,-4.08073e-06,2.32937e-05,0,4.54572e-06,-1.63023e+09,-1.62657e+09,-1.62968e+09,607536,0.144044,0.085209,0,0.167359,-9995.41,-56450.6,-0,57328.7,607536
step02_gravity_refstate-mantle.xmf,607,-2.43528e-05,6.25448e-05,0,2.37212e-05,-1.37447e+09,-1.36286e+09,-1.37122e+09,3.17034e+06,0.0707924,0.586427,0,0.590684,-2132.11,-48515.2,-0,48562,3.17034e+06
step02_gravity_refstate-mantle.xmf,608,-1.40139e-05,4.1352e-05,0,1.66221e-05,-1.47214e+09,-1.46474e+09,-1.47026e+09,2.22154e+06,0.100871,0.345703,0,0.360119,-4431.38,-51546.9,-0,51737,2.22154e+06
step02_gravity_refstate-mantle.xmf,609,-2.15337e-05,5.54418e-05,0,2.02707e-05,-1.4186e+09,-1.40832e+09,-1.41573e+09,2.70918e+06,0.0759364,0.485692,0,0.491592,-2626.04,-49879.1,-0,49948.1,2.70918e+06
step02_gravity_refstate-mantle.xmf,610,2.8906e-05,-3.25595e-05,0,3.39346e-05,-1.09516e+09,-1.10337e+09,-1.09902e+09,4.53536e+06,-0.105097,0.838174,-0,0.844737,-2000,-40000,-0,40050,4.53536e+06
step02_gravity_refstate-mantle.xmf,611,-1.03614e-05,3.4262e-05,0,1.25499e-05,-1.52055e+09,-1.51459e+09,-1.51916e+09,1.6773e+06,0.116527,0.247077,0,0.273177,-5999.44,-53048.7,-0,53386.9,1.6773e+06
step02_gravity_refstate-mantle.xmf,612,-5.46238e-06,2.55048e-05,0,5.78229e-06,-1.61277e+09,-1.60863e+09,-1.61204e+09,772803,0.139488,0.108071,0,0.176455,-9102.27,-55907.8,-0,56643.9,772803
step02_gravity_refstate-mantle.xmf,613,-6.89517e-06,2.78044e-05,0,7.03845e-06,-1.59667e+09,-1.59203e+09,-1.59575e+09,940689,0.134121,0.132466,0,0.188509,-8246.36,-55406.6,-0,56016.9,940689
step02_gravity_refstate-mantle.xmf,614,-8.3432e-06,3.01584e-05,0,8.34508e-06,-1.58013e+09,-1.57499e+09,-1.57902e+09,1.11532e+06,0.128084,0.159573,0,0.204619,-7433.02,-54892.1,-0,55393.1,1.11532e+06
step02_gravity_refstate-mantle.xmf,615,-9.6705e-06,3.23745e-05,0,9.64829e-06,-1.56314e+09,-1.55752e+09,-1.56185e+09,1.28949e+06,0.122085,0.18829,0,0.224406,-6719.17,-54364.2,-0,54777.9,1.28949e+06
step02_gravity_refstate-mantle.xmf,616,-3.11517e-06,2.16454e-05,0,2.17247e-06,-1.68461e+09,-1.68131e+09,-1.6842e+09,290351,0.148384,0.0408058,0,0.153893,-10911.1,-58132.8,-0,59147.9,290351
step02_gravity_refstate-mantle.xmf,617,-4.65148e-06,2.40139e-05,0,3.19686e-06,-1.66622e+09,-1.66239e+09,-1.6656e+09,427260,0.144369,0.0594059,0,0.156114,-9941.56,-57560.4,-0,58412.6,427260
step02_gravity_refstate-mantle.xmf,618,-2.38756e-06,2.05369e-05,0,-6.82407e-09,-1.745e+09,-1.74193e+09,-1.74468e+09,-912.036,0.150469,-3.16087e-19,0,0.150469,-11483.3,-60000,-0,61089,912.036
step02_gravity_refstate-mantle.xmf,619,-2.52668e-05,6.40781e-05,0,2.26238e-05,-1.3867e+09,-1.37476e+09,-1.38332e+09,3.02367e+06,0.0645139,0.570536,0,0.574172,-1944.02,-48890.7,-0,48929.4,3.02367e+06
step02_gravity_refstate-mantle.xmf,620,-2.74006e-05,6.82027e-05,0,2.4935e-05,-1.37352e+09,-1.36074e+09,-1.36986e+09,3.33256e+06,0.0600243,0.607563,0,0.610521,-1705.74,-48479.9,-0,48509.9,3.33256e+06
step02_gravity_refstate-mantle.xmf,621,-2.40024e-05,6.10878e-05,0,2.18237e-05,-1.39675e+09,-1.38538e+09,-1.39354e+09,2.91674e+06,0.0688348,0.541945,0,0.546299,-2175.64,-49202,-0,49250.1,2.91674e+06
step02_gravity_refstate-mantle.xmf,622,-1.61951e-05,4.5103e-05,0,1.74687e-05,-1.46064e+09,-1.45244e+09,-1.45847e+09,2.33469e+06,0.0929266,0.379908,0,0.391108,-3826.48,-51186.7,-0,51329.5,2.33469e+06
step02_gravity_refstate-mantle.xmf,623,-2.49703e-05,6.12915e-05,0,1.92332e-05,-1.41163e+09,-1.4001e+09,-1.40829e+09,2.57051e+06,0.0636649,0.518696,0,0.522588,-2051.95,-49655.5,-0,49697.9,2.57051e+06
step02_gravity_refstate-mantle.xmf,624,-1.87819e-05,4.94141e-05,0,1.79162e-05,-1.44923e+09,-1.44011e+09,-1.44672e+09,2.3945e+06,0.0840034,0.415495,0,0.423901,-3235.05,-50828.1,-0,50930.9,2.3945e+06
step02_gravity_refstate-mantle.xmf,625,-1.22348e-05,3.74205e-05,0,1.37377e-05,-1.50763e+09,-1.50099e+09,-1.50599e+09,1.83605e+06,0.108979,0.279489,0,0.299984,-5264.29,-52645.1,-0,52907.6,1.83605e+06
step02_gravity_refstate-mantle.xmf,626,-1.4788e-05,4.149e-05,0,1.45077e-05,-1.49658e+09,-1.48905e+09,-1.4946e+09,1.93895e+06,0.0987792,0.314402,0,0.329554,-4439.35,-52297,-0,52485.1,1.93895e+06
step02_gravity_refstate-mantle.xmf,627,-1.12343e-05,3.49281e-05,0,1.08014e-05,-1.5486e+09,-1.54243e+09,-1.54709e+09,1.4436e+06,0.115111,0.217382,0,0.245979,-5992.45,-53910.9,-0,54242.9,1.4436e+06
step02_gravity_refstate-mantle.xmf,628,-6.07143e-06,2.62033e-05,0,4.3851e-06,-1.64621e+09,-1.6419e+09,-1.6454e+09,586069,0.139546,0.0817513,0,0.161729,-9071.3,-56938.4,-0,57656.5,586069
step02_gravity_refstate-mantle.xmf,629,-3.39917e-06,2.20228e-05,0,9.6317e-07,-1.71824e+09,-1.71484e+09,-1.71779e+09,128728,0.148558,0.0183277,0,0.149685,-10857.3,-59170.6,-0,60158.4,128728
step02_gravity_refstate-mantle.xmf,630,-3.34533e-05,7.71837e-05,0,2.5975e-05,-1.35855e+09,-1.34376e+09,-1.35408e+09,3.47156e+06,0.0541631,0.652269,0,0.654514,-1499.28,-48000,-0,48023.4,3.47156e+06
step02_gravity_refstate-mantle.xmf,631,-1.69383e-05,4.50295e-05,0,1.50816e-05,-1.48488e+09,-1.4766e+09,-1.48261e+09,2.01565e+06,0.0900853,0.346752,0,0.358263,-3813.71,-51930.4,-0,52070.2,2.01565e+06
step02_gravity_refstate-mantle.xmf,632,-2.47961e-05,5.91816e-05,0,1.66171e-05,-1.43097e+09,-1.41975e+09,-1.42766e+09,2.22087e+06,0.0617607,0.481915,0,0.485857,-2087.08,-50248.9,-0,50292.2,2.22087e+06
step02_gravity_refstate-mantle.xmf,633,-2.168e-05,5.41838e-05,0,1.772e-05,-1.43907e+09,-1.42893e+09,-1.43617e+09,2.36828e+06,0.0736349,0.450431,0,0.456411,-2651.23,-50507,-0,50576.5,2.36828e+06
step02_gravity_refstate-mantle.xmf,634,-1.2964e-05,3.77425e-05,0,1.18312e-05,-1.53472e+09,-1.52795e+09,-1.53299e+09,1.58124e+06,0.107276,0.247937,0,0.270149,-5274.69,-53478,-0,53737.5,1.58124e+06
step02_gravity_refstate-mantle.xmf,635,-7.5599e-06,2.8492e-05,0,5.55266e-06,-1.62881e+09,-1.62399e+09,-1.6278e+09,742113,0.13379,0.104887,0,0.170003,-8222.71,-56396.9,-0,56993.1,742113
step02_gravity_refstate-mantle.xmf,636,-9.14282e-06,3.09372e-05,0,6.73831e-06,-1.61202e+09,-1.60666e+09,-1.6108e+09,900575,0.126979,0.130379,0,0.181995,-7377.97,-55873.8,-0,56358.8,900575
step02_gravity_refstate-mantle.xmf,637,-1.05376e-05,3.31549e-05,0,7.94285e-06,-1.5942e+09,-1.58836e+09,-1.59279e+09,1.06156e+06,0.120346,0.158095,0,0.198689,-6652.01,-55319.6,-0,55718.1,1.06156e+06
step02_gravity_refstate-mantle.xmf,638,-1.20068e-05,3.54993e-05,0,9.05386e-06,-1.57743e+09,-1.57108e+09,-1.57583e+09,1.21005e+06,0.113148,0.186952,0,0.218526,-5948.27,-54798,-0,55119.9,1.21005e+06
step02_gravity_refstate-mantle.xmf,639,-6.73619e-06,2.70407e-05,0,2.91324e-06,-1.68075e+09,-1.67624e+09,-1.67985e+09,389354,0.138703,0.05442,0,0.148997,-8934.09,-58003,-0,58687,389354
step02_gravity_refstate-mantle.xmf,640,-5.27147e-06,2.48597e-05,0,1.5729e-06,-1.70777e+09,-1.70374e+09,-1.70707e+09,210219,0.143816,0.0289001,0,0.146691,-9775.71,-58841.9,-0,59648.4,210219
step02_gravity_refstate-mantle.xmf,641,-4.54013e-06,2.37797e-05,0,-1.71162e-08,-1.74519e+09,-1.74141e+09,-1.74459e+09,-2287.57,0.146143,-4.5063e-19,0,0.146143,-10231.2,-60000,-0,60866.1,2287.57
step02_gravity_refstate-mantle.xmf,642,-3.38071e-05,7.80126e-05,0,2.11023e-05,-1.37338e+09,-1.35843e+09,-1.36886e+09,2.82032e+06,0.0455622,0.629723,0,0.63137,-1229.67,-48457.8,-0,48473.4,2.82032e+06
step02_gravity_refstate-mantle.xmf,643,-3.56847e-05,8.63958e-05,0,1.77767e-05,-1.35827e+09,-1.34196e+09,-1.3535e+09,2.37585e+06,0.0368459,0.676472,0,0.677475,-999.317,-48000,-0,48010.4,2.37585e+06
step02_gravity_refstate-mantle.xmf,644,-2.7021e-05,6.50388e-05,0,1.92682e-05,-1.40099e+09,-1.38869e+09,-1.39738e+09,2.57519e+06,0.0574351,0.549788,0,0.55278,-1751.25,-49322.9,-0,49354,2.57519e+06
step02_gravity_refstate-mantle.xmf,645,-3.00754e-05,7.04086e-05,0,1.92515e-05,-1.39076e+09,-1.37733e+09,-1.38674e+09,2.57296e+06,0.0497029,0.582632,0,0.584748,-1425.83,-49000.2,-0,49020.9,2.57296e+06
step02_gravity_refstate-mantle.xmf,646,-1.92661e-05,4.89379e-05,0,1.53581e-05,-1.473e+09,-1.46389e+09,-1.47043e+09,2.05261e+06,0.0805318,0.380427,0,0.388857,-3207.11,-51557.9,-0,51657.6,2.05261e+06
step02_gravity_refstate-mantle.xmf,647,-2.73744e-05,6.34557e-05,0,1.51609e-05,-1.42458e+09,-1.41244e+09,-1.42092e+09,2.02626e+06,0.0510571,0.506596,0,0.509162,-1640.57,-50045.1,-0,50072,2.02626e+06
step02_gravity_refstate-mantle.xmf,648,-2.19444e-05,5.31788e-05,0,1.49905e-05,-1.46168e+09,-1.45164e+09,-1.45874e+09,2.00348e+06,0.0697797,0.414273,0,0.420109,-2612.45,-51201.1,-0,51267.7,2.00348e+06
step02_gravity_refstate-mantle.xmf,649,-1.50774e-05,4.10829e-05,0,1.25534e-05,-1.52195e+09,-1.51445e+09,-1.51994e+09,1.67777e+06,0.0978592,0.279995,0,0.296603,-4529.01,-53077.9,-0,53270.8,1.67777e+06
step02_gravity_refstate-mantle.xmf,650,-1.73127e-05,4.46205e-05,0,1.29403e-05,-1.50955e+09,-1.50128e+09,-1.50724e+09,1.72947e+06,0.0876566,0.31252,0,0.324581,-3822.76,-52689.1,-0,52827.6,1.72947e+06
step02_gravity_refstate-mantle.xmf,651,-1.35996e-05,3.80284e-05,0,1.00002e-05,-1.56199e+09,-1.55509e+09,-1.56017e+09,1.33652e+06,0.105264,0.21644,0,0.24068,-5260.31,-54316.7,-0,54570.8,1.33652e+06
step02_gravity_refstate-mantle.xmf,652,-8.13324e-06,2.9122e-05,0,4.07172e-06,-1.66045e+09,-1.65548e+09,-1.65937e+09,544186,0.133037,0.0773821,0,0.153906,-8160.04,-57372.1,-0,57949.5,544186
step02_gravity_refstate-mantle.xmf,653,-3.7171e-05,8.47996e-05,0,1.3229e-05,-1.37332e+09,-1.35702e+09,-1.36835e+09,1.76806e+06,0.0280508,0.646497,0,0.647106,-736.008,-48450.9,-0,48456.4,1.76806e+06
step02_gravity_refstate-mantle.xmf,654,-3.70521e-05,9.12796e-05,0,9.01985e-06,-1.35816e+09,-1.34101e+09,-1.35321e+09,1.2055e+06,0.0186477,0.691628,0,0.69188,-499.831,-48000,-0,48002.6,1.2055e+06
step02_gravity_refstate-mantle.xmf,655,-2.93245e-05,6.74507e-05,0,1.57524e-05,-1.41111e+09,-1.39818e+09,-1.40719e+09,2.10531e+06,0.0466102,0.539832,0,0.54184,-1416.98,-49626.2,-0,49646.5,2.10531e+06
step02_gravity_refstate-mantle.xmf,656,-1.95937e-05,4.82468e-05,0,1.29663e-05,-1.49723e+09,-1.48817e+09,-1.49462e+09,1.73294e+06,0.0771216,0.345005,0,0.35352,-3176.5,-52302.5,-0,52398.9,1.73294e+06
step02_gravity_refstate-mantle.xmf,657,-2.76867e-05,6.23562e-05,0,1.20367e-05,-1.44128e+09,-1.42924e+09,-1.43758e+09,1.60871e+06,0.0446652,0.47804,0,0.480122,-1484.76,-50556,-0,50577.8,1.60871e+06
step02_gravity_refstate-mantle.xmf,658,-2.46956e-05,5.76283e-05,0,1.40376e-05,-1.45105e+09,-1.44005e+09,-1.44775e+09,1.87612e+06,0.0581196,0.44688,0,0.450644,-2049.3,-50865.7,-0,50907,1.87612e+06
step02_gravity_refstate-mantle.xmf,659,-1.5454e-05,4.0969e-05,0,1.06688e-05,-1.54836e+09,-1.54082e+09,-1.54629e+09,1.42589e+06,0.0958345,0.246421,0,0.2644,-4540.38,-53890.8,-0,54081.7,1.42589e+06
step02_gravity_refstate-mantle.xmf,660,-9.71052e-06,3.14673e-05,0,5.11454e-06,-1.64391e+09,-1.63841e+09,-1.64262e+09,683559,0.126009,0.100079,0,0.160916,-7345.19,-56856.6,-0,57329.1,683559
step02_gravity_refstate-mantle.xmf,661,-1.12455e-05,3.37882e-05,0,6.21279e-06,-1.62603e+09,-1.62001e+09,-1.62452e+09,830339,0.118406,0.12631,0,0.173131,-6573.59,-56299.7,-0,56682.2,830339
step02_gravity_refstate-mantle.xmf,662,-1.27021e-05,3.60299e-05,0,7.2426e-06,-1.60842e+09,-1.60191e+09,-1.60672e+09,967973,0.110704,0.153973,0,0.18964,-5871.12,-55751.9,-0,56060.2,967973
step02_gravity_refstate-mantle.xmf,663,-1.41568e-05,3.83046e-05,0,8.1962e-06,-1.59067e+09,-1.58366e+09,-1.58878e+09,1.09542e+06,0.102757,0.183588,0,0.210389,-5208.1,-55199.7,-0,55444.8,1.09542e+06
step02_gravity_refstate-mantle.xmf,664,-8.66992e-06,2.97512e-05,0,2.76023e-06,-1.6881e+09,-1.68297e+09,-1.68694e+09,368905,0.131774,0.0531088,0,0.142073,-8037.42,-58224.1,-0,58776.3,368905
step02_gravity_refstate-mantle.xmf,665,-7.83433e-06,2.85547e-05,0,1.50832e-06,-1.71343e+09,-1.70857e+09,-1.71238e+09,201587,0.135436,0.0283566,0,0.138372,-8496.89,-59009,-0,59617.6,201587
step02_gravity_refstate-mantle.xmf,666,-6.85177e-06,2.7161e-05,0,-7.25315e-09,-1.74541e+09,-1.74087e+09,-1.7445e+09,-969.383,0.139214,-4.55771e-19,0,0.139214,-9014.66,-60000,-0,60673.4,969.383
step02_gravity_refstate-mantle.xmf,667,-3.42755e-05,7.74447e-05,0,1.58e-05,-1.38555e+09,-1.37062e+09,-1.38097e+09,2.11167e+06,0.0367018,0.608718,0,0.609823,-999.327,-48829.2,-0,48839.4,2.11167e+06
step02_gravity_refstate-mantle.xmf,668,-3.85874e-05,8.80624e-05,0,4.50073e-06,-1.37293e+09,-1.35601e+09,-1.36778e+09,601522,0.00946547,0.656082,0,0.65615,-245.296,-48437.7,-0,48438.4,601522
step02_gravity_refstate-mantle.xmf,669,-3.76118e-05,9.28894e-05,0,1.94481e-07,-1.35815e+09,-1.34071e+09,-1.35312e+09,25992.3,9.20226e-06,0.696763,0,0.696763,2.07592e-10,-48000,0,48000,25992.3
step02_gravity_refstate-mantle.xmf,670,-2.94643e-05,6.61492e-05,0,1.21121e-05,-1.42767e+09,-1.41489e+09,-1.42373e+09,1.61878e+06,0.0396851,0.509879,0,0.511422,-1252.48,-50133.4,-0,50149.1,1.61878e+06
step02_gravity_refstate-mantle.xmf,671,-2.18705e-05,5.20701e-05,0,1.27058e-05,-1.48458e+09,-1.4747e+09,-1.48166e+09,1.69812e+06,0.0663336,0.37789,0,0.383668,-2583.13,-51906.3,-0,51970.5,1.69812e+06
step02_gravity_refstate-mantle.xmf,672,-2.45124e-05,5.61233e-05,0,1.14507e-05,-1.47299e+09,-1.46221e+09,-1.46971e+09,1.53038e+06,0.0533461,0.410352,0,0.413805,-1962.53,-51540.9,-0,51578.2,1.53038e+06
step02_gravity_refstate-mantle.xmf,673,-1.75169e-05,4.41234e-05,0,1.09831e-05,-1.53484e+09,-1.5266e+09,-1.5325e+09,1.46789e+06,0.0853833,0.277773,0,0.290599,-3832.6,-53467.6,-0,53604.7,1.46789e+06
step02_gravity_refstate-mantle.xmf,674,-1.96665e-05,4.74588e-05,0,1.08928e-05,-1.52194e+09,-1.51297e+09,-1.51931e+09,1.45583e+06,0.0740145,0.309137,0,0.317874,-3150.69,-53063.1,-0,53156.5,1.45583e+06
step02_gravity_refstate-mantle.xmf,675,-1.58081e-05,4.0841e-05,0,8.83123e-06,-1.57553e+09,-1.56796e+09,-1.57342e+09,1.18029e+06,0.0935408,0.212471,0,0.23215,-4524.76,-54727.4,-0,54914.1,1.18029e+06
step02_gravity_refstate-mantle.xmf,676,-1.01337e-05,3.18828e-05,0,3.52411e-06,-1.67537e+09,-1.66976e+09,-1.67402e+09,470997,0.125039,0.0696864,0,0.143147,-7304.02,-57826.6,-0,58286,470997
step02_gravity_refstate-mantle.xmf,677,-3.33522e-05,7.38538e-05,0,1.24702e-05,-1.40153e+09,-1.38721e+09,-1.39708e+09,1.66664e+06,0.0325852,0.57339,0,0.574315,-927.073,-49319.9,-0,49328.6,1.66664e+06
step02_gravity_refstate-mantle.xmf,678,-3.69113e-05,8.08082e-05,0,7.13389e-06,-1.39024e+09,-1.3745e+09,-1.3853e+09,953444,0.0171412,0.609202,0,0.609443,-459.86,-48964.9,-0,48967,953444
step02_gravity_refstate-mantle.xmf,679,-3.8577e-05,8.78596e-05,0,-4.7736e-06,-1.37313e+09,-1.35623e+09,-1.36797e+09,-637991,-0.0103688,0.65537,-0,0.655452,268.76,-48443.4,0,48444.1,637991
step02_gravity_refstate-mantle.xmf,680,-3.7132e-05,9.12844e-05,0,-8.74568e-06,-1.35818e+09,-1.34102e+09,-1.35322e+09,-1.16886e+06,-0.0186643,0.691628,-0,0.691879,499.831,-48000,0,48002.6,1.16886e+06
step02_gravity_refstate-mantle.xmf,681,-3.18646e-05,7.03011e-05,0,9.77044e-06,-1.42016e+09,-1.40651e+09,-1.4159e+09,1.30582e+06,0.0289499,0.532969,0,0.533755,-874.106,-49896.1,-0,49903.8,1.30582e+06
step02_gravity_refstate-mantle.xmf,682,-2.18853e-05,5.09265e-05,0,1.03519e-05,-1.50878e+09,-1.49905e+09,-1.50585e+09,1.38353e+06,0.0619167,0.341187,0,0.34676,-2500.85,-52650.7,-0,52710.1,1.38353e+06
step02_gravity_refstate-mantle.xmf,683,-3.02746e-05,6.6547e-05,0,8.13447e-06,-1.43812e+09,-1.42518e+09,-1.43408e+09,1.08717e+06,0.0276393,0.495014,0,0.495785,-884.149,-50452,-0,50459.8,1.08717e+06
step02_gravity_refstate-mantle.xmf,684,-2.66854e-05,5.99434e-05,0,1.03591e-05,-1.46064e+09,-1.44907e+09,-1.45708e+09,1.3845e+06,0.0426719,0.441349,0,0.443407,-1490.82,-51154.7,-0,51176.5,1.3845e+06
step02_gravity_refstate-mantle.xmf,685,-1.76274e-05,4.37084e-05,0,9.18057e-06,-1.56117e+09,-1.55297e+09,-1.55881e+09,1.22698e+06,0.0829356,0.242335,0,0.256134,-3822.65,-54278.9,-0,54413.3,1.22698e+06
step02_gravity_refstate-mantle.xmf,686,-1.60287e-05,4.07164e-05,0,7.18405e-06,-1.60274e+09,-1.59516e+09,-1.6006e+09,960148,0.0914672,0.17852,0,0.200589,-4506.92,-55566.3,-0,55748.8,960148
step02_gravity_refstate-mantle.xmf,687,-1.17233e-05,3.41811e-05,0,4.46266e-06,-1.6588e+09,-1.65267e+09,-1.65724e+09,596434,0.116913,0.0924236,0,0.149033,-6527.62,-57310,-0,57680.6,596434
step02_gravity_refstate-mantle.xmf,688,-1.33003e-05,3.65095e-05,0,5.44475e-06,-1.64037e+09,-1.63372e+09,-1.6386e+09,727691,0.107997,0.119461,0,0.161042,-5766.17,-56736.2,-0,57028.4,727691
step02_gravity_refstate-mantle.xmf,689,-1.47637e-05,3.872e-05,0,6.33993e-06,-1.6218e+09,-1.61465e+09,-1.61982e+09,847332,0.099189,0.148327,0,0.178435,-5078.55,-56158.2,-0,56387.3,847332
step02_gravity_refstate-mantle.xmf,690,-1.0384e-05,3.21558e-05,0,1.79029e-06,-1.71013e+09,-1.70445e+09,-1.70874e+09,239273,0.124421,0.0354374,0,0.129369,-7284.77,-58899.3,-0,59348.1,239273
step02_gravity_refstate-mantle.xmf,691,-9.29632e-06,3.06308e-05,0,-9.30489e-09,-1.74565e+09,-1.74032e+09,-1.74441e+09,-1243.6,0.129645,-5.70713e-19,0,0.129645,-7829.03,-60000,-0,60508.6,1243.6
step02_gravity_refstate-mantle.xmf,692,-3.81518e-05,8.37749e-05,0,-2.45956e-07,-1.38554e+09,-1.36924e+09,-1.38044e+09,-32872.1,-2.13474e-06,0.624367,-0,0.624367,-0.0385542,-48819,-0,48819,32872.1
step02_gravity_refstate-mantle.xmf,693,-3.70087e-05,8.43989e-05,0,-1.37904e-05,-1.37294e+09,-1.35671e+09,-1.36799e+09,-1.84308e+06,-0.0294071,0.64653,-0,0.647199,772.639,-48439.1,0,48445.3,1.84308e+06
step02_gravity_refstate-mantle.xmf,694,-2.40952e-05,5.46111e-05,0,9.23258e-06,-1.49648e+09,-1.48596e+09,-1.49326e+09,1.23393e+06,0.0486594,0.371915,0,0.375085,-1868.87,-52265.3,-0,52298.7,1.23393e+06
step02_gravity_refstate-mantle.xmf,695,-2.86683e-05,6.2666e-05,0,6.83429e-06,-1.45807e+09,-1.44586e+09,-1.45424e+09,913403,0.0270864,0.454835,0,0.455641,-918.693,-51069,-0,51077.3,913403
step02_gravity_refstate-mantle.xmf,696,-2.66647e-05,5.85702e-05,0,7.05639e-06,-1.48055e+09,-1.46916e+09,-1.47699e+09,943087,0.0330206,0.409367,0,0.410697,-1195.69,-51766.3,-0,51780.1,943087
step02_gravity_refstate-mantle.xmf,697,-3.59018e-05,8.62227e-05,0,-1.74716e-05,-1.35833e+09,-1.34201e+09,-1.35353e+09,-2.33508e+06,-0.0368304,0.676473,-0,0.677475,999.317,-48000,0,48010.4,2.33508e+06
step02_gravity_refstate-mantle.xmf,698,-1.95934e-05,4.66201e-05,0,9.0405e-06,-1.54756e+09,-1.53871e+09,-1.54494e+09,1.20826e+06,0.0712386,0.272324,0,0.281488,-3130.22,-53853,-0,53943.9,1.20826e+06
step02_gravity_refstate-mantle.xmf,699,-2.15732e-05,4.96587e-05,0,8.46079e-06,-1.53426e+09,-1.52474e+09,-1.53138e+09,1.13078e+06,0.0585903,0.302349,0,0.307974,-2456.89,-53436.7,-0,53493.2,1.13078e+06
step02_gravity_refstate-mantle.xmf,700,-1.76826e-05,4.31887e-05,0,7.53218e-06,-1.58715e+09,-1.57901e+09,-1.58478e+09,1.00668e+06,0.0808937,0.207636,0,0.222838,-3817.14,-55079.8,-0,55211.9,1.00668e+06
step02_gravity_refstate-mantle.xmf,701,-1.19057e-05,3.43146e-05,0,2.95242e-06,-1.68812e+09,-1.68194e+09,-1.68653e+09,394591,0.116368,0.0613919,0,0.131569,-6536.01,-58214.7,-0,58580.5,394591
step02_gravity_refstate-mantle.xmf,702,-3.46549e-05,7.46927e-05,0,5.00449e-06,-1.41072e+09,-1.39611e+09,-1.40609e+09,668850,0.0138493,0.560692,0,0.560863,-397.32,-49597.2,-0,49598.8,668850
step02_gravity_refstate-mantle.xmf,703,-3.63786e-05,7.83463e-05,0,-1.50926e-06,-1.40118e+09,-1.38585e+09,-1.39632e+09,-201712,-0.00311777,0.585207,-0,0.585215,86.0448,-49300.2,0,49300.3,201712
step02_gravity_refstate-mantle.xmf,704,-3.65109e-05,8.01765e-05,0,-9.51872e-06,-1.38981e+09,-1.37422e+09,-1.38493e+09,-1.27218e+06,-0.0210428,0.608623,-0,0.608986,565.918,-48952.8,0,48956.1,1.27218e+06
step02_gravity_refstate-mantle.xmf,705,-3.24657e-05,7.03006e-05,0,3.98365e-06,-1.42982e+09,-1.41609e+09,-1.42548e+09,532415,0.0123484,0.517965,0,0.518112,-378.759,-50190.6,-0,50192,532415
step02_gravity_refstate-mantle.xmf,706,-2.35302e-05,5.26969e-05,0,7.31792e-06,-1.52114e+09,-1.51096e+09,-1.518e+09,978040,0.045009,0.332036,0,0.335072,-1804.06,-53026.2,-0,53056.9,978040
step02_gravity_refstate-mantle.xmf,707,-3.0569e-05,6.61384e-05,0,3.25244e-06,-1.44882e+09,-1.4359e+09,-1.44474e+09,434688,0.0116563,0.478044,0,0.478186,-380.003,-50779.5,-0,50780.9,434688
step02_gravity_refstate-mantle.xmf,708,-3.34624e-05,7.67888e-05,0,-2.17948e-05,-1.3726e+09,-1.35786e+09,-1.36812e+09,-2.91287e+06,-0.046264,0.630861,-0,0.632555,1249.3,-48432.8,0,48448.9,2.91287e+06
step02_gravity_refstate-mantle.xmf,709,-1.93856e-05,4.58579e-05,0,7.4766e-06,-1.57368e+09,-1.56496e+09,-1.57108e+09,999248,0.0691271,0.235114,0,0.245066,-3128.5,-54659.1,-0,54748.5,999248
step02_gravity_refstate-mantle.xmf,710,-1.77157e-05,4.28969e-05,0,6.19913e-06,-1.61028e+09,-1.60218e+09,-1.60791e+09,828514,0.0788624,0.177296,0,0.194044,-3785.55,-55793.3,-0,55921.6,828514
step02_gravity_refstate-mantle.xmf,711,-1.68327e-05,4.13596e-05,0,5.21889e-06,-1.63428e+09,-1.6265e+09,-1.63203e+09,697504,0.0846299,0.142008,0,0.165313,-4194.83,-56536.7,-0,56692.1,697504
step02_gravity_refstate-mantle.xmf,712,-1.37862e-05,3.69354e-05,0,3.35491e-06,-1.67974e+09,-1.67296e+09,-1.67789e+09,448384,0.105292,0.075739,0,0.129703,-5658.62,-57949.9,-0,58225.5,448384
step02_gravity_refstate-mantle.xmf,713,-1.5248e-05,3.90368e-05,0,4.43347e-06,-1.65614e+09,-1.64888e+09,-1.6541e+09,592533,0.0956887,0.108429,0,0.144614,-4944.79,-57216.6,-0,57429.9,592533
step02_gravity_refstate-mantle.xmf,714,-1.2913e-05,3.56442e-05,0,1.62049e-06,-1.71416e+09,-1.70767e+09,-1.71243e+09,216579,0.110779,0.0350926,0,0.116204,-6116.61,-59015.7,-0,59331.8,216579
step02_gravity_refstate-mantle.xmf,715,-1.17702e-05,3.40688e-05,0,-1.98137e-09,-1.74591e+09,-1.73978e+09,-1.74433e+09,-264.81,0.117434,-5.60903e-19,0,0.117434,-6669.73,-60000,-0,60369.6,264.81
step02_gravity_refstate-mantle.xmf,716,-3.39333e-05,7.67464e-05,0,-1.71491e-05,-1.38466e+09,-1.36987e+09,-1.38013e+09,-2.29198e+06,-0.0386771,0.609191,-0,0.610417,1054.66,-48802.3,0,48813.7,2.29198e+06
step02_gravity_refstate-mantle.xmf,717,-2.53897e-05,5.59561e-05,0,5.5765e-06,-1.50769e+09,-1.49682e+09,-1.5043e+09,745299,0.0302078,0.361738,0,0.362997,-1158.58,-52606.6,-0,52619.4,745299
step02_gravity_refstate-mantle.xmf,718,-2.85728e-05,6.16291e-05,0,3.03741e-06,-1.47208e+09,-1.46002e+09,-1.46826e+09,405950,0.0133188,0.431762,0,0.431968,-464.234,-51499.7,-0,51501.8,405950
step02_gravity_refstate-mantle.xmf,719,-3.42381e-05,7.51085e-05,0,-2.8061e-05,-1.35889e+09,-1.34428e+09,-1.35432e+09,-3.75035e+06,-0.0541448,0.652298,-0,0.654542,1499.28,-48000,0,48023.4,3.75035e+06
step02_gravity_refstate-mantle.xmf,720,-2.11975e-05,4.84682e-05,0,6.88855e-06,-1.55992e+09,-1.55061e+09,-1.55709e+09,920655,0.0559307,0.263879,0,0.269741,-2426.7,-54228.7,-0,54283,920655
step02_gravity_refstate-mantle.xmf,721,-2.28855e-05,5.10737e-05,0,5.87395e-06,-1.54624e+09,-1.53635e+09,-1.54318e+09,785054,0.0421524,0.292321,0,0.295345,-1757.14,-53801.5,-0,53830.1,785054
step02_gravity_refstate-mantle.xmf,722,-1.91658e-05,4.49709e-05,0,6.03744e-06,-1.59982e+09,-1.59125e+09,-1.59726e+09,806904,0.067714,0.198311,0,0.209553,-3145.82,-55466,-0,55555.1,806904
step02_gravity_refstate-mantle.xmf,723,-3.38603e-05,7.26493e-05,0,-1.76394e-06,-1.42019e+09,-1.40595e+09,-1.41566e+09,-235751,-0.00458829,0.540567,-0,0.540587,135.692,-49889.6,0,49889.8,235751
step02_gravity_refstate-mantle.xmf,724,-3.37895e-05,7.36842e-05,0,-8.38799e-06,-1.40999e+09,-1.39563e+09,-1.40547e+09,-1.12105e+06,-0.0221314,0.559409,-0,0.559846,638.632,-49577.8,0,49581.9,1.12105e+06
step02_gravity_refstate-mantle.xmf,725,-3.17039e-05,7.19133e-05,0,-1.52276e-05,-1.40005e+09,-1.3862e+09,-1.39582e+09,-2.03517e+06,-0.039773,0.571117,-0,0.5725,1143.77,-49280.2,0,49293.4,2.03517e+06
step02_gravity_refstate-mantle.xmf,726,-2.85176e-05,6.8853e-05,0,-2.10309e-05,-1.38653e+09,-1.37352e+09,-1.38272e+09,-2.81078e+06,-0.0541821,0.586536,-0,0.589033,1558.69,-48876,0,48900.8,2.81078e+06
step02_gravity_refstate-mantle.xmf,727,-3.1678e-05,6.8363e-05,0,-1.43656e-06,-1.4398e+09,-1.42643e+09,-1.43556e+09,-191996,-0.00470782,0.497703,-0,0.497725,148.911,-50499,0,50499.2,191996
step02_gravity_refstate-mantle.xmf,728,-2.44281e-05,5.35258e-05,0,4.31303e-06,-1.53256e+09,-1.52214e+09,-1.52929e+09,576437,0.0277122,0.320152,0,0.321349,-1112.41,-53374.9,-0,53386.5,576437
step02_gravity_refstate-mantle.xmf,729,-2.97005e-05,6.41519e-05,0,-1.09407e-06,-1.46092e+09,-1.44838e+09,-1.45695e+09,-146223,-0.00417511,0.454601,-0,0.45462,140.705,-51153.9,0,51154.1,146223
step02_gravity_refstate-mantle.xmf,730,-2.69739e-05,5.82983e-05,0,2.69655e-06,-1.49558e+09,-1.48418e+09,-1.49197e+09,360394,0.0137044,0.387897,0,0.388139,-506.107,-52227.8,-0,52230.2,360394
step02_gravity_refstate-mantle.xmf,731,-2.71854e-05,6.65005e-05,0,-2.50948e-05,-1.37018e+09,-1.35766e+09,-1.36655e+09,-3.35391e+06,-0.0591717,0.616831,-0,0.619662,1660.48,-48373.8,0,48402.3,3.35391e+06
step02_gravity_refstate-mantle.xmf,732,-2.07567e-05,4.74675e-05,0,5.60786e-06,-1.58645e+09,-1.57733e+09,-1.58368e+09,749491,0.0540893,0.224653,0,0.231072,-2421.47,-55048.7,-0,55101.9,749491
step02_gravity_refstate-mantle.xmf,733,-1.87478e-05,4.40217e-05,0,4.83523e-06,-1.62704e+09,-1.61865e+09,-1.62454e+09,646228,0.0685259,0.159776,0,0.173851,-3267.82,-56307.2,-0,56401.9,646228
step02_gravity_refstate-mantle.xmf,734,-1.69589e-05,4.12281e-05,0,3.33424e-06,-1.672e+09,-1.66422e+09,-1.66973e+09,445622,0.0819179,0.094463,0,0.125035,-4123.29,-57700.6,-0,57847.7,445622
step02_gravity_refstate-mantle.xmf,735,-1.55766e-05,3.93004e-05,0,2.78193e-06,-1.688e+09,-1.68067e+09,-1.68592e+09,371805,0.0928416,0.0706992,0,0.116696,-4823.52,-58199.3,-0,58398.9,371805
step02_gravity_refstate-mantle.xmf,736,-1.50896e-05,3.8607e-05,0,1.55419e-06,-1.7144e+09,-1.70722e+09,-1.71238e+09,207718,0.0962476,0.0379504,0,0.103459,-5078.58,-59016.1,-0,59234.2,207718
step02_gravity_refstate-mantle.xmf,737,-1.41774e-05,3.73509e-05,0,2.03065e-09,-1.74615e+09,-1.73927e+09,-1.74426e+09,271.397,0.102672,-5.77258e-19,0,0.102672,-5532.04,-60000,-0,60254.5,271.397
step02_gravity_refstate-mantle.xmf,738,-2.56878e-05,5.58905e-05,0,2.11852e-06,-1.51947e+09,-1.50857e+09,-1.51604e+09,283140,0.0121177,0.345836,0,0.346049,-470.327,-52968.3,-0,52970.4,283140
step02_gravity_refstate-mantle.xmf,739,-2.79815e-05,6.02539e-05,0,-8.48347e-07,-1.48341e+09,-1.47161e+09,-1.47967e+09,-113382,-0.00345956,0.411452,-0,0.411466,123.707,-51850,0,51850.2,113382
step02_gravity_refstate-mantle.xmf,740,-3.19586e-05,7.43908e-05,0,-2.59889e-05,-1.35846e+09,-1.34425e+09,-1.35419e+09,-3.47342e+06,-0.0706967,0.624919,-0,0.628905,2000,-48000,0,48041.6,3.47342e+06
step02_gravity_refstate-mantle.xmf,741,-2.47923e-05,6.40336e-05,0,-2.3411e-05,-1.37669e+09,-1.36482e+09,-1.37338e+09,-3.12888e+06,-0.0683729,0.585794,-0,0.58977,2045.85,-48584.6,0,48627.6,3.12888e+06
step02_gravity_refstate-mantle.xmf,742,-2.35825e-05,5.17347e-05,0,3.39123e-06,-1.55732e+09,-1.54725e+09,-1.55417e+09,453238,0.0253517,0.280179,0,0.281323,-1058.52,-54140.8,-0,54151.1,453238
step02_gravity_refstate-mantle.xmf,743,-2.23023e-05,4.96571e-05,0,4.64763e-06,-1.57207e+09,-1.56246e+09,-1.56909e+09,621156,0.0396115,0.252522,0,0.25561,-1710.27,-54599.8,-0,54626.6,621156
step02_gravity_refstate-mantle.xmf,744,-2.03286e-05,4.62921e-05,0,4.40454e-06,-1.61427e+09,-1.60537e+09,-1.61155e+09,588666,0.0532872,0.184159,0,0.191713,-2454.42,-55907.8,-0,55961.7,588666
step02_gravity_refstate-mantle.xmf,745,-1.84442e-05,4.3323e-05,0,3.59918e-06,-1.65609e+09,-1.64783e+09,-1.65362e+09,481031,0.0687622,0.120014,0,0.138317,-3347.9,-57204.6,-0,57302.5,481031
step02_gravity_refstate-mantle.xmf,746,-3.163e-05,6.88253e-05,0,-7.14187e-06,-1.42937e+09,-1.41595e+09,-1.42514e+09,-954511,-0.0221092,0.516027,-0,0.516501,682.845,-50178.4,0,50183.1,954511
step02_gravity_refstate-mantle.xmf,747,-3.00942e-05,6.77518e-05,0,-1.29586e-05,-1.41876e+09,-1.40568e+09,-1.41474e+09,-1.73191e+06,-0.0393264,0.52929,-0,0.530749,1204.79,-49858.1,0,49872.6,1.73191e+06
step02_gravity_refstate-mantle.xmf,748,-2.73994e-05,6.50784e-05,0,-1.80147e-05,-1.40718e+09,-1.39482e+09,-1.40352e+09,-2.40766e+06,-0.0547134,0.539677,-0,0.542444,1684.03,-49511.6,0,49540.2,2.40766e+06
step02_gravity_refstate-mantle.xmf,749,-2.98519e-05,6.50915e-05,0,-5.86647e-06,-1.44984e+09,-1.43715e+09,-1.44585e+09,-784054,-0.0212872,0.473453,-0,0.473931,701.027,-50813,0,50817.8,784054
step02_gravity_refstate-mantle.xmf,750,-2.4651e-05,5.35539e-05,0,1.62304e-06,-1.54272e+09,-1.53227e+09,-1.53943e+09,216919,0.0110303,0.306643,0,0.306841,-446.548,-53687.3,-0,53689.2,216919
step02_gravity_refstate-mantle.xmf,751,-2.82128e-05,6.14928e-05,0,-4.85484e-06,-1.47145e+09,-1.45946e+09,-1.46768e+09,-648849,-0.0204493,0.431175,-0,0.43166,714.821,-51482.4,0,51487.4,648849
step02_gravity_refstate-mantle.xmf,752,-2.65397e-05,5.72964e-05,0,-7.54471e-07,-1.50643e+09,-1.49523e+09,-1.50288e+09,-100835,-0.00364381,0.369504,-0,0.369522,137.387,-52563.4,0,52563.5,100835
step02_gravity_refstate-mantle.xmf,753,-2.44889e-05,6.17954e-05,0,-2.17372e-05,-1.39531e+09,-1.38378e+09,-1.39204e+09,-2.90518e+06,-0.0675074,0.547235,-0,0.551383,2112.44,-49156.1,0,49201.4,2.90518e+06
step02_gravity_refstate-mantle.xmf,754,-2.17403e-05,4.85606e-05,0,3.63169e-06,-1.59985e+09,-1.59045e+09,-1.59694e+09,485376,0.0372891,0.210743,0,0.214016,-1662.19,-55458.7,-0,55483.6,485376
step02_gravity_refstate-mantle.xmf,755,-1.98924e-05,4.53633e-05,0,3.36953e-06,-1.64328e+09,-1.63456e+09,-1.64062e+09,450338,0.0534809,0.142617,0,0.152315,-2524.81,-56804.4,-0,56860.5,450338
step02_gravity_refstate-mantle.xmf,756,-1.82843e-05,4.29673e-05,0,2.40062e-06,-1.68541e+09,-1.67722e+09,-1.68296e+09,320843,0.0682196,0.0808462,0,0.105783,-3367.29,-58110.4,-0,58207.8,320843
step02_gravity_refstate-mantle.xmf,757,-1.72329e-05,4.1467e-05,0,1.60452e-06,-1.70915e+09,-1.7013e+09,-1.70684e+09,214445,0.0785053,0.0477178,0,0.0918698,-3974.87,-58846.9,-0,58981,214445
step02_gravity_refstate-mantle.xmf,758,-1.63959e-05,4.03268e-05,0,1.03846e-08,-1.74639e+09,-1.73881e+09,-1.7442e+09,1387.9,0.085528,-7.14164e-19,0,0.085528,-4411.14,-60000,-0,60161.9,1387.9
step02_gravity_refstate-mantle.xmf,759,-2.22132e-05,7.55352e-05,0,-3.4713e-05,-1.34001e+09,-1.32695e+09,-1.33704e+09,-4.63939e+06,-0.0765124,0.665348,-0,0.669733,2000,-47498.2,0,47540.3,4.63939e+06
step02_gravity_refstate-mantle.xmf,760,-1.52835e-05,5.93393e-05,0,-3.48327e-05,-1.34785e+09,-1.33788e+09,-1.34581e+09,-4.65539e+06,-0.0838276,0.619446,-0,0.625092,2443.18,-47745.4,0,47807.8,4.65539e+06
step02_gravity_refstate-mantle.xmf,761,-2.2055e-05,7.27269e-05,0,-4.195e-05,-1.32403e+09,-1.31136e+09,-1.32108e+09,-5.60662e+06,-0.0731253,0.703877,-0,0.707666,2000,-46998.5,0,47041,5.60662e+06
step02_gravity_refstate-mantle.xmf,762,-1.36454e-05,5.85505e-05,0,-3.56715e-05,-1.33131e+09,-1.32166e+09,-1.32949e+09,-4.76749e+06,-0.0831467,0.650339,-0,0.655633,2431.08,-47243.3,0,47305.9,4.76749e+06
step02_gravity_refstate-mantle.xmf,763,-2.53584e-05,5.51025e-05,0,-6.64767e-07,-1.52932e+09,-1.51857e+09,-1.52593e+09,-88846.1,-0.00403046,0.329692,-0,0.329716,159.12,-53272.6,0,53272.9,88846.1
step02_gravity_refstate-mantle.xmf,764,-2.6749e-05,5.81435e-05,0,-4.13858e-06,-1.49387e+09,-1.48252e+09,-1.49029e+09,-553121,-0.0200107,0.389616,-0,0.39013,738.56,-52175.9,0,52181.2,553121
step02_gravity_refstate-mantle.xmf,765,-2.23831e-05,6.16152e-05,0,-3.00716e-05,-1.36637e+09,-1.35514e+09,-1.36338e+09,-4.01907e+06,-0.0800308,0.585884,-0,0.591325,2460.83,-48275.6,0,48338.3,4.01907e+06
step02_gravity_refstate-mantle.xmf,766,-2.17878e-05,5.89436e-05,0,-2.49696e-05,-1.38468e+09,-1.37389e+09,-1.38177e+09,-3.33719e+06,-0.0780179,0.549895,-0,0.555402,2504.29,-48838.4,0,48902.5,3.33719e+06
step02_gravity_refstate-mantle.xmf,767,-2.3872e-05,5.20586e-05,0,1.4635e-06,-1.56207e+09,-1.55192e+09,-1.55888e+09,195597,0.0111964,0.274955,0,0.275183,-467.419,-54286.4,-0,54288.5,195597
step02_gravity_refstate-mantle.xmf,768,-2.29961e-05,5.03698e-05,0,2.09274e-06,-1.583e+09,-1.57319e+09,-1.57992e+09,279695,0.0191784,0.240688,0,0.241451,-827.282,-54934.4,-0,54940.7,279695
step02_gravity_refstate-mantle.xmf,769,-2.11744e-05,4.72128e-05,0,2.76182e-06,-1.6291e+09,-1.61996e+09,-1.62627e+09,369117,0.0369981,0.167356,0,0.171397,-1697.43,-56362.6,-0,56388.2,369117
step02_gravity_refstate-mantle.xmf,770,-1.95521e-05,4.46657e-05,0,2.33407e-06,-1.67391e+09,-1.66533e+09,-1.6713e+09,311949,0.0537065,0.0997144,0,0.113258,-2584.57,-57751.3,-0,57809.1,311949
step02_gravity_refstate-mantle.xmf,771,-2.08208e-05,6.6525e-05,0,-4.75893e-05,-1.30808e+09,-1.29641e+09,-1.3053e+09,-6.36032e+06,-0.0657677,0.739145,-0,0.742065,2000,-46498.1,0,46541.1,6.36032e+06
step02_gravity_refstate-mantle.xmf,772,-1.43102e-05,5.69801e-05,0,-3.8783e-05,-1.31538e+09,-1.30585e+09,-1.31347e+09,-5.18335e+06,-0.0772176,0.680854,-0,0.685218,2419.18,-46742.8,0,46805.4,5.18335e+06
step02_gravity_refstate-mantle.xmf,773,-1.8948e-05,5.92541e-05,0,-5.20267e-05,-1.29209e+09,-1.28164e+09,-1.28956e+09,-6.95336e+06,-0.0562365,0.770749,-0,0.772798,2000,-45998.2,0,46041.6,6.95336e+06
step02_gravity_refstate-mantle.xmf,774,-1.42589e-05,5.31878e-05,0,-4.2553e-05,-1.29927e+09,-1.29026e+09,-1.29737e+09,-5.6872e+06,-0.0680135,0.709831,-0,0.713082,2412.43,-46235.8,0,46298.7,5.6872e+06
step02_gravity_refstate-mantle.xmf,775,-2.87049e-05,6.41477e-05,0,-1.09759e-05,-1.43848e+09,-1.42607e+09,-1.43464e+09,-1.46693e+06,-0.0383985,0.488183,-0,0.489691,1250.5,-50467.4,0,50482.9,1.46693e+06
step02_gravity_refstate-mantle.xmf,776,-2.64462e-05,6.19292e-05,0,-1.56489e-05,-1.4273e+09,-1.41548e+09,-1.42376e+09,-2.09148e+06,-0.0544654,0.497508,-0,0.50048,1781.07,-50131.3,0,50163,2.09148e+06
step02_gravity_refstate-mantle.xmf,777,-2.33173e-05,5.8418e-05,0,-1.96814e-05,-1.41552e+09,-1.4046e+09,-1.41241e+09,-2.63041e+06,-0.069471,0.502279,-0,0.507061,2316.6,-49779.6,0,49833.5,2.63041e+06
step02_gravity_refstate-mantle.xmf,778,-2.74515e-05,6.11383e-05,0,-9.23601e-06,-1.45959e+09,-1.44775e+09,-1.45592e+09,-1.23439e+06,-0.0372394,0.446767,-0,0.448317,1285.76,-51120.2,0,51136.4,1.23439e+06
step02_gravity_refstate-mantle.xmf,779,-2.43688e-05,5.29394e-05,0,-5.42905e-07,-1.55199e+09,-1.54165e+09,-1.54873e+09,-72559.3,-0.00359215,0.291895,-0,0.291917,147.541,-53973.9,0,53974.1,72559.3
step02_gravity_refstate-mantle.xmf,780,-2.62176e-05,5.82316e-05,0,-7.8349e-06,-1.48141e+09,-1.47013e+09,-1.47791e+09,-1.04713e+06,-0.0363668,0.406078,-0,0.407703,1325.28,-51795.1,0,51812.1,1.04713e+06
step02_gravity_refstate-mantle.xmf,781,-2.55231e-05,5.55911e-05,0,-3.5776e-06,-1.51644e+09,-1.5056e+09,-1.51303e+09,-478146,-0.0199973,0.349636,-0,0.350207,774.445,-52875,0,52880.6,478146
step02_gravity_refstate-mantle.xmf,782,-2.16104e-05,5.70423e-05,0,-2.24299e-05,-1.40174e+09,-1.39122e+09,-1.39885e+09,-2.99776e+06,-0.0767195,0.517569,-0,0.523224,2552.81,-49361.6,0,49427.6,2.99776e+06
step02_gravity_refstate-mantle.xmf,783,-1.65379e-05,5.15009e-05,0,-5.5486e-05,-1.27605e+09,-1.26695e+09,-1.27384e+09,-7.41571e+06,-0.045442,0.798464,-0,0.799756,2000,-45498.8,0,45542.7,7.41571e+06
step02_gravity_refstate-mantle.xmf,784,-1.334e-05,4.79582e-05,0,-4.58737e-05,-1.28331e+09,-1.27511e+09,-1.28152e+09,-6.13101e+06,-0.0570686,0.73548,-0,0.737691,2411.33,-45735.4,0,45798.9,6.13101e+06
step02_gravity_refstate-mantle.xmf,785,-1.37058e-05,4.34973e-05,0,-5.80632e-05,-1.25994e+09,-1.2523e+09,-1.25811e+09,-7.76015e+06,-0.0338583,0.822186,-0,0.822883,2000,-44999.8,0,45044.2,7.76015e+06
step02_gravity_refstate-mantle.xmf,786,-1.18348e-05,4.20033e-05,0,-4.86318e-05,-1.26734e+09,-1.26014e+09,-1.26575e+09,-6.49964e+06,-0.0449271,0.758502,-0,0.759831,2407.38,-45236.9,0,45300.9,6.49964e+06
step02_gravity_refstate-mantle.xmf,787,-1.05635e-05,3.5352e-05,0,-5.98097e-05,-1.24376e+09,-1.23763e+09,-1.24235e+09,-7.99357e+06,-0.0217016,0.841884,-0,0.842164,2000,-44500.2,0,44545.1,7.99357e+06
step02_gravity_refstate-mantle.xmf,788,-9.84643e-06,3.55525e-05,0,-5.07125e-05,-1.25132e+09,-1.24525e+09,-1.25e+09,-6.77772e+06,-0.0319987,0.778344,-0,0.779002,2403.8,-44738.8,0,44803.3,6.77772e+06
step02_gravity_refstate-mantle.xmf,789,-7.10799e-06,2.71466e-05,0,-6.08256e-05,-1.2275e+09,-1.22292e+09,-1.22655e+09,-8.12934e+06,-0.00906072,0.857512,-0,0.85756,2000,-44000,0,44045.4,8.12934e+06
step02_gravity_refstate-mantle.xmf,790,-7.49517e-06,2.87165e-05,0,-5.2113e-05,-1.23503e+09,-1.23019e+09,-1.23403e+09,-6.9649e+06,-0.0182778,0.795335,-0,0.795545,2398.22,-44234.1,0,44299,6.9649e+06
step02_gravity_refstate-mantle.xmf,791,-2.21856e-05,4.89252e-05,0,1.70928e-06,-1.61471e+09,-1.60521e+09,-1.61175e+09,228445,0.0193501,0.191934,0,0.192907,-865.908,-55915.8,-0,55922.5,228445
step02_gravity_refstate-mantle.xmf,792,-2.07231e-05,4.63159e-05,0,2.02617e-06,-1.6588e+09,-1.64984e+09,-1.65603e+09,270797,0.0371384,0.124242,0,0.129674,-1742.87,-57280.8,-0,57307.3,270797
step02_gravity_refstate-mantle.xmf,793,-1.92776e-05,4.41278e-05,0,1.17412e-06,-1.71014e+09,-1.70167e+09,-1.70757e+09,156922,0.0549725,0.0497349,0,0.0741319,-2685.96,-58870.9,-0,58932.1,156922
step02_gravity_refstate-mantle.xmf,794,-1.8317e-05,4.2873e-05,0,1.6875e-08,-1.74659e+09,-1.73842e+09,-1.74415e+09,2255.35,0.0662765,-7.6115e-19,0,0.0662765,-3302.13,-60000,-0,60090.8,2255.35
step02_gravity_refstate-mantle.xmf,795,-1.39185e-05,5.19146e-05,0,-3.25566e-05,-1.35632e+09,-1.34753e+09,-1.35446e+09,-4.35119e+06,-0.0895486,0.576104,-0,0.583022,2905.03,-47997.2,0,48085,4.35119e+06
step02_gravity_refstate-mantle.xmf,796,-9.69725e-06,4.93597e-05,0,-3.38938e-05,-1.33869e+09,-1.3308e+09,-1.3374e+09,-4.52991e+06,-0.0894723,0.604608,-0,0.611192,2877.92,-47474.2,0,47561.4,4.52991e+06
step02_gravity_refstate-mantle.xmf,797,-9.06754e-06,4.81502e-05,0,-3.45603e-05,-1.32239e+09,-1.31474e+09,-1.32117e+09,-4.61898e+06,-0.0853012,0.631691,-0,0.637425,2847.19,-46971.6,0,47057.8,4.61898e+06
step02_gravity_refstate-mantle.xmf,798,-2.4502e-05,5.36288e-05,0,-3.01625e-06,-1.53962e+09,-1.52917e+09,-1.53634e+09,-403121,-0.019753,0.310379,-0,0.311007,798.499,-53592.7,0,53598.6,403121
step02_gravity_refstate-mantle.xmf,799,-2.50663e-05,5.54892e-05,0,-6.67261e-06,-1.50408e+09,-1.49331e+09,-1.50073e+09,-891794,-0.0356126,0.365841,-0,0.36757,1363.67,-52495.9,0,52513.7,891794
step02_gravity_refstate-mantle.xmf,800,-1.74954e-05,5.36041e-05,0,-2.87903e-05,-1.37467e+09,-1.36517e+09,-1.37233e+09,-3.84782e+06,-0.0875426,0.546256,-0,0.553226,2917.51,-48544.3,0,48631.9,3.84782e+06
step02_gravity_refstate-mantle.xmf,801,-1.85879e-05,5.32887e-05,0,-2.49872e-05,-1.39318e+09,-1.38358e+09,-1.3907e+09,-3.33953e+06,-0.0855536,0.515081,-0,0.522138,2936.33,-49108,0,49195.7,3.33953e+06
step02_gravity_refstate-mantle.xmf,802,-4.90454e-06,2.19381e-05,0,-5.26793e-05,-1.21921e+09,-1.21562e+09,-1.21855e+09,-7.04059e+06,-0.00453683,0.807555,-0,0.807568,2399.54,-43745.2,0,43811,7.04059e+06
step02_gravity_refstate-mantle.xmf,803,-3.64825e-06,1.8919e-05,0,-6.09406e-05,-1.21124e+09,-1.20823e+09,-1.21075e+09,-8.14471e+06,0.00403923,0.86903,0,0.86904,2000,-43499.8,0,43545.8,8.14471e+06
step02_gravity_refstate-mantle.xmf,804,-2.35696e-05,5.13386e-05,0,-2.18629e-07,-1.57468e+09,-1.56467e+09,-1.57153e+09,-29219.8,-0.0014029,0.255342,-0,0.255345,59.6614,-54676.2,0,54676.2,29219.8
step02_gravity_refstate-mantle.xmf,805,-2.16078e-05,4.76219e-05,0,1.26183e-06,-1.64443e+09,-1.63518e+09,-1.64154e+09,168644,0.0195487,0.147599,0,0.148888,-898.408,-56834.4,-0,56841.5,168644
step02_gravity_refstate-mantle.xmf,806,-2.0406e-05,4.57031e-05,0,1.3274e-06,-1.68866e+09,-1.67982e+09,-1.68593e+09,177407,0.0372791,0.0816799,0,0.0897849,-1777.74,-58203.7,-0,58230.8,177407
step02_gravity_refstate-mantle.xmf,807,-9.50998e-06,4.62629e-05,0,-3.63419e-05,-1.30612e+09,-1.29866e+09,-1.30484e+09,-4.85709e+06,-0.0773783,0.657302,-0,0.661841,2833.04,-46461.2,0,46547.5,4.85709e+06
step02_gravity_refstate-mantle.xmf,808,-9.5874e-06,4.30245e-05,0,-3.86547e-05,-1.28988e+09,-1.28285e+09,-1.2886e+09,-5.1662e+06,-0.0668513,0.680583,-0,0.683858,2830.41,-45951,0,46038.1,5.1662e+06
step02_gravity_refstate-mantle.xmf,809,-1.96933e-05,5.33375e-05,0,-2.19861e-05,-1.41163e+09,-1.40187e+09,-1.409e+09,-2.93844e+06,-0.0820761,0.487486,-0,0.494347,2878.78,-49670.7,0,49754.1,2.93844e+06
step02_gravity_refstate-mantle.xmf,810,-2.55847e-05,5.91853e-05,0,-1.34792e-05,-1.4481e+09,-1.43677e+09,-1.44468e+09,-1.80149e+06,-0.0533993,0.457063,-0,0.460172,1845.84,-50772.7,0,50806.2,1.80149e+06
step02_gravity_refstate-mantle.xmf,811,-2.29768e-05,5.62754e-05,0,-1.71609e-05,-1.43702e+09,-1.42643e+09,-1.43395e+09,-2.29355e+06,-0.0680899,0.46205,-0,0.46704,2389.11,-50440.5,0,50497.1,2.29355e+06
step02_gravity_refstate-mantle.xmf,812,-2.47678e-05,5.68468e-05,0,-1.15697e-05,-1.46974e+09,-1.45884e+09,-1.46643e+09,-1.5463e+06,-0.0522651,0.417134,-0,0.420396,1903.57,-51440.8,0,51476,1.5463e+06
step02_gravity_refstate-mantle.xmf,813,-2.36184e-05,5.166e-05,0,-2.50866e-06,-1.56335e+09,-1.55329e+09,-1.5602e+09,-335282,-0.0189841,0.27181,-0,0.272472,796.853,-54326.8,0,54332.6,335282
step02_gravity_refstate-mantle.xmf,814,-2.3955e-05,5.4624e-05,0,-9.86632e-06,-1.49202e+09,-1.48151e+09,-1.48881e+09,-1.31863e+06,-0.0509756,0.37812,-0,0.381541,1947.53,-52128.5,0,52164.8,1.31863e+06
step02_gravity_refstate-mantle.xmf,815,-2.40836e-05,5.33107e-05,0,-5.71904e-06,-1.52718e+09,-1.51683e+09,-1.52396e+09,-764349,-0.0352286,0.326495,-0,0.32839,1410.43,-53210.4,0,53229.1,764349
step02_gravity_refstate-mantle.xmf,816,-9.11046e-06,3.87842e-05,0,-4.09158e-05,-1.2737e+09,-1.2673e+09,-1.27248e+09,-5.4684e+06,-0.0545998,0.701752,-0,0.703873,2828.25,-45443.4,0,45531.4,5.4684e+06
step02_gravity_refstate-mantle.xmf,817,-8.25692e-06,3.41716e-05,0,-4.29684e-05,-1.2581e+09,-1.25243e+09,-1.257e+09,-5.74273e+06,-0.0415648,0.721511,-0,0.722708,2811.71,-44955.5,0,45043.4,5.74273e+06
step02_gravity_refstate-mantle.xmf,818,-6.91394e-06,2.88865e-05,0,-4.45069e-05,-1.24209e+09,-1.2373e+09,-1.24116e+09,-5.94835e+06,-0.0274835,0.738552,-0,0.739064,2801.31,-44456.3,0,44544.5,5.94835e+06
step02_gravity_refstate-mantle.xmf,819,-5.23107e-06,2.31617e-05,0,-4.54992e-05,-1.22582e+09,-1.22202e+09,-1.22512e+09,-6.08097e+06,-0.012569,0.75331,-0,0.753415,2788.6,-43950.4,0,44038.8,6.08097e+06
step02_gravity_refstate-mantle.xmf,820,-2.34095e-06,1.49664e-05,0,-5.17419e-05,-1.2032e+09,-1.20089e+09,-1.20289e+09,-6.91531e+06,0.00981041,0.812293,0,0.812353,2432.41,-43250,0,43318.4,6.91531e+06
step02_gravity_refstate-mantle.xmf,821,-2.28019e-05,4.97923e-05,0,6.64665e-08,-1.60074e+09,-1.59104e+09,-1.59769e+09,8883.24,0.00124652,0.214586,0,0.21459,-54.7945,-55482.3,-0,55482.3,8883.24
step02_gravity_refstate-mantle.xmf,822,-2.21348e-05,4.86378e-05,0,1.26591e-07,-1.63013e+09,-1.62067e+09,-1.62717e+09,16918.9,0.00165734,0.169907,0,0.169915,-74.9558,-56391.6,-0,56391.6,16918.9
step02_gravity_refstate-mantle.xmf,823,-2.11807e-05,4.68279e-05,0,9.29553e-07,-1.67338e+09,-1.66429e+09,-1.67055e+09,124235,0.0204288,0.105224,0,0.107188,-957.311,-57729.5,-0,57737.5,124235
step02_gravity_refstate-mantle.xmf,824,-2.04562e-05,4.56894e-05,0,5.77843e-07,-1.71806e+09,-1.70922e+09,-1.71532e+09,77228.8,0.0326669,0.0405292,0,0.0520551,-1566.92,-59111.5,-0,59132.2,77228.8
step02_gravity_refstate-mantle.xmf,825,-1.98142e-05,4.48545e-05,0,1.51333e-08,-1.74675e+09,-1.73811e+09,-1.74411e+09,2022.57,0.0452824,-5.99203e-19,0,0.0452824,-2200.02,-60000,-0,60040.3,2022.57
step02_gravity_refstate-mantle.xmf,826,-1.14497e-05,4.57915e-05,0,-2.98165e-05,-1.36455e+09,-1.3569e+09,-1.36302e+09,-3.98498e+06,-0.0951515,0.534516,-0,0.54292,3387.18,-48252.3,0,48371,3.98498e+06
step02_gravity_refstate-mantle.xmf,827,-8.08129e-06,4.33506e-05,0,-3.14577e-05,-1.34593e+09,-1.33905e+09,-1.34485e+09,-4.20432e+06,-0.0944578,0.56153,-0,0.569419,3356.81,-47693.1,0,47811.1,4.20432e+06
step02_gravity_refstate-mantle.xmf,828,-6.26102e-06,4.18086e-05,0,-3.20408e-05,-1.32881e+09,-1.32239e+09,-1.32797e+09,-4.28225e+06,-0.0907989,0.588514,-0,0.595477,3289.71,-47172.6,0,47287.2,4.28225e+06
step02_gravity_refstate-mantle.xmf,829,-6.01293e-06,4.03426e-05,0,-3.2637e-05,-1.31294e+09,-1.30675e+09,-1.31214e+09,-4.36194e+06,-0.0843716,0.611474,-0,0.617268,3256.26,-46680.4,0,46793.8,4.36194e+06
step02_gravity_refstate-mantle.xmf,830,-2.05631e-05,5.34694e-05,0,-1.97418e-05,-1.4267e+09,-1.41681e+09,-1.42396e+09,-2.6385e+06,-0.0784252,0.465876,-0,0.472431,2798.25,-50130.7,0,50208.8,2.6385e+06
step02_gravity_refstate-mantle.xmf,831,-2.321e-05,5.15814e-05,0,-4.90816e-06,-1.55093e+09,-1.54093e+09,-1.54783e+09,-655976,-0.0353608,0.287451,-0,0.289618,1473.98,-53945.5,0,53965.6,655976
step02_gravity_refstate-mantle.xmf,832,-2.31777e-05,5.25608e-05,0,-8.39008e-06,-1.51469e+09,-1.50457e+09,-1.51159e+09,-1.12133e+06,-0.0496757,0.340116,-0,0.343725,1981.58,-52828.8,0,52865.9,1.12133e+06
step02_gravity_refstate-mantle.xmf,833,-1.41566e-05,4.74945e-05,0,-2.69764e-05,-1.38364e+09,-1.3754e+09,-1.38175e+09,-3.60539e+06,-0.0941187,0.506852,-0,0.515517,3398.03,-48828.1,0,48946.2,3.60539e+06
step02_gravity_refstate-mantle.xmf,834,-1.59436e-05,4.83731e-05,0,-2.39464e-05,-1.40347e+09,-1.39487e+09,-1.40134e+09,-3.20043e+06,-0.0920206,0.47854,-0,0.487308,3382.97,-49430.8,0,49546.4,3.20043e+06
step02_gravity_refstate-mantle.xmf,835,6.80933e-06,-5.57039e-06,0,-5.61195e-05,-1.16251e+09,-1.16417e+09,-1.16342e+09,-7.50037e+06,0.0464353,0.879037,0,0.880263,2000,-42001.8,0,42049.4,7.50037e+06
step02_gravity_refstate-mantle.xmf,836,3.2426e-06,2.64849e-06,0,-5.85749e-05,-1.17877e+09,-1.17885e+09,-1.1792e+09,-7.82854e+06,0.0317282,0.879759,0,0.880331,2000,-42501.2,0,42548.2,7.82854e+06
step02_gravity_refstate-mantle.xmf,837,2.46235e-06,1.66418e-06,0,-4.88706e-05,-1.17094e+09,-1.17104e+09,-1.17127e+09,-6.53156e+06,0.0406082,0.820578,0,0.821583,2432.32,-42251.5,0,42321.5,6.53156e+06
step02_gravity_refstate-mantle.xmf,838,-2.30336e-07,1.07673e-05,0,-6.01432e-05,-1.195e+09,-1.19353e+09,-1.19497e+09,-8.03814e+06,0.0176166,0.876436,0,0.876613,2000,-43000.2,0,43046.7,8.03814e+06
step02_gravity_refstate-mantle.xmf,839,9.25062e-09,8.30827e-06,0,-4.98061e-05,-1.18669e+09,-1.18558e+09,-1.18669e+09,-6.65658e+06,0.0253237,0.811796,0,0.812191,2481.08,-42738.7,0,42810.7,6.65658e+06
step02_gravity_refstate-mantle.xmf,840,4.07934e-06,-3.98983e-06,0,-4.49794e-05,-1.1541e+09,-1.15518e+09,-1.15465e+09,-6.01149e+06,0.0578939,0.811008,0,0.813072,2502.58,-41727.9,0,41802.8,6.01149e+06
step02_gravity_refstate-mantle.xmf,841,9.84987e-06,-1.30963e-05,0,-5.23867e-05,-1.14629e+09,-1.14936e+09,-1.14761e+09,-7.00148e+06,0.0617159,0.874327,0,0.876503,2000,-41501.9,0,41550,7.00148e+06
step02_gravity_refstate-mantle.xmf,842,1.59982e-05,-2.56033e-05,0,-4.04808e-05,-1.11362e+09,-1.11918e+09,-1.11576e+09,-5.41026e+06,0.0928491,0.853398,0,0.858434,2000,-40501.8,0,40551.1,5.41026e+06
step02_gravity_refstate-mantle.xmf,843,1.29295e-05,-2.02754e-05,0,-4.7376e-05,-1.13002e+09,-1.13446e+09,-1.13175e+09,-6.3318e+06,0.0773924,0.865713,0,0.869165,2000,-41001.5,0,41050.3,6.3318e+06
step02_gravity_refstate-mantle.xmf,844,7.87459e-06,-1.36835e-05,0,-3.9138e-05,-1.12205e+09,-1.12493e+09,-1.12311e+09,-5.23079e+06,0.0904365,0.809863,0,0.814897,2433.09,-40738.4,0,40811,5.23079e+06
step02_gravity_refstate-mantle.xmf,845,6.18863e-06,-9.40024e-06,0,-4.2258e-05,-1.13752e+09,-1.1396e+09,-1.13834e+09,-5.64778e+06,0.0747167,0.812975,0,0.816401,2456.61,-41215.8,0,41288.9,5.64778e+06
step02_gravity_refstate-mantle.xmf,846,-3.63743e-06,1.80898e-05,0,-4.60729e-05,-1.2119e+09,-1.20899e+09,-1.21141e+09,-6.15764e+06,0.00065709,0.76562,0,0.76562,2761.33,-43518,0,43605.5,6.15764e+06
step02_gravity_refstate-mantle.xmf,847,-2.28782e-05,5.01359e-05,0,-1.95809e-06,-1.58846e+09,-1.57871e+09,-1.58541e+09,-261699,-0.0175957,0.232399,-0,0.233064,763.787,-55103.5,0,55108.8,261699
step02_gravity_refstate-mantle.xmf,848,-2.16168e-05,4.75044e-05,0,9.93117e-08,-1.65991e+09,-1.65067e+09,-1.65702e+09,13273,0.00241452,0.125732,0,0.125756,-111.723,-57312,-0,57312.2,13273
step02_gravity_refstate-mantle.xmf,849,-2.09112e-05,4.64042e-05,0,6.95813e-07,-1.69785e+09,-1.68886e+09,-1.69506e+09,92995.4,0.0219089,0.0698694,0,0.0732239,-1038.82,-58486.1,-0,58495.3,92995.4
step02_gravity_refstate-mantle.xmf,850,-6.24672e-06,3.81854e-05,0,-3.37029e-05,-1.29669e+09,-1.29075e+09,-1.29585e+09,-4.50439e+06,-0.0749252,0.632718,-0,0.637138,3243.87,-46171.2,0,46285,4.50439e+06
step02_gravity_refstate-mantle.xmf,851,-6.27738e-06,3.50416e-05,0,-3.49988e-05,-1.28009e+09,-1.27457e+09,-1.27925e+09,-4.67759e+06,-0.0630966,0.650877,-0,0.653928,3256.09,-45650.2,0,45766.2,4.67759e+06
step02_gravity_refstate-mantle.xmf,852,-1.7544e-05,4.91736e-05,0,-2.10111e-05,-1.42463e+09,-1.41571e+09,-1.42228e+09,-2.80813e+06,-0.0883024,0.45022,-0,0.458797,3304.2,-50075.8,0,50184.7,2.80813e+06
step02_gravity_refstate-mantle.xmf,853,-1.92373e-05,5.04872e-05,0,-1.82086e-05,-1.44467e+09,-1.43535e+09,-1.4421e+09,-2.43358e+06,-0.0820701,0.426764,-0,0.434584,3102.54,-50687,0,50781.9,2.43358e+06
step02_gravity_refstate-mantle.xmf,854,-2.24119e-05,5.41694e-05,0,-1.50166e-05,-1.4581e+09,-1.44787e+09,-1.45511e+09,-2.00697e+06,-0.067462,0.423464,-0,0.428804,2486.79,-51090.1,0,51150.6,2.00697e+06
step02_gravity_refstate-mantle.xmf,855,-2.20491e-05,5.25281e-05,0,-1.29864e-05,-1.48009e+09,-1.47012e+09,-1.47714e+09,-1.73564e+06,-0.0659654,0.386031,-0,0.391626,2542.27,-51767.4,0,51829.8,1.73564e+06
step02_gravity_refstate-mantle.xmf,856,-2.24399e-05,4.9824e-05,0,-4.13974e-06,-1.57567e+09,-1.56601e+09,-1.57267e+09,-553276,-0.0351699,0.248394,-0,0.250872,1519.25,-54710.4,0,54731.5,553276
step02_gravity_refstate-mantle.xmf,857,-2.16829e-05,5.10112e-05,0,-1.10436e-05,-1.50312e+09,-1.4934e+09,-1.50022e+09,-1.47597e+06,-0.0639045,0.348849,-0,0.354654,2565.61,-52477.3,0,52540,1.47597e+06
step02_gravity_refstate-mantle.xmf,858,-2.24205e-05,5.07113e-05,0,-7.24627e-06,-1.53828e+09,-1.52851e+09,-1.53528e+09,-968463,-0.0494455,0.301515,-0,0.305542,2055.08,-53557.8,0,53597.3,968463
step02_gravity_refstate-mantle.xmf,859,2.87069e-05,-3.25437e-05,0,-3.39689e-05,-1.0952e+09,-1.10339e+09,-1.09904e+09,-4.53995e+06,0.105132,0.838177,0,0.844745,2000,-40000,0,40050,4.53995e+06
step02_gravity_refstate-mantle.xmf,860,1.10121e-05,-1.76989e-05,0,-3.72482e-05,-1.10953e+09,-1.11337e+09,-1.111e+09,-4.97822e+06,0.101944,0.811061,0,0.817443,2365.01,-40362.3,0,40431.5,4.97822e+06
step02_gravity_refstate-mantle.xmf,861,1.74256e-06,1.17032e-06,0,-4.31786e-05,-1.16362e+09,-1.16369e+09,-1.16385e+09,-5.77082e+06,0.0488604,0.783477,0,0.784999,2732.08,-42019.3,0,42108,5.77082e+06
step02_gravity_refstate-mantle.xmf,862,-6.07329e-06,3.14352e-05,0,-3.64622e-05,-1.26355e+09,-1.25854e+09,-1.26274e+09,-4.87317e+06,-0.0495553,0.668624,-0,0.670458,3252.58,-45131.5,0,45248.6,4.87317e+06
step02_gravity_refstate-mantle.xmf,863,-5.63603e-06,2.76939e-05,0,-3.79246e-05,-1.248e+09,-1.24354e+09,-1.24724e+09,-5.06863e+06,-0.0356092,0.685987,-0,0.686911,3224.94,-44644.3,0,44760.7,5.06863e+06
step02_gravity_refstate-mantle.xmf,864,-4.83214e-06,2.34044e-05,0,-3.89723e-05,-1.23224e+09,-1.22847e+09,-1.2316e+09,-5.20865e+06,-0.0207927,0.700801,-0,0.701109,3204.83,-44152.1,0,44268.3,5.20865e+06
step02_gravity_refstate-mantle.xmf,865,-3.67511e-06,1.82472e-05,0,-3.98379e-05,-1.21444e+09,-1.21151e+09,-1.21395e+09,-5.32433e+06,-0.00329568,0.716694,-0,0.716702,3166.37,-43596.6,0,43711.4,5.32433e+06
step02_gravity_refstate-mantle.xmf,866,-2.23752e-06,1.28423e-05,0,-4.17888e-05,-1.19664e+09,-1.19462e+09,-1.19634e+09,-5.58507e+06,0.015021,0.744546,0,0.744698,2998.55,-43042.5,0,43146.9,5.58507e+06
step02_gravity_refstate-mantle.xmf,867,-2.22177e-05,4.87908e-05,0,-1.46455e-06,-1.61623e+09,-1.60674e+09,-1.61326e+09,-195737,-0.0162948,0.190021,-0,0.190718,729.376,-55962.1,0,55966.9,195737
step02_gravity_refstate-mantle.xmf,868,-2.16872e-05,4.78604e-05,0,-1.02813e-06,-1.64545e+09,-1.63615e+09,-1.64255e+09,-137410,-0.0154531,0.146453,-0,0.147266,709.666,-56865.9,0,56870.3,137410
step02_gravity_refstate-mantle.xmf,869,-2.12543e-05,4.68653e-05,0,1.31211e-07,-1.68972e+09,-1.68061e+09,-1.68688e+09,17536.4,0.00419667,0.0822379,0,0.082345,-197.283,-58233.7,-0,58234,17536.4
step02_gravity_refstate-mantle.xmf,870,-2.10238e-05,4.64721e-05,0,2.09062e-07,-1.7185e+09,-1.70948e+09,-1.71569e+09,27941.1,0.0116449,0.0406443,0,0.0422796,-553.577,-59123.2,-0,59125.8,27941.1
step02_gravity_refstate-mantle.xmf,871,-2.0736e-05,4.60638e-05,0,2.14472e-08,-1.74685e+09,-1.73792e+09,-1.74408e+09,2866.42,0.0229858,-5.78455e-19,0,0.0229858,-1099.99,-60000,-0,60010.1,2866.42
step02_gravity_refstate-mantle.xmf,872,-9.30969e-06,4.07903e-05,0,-2.71844e-05,-1.3733e+09,-1.3666e+09,-1.37205e+09,-3.63319e+06,-0.100361,0.49381,-0,0.503906,3897.94,-48523.8,0,48680.1,3.63319e+06
step02_gravity_refstate-mantle.xmf,873,-6.53936e-06,3.84526e-05,0,-2.86966e-05,-1.35339e+09,-1.34738e+09,-1.35252e+09,-3.8353e+06,-0.0990115,0.519585,-0,0.528935,3868.28,-47921.5,0,48077.4,3.8353e+06
step02_gravity_refstate-mantle.xmf,874,-4.4628e-06,3.65719e-05,0,-2.93896e-05,-1.33439e+09,-1.32891e+09,-1.33379e+09,-3.92792e+06,-0.0950497,0.546508,-0,0.554712,3789.34,-47343.6,0,47495,3.92792e+06
step02_gravity_refstate-mantle.xmf,875,-4.18074e-06,3.64923e-05,0,-3.01923e-05,-1.31931e+09,-1.31387e+09,-1.31875e+09,-4.03519e+06,-0.0892407,0.573791,-0,0.580689,3644.33,-46879.4,0,47020.9,4.03519e+06
step02_gravity_refstate-mantle.xmf,876,-3.55652e-06,3.36395e-05,0,-3.00552e-05,-1.30391e+09,-1.29894e+09,-1.30343e+09,-4.01688e+06,-0.0817081,0.58628,-0,0.591947,3701.65,-46400.6,0,46548,4.01688e+06
step02_gravity_refstate-mantle.xmf,877,-2.15109e-05,4.90129e-05,0,-6.4565e-06,-1.56197e+09,-1.55255e+09,-1.5591e+09,-862911,-0.052087,0.262744,-0,0.267857,2253.15,-54291.5,0,54338.2,862911
step02_gravity_refstate-mantle.xmf,878,-2.14079e-05,4.98481e-05,0,-9.46386e-06,-1.52352e+09,-1.514e+09,-1.52066e+09,-1.26485e+06,-0.0615907,0.317362,-0,0.323284,2551.82,-53106.5,0,53167.8,1.26485e+06
step02_gravity_refstate-mantle.xmf,879,-1.16849e-05,4.2617e-05,0,-2.49971e-05,-1.39336e+09,-1.38611e+09,-1.3918e+09,-3.34087e+06,-0.0999624,0.468052,-0,0.478608,3901.85,-49132.5,0,49287.2,3.34087e+06
step02_gravity_refstate-mantle.xmf,880,-1.35752e-05,4.39158e-05,0,-2.25672e-05,-1.41412e+09,-1.40644e+09,-1.41231e+09,-3.01611e+06,-0.0983335,0.441524,-0,0.452342,3881,-49764.4,0,49915.5,3.01611e+06
step02_gravity_refstate-mantle.xmf,881,-3.08261e-07,6.08806e-06,0,-4.06269e-05,-1.1747e+09,-1.17384e+09,-1.17465e+09,-5.42979e+06,0.037589,0.752946,0,0.753883,2981.36,-42360.4,0,42465.2,5.42979e+06
step02_gravity_refstate-mantle.xmf,882,1.27256e-05,-1.90369e-05,0,-3.08002e-05,-1.09754e+09,-1.10179e+09,-1.09924e+09,-4.11645e+06,0.11603,0.78939,0,0.797872,2511.47,-40000,0,40078.8,4.11645e+06
step02_gravity_refstate-mantle.xmf,883,8.69681e-07,6.62873e-07,0,-3.81846e-05,-1.15472e+09,-1.15475e+09,-1.15484e+09,-5.10338e+06,0.0588278,0.751437,0,0.753737,3012.06,-41737.4,0,41846,5.10338e+06
step02_gravity_refstate-mantle.xmf,884,2.54888e-06,-3.9814e-06,0,-3.81302e-05,-1.14228e+09,-1.14315e+09,-1.14262e+09,-5.09611e+06,0.071826,0.767371,0,0.770725,2862.5,-41352.4,0,41451.4,5.09611e+06
step02_gravity_refstate-mantle.xmf,885,6.17726e-06,-1.19136e-05,0,-3.36449e-05,-1.11184e+09,-1.11425e+09,-1.11266e+09,-4.49664e+06,0.103714,0.768958,0,0.775921,2778.81,-40415.9,0,40511.4,4.49664e+06
step02_gravity_refstate-mantle.xmf,886,2.47262e-06,-5.67058e-06,0,-3.4788e-05,-1.12887e+09,-1.12995e+09,-1.1292e+09,-4.64942e+06,0.0866842,0.750776,0,0.755764,2998.08,-40933.2,0,41042.9,4.64942e+06
step02_gravity_refstate-mantle.xmf,887,-2.18308e-05,4.85116e-05,0,-3.29214e-06,-1.60239e+09,-1.59298e+09,-1.59947e+09,-439995,-0.0340092,0.207801,-0,0.210566,1516.01,-55536.4,0,55557.1,439995
step02_gravity_refstate-mantle.xmf,888,-2.1282e-05,4.69402e-05,0,-6.86286e-07,-1.67603e+09,-1.66691e+09,-1.67319e+09,-91722.2,-0.0142532,0.101786,-0,0.102779,667.431,-57810.9,0,57814.8,91722.2
step02_gravity_refstate-mantle.xmf,889,-3.69158e-06,3.11288e-05,0,-3.04477e-05,-1.28637e+09,-1.28172e+09,-1.28588e+09,-4.06933e+06,-0.0702275,0.602996,-0,0.607072,3717.04,-45851.6,0,46002,4.06933e+06
step02_gravity_refstate-mantle.xmf,890,-3.93126e-06,2.85338e-05,0,-3.12962e-05,-1.26955e+09,-1.26521e+09,-1.26903e+09,-4.18273e+06,-0.0570248,0.619783,-0,0.622401,3707.05,-45323.8,0,45475.1,4.18273e+06
step02_gravity_refstate-mantle.xmf,891,-1.5167e-05,4.4919e-05,0,-2.01232e-05,-1.43557e+09,-1.42754e+09,-1.43354e+09,-2.68947e+06,-0.0955504,0.414575,-0,0.425444,3824.91,-50418.9,0,50563.7,2.68947e+06
step02_gravity_refstate-mantle.xmf,892,-1.94132e-05,4.9402e-05,0,-1.56604e-05,-1.46864e+09,-1.45944e+09,-1.46605e+09,-2.09301e+06,-0.0799283,0.388622,-0,0.396757,3148.28,-51423.4,0,51519.7,2.09301e+06
step02_gravity_refstate-mantle.xmf,893,-1.94825e-05,4.83936e-05,0,-1.35036e-05,-1.49194e+09,-1.48287e+09,-1.48934e+09,-1.80475e+06,-0.0779058,0.35262,-0,0.361123,3186.26,-52140.2,0,52237.5,1.80475e+06
step02_gravity_refstate-mantle.xmf,894,-2.09409e-05,4.75853e-05,0,-5.26742e-06,-1.58875e+09,-1.57959e+09,-1.58595e+09,-703991,-0.0510883,0.222563,-0,0.228352,2283.74,-55118.6,0,55165.9,703991
step02_gravity_refstate-mantle.xmf,895,-1.95453e-05,4.75301e-05,0,-1.13632e-05,-1.51702e+09,-1.50806e+09,-1.51441e+09,-1.5187e+06,-0.0750401,0.315777,-0,0.324571,3177.98,-52912.3,0,53007.6,1.5187e+06
step02_gravity_refstate-mantle.xmf,896,-2.00831e-05,4.74738e-05,0,-9.03169e-06,-1.54406e+09,-1.53503e+09,-1.54137e+09,-1.20709e+06,-0.0680208,0.280174,-0,0.288313,2952.2,-53743.7,0,53824.7,1.20709e+06
step02_gravity_refstate-mantle.xmf,897,-4.05024e-06,2.57671e-05,0,-3.23325e-05,-1.25354e+09,-1.24955e+09,-1.253e+09,-4.32123e+06,-0.0429611,0.63608,-0,0.637529,3679.49,-44821.2,0,44972,4.32123e+06
step02_gravity_refstate-mantle.xmf,898,-3.90873e-06,2.27115e-05,0,-3.32085e-05,-1.23819e+09,-1.23463e+09,-1.23767e+09,-4.43832e+06,-0.0285255,0.650319,-0,0.650944,3653.33,-44340.2,0,44490.5,4.43832e+06
step02_gravity_refstate-mantle.xmf,899,-3.47834e-06,1.88919e-05,0,-3.34941e-05,-1.22157e+09,-1.21858e+09,-1.2211e+09,-4.47649e+06,-0.01222,0.660672,-0,0.660785,3658.56,-43819.9,0,43972.4,4.47649e+06
step02_gravity_refstate-mantle.xmf,900,-2.92425e-06,1.45707e-05,0,-3.40097e-05,-1.20289e+09,-1.20055e+09,-1.2025e+09,-4.54539e+06,0.00706403,0.675708,0,0.675745,3606.58,-43235.6,0,43385.8,4.54539e+06
step02_gravity_refstate-mantle.xmf,901,-2.13235e-05,4.74267e-05,0,-2.49467e-06,-1.63098e+09,-1.62179e+09,-1.62813e+09,-333412,-0.0328002,0.165468,-0,0.168687,1502.3,-56420.2,0,56440.2,333412
step02_gravity_refstate-mantle.xmf,902,-2.09434e-05,4.67297e-05,0,-1.74553e-06,-1.6604e+09,-1.65136e+09,-1.6576e+09,-233290,-0.031658,0.122774,-0,0.12679,1481.15,-57329.8,0,57348.9,233290
step02_gravity_refstate-mantle.xmf,903,-2.10583e-05,4.64521e-05,0,-3.24981e-07,-1.71135e+09,-1.70232e+09,-1.70853e+09,-43433.7,-0.0128723,0.050896,-0,0.0524986,610.98,-58902,0,58905.2,43433.7
step02_gravity_refstate-mantle.xmf,904,-2.10523e-05,4.64725e-05,0,3.07427e-08,-1.74689e+09,-1.73786e+09,-1.74407e+09,4108.77,-4.68924e-06,-7.03222e-19,-0,4.68924e-06,-6.37519e-08,-60000,-0,60000,4108.77
step02_gravity_refstate-mantle.xmf,905,-7.6164e-06,3.67301e-05,0,-2.46907e-05,-1.38283e+09,-1.37691e+09,-1.38182e+09,-3.29992e+06,-0.105137,0.454135,-0,0.466146,4433.32,-48819.3,0,49020.2,3.29992e+06
step02_gravity_refstate-mantle.xmf,906,-5.21897e-06,3.44254e-05,0,-2.59194e-05,-1.36189e+09,-1.3566e+09,-1.3612e+09,-3.46413e+06,-0.103324,0.477748,-0,0.488793,4418.32,-48182.7,0,48384.8,3.46413e+06
step02_gravity_refstate-mantle.xmf,907,-1.9281e-06,3.03627e-05,0,-2.70521e-05,-1.31759e+09,-1.31328e+09,-1.31734e+09,-3.61551e+06,-0.0902191,0.534715,-0,0.542273,4215.6,-46825.8,0,47015.2,3.61551e+06
step02_gravity_refstate-mantle.xmf,908,-2.98855e-06,3.1959e-05,0,-2.65111e-05,-1.34017e+09,-1.3355e+09,-1.33977e+09,-3.54321e+06,-0.0988143,0.502676,-0,0.512296,4371.45,-47520.2,0,47720.8,3.54321e+06
step02_gravity_refstate-mantle.xmf,909,-1.58636e-06,2.76779e-05,0,-2.66791e-05,-1.29587e+09,-1.29196e+09,-1.29566e+09,-3.56566e+06,-0.0781967,0.552165,-0,0.557675,4248.7,-46150.2,0,46345.3,3.56566e+06
step02_gravity_refstate-mantle.xmf,910,-1.6269e-05,4.5454e-05,0,-1.77202e-05,-1.45746e+09,-1.44921e+09,-1.45528e+09,-2.3683e+06,-0.0925119,0.385816,-0,0.396752,3779.58,-51088.9,0,51228.5,2.3683e+06
step02_gravity_refstate-mantle.xmf,911,-1.96184e-05,4.616e-05,0,-7.27019e-06,-1.57444e+09,-1.56565e+09,-1.57182e+09,-971660,-0.0669983,0.235378,-0,0.244727,3021.98,-54681.9,0,54765.4,971660
step02_gravity_refstate-mantle.xmf,912,-9.76616e-06,3.86143e-05,0,-2.2979e-05,-1.40373e+09,-1.39727e+09,-1.40243e+09,-3.07114e+06,-0.105246,0.430268,-0,0.442953,4428.35,-49455.3,0,49653.2,3.07114e+06
step02_gravity_refstate-mantle.xmf,913,-1.15572e-05,4.00153e-05,0,-2.09852e-05,-1.42525e+09,-1.41836e+09,-1.42371e+09,-2.80467e+06,-0.104245,0.404917,-0,0.418121,4414.89,-50111.7,0,50305.8,2.80467e+06
step02_gravity_refstate-mantle.xmf,914,-2.20751e-06,1.00017e-05,0,-3.39248e-05,-1.18363e+09,-1.182e+09,-1.18334e+09,-4.53404e+06,0.0275193,0.688004,0,0.688554,3558.47,-42633.8,0,42782.1,4.53404e+06
step02_gravity_refstate-mantle.xmf,915,4.58149e-06,-1.09919e-05,0,-2.72919e-05,-1.09864e+09,-1.10072e+09,-1.09925e+09,-3.64756e+06,0.120647,0.738167,0,0.747961,3044.18,-40000,0,40115.7,3.64756e+06
step02_gravity_refstate-mantle.xmf,916,-5.51496e-07,7.61612e-07,0,-3.23633e-05,-1.14328e+09,-1.14311e+09,-1.14321e+09,-4.32536e+06,0.0715718,0.708796,0,0.712401,3418.32,-41374.7,0,41515.7,4.32536e+06
step02_gravity_refstate-mantle.xmf,917,-1.49949e-06,5.4333e-06,0,-3.31651e-05,-1.16367e+09,-1.16274e+09,-1.16347e+09,-4.43252e+06,0.0491674,0.696704,0,0.698437,3519.81,-42010.1,0,42157.3,4.43252e+06
step02_gravity_refstate-mantle.xmf,918,1.41295e-06,-6.00622e-06,0,-2.92491e-05,-1.11363e+09,-1.11462e+09,-1.11382e+09,-3.90915e+06,0.104338,0.717029,0,0.724581,3308.75,-40454.6,0,40589.7,3.90915e+06
step02_gravity_refstate-mantle.xmf,919,-2.05411e-05,4.65902e-05,0,-4.11098e-06,-1.6168e+09,-1.60782e+09,-1.61405e+09,-549432,-0.0495198,0.181821,-0,0.188444,2275.54,-55985.2,0,56031.4,549432
step02_gravity_refstate-mantle.xmf,920,-2.06399e-05,4.60075e-05,0,-1.15077e-06,-1.69007e+09,-1.68116e+09,-1.68731e+09,-153801,-0.0314888,0.0802867,-0,0.0862409,1496.04,-58246.4,0,58265.6,153801
step02_gravity_refstate-mantle.xmf,921,-1.94759e-06,2.54965e-05,0,-2.69516e-05,-1.27627e+09,-1.27261e+09,-1.27601e+09,-3.60208e+06,-0.0640612,0.570383,-0,0.573969,4226.12,-45536.9,0,45732.6,3.60208e+06
step02_gravity_refstate-mantle.xmf,922,-2.42256e-06,2.33579e-05,0,-2.7672e-05,-1.25845e+09,-1.255e+09,-1.25812e+09,-3.69836e+06,-0.049028,0.588641,-0,0.590679,4171.6,-44977.6,0,45170.6,3.69836e+06
step02_gravity_refstate-mantle.xmf,923,-1.30755e-05,4.11334e-05,0,-1.89636e-05,-1.44679e+09,-1.43955e+09,-1.44504e+09,-2.53449e+06,-0.102255,0.379648,-0,0.393178,4374.64,-50769.8,0,50957.9,2.53449e+06
step02_gravity_refstate-mantle.xmf,924,-1.67903e-05,4.51187e-05,0,-1.55055e-05,-1.48022e+09,-1.47195e+09,-1.47798e+09,-2.07231e+06,-0.0904666,0.35337,-0,0.364766,3806.58,-51787.8,0,51927.5,2.07231e+06
step02_gravity_refstate-mantle.xmf,925,-1.72047e-05,4.46764e-05,0,-1.33278e-05,-1.50536e+09,-1.49709e+09,-1.50306e+09,-1.78126e+06,-0.0881431,0.318181,-0,0.330164,3826.33,-52560.4,0,52699.5,1.78126e+06
step02_gravity_refstate-mantle.xmf,926,-1.933e-05,4.51972e-05,0,-5.81203e-06,-1.60253e+09,-1.5939e+09,-1.59994e+09,-776778,-0.065452,0.19565,-0,0.206308,3036.6,-55549,0,55631.9,776778
step02_gravity_refstate-mantle.xmf,927,-1.75295e-05,4.42701e-05,0,-1.11731e-05,-1.53251e+09,-1.52425e+09,-1.53016e+09,-1.49329e+06,-0.085254,0.281322,-0,0.293956,3812.97,-53395.7,0,53531.7,1.49329e+06
step02_gravity_refstate-mantle.xmf,928,-1.77341e-05,4.38556e-05,0,-9.17937e-06,-1.56055e+09,-1.55231e+09,-1.55818e+09,-1.22682e+06,-0.0822371,0.243852,-0,0.257346,3780.2,-54259.4,0,54390.9,1.22682e+06
step02_gravity_refstate-mantle.xmf,929,-4.48711e-07,-1.85596e-06,0,-2.96644e-05,-1.12697e+09,-1.12716e+09,-1.12691e+09,-3.96465e+06,0.0896208,0.69844,0,0.704166,3520.72,-40865,0,41016.4,3.96465e+06
step02_gravity_refstate-mantle.xmf,930,-2.9188e-06,2.17611e-05,0,-2.89049e-05,-1.24383e+09,-1.24053e+09,-1.24344e+09,-3.86314e+06,-0.0353526,0.608129,-0,0.609156,4066.16,-44518.5,0,44703.8,3.86314e+06
step02_gravity_refstate-mantle.xmf,931,-2.79544e-06,1.8891e-05,0,-2.82468e-05,-1.22963e+09,-1.22673e+09,-1.22925e+09,-3.77519e+06,-0.0218967,0.608508,-0,0.608902,4164.53,-44073.3,0,44269.6,3.77519e+06
step02_gravity_refstate-mantle.xmf,932,-2.86037e-06,1.55456e-05,0,-2.83535e-05,-1.21105e+09,-1.20859e+09,-1.21067e+09,-3.78944e+06,-0.00302051,0.619225,-0,0.619233,4156.89,-43490.5,0,43688.7,3.78944e+06
step02_gravity_refstate-mantle.xmf,933,-2.86731e-06,1.19541e-05,0,-2.84463e-05,-1.19108e+09,-1.1891e+09,-1.1907e+09,-3.80185e+06,0.0181817,0.631666,0,0.631928,4114.67,-42864.4,0,43061.4,3.80185e+06
step02_gravity_refstate-mantle.xmf,934,-2.02141e-05,4.58057e-05,0,-3.06454e-06,-1.64559e+09,-1.63677e+09,-1.64289e+09,-409575,-0.0481795,0.14079,-0,0.148805,2264.22,-56874.8,0,56919.9,409575
step02_gravity_refstate-mantle.xmf,935,-1.99891e-05,4.53427e-05,0,-2.09873e-06,-1.67426e+09,-1.66553e+09,-1.67159e+09,-280495,-0.0470344,0.100527,-0,0.110986,2247.22,-57760.7,0,57804.4,280495
step02_gravity_refstate-mantle.xmf,936,-2.03052e-05,4.54866e-05,0,-6.17768e-07,-1.71938e+09,-1.71058e+09,-1.71666e+09,-82564.6,-0.0359266,0.0384926,-0,0.0526536,1727.64,-59152.7,0,59177.9,82564.6
step02_gravity_refstate-mantle.xmf,937,-2.07541e-05,4.60911e-05,0,1.27766e-08,-1.74685e+09,-1.73792e+09,-1.74408e+09,1707.59,-0.0229779,-5.06323e-19,-0,0.0229779,1099.99,-60000,0,60010.1,1707.59
step02_gravity_refstate-mantle.xmf,938,-6.28489e-06,3.34041e-05,0,-2.23502e-05,-1.39315e+09,-1.38784e+09,-1.39231e+09,-2.9871e+06,-0.109527,0.415901,-0,0.430081,4988.61,-49138.3,0,49390.8,2.9871e+06
step02_gravity_refstate-mantle.xmf,939,-4.21977e-06,3.12639e-05,0,-2.33322e-05,-1.37172e+09,-1.36698e+09,-1.37116e+09,-3.11836e+06,-0.107358,0.437562,-0,0.45054,4980.44,-48484.8,0,48739.9,3.11836e+06
step02_gravity_refstate-mantle.xmf,940,-2.24765e-06,2.89289e-05,0,-2.37767e-05,-1.35017e+09,-1.346e+09,-1.34987e+09,-3.17776e+06,-0.103033,0.458689,-0,0.470118,4958.49,-47826.3,0,48082.7,3.17776e+06
step02_gravity_refstate-mantle.xmf,941,-7.91615e-07,2.66528e-05,0,-2.37161e-05,-1.32851e+09,-1.32484e+09,-1.3284e+09,-3.16966e+06,-0.0958636,0.479325,-0,0.488817,4923.79,-47161,0,47417.3,3.16966e+06
step02_gravity_refstate-mantle.xmf,942,-2.38989e-07,2.47871e-05,0,-2.35868e-05,-1.30647e+09,-1.30313e+09,-1.30644e+09,-3.15238e+06,-0.0851449,0.502037,-0,0.509206,4843.63,-46479.3,0,46731,3.15238e+06
step02_gravity_refstate-mantle.xmf,943,-3.94489e-07,2.29114e-05,0,-2.34243e-05,-1.2853e+09,-1.28218e+09,-1.28525e+09,-3.13066e+06,-0.0715148,0.520934,-0,0.52582,4799.03,-45819.4,0,46070.1,3.13066e+06
step02_gravity_refstate-mantle.xmf,944,-1.40028e-05,4.15712e-05,0,-1.6944e-05,-1.4683e+09,-1.46088e+09,-1.46643e+09,-2.26457e+06,-0.100566,0.351994,-0,0.366079,4385.32,-51429.2,0,51615.8,2.26457e+06
step02_gravity_refstate-mantle.xmf,945,-1.7772e-05,4.33712e-05,0,-7.45576e-06,-1.58811e+09,-1.57994e+09,-1.58574e+09,-996463,-0.0799735,0.206971,-0,0.221884,3768.91,-55109.4,0,55238.1,996463
step02_gravity_refstate-mantle.xmf,946,-8.17043e-06,3.51681e-05,0,-2.09565e-05,-1.41467e+09,-1.40888e+09,-1.41358e+09,-2.80084e+06,-0.110204,0.393159,-0,0.408312,4990.89,-49795,0,50044.5,2.80084e+06
step02_gravity_refstate-mantle.xmf,947,-9.94811e-06,3.67848e-05,0,-1.93219e-05,-1.43709e+09,-1.43084e+09,-1.43576e+09,-2.58237e+06,-0.109503,0.369809,-0,0.385681,4955.73,-50479.8,0,50722.5,2.58237e+06
step02_gravity_refstate-mantle.xmf,948,-2.82266e-06,8.48704e-06,0,-2.81643e-05,-1.17183e+09,-1.17032e+09,-1.17145e+09,-3.76416e+06,0.0391614,0.641312,0,0.642507,4076.36,-42261.1,0,42457.3,3.76416e+06
step02_gravity_refstate-mantle.xmf,949,-8.5614e-07,-5.12742e-06,0,-2.41793e-05,-1.09933e+09,-1.0999e+09,-1.09922e+09,-3.23156e+06,0.121676,0.687772,0,0.698452,3601.4,-40000,0,40161.8,3.23156e+06
step02_gravity_refstate-mantle.xmf,950,-2.71845e-06,5.09486e-06,0,-2.76225e-05,-1.15259e+09,-1.15155e+09,-1.15223e+09,-3.69175e+06,0.0604902,0.650212,0,0.653019,4023.09,-41658.9,0,41852.7,3.69175e+06
step02_gravity_refstate-mantle.xmf,951,-2.56094e-06,1.80121e-06,0,-2.65206e-05,-1.13312e+09,-1.13254e+09,-1.13278e+09,-3.54448e+06,0.0822692,0.656259,0,0.661396,3978.65,-41050.2,0,41242.6,3.54448e+06
step02_gravity_refstate-mantle.xmf,952,-2.25482e-06,-1.34124e-06,0,-2.51121e-05,-1.1152e+09,-1.11508e+09,-1.1149e+09,-3.35624e+06,0.102734,0.663881,0,0.671783,3893.49,-40490.6,0,40677.4,3.35624e+06
step02_gravity_refstate-mantle.xmf,953,-1.90934e-05,4.44797e-05,0,-4.47874e-06,-1.63126e+09,-1.62277e+09,-1.62871e+09,-598584,-0.064149,0.155774,-0,0.168465,3046.84,-56436.4,0,56518.5,598584
step02_gravity_refstate-mantle.xmf,954,-1.98406e-05,4.49757e-05,0,-1.3299e-06,-1.6993e+09,-1.69064e+09,-1.69665e+09,-177740,-0.0462936,0.0656669,-0,0.0803445,2233.74,-58534.4,0,58577,177740
step02_gravity_refstate-mantle.xmf,955,-9.48764e-07,2.10077e-05,0,-2.35462e-05,-1.26495e+09,-1.26201e+09,-1.26482e+09,-3.14695e+06,-0.0556276,0.53852,-0,0.541385,4751.1,-45182.1,0,45431.2,3.14695e+06
step02_gravity_refstate-mantle.xmf,956,-1.74297e-06,1.89178e-05,0,-2.42284e-05,-1.24324e+09,-1.24048e+09,-1.24301e+09,-3.23813e+06,-0.0361688,0.560483,-0,0.561649,4643.33,-44501.1,0,44742.7,3.23813e+06
step02_gravity_refstate-mantle.xmf,957,-1.15797e-05,3.84169e-05,0,-1.78598e-05,-1.45648e+09,-1.4498e+09,-1.45493e+09,-2.38696e+06,-0.107309,0.351524,-0,0.367538,4842.09,-51072,0,51301,2.38696e+06
step02_gravity_refstate-mantle.xmf,958,-1.46017e-05,4.14764e-05,0,-1.49076e-05,-1.49195e+09,-1.48446e+09,-1.49e+09,-1.99241e+06,-0.0991624,0.32034,-0,0.335337,4436.98,-52155.4,0,52343.8,1.99241e+06
step02_gravity_refstate-mantle.xmf,959,-1.49889e-05,4.10876e-05,0,-1.28153e-05,-1.51875e+09,-1.51126e+09,-1.51675e+09,-1.71277e+06,-0.0980888,0.284101,-0,0.300557,4525.9,-52979.7,0,53172.6,1.71277e+06
step02_gravity_refstate-mantle.xmf,960,-1.76347e-05,4.27082e-05,0,-5.95045e-06,-1.61616e+09,-1.6081e+09,-1.61381e+09,-795278,-0.0789591,0.169263,-0,0.186774,3810.32,-55975.1,0,56104.7,795278
step02_gravity_refstate-mantle.xmf,961,-1.58393e-05,4.09292e-05,0,-8.87852e-06,-1.57491e+09,-1.56732e+09,-1.57279e+09,-1.18661e+06,-0.0932222,0.213601,-0,0.233057,4501.79,-54708.4,0,54893.3,1.18661e+06
step02_gravity_refstate-mantle.xmf,962,-1.54494e-05,4.09715e-05,0,-1.0739e-05,-1.54726e+09,-1.53972e+09,-1.54519e+09,-1.43527e+06,-0.0958339,0.24792,-0,0.265798,4534.6,-53856.8,0,54047.4,1.43527e+06
step02_gravity_refstate-mantle.xmf,963,-2.21432e-06,1.59681e-05,0,-2.37806e-05,-1.2222e+09,-1.21977e+09,-1.2219e+09,-3.17828e+06,-0.0158535,0.566593,-0,0.566815,4712.82,-43840.4,0,44092.9,3.17828e+06
step02_gravity_refstate-mantle.xmf,964,-2.80543e-06,1.3102e-05,0,-2.37926e-05,-1.20052e+09,-1.1984e+09,-1.20015e+09,-3.17989e+06,0.00652471,0.57843,0,0.578466,4689.33,-43159.5,0,43413.5,3.17989e+06
step02_gravity_refstate-mantle.xmf,965,-3.29855e-06,1.03125e-05,0,-2.3783e-05,-1.18005e+09,-1.17823e+09,-1.17961e+09,-3.17859e+06,0.028541,0.589897,0,0.590587,4641.31,-42516.5,0,42769.1,3.17859e+06
step02_gravity_refstate-mantle.xmf,966,-1.89191e-05,4.3958e-05,0,-3.21233e-06,-1.66103e+09,-1.65263e+09,-1.6585e+09,-429328,-0.0628143,0.11517,-0,0.131186,3038.55,-57355.8,0,57436.2,429328
step02_gravity_refstate-mantle.xmf,967,-1.88909e-05,4.37776e-05,0,-1.97274e-06,-1.69174e+09,-1.68336e+09,-1.68921e+09,-263656,-0.0608803,0.0738625,-0,0.0957187,2980.08,-58304,0,58380.1,263656
step02_gravity_refstate-mantle.xmf,968,-1.91746e-05,4.40372e-05,0,-8.44077e-07,-1.72105e+09,-1.7126e+09,-1.71849e+09,-112811,-0.0554617,0.0348133,-0,0.0654826,2717.75,-59208.3,0,59270.6,112811
step02_gravity_refstate-mantle.xmf,969,-1.97926e-05,4.48358e-05,0,1.16629e-08,-1.74675e+09,-1.73811e+09,-1.7441e+09,1558.75,-0.0452759,-4.52141e-19,-0,0.0452759,2200.02,-60000,0,60040.3,1558.75
step02_gravity_refstate-mantle.xmf,970,-5.16143e-06,3.05455e-05,0,-2.01325e-05,-1.40399e+09,-1.39922e+09,-1.4033e+09,-2.69071e+06,-0.113666,0.378842,-0,0.395526,5576.69,-49473.4,0,49786.7,2.69071e+06
step02_gravity_refstate-mantle.xmf,971,-3.39211e-06,2.86203e-05,0,-2.09518e-05,-1.38209e+09,-1.37781e+09,-1.38163e+09,-2.80021e+06,-0.111124,0.399421,-0,0.414592,5562,-48803.8,0,49119.7,2.80021e+06
step02_gravity_refstate-mantle.xmf,972,-1.67785e-06,2.65111e-05,0,-2.13311e-05,-1.36031e+09,-1.35654e+09,-1.36009e+09,-2.8509e+06,-0.106767,0.418853,-0,0.432247,5542.63,-48137.2,0,48455.2,2.8509e+06
step02_gravity_refstate-mantle.xmf,973,-2.84136e-07,2.4388e-05,0,-2.12626e-05,-1.3386e+09,-1.3353e+09,-1.33856e+09,-2.84175e+06,-0.10008,0.437308,-0,0.448614,5516.36,-47470.5,0,47789.9,2.84175e+06
step02_gravity_refstate-mantle.xmf,974,5.26706e-07,2.24349e-05,0,-2.09278e-05,-1.31644e+09,-1.31352e+09,-1.31651e+09,-2.797e+06,-0.090385,0.456098,-0,0.464967,5468.99,-46786.4,0,47105,2.797e+06
step02_gravity_refstate-mantle.xmf,975,6.27571e-07,2.07629e-05,0,-2.05663e-05,-1.29489e+09,-1.2922e+09,-1.29498e+09,-2.74869e+06,-0.0779511,0.474279,-0,0.480642,5408.78,-46117.1,0,46433.2,2.74869e+06
step02_gravity_refstate-mantle.xmf,976,2.05151e-07,1.9185e-05,0,-2.03044e-05,-1.27407e+09,-1.27154e+09,-1.2741e+09,-2.71368e+06,-0.0631731,0.490638,-0,0.494689,5357.32,-45467.1,0,45781.7,2.71368e+06
step02_gravity_refstate-mantle.xmf,977,-1.18286e-05,3.79873e-05,0,-1.62141e-05,-1.47548e+09,-1.46883e+09,-1.4739e+09,-2.16701e+06,-0.108089,0.32374,-0,0.341308,5012.72,-51656.4,0,51899,2.16701e+06
step02_gravity_refstate-mantle.xmf,978,-1.61972e-05,4.09939e-05,0,-7.3324e-06,-1.59931e+09,-1.59167e+09,-1.59715e+09,-979975,-0.0902189,0.184008,-0,0.204935,4416.05,-55459.8,0,55635.4,979975
step02_gravity_refstate-mantle.xmf,979,-6.75935e-06,3.21409e-05,0,-1.90148e-05,-1.42541e+09,-1.42021e+09,-1.4245e+09,-2.54132e+06,-0.114829,0.357826,-0,0.3758,5586.21,-50128.4,0,50438.7,2.54132e+06
step02_gravity_refstate-mantle.xmf,980,-9.05855e-06,3.44809e-05,0,-1.7352e-05,-1.45473e+09,-1.44891e+09,-1.45352e+09,-2.31909e+06,-0.113969,0.331616,-0,0.350654,5482.03,-51024.9,0,51318.5,2.31909e+06
step02_gravity_refstate-mantle.xmf,981,-3.72672e-06,7.60399e-06,0,-2.35255e-05,-1.16021e+09,-1.15869e+09,-1.15971e+09,-3.14418e+06,0.0503472,0.599315,0,0.601426,4594.45,-41893.9,0,42145.1,3.14418e+06
step02_gravity_refstate-mantle.xmf,982,-4.56216e-06,-7.91502e-07,0,-2.13301e-05,-1.09977e+09,-1.09927e+09,-1.09916e+09,-2.85076e+06,0.120075,0.638877,0,0.650063,4185.58,-40000,0,40218.4,2.85076e+06
step02_gravity_refstate-mantle.xmf,983,-4.1467e-06,5.01597e-06,0,-2.29066e-05,-1.14033e+09,-1.1391e+09,-1.13977e+09,-3.06146e+06,0.0724858,0.606888,0,0.611201,4549.42,-41270.3,0,41520.3,3.06146e+06
step02_gravity_refstate-mantle.xmf,984,-4.75967e-06,2.49691e-06,0,-2.16281e-05,-1.11833e+09,-1.11736e+09,-1.11769e+09,-2.8906e+06,0.0972698,0.61255,0,0.620225,4509.85,-40580.3,0,40830.2,2.8906e+06
step02_gravity_refstate-mantle.xmf,985,-1.74641e-05,4.21535e-05,0,-4.51014e-06,-1.6452e+09,-1.63723e+09,-1.64287e+09,-602781,-0.0785217,0.130705,-0,0.152478,3867.45,-56871.9,0,57003.2,602781
step02_gravity_refstate-mantle.xmf,986,-4.96476e-07,1.74429e-05,0,-2.00718e-05,-1.25329e+09,-1.2509e+09,-1.25323e+09,-2.6826e+06,-0.0460446,0.504122,-0,0.50622,5335.35,-44816.1,0,45132.6,2.6826e+06
step02_gravity_refstate-mantle.xmf,987,-1.19673e-05,3.71684e-05,0,-1.41183e-05,-1.50199e+09,-1.49542e+09,-1.50039e+09,-1.88691e+06,-0.10948,0.285671,-0,0.305931,5275.16,-52472,0,52736.5,1.88691e+06
step02_gravity_refstate-mantle.xmf,988,-1.29408e-05,3.77188e-05,0,-1.19143e-05,-1.53342e+09,-1.52665e+09,-1.53169e+09,-1.59235e+06,-0.107296,0.249571,-0,0.271658,5269.36,-53437.8,0,53696.9,1.59235e+06
step02_gravity_refstate-mantle.xmf,989,-1.55136e-05,3.97226e-05,0,-6.11284e-06,-1.62426e+09,-1.61688e+09,-1.62219e+09,-816981,-0.0943223,0.148827,-0,0.1762,4764.55,-56231.8,0,56433.3,816981
step02_gravity_refstate-mantle.xmf,990,-1.41053e-05,3.8234e-05,0,-8.20399e-06,-1.59057e+09,-1.58358e+09,-1.58869e+09,-1.09646e+06,-0.102886,0.183573,-0,0.210439,5216.7,-55196.8,0,55442.8,1.09646e+06
step02_gravity_refstate-mantle.xmf,991,-1.35931e-05,3.80205e-05,0,-1.00051e-05,-1.56203e+09,-1.55513e+09,-1.56021e+09,-1.33718e+06,-0.105177,0.2165,-0,0.240696,5254.18,-54318,0,54571.5,1.33718e+06
step02_gravity_refstate-mantle.xmf,992,-1.37991e-06,1.55267e-05,0,-1.99983e-05,-1.2317e+09,-1.22944e+09,-1.23152e+09,-2.67278e+06,-0.0262319,0.517656,-0,0.51832,5302.42,-44138.4,0,44455.8,2.67278e+06
step02_gravity_refstate-mantle.xmf,993,-2.30071e-06,1.34509e-05,0,-1.99284e-05,-1.21017e+09,-1.20807e+09,-1.20986e+09,-2.66343e+06,-0.00494999,0.529167,-0,0.52919,5279.39,-43461.8,0,43781.3,2.66343e+06
step02_gravity_refstate-mantle.xmf,994,-4.06223e-06,9.16331e-06,0,-1.99183e-05,-1.16803e+09,-1.16626e+09,-1.16748e+09,-2.66207e+06,0.0396375,0.551942,0,0.553363,5174.39,-42137.2,0,42453.7,2.66207e+06
step02_gravity_refstate-mantle.xmf,995,-3.21752e-06,1.12988e-05,0,-1.99179e-05,-1.18869e+09,-1.18675e+09,-1.18826e+09,-2.66203e+06,0.0173988,0.540625,0,0.540904,5237.39,-42786.5,0,43105.8,2.66203e+06
step02_gravity_refstate-mantle.xmf,996,-1.74932e-05,4.1934e-05,0,-2.95688e-06,-1.67809e+09,-1.67014e+09,-1.67575e+09,-395187,-0.0766079,0.0882893,-0,0.116892,3825.5,-57887,0,58013.2,395187
step02_gravity_refstate-mantle.xmf,997,-1.74911e-05,4.17858e-05,0,-1.36811e-06,-1.71419e+09,-1.70627e+09,-1.71186e+09,-182848,-0.0756143,0.041675,-0,0.0863384,3812.26,-59001.9,0,59125,182848
step02_gravity_refstate-mantle.xmf,998,-1.8306e-05,4.28761e-05,0,1.00844e-08,-1.74659e+09,-1.73841e+09,-1.74414e+09,1347.78,-0.066281,-5.27938e-19,-0,0.066281,3302.13,-60000,0,60090.8,1347.78
step02_gravity_refstate-mantle.xmf,999,-4.29547e-06,2.82008e-05,0,-1.80569e-05,-1.41595e+09,-1.41161e+09,-1.41538e+09,-2.41331e+06,-0.117535,0.343432,-0,0.362988,6175.93,-49842.7,0,50223.9,2.41331e+06
step02_gravity_refstate-mantle.xmf,1000,-2.67205e-06,2.6332e-05,0,-1.87414e-05,-1.39276e+09,-1.38889e+09,-1.39241e+09,-2.50479e+06,-0.114651,0.363153,-0,0.380821,6169.65,-49132.5,0,49518.4,2.50479e+06
step02_gravity_refstate-mantle.xmf,1001,-1.18189e-06,2.44264e-05,0,-1.90589e-05,-1.37066e+09,-1.36724e+09,-1.3705e+09,-2.54722e+06,-0.110202,0.38128,-0,0.396886,6150.87,-48454.9,0,48843.7,2.54722e+06
step02_gravity_refstate-mantle.xmf,1002,7.48884e-08,2.25082e-05,0,-1.90129e-05,-1.34873e+09,-1.34573e+09,-1.34874e+09,-2.54108e+06,-0.103764,0.398495,-0,0.411783,6123.41,-47780.9,0,48171.7,2.54108e+06
step02_gravity_refstate-mantle.xmf,1003,9.42825e-07,2.0631e-05,0,-1.8642e-05,-1.32635e+09,-1.32372e+09,-1.32648e+09,-2.4915e+06,-0.0947321,0.415135,-0,0.425807,6090.61,-47090.7,0,47483,2.4915e+06
step02_gravity_refstate-mantle.xmf,1004,1.22898e-06,1.9003e-05,0,-1.81729e-05,-1.30399e+09,-1.30162e+09,-1.30416e+09,-2.42881e+06,-0.0829756,0.432138,-0,0.440032,6031.57,-46397.8,0,46788.2,2.42881e+06
step02_gravity_refstate-mantle.xmf,1005,9.49169e-07,1.76577e-05,0,-1.77919e-05,-1.28258e+09,-1.28034e+09,-1.2827e+09,-2.37788e+06,-0.0690826,0.44859,-0,0.453878,5958.73,-45730.9,0,46117.4,2.37788e+06
step02_gravity_refstate-mantle.xmf,1006,3.4911e-07,1.63394e-05,0,-1.73984e-05,-1.2627e+09,-1.26057e+09,-1.26275e+09,-2.3253e+06,-0.0539679,0.460936,-0,0.464084,5929.73,-45109.6,0,45497.6,2.3253e+06
step02_gravity_refstate-mantle.xmf,1007,-9.81801e-06,3.47486e-05,0,-1.55036e-05,-1.47924e+09,-1.47328e+09,-1.47793e+09,-2.07205e+06,-0.114547,0.300881,-0,0.321948,5627.63,-51777.5,0,52082.5,2.07205e+06
step02_gravity_refstate-mantle.xmf,1008,-6.06709e-06,3.01219e-05,0,-1.70348e-05,-1.4411e+09,-1.43627e+09,-1.44029e+09,-2.2767e+06,-0.118911,0.322035,-0,0.343287,6144.5,-50612.8,0,50984.4,2.2767e+06
step02_gravity_refstate-mantle.xmf,1009,-4.83107e-06,7.12705e-06,0,-1.9802e-05,-1.14836e+09,-1.14676e+09,-1.14772e+09,-2.64654e+06,0.0612558,0.562343,0,0.56567,5102.15,-41519.3,0,41831.6,2.64654e+06
step02_gravity_refstate-mantle.xmf,1010,-7.08473e-06,2.464e-06,0,-1.86765e-05,-1.10005e+09,-1.09877e+09,-1.0991e+09,-2.49611e+06,0.116505,0.591847,0,0.603205,4798.49,-40000,0,40286.8,2.49611e+06
step02_gravity_refstate-mantle.xmf,1011,-5.70681e-06,5.43201e-06,0,-1.91166e-05,-1.12943e+09,-1.12794e+09,-1.12866e+09,-2.55493e+06,0.0820141,0.567,0,0.572901,5089.09,-40924.3,0,41239.5,2.55493e+06
step02_gravity_refstate-mantle.xmf,1012,-1.57109e-05,3.96671e-05,0,-4.17535e-06,-1.66032e+09,-1.65292e+09,-1.65822e+09,-558036,-0.0920777,0.105061,-0,0.1397,4721.07,-57344.3,0,57538.3,558036
step02_gravity_refstate-mantle.xmf,1013,-4.99247e-07,1.48249e-05,0,-1.69461e-05,-1.24186e+09,-1.23981e+09,-1.24179e+09,-2.26485e+06,-0.0361895,0.471087,-0,0.472475,5931.04,-44456.1,0,44850,2.26485e+06
step02_gravity_refstate-mantle.xmf,1014,-7.61532e-06,3.16311e-05,0,-1.56423e-05,-1.4674e+09,-1.46215e+09,-1.46638e+09,-2.0906e+06,-0.119253,0.297284,-0,0.320311,6137.7,-51418.5,0,51783.5,2.0906e+06
step02_gravity_refstate-mantle.xmf,1015,-9.31117e-06,3.33874e-05,0,-1.41808e-05,-1.49432e+09,-1.48862e+09,-1.49308e+09,-1.89527e+06,-0.117647,0.274135,-0,0.298314,6008.78,-52243.4,0,52587.8,1.89527e+06
step02_gravity_refstate-mantle.xmf,1016,-1.03189e-05,3.4181e-05,0,-1.25392e-05,-1.52048e+09,-1.51453e+09,-1.5191e+09,-1.67586e+06,-0.116642,0.246889,-0,0.273056,6010.43,-53046.6,0,53386,1.67586e+06
step02_gravity_refstate-mantle.xmf,1017,-1.12119e-05,3.48609e-05,0,-1.0799e-05,-1.54855e+09,-1.54239e+09,-1.54705e+09,-1.44329e+06,-0.115136,0.217392,-0,0.245999,5994.56,-53909.4,0,54241.7,1.44329e+06
step02_gravity_refstate-mantle.xmf,1018,-1.31549e-05,3.65875e-05,0,-6.95382e-06,-1.61358e+09,-1.60694e+09,-1.61182e+09,-929378,-0.108423,0.150245,-0,0.185281,5712.85,-55909.8,0,56200.9,929378
step02_gravity_refstate-mantle.xmf,1019,-1.19659e-05,3.54255e-05,0,-9.08784e-06,-1.57676e+09,-1.57042e+09,-1.57516e+09,-1.21459e+06,-0.11323,0.187624,-0,0.219143,5952.19,-54777.2,0,55099.7,1.21459e+06
step02_gravity_refstate-mantle.xmf,1020,-6.83211e-06,4.2346e-06,0,-1.81577e-05,-1.11272e+09,-1.11124e+09,-1.11181e+09,-2.42678e+06,0.100196,0.56728,0,0.576061,5120.14,-40397.7,0,40720.9,2.42678e+06
step02_gravity_refstate-mantle.xmf,1021,-1.60045e-06,1.32742e-05,0,-1.67186e-05,-1.21977e+09,-1.21778e+09,-1.21956e+09,-2.23443e+06,-0.0156366,0.482665,-0,0.482918,5902.98,-43762.5,0,44158.8,2.23443e+06
step02_gravity_refstate-mantle.xmf,1022,-2.79127e-06,1.16755e-05,0,-1.6662e-05,-1.19756e+09,-1.19563e+09,-1.19719e+09,-2.22688e+06,0.00640534,0.494596,0,0.494638,5854.08,-43064.4,0,43460.5,2.22688e+06
step02_gravity_refstate-mantle.xmf,1023,-5.10136e-06,8.39083e-06,0,-1.68136e-05,-1.15476e+09,-1.15296e+09,-1.15408e+09,-2.24714e+06,0.051499,0.518937,0,0.521486,5692.98,-41718.4,0,42105.1,2.24714e+06
step02_gravity_refstate-mantle.xmf,1024,-3.9908e-06,1.0019e-05,0,-1.66824e-05,-1.17552e+09,-1.17364e+09,-1.17498e+09,-2.22961e+06,0.0292559,0.506336,0,0.507181,5790.82,-42371.2,0,42765.1,2.22961e+06
step02_gravity_refstate-mantle.xmf,1025,-1.36648e-05,3.69961e-05,0,-5.23921e-06,-1.64423e+09,-1.63746e+09,-1.64241e+09,-700221,-0.105826,0.116547,-0,0.157424,5615.68,-56854.1,0,57130.8,700221
step02_gravity_refstate-mantle.xmf,1026,-1.58254e-05,3.96352e-05,0,-2.6131e-06,-1.69163e+09,-1.68421e+09,-1.68951e+09,-349240,-0.090693,0.0669186,-0,0.112709,4692.07,-58310.5,0,58498.9,349240
step02_gravity_refstate-mantle.xmf,1027,-1.63956e-05,4.03373e-05,0,-2.14972e-09,-1.74639e+09,-1.73881e+09,-1.7442e+09,-287.31,-0.0855313,-4.23036e-19,-0,0.0855313,4411.14,-60000,0,60161.9,287.31
step02_gravity_refstate-mantle.xmf,1028,-3.55106e-06,2.61409e-05,0,-1.60818e-05,-1.42866e+09,-1.42469e+09,-1.42819e+09,-2.14933e+06,-0.121252,0.309218,-0,0.332142,6807.31,-50235,0,50694.2,2.14933e+06
step02_gravity_refstate-mantle.xmf,1029,-2.05932e-06,2.43466e-05,0,-1.66753e-05,-1.40411e+09,-1.40058e+09,-1.40383e+09,-2.22866e+06,-0.118016,0.328424,-0,0.348985,6804.58,-49482,0,49947.7,2.22866e+06
step02_gravity_refstate-mantle.xmf,1030,-7.48807e-07,2.26205e-05,0,-1.69712e-05,-1.38118e+09,-1.37805e+09,-1.38108e+09,-2.2682e+06,-0.113366,0.34616,-0,0.364251,6776.91,-48777.9,0,49246.4,2.2682e+06
step02_gravity_refstate-mantle.xmf,1031,3.76933e-07,2.08622e-05,0,-1.69201e-05,-1.3588e+09,-1.35606e+09,-1.35885e+09,-2.26137e+06,-0.107021,0.362221,-0,0.3777,6753.37,-48089.6,0,48561.5,2.26137e+06
step02_gravity_refstate-mantle.xmf,1032,1.19268e-06,1.91682e-05,0,-1.65931e-05,-1.33647e+09,-1.33406e+09,-1.33662e+09,-2.21766e+06,-0.0985743,0.377501,-0,0.390159,6722.34,-47401,0,47875.3,2.21766e+06
step02_gravity_refstate-mantle.xmf,1033,1.59132e-06,1.75258e-05,0,-1.60394e-05,-1.31294e+09,-1.31081e+09,-1.31315e+09,-2.14367e+06,-0.0871212,0.392909,-0,0.402452,6681.74,-46672.6,0,47148.5,2.14367e+06
step02_gravity_refstate-mantle.xmf,1034,1.4341e-06,1.6192e-05,0,-1.55474e-05,-1.28965e+09,-1.28768e+09,-1.28984e+09,-2.07791e+06,-0.0731448,0.409686,-0,0.416164,6593.91,-45948.8,0,46419.6,2.07791e+06
step02_gravity_refstate-mantle.xmf,1035,8.6854e-07,1.55616e-05,0,-1.55596e-05,-1.27113e+09,-1.26917e+09,-1.27125e+09,-2.07954e+06,-0.0601986,0.427638,-0,0.431854,6431.84,-45371.4,0,45825,2.07954e+06
step02_gravity_refstate-mantle.xmf,1036,2.98234e-07,1.4173e-05,0,-1.46215e-05,-1.25356e+09,-1.2517e+09,-1.2536e+09,-1.95417e+06,-0.0462471,0.42836,-0,0.430849,6566.61,-44821.2,0,45299.7,1.95417e+06
step02_gravity_refstate-mantle.xmf,1037,-5.06968e-06,2.78476e-05,0,-1.51945e-05,-1.45412e+09,-1.44972e+09,-1.45344e+09,-2.03074e+06,-0.123076,0.288631,-0,0.313777,6790.13,-51015.7,0,51465.6,2.03074e+06
step02_gravity_refstate-mantle.xmf,1038,-5.92303e-06,6.95496e-06,0,-1.71636e-05,-1.13808e+09,-1.13635e+09,-1.13728e+09,-2.29392e+06,0.070114,0.533665,0,0.538251,5535.92,-41193.9,0,41564.2,2.29392e+06
step02_gravity_refstate-mantle.xmf,1039,-8.65212e-06,4.7483e-06,0,-1.63045e-05,-1.1002e+09,-1.09841e+09,-1.09904e+09,-2.1791e+06,0.111422,0.546889,0,0.558124,5441.79,-40000,0,40368.5,2.1791e+06
step02_gravity_refstate-mantle.xmf,1040,-7.43904e-06,6.13621e-06,0,-1.59039e-05,-1.11959e+09,-1.11778e+09,-1.1186e+09,-2.12556e+06,0.0887913,0.526826,0,0.534256,5695.03,-40610.6,0,41008,2.12556e+06
step02_gravity_refstate-mantle.xmf,1041,-1.39248e-05,3.71382e-05,0,-3.53862e-06,-1.67613e+09,-1.66931e+09,-1.67427e+09,-472936,-0.104287,0.0803539,-0,0.131653,5579.19,-57838.2,0,58106.6,472936
step02_gravity_refstate-mantle.xmf,1042,-1.57482e-05,3.94827e-05,0,-1.23668e-06,-1.72003e+09,-1.71265e+09,-1.71792e+09,-165282,-0.0910914,0.0320372,-0,0.096561,4748.27,-59187.9,0,59378.1,165282
step02_gravity_refstate-mantle.xmf,1043,-8.60675e-07,1.28896e-05,0,-1.41645e-05,-1.23003e+09,-1.22819e+09,-1.22992e+09,-1.89308e+06,-0.0259488,0.439658,-0,0.440423,6543.95,-44083.4,0,44566.5,1.89308e+06
step02_gravity_refstate-mantle.xmf,1044,-6.48265e-06,2.93195e-05,0,-1.4011e-05,-1.48066e+09,-1.47587e+09,-1.47979e+09,-1.87257e+06,-0.123836,0.265665,-0,0.29311,6777.01,-51829.8,0,52271,1.87257e+06
step02_gravity_refstate-mantle.xmf,1045,-7.73684e-06,3.05603e-05,0,-1.26527e-05,-1.50773e+09,-1.50261e+09,-1.5067e+09,-1.69103e+06,-0.123723,0.241258,-0,0.271133,6756.26,-52660.8,0,53092.5,1.69103e+06
step02_gravity_refstate-mantle.xmf,1046,-1.13968e-05,3.39641e-05,0,-6.09382e-06,-1.62848e+09,-1.62242e+09,-1.62696e+09,-814439,-0.117717,0.124365,-0,0.171242,6519.66,-56375,0,56750.8,814439
step02_gravity_refstate-mantle.xmf,1047,-8.76991e-06,3.15098e-05,0,-1.11679e-05,-1.5352e+09,-1.52982e+09,-1.53403e+09,-1.49259e+06,-0.123142,0.215235,-0,0.247972,6746.03,-53504.8,0,53928.4,1.49259e+06
step02_gravity_refstate-mantle.xmf,1048,-9.629e-06,3.22707e-05,0,-9.65666e-06,-1.5626e+09,-1.557e+09,-1.56131e+09,-1.29061e+06,-0.122161,0.188721,-0,0.224809,6725.24,-54347.5,0,54762,1.29061e+06
step02_gravity_refstate-mantle.xmf,1049,-1.06318e-05,3.32303e-05,0,-7.86213e-06,-1.59571e+09,-1.58985e+09,-1.59429e+09,-1.05077e+06,-0.119997,0.156966,-0,0.197579,6624.09,-55365.9,0,55760.7,1.05077e+06
step02_gravity_refstate-mantle.xmf,1050,-2.20227e-06,1.1657e-05,0,-1.39189e-05,-1.20665e+09,-1.20479e+09,-1.20635e+09,-1.86026e+06,-0.00414395,0.4508,-0,0.450819,6507.88,-43348.9,0,43834.7,1.86026e+06
step02_gravity_refstate-mantle.xmf,1051,-3.65156e-06,1.04206e-05,0,-1.38691e-05,-1.18322e+09,-1.18134e+09,-1.18273e+09,-1.85361e+06,0.0189256,0.462525,0,0.462912,6447.54,-42612.4,0,43097.4,1.85361e+06
step02_gravity_refstate-mantle.xmf,1052,-6.48535e-06,7.7594e-06,0,-1.46806e-05,-1.13823e+09,-1.13632e+09,-1.13736e+09,-1.96206e+06,0.0665091,0.496742,0,0.501174,6100.33,-41196.8,0,41646,1.96206e+06
step02_gravity_refstate-mantle.xmf,1053,-5.12968e-06,9.13629e-06,0,-1.40546e-05,-1.15994e+09,-1.15803e+09,-1.15925e+09,-1.8784e+06,0.0428564,0.476376,0,0.4783,6336.75,-41880.1,0,42356.8,1.8784e+06
step02_gravity_refstate-mantle.xmf,1054,-1.18719e-05,3.43886e-05,0,-4.39725e-06,-1.66034e+09,-1.65416e+09,-1.65875e+09,-587692,-0.116088,0.0913429,-0,0.147716,6461.03,-57357.1,0,57719.8,587692
step02_gravity_refstate-mantle.xmf,1055,-1.40868e-05,3.72356e-05,0,-1.92357e-06,-1.70772e+09,-1.70086e+09,-1.70584e+09,-257085,-0.103257,0.0442249,-0,0.112329,5552.89,-58813.1,0,59074.6,257085
step02_gravity_refstate-mantle.xmf,1056,-1.41797e-05,3.73703e-05,0,-1.74851e-09,-1.74615e+09,-1.73926e+09,-1.74426e+09,-233.688,-0.102674,-2.78276e-19,-0,0.102674,5532.04,-60000,0,60254.5,233.688
step02_gravity_refstate-mantle.xmf,1057,-2.81157e-06,2.4206e-05,0,-1.42161e-05,-1.44105e+09,-1.43744e+09,-1.44068e+09,-1.89998e+06,-0.124726,0.276876,-0,0.303673,7479.1,-50617.8,0,51167.3,1.89998e+06
step02_gravity_refstate-mantle.xmf,1058,-1.49272e-06,2.25542e-05,0,-1.47347e-05,-1.41566e+09,-1.41245e+09,-1.41546e+09,-1.96929e+06,-0.121162,0.2954,-0,0.319283,7472.97,-49838,0,50395.1,1.96929e+06
step02_gravity_refstate-mantle.xmf,1059,-3.1634e-07,2.0933e-05,0,-1.49804e-05,-1.39165e+09,-1.38881e+09,-1.3916e+09,-2.00213e+06,-0.116249,0.312449,-0,0.333374,7447.72,-49099.9,0,49661.6,2.00213e+06
step02_gravity_refstate-mantle.xmf,1060,6.64998e-07,1.93592e-05,0,-1.49534e-05,-1.36862e+09,-1.36612e+09,-1.3687e+09,-1.99852e+06,-0.10986,0.328109,-0,0.346012,7414.26,-48391.1,0,48955.8,1.99852e+06
step02_gravity_refstate-mantle.xmf,1061,1.36848e-06,1.79142e-05,0,-1.47166e-05,-1.34668e+09,-1.34446e+09,-1.34686e+09,-1.96688e+06,-0.101998,0.34265,-0,0.357509,7369.22,-47714.3,0,48280.1,1.96688e+06
step02_gravity_refstate-mantle.xmf,1062,1.78345e-06,1.64359e-05,0,-1.41887e-05,-1.32389e+09,-1.32193e+09,-1.32413e+09,-1.89633e+06,-0.0917189,0.355821,-0,0.367452,7346.14,-47009.5,0,47580.1,1.89633e+06
step02_gravity_refstate-mantle.xmf,1063,1.05734e-06,1.37964e-05,0,-1.30574e-05,-1.26965e+09,-1.26794e+09,-1.26979e+09,-1.74513e+06,-0.0583425,0.390863,-0,0.395193,7145.74,-45322.3,0,45882.2,1.74513e+06
step02_gravity_refstate-mantle.xmf,1064,1.73505e-06,1.49298e-05,0,-1.34665e-05,-1.29735e+09,-1.29558e+09,-1.29758e+09,-1.7998e+06,-0.0769063,0.370614,-0,0.37851,7306.64,-46185.4,0,46759.8,1.7998e+06
step02_gravity_refstate-mantle.xmf,1065,-1.15868e-07,1.24492e-05,0,-1.2119e-05,-1.24213e+09,-1.24045e+09,-1.24212e+09,-1.6197e+06,-0.0366935,0.398835,-0,0.400519,7213.05,-44461,0,45042.3,1.6197e+06
step02_gravity_refstate-mantle.xmf,1066,-4.09099e-06,2.5686e-05,0,-1.3412e-05,-1.46692e+09,-1.46294e+09,-1.46637e+09,-1.79251e+06,-0.12704,0.256698,-0,0.286414,7488.33,-51411.9,0,51954.4,1.79251e+06
step02_gravity_refstate-mantle.xmf,1067,-9.60312e-06,6.45666e-06,0,-1.41288e-05,-1.10026e+09,-1.09812e+09,-1.09898e+09,-1.88832e+06,0.105248,0.504116,0,0.514986,6117.1,-40000,0,40465,1.88832e+06
step02_gravity_refstate-mantle.xmf,1068,-1.21758e-05,3.46651e-05,0,-2.74544e-06,-1.69207e+09,-1.68581e+09,-1.69045e+09,-366929,-0.114909,0.0578026,-0,0.128628,6420.55,-58335.9,0,58688.2,366929
step02_gravity_refstate-mantle.xmf,1069,-1.52056e-06,1.1455e-05,0,-1.16979e-05,-1.21695e+09,-1.21521e+09,-1.21674e+09,-1.56342e+06,-0.0149123,0.409783,-0,0.410054,7184.49,-43671.1,0,44258.2,1.56342e+06
step02_gravity_refstate-mantle.xmf,1070,-5.3051e-06,2.69981e-05,0,-1.2362e-05,-1.49384e+09,-1.48952e+09,-1.49313e+09,-1.65218e+06,-0.128401,0.234577,-0,0.26742,7497.75,-52238.8,0,52774.1,1.65218e+06
step02_gravity_refstate-mantle.xmf,1071,-6.39216e-06,2.81193e-05,0,-1.1146e-05,-1.52134e+09,-1.51673e+09,-1.52048e+09,-1.48967e+06,-0.128985,0.211105,-0,0.247391,7502.23,-53083.9,0,53611.4,1.48967e+06
step02_gravity_refstate-mantle.xmf,1072,-9.72835e-06,3.14642e-05,0,-5.07949e-06,-1.64462e+09,-1.63912e+09,-1.64332e+09,-678874,-0.125934,0.0994564,-0,0.160471,7338.82,-56878.3,0,57349.8,678874
step02_gravity_refstate-mantle.xmf,1073,-9.11781e-06,3.08554e-05,0,-6.70417e-06,-1.61245e+09,-1.6071e+09,-1.61123e+09,-896012,-0.127093,0.129798,-0,0.18166,7391.55,-55887,0,56373.7,896012
step02_gravity_refstate-mantle.xmf,1074,-7.38264e-06,2.91146e-05,0,-9.79239e-06,-1.54995e+09,-1.54508e+09,-1.54897e+09,-1.30875e+06,-0.12892,0.186099,-0,0.226392,7490.74,-53963.7,0,54481.1,1.30875e+06
step02_gravity_refstate-mantle.xmf,1075,-8.30047e-06,3.00299e-05,0,-8.29934e-06,-1.58044e+09,-1.57531e+09,-1.57933e+09,-1.10921e+06,-0.128258,0.158945,-0,0.204239,7454.53,-54901.5,0,55405.3,1.10921e+06
step02_gravity_refstate-mantle.xmf,1076,-8.20577e-06,7.47234e-06,0,-1.32173e-05,-1.11937e+09,-1.11728e+09,-1.11827e+09,-1.7665e+06,0.0830937,0.479686,0,0.48683,6458.88,-40602.2,0,41112.7,1.7665e+06
step02_gravity_refstate-mantle.xmf,1077,-3.10773e-06,1.05348e-05,0,-1.1519e-05,-1.192e+09,-1.19018e+09,-1.19158e+09,-1.53952e+06,0.00813084,0.421046,0,0.421124,7134.63,-42887.5,0,43476.9,1.53952e+06
step02_gravity_refstate-mantle.xmf,1078,-4.77438e-06,9.66008e-06,0,-1.15501e-05,-1.16766e+09,-1.16573e+09,-1.16702e+09,-1.54367e+06,0.0316285,0.432717,0,0.433871,7061.07,-42122.3,0,42710.1,1.54367e+06
step02_gravity_refstate-mantle.xmf,1079,-6.7565e-06,8.71436e-06,0,-1.18319e-05,-1.14026e+09,-1.13819e+09,-1.13936e+09,-1.58133e+06,0.0589678,0.44766,0,0.451527,6931.41,-41260.3,0,41838.5,1.58133e+06
step02_gravity_refstate-mantle.xmf,1080,-1.017e-05,3.19371e-05,0,-3.47714e-06,-1.67631e+09,-1.67068e+09,-1.67495e+09,-464720,-0.124871,0.0688682,-0,0.142603,7288.82,-57855.3,0,58312.7,464720
step02_gravity_refstate-mantle.xmf,1081,-1.24322e-05,3.49659e-05,0,-1.30284e-06,-1.72024e+09,-1.7139e+09,-1.71857e+09,-174125,-0.113613,0.0278214,-0,0.116969,6344.97,-59204.9,0,59544,174125
step02_gravity_refstate-mantle.xmf,1082,-2.0162e-06,2.2283e-05,0,-1.24479e-05,-1.45201e+09,-1.44876e+09,-1.45174e+09,-1.66366e+06,-0.127789,0.246858,-0,0.277972,8203.71,-50956.6,0,51612.7,1.66366e+06
step02_gravity_refstate-mantle.xmf,1083,-9.4178e-07,2.09031e-05,0,-1.29311e-05,-1.42687e+09,-1.42395e+09,-1.42675e+09,-1.72824e+06,-0.123974,0.264616,-0,0.292218,8170.77,-50183.8,0,50844.6,1.72824e+06
step02_gravity_refstate-mantle.xmf,1084,9.97935e-08,1.93936e-05,0,-1.31284e-05,-1.402e+09,-1.39942e+09,-1.40201e+09,-1.75461e+06,-0.11882,0.28082,-0,0.304923,8149.04,-49418.6,0,50086,1.75461e+06
step02_gravity_refstate-mantle.xmf,1085,9.61643e-07,1.79509e-05,0,-1.31128e-05,-1.37783e+09,-1.37556e+09,-1.37796e+09,-1.75253e+06,-0.112207,0.296326,-0,0.316859,8105.39,-48674.2,0,49344.5,1.75253e+06
step02_gravity_refstate-mantle.xmf,1086,1.54925e-06,1.67091e-05,0,-1.29527e-05,-1.35532e+09,-1.35329e+09,-1.35552e+09,-1.73112e+06,-0.104432,0.310976,-0,0.328043,8037.2,-47979.4,0,48647.9,1.73112e+06
step02_gravity_refstate-mantle.xmf,1087,1.90843e-06,1.54808e-05,0,-1.25539e-05,-1.33353e+09,-1.33171e+09,-1.33378e+09,-1.67783e+06,-0.0951657,0.323328,-0,0.337042,8000.05,-47305.5,0,47977.2,1.67783e+06
step02_gravity_refstate-mantle.xmf,1088,1.95283e-06,1.41813e-05,0,-1.18659e-05,-1.30971e+09,-1.30808e+09,-1.30997e+09,-1.58588e+06,-0.0828899,0.334501,-0,0.344618,7995.71,-46566.8,0,47248.3,1.58588e+06
step02_gravity_refstate-mantle.xmf,1089,1.48355e-06,1.29762e-05,0,-1.11209e-05,-1.28234e+09,-1.2808e+09,-1.28254e+09,-1.48631e+06,-0.0661506,0.347917,-0,0.35415,7953.47,-45715.1,0,46401.8,1.48631e+06
step02_gravity_refstate-mantle.xmf,1090,-8.44669e-07,1.11447e-05,0,-9.90079e-06,-1.22821e+09,-1.2266e+09,-1.22809e+09,-1.32324e+06,-0.025407,0.371529,-0,0.372397,7882.71,-44022.7,0,44722.9,1.32324e+06
step02_gravity_refstate-mantle.xmf,1091,5.04454e-07,1.19693e-05,0,-1.04255e-05,-1.25488e+09,-1.25334e+09,-1.25494e+09,-1.39337e+06,-0.0466159,0.360354,-0,0.363357,7915.2,-44857.6,0,45550.6,1.39337e+06
step02_gravity_refstate-mantle.xmf,1092,-3.16887e-06,2.36831e-05,0,-1.17221e-05,-1.47955e+09,-1.47596e+09,-1.47913e+09,-1.56665e+06,-0.130653,0.22684,-0,0.261775,8221.07,-51803.2,0,52451.5,1.56665e+06
step02_gravity_refstate-mantle.xmf,1093,-1.00303e-05,7.61465e-06,0,-1.21983e-05,-1.10026e+09,-1.0979e+09,-1.09892e+09,-1.6303e+06,0.098273,0.463581,0,0.473883,6826.09,-40000,0,40578.3,1.6303e+06
step02_gravity_refstate-mantle.xmf,1094,-1.03546e-05,3.21054e-05,0,-1.69539e-06,-1.71167e+09,-1.70599e+09,-1.71029e+09,-226589,-0.124529,0.0338728,-0,0.129054,7296.4,-58946.9,0,59396.8,226589
step02_gravity_refstate-mantle.xmf,1095,-1.17706e-05,3.40738e-05,0,-1.30616e-08,-1.74591e+09,-1.73978e+09,-1.74433e+09,-1745.68,-0.117434,-3.66963e-19,-0,0.117434,6669.73,-60000,0,60369.6,1745.68
step02_gravity_refstate-mantle.xmf,1096,-2.38218e-06,1.04763e-05,0,-9.65027e-06,-1.20296e+09,-1.20124e+09,-1.20264e+09,-1.28976e+06,-0.00371577,0.382774,-0,0.382792,7826.01,-43230.9,0,43933.6,1.28976e+06
step02_gravity_refstate-mantle.xmf,1097,-8.13512e-06,2.90869e-05,0,-4.04859e-06,-1.66077e+09,-1.65579e+09,-1.65968e+09,-541093,-0.133031,0.0771068,-0,0.153762,8159.59,-57381.7,0,57958.9,541093
step02_gravity_refstate-mantle.xmf,1098,-4.15429e-06,2.47744e-05,0,-1.07616e-05,-1.50659e+09,-1.50273e+09,-1.50604e+09,-1.43829e+06,-0.132597,0.20541,-0,0.24449,8269.95,-52634.8,0,53280.5,1.43829e+06
step02_gravity_refstate-mantle.xmf,1099,-5.15305e-06,2.58732e-05,0,-9.65761e-06,-1.53531e+09,-1.53116e+09,-1.53462e+09,-1.29074e+06,-0.133724,0.182763,-0,0.22646,8279.42,-53518,0,54154.7,1.29074e+06
step02_gravity_refstate-mantle.xmf,1100,-7.55887e-06,2.84408e-05,0,-5.53758e-06,-1.62882e+09,-1.624e+09,-1.62781e+09,-740098,-0.13379,0.104887,-0,0.170003,8222.71,-56396.9,0,56993.1,740098
step02_gravity_refstate-mantle.xmf,1101,-6.89034e-06,2.77332e-05,0,-7.01269e-06,-1.59672e+09,-1.59209e+09,-1.5958e+09,-937246,-0.134148,0.132372,-0,0.188462,8250.3,-55408,0,56018.9,937246
step02_gravity_refstate-mantle.xmf,1102,-6.0735e-06,2.68641e-05,0,-8.39866e-06,-1.56539e+09,-1.56099e+09,-1.56458e+09,-1.12248e+06,-0.134198,0.158416,-0,0.207617,8272.75,-54443.5,0,55068.4,1.12248e+06
step02_gravity_refstate-mantle.xmf,1103,-8.59435e-06,8.20682e-06,0,-1.14653e-05,-1.1177e+09,-1.11545e+09,-1.11655e+09,-1.53234e+06,0.079467,0.445497,0,0.452529,7082.78,-40549.8,0,41163.7,1.53234e+06
step02_gravity_refstate-mantle.xmf,1104,-4.063e-06,9.87583e-06,0,-9.60286e-06,-1.17819e+09,-1.17633e+09,-1.17765e+09,-1.28342e+06,0.0186758,0.3938,0,0.394242,7761.31,-42453,0,43156.6,1.28342e+06
step02_gravity_refstate-mantle.xmf,1105,-5.84966e-06,9.3136e-06,0,-9.69215e-06,-1.15356e+09,-1.15154e+09,-1.15278e+09,-1.29536e+06,0.0414848,0.403878,0,0.406003,7706.6,-41678.9,0,42385.4,1.29536e+06
step02_gravity_refstate-mantle.xmf,1106,-8.6352e-06,2.97147e-05,0,-2.74898e-06,-1.68847e+09,-1.68335e+09,-1.68732e+09,-367401,-0.131839,0.0527237,-0,0.141991,8045.33,-58235.7,0,58788.8,367401
step02_gravity_refstate-mantle.xmf,1107,-1.10877e-06,2.02624e-05,0,-1.07629e-05,-1.46013e+09,-1.45728e+09,-1.45998e+09,-1.43846e+06,-0.13013,0.219562,-0,0.255228,8998.31,-51208.4,0,51993,1.43846e+06
step02_gravity_refstate-mantle.xmf,1108,-4.3747e-07,1.94494e-05,0,-1.13187e-05,-1.43759e+09,-1.43493e+09,-1.43753e+09,-1.51274e+06,-0.126382,0.237059,-0,0.268644,8864.65,-50514.4,0,51286.3,1.51274e+06
step02_gravity_refstate-mantle.xmf,1109,4.64046e-07,1.80484e-05,0,-1.14145e-05,-1.41329e+09,-1.41094e+09,-1.41335e+09,-1.52554e+06,-0.12132,0.250752,-0,0.278559,8877.84,-49766.4,0,50552,1.52554e+06
step02_gravity_refstate-mantle.xmf,1110,1.24131e-06,1.66611e-05,0,-1.13681e-05,-1.38771e+09,-1.38565e+09,-1.38788e+09,-1.51934e+06,-0.114443,0.265501,-0,0.289116,8846.06,-48978,0,49770.4,1.51934e+06
step02_gravity_refstate-mantle.xmf,1111,1.77745e-06,1.54672e-05,0,-1.12361e-05,-1.36282e+09,-1.36099e+09,-1.36306e+09,-1.50171e+06,-0.106114,0.281085,-0,0.300448,8751.89,-48209.6,0,48997.6,1.50171e+06
step02_gravity_refstate-mantle.xmf,1112,1.96769e-06,1.48025e-05,0,-1.1249e-05,-1.3425e+09,-1.34079e+09,-1.34277e+09,-1.50343e+06,-0.0981043,0.296689,-0,0.312488,8582.38,-47581.5,0,48349.3,1.50343e+06
step02_gravity_refstate-mantle.xmf,1113,2.08904e-06,1.35452e-05,0,-1.04779e-05,-1.32185e+09,-1.32032e+09,-1.32213e+09,-1.40037e+06,-0.088006,0.3021,-0,0.314658,8681.14,-46941.1,0,47737.1,1.40037e+06
step02_gravity_refstate-mantle.xmf,1114,1.77035e-06,1.23995e-05,0,-9.68804e-06,-1.29532e+09,-1.29389e+09,-1.29555e+09,-1.29481e+06,-0.0731442,0.31264,-0,0.321083,8686.04,-46116.4,0,46927.3,1.29481e+06
step02_gravity_refstate-mantle.xmf,1115,9.5572e-07,1.14595e-05,0,-8.93434e-06,-1.26723e+09,-1.26583e+09,-1.26736e+09,-1.19407e+06,-0.0549577,0.323793,-0,0.328424,8668.89,-45241,0,46064,1.19407e+06
step02_gravity_refstate-mantle.xmf,1116,-1.71265e-06,1.02558e-05,0,-8.0896e-06,-1.21372e+09,-1.21212e+09,-1.21349e+09,-1.08118e+06,-0.0142785,0.347143,-0,0.347437,8543.67,-43567.1,0,44396.9,1.08118e+06
step02_gravity_refstate-mantle.xmf,1117,-2.59654e-07,1.07626e-05,0,-8.37549e-06,-1.23972e+09,-1.23825e+09,-1.23969e+09,-1.11938e+06,-0.0349415,0.335244,-0,0.33706,8622.92,-44381.4,0,45211.3,1.11938e+06
step02_gravity_refstate-mantle.xmf,1118,-2.13312e-06,2.1569e-05,0,-1.00914e-05,-1.48997e+09,-1.4868e+09,-1.48968e+09,-1.34872e+06,-0.133779,0.19923,-0,0.239978,9040.58,-52126.6,0,52904.8,1.34872e+06
step02_gravity_refstate-mantle.xmf,1119,-7.78456e-06,8.80364e-06,0,-1.00048e-05,-1.12837e+09,-1.12615e+09,-1.12733e+09,-1.33714e+06,0.0650981,0.414932,0,0.420007,7627,-40886.4,0,41591.7,1.33714e+06
step02_gravity_refstate-mantle.xmf,1120,-1.01213e-05,8.43176e-06,0,-1.04963e-05,-1.10021e+09,-1.09773e+09,-1.09886e+09,-1.40284e+06,0.0907621,0.425277,0,0.434854,7570.51,-40000,0,40710.1,1.40284e+06
step02_gravity_refstate-mantle.xmf,1121,-6.74728e-06,2.7005e-05,0,-2.90466e-06,-1.68066e+09,-1.67615e+09,-1.67976e+09,-388207,-0.138667,0.0545286,-0,0.149003,8928.67,-58000.2,0,58683.4,388207
step02_gravity_refstate-mantle.xmf,1122,-7.82852e-06,2.8533e-05,0,-1.4791e-06,-1.71367e+09,-1.70881e+09,-1.71263e+09,-197682,-0.135463,0.0281304,-0,0.138353,8500.49,-59016.6,0,59625.6,197682
step02_gravity_refstate-mantle.xmf,1123,-9.28997e-06,3.0628e-05,0,-1.48378e-08,-1.74565e+09,-1.74032e+09,-1.74441e+09,-1983.07,-0.129645,-2.85798e-19,-0,0.129645,7829.03,-60000,0,60508.6,1983.07
step02_gravity_refstate-mantle.xmf,1124,-3.31008e-06,9.86083e-06,0,-8.05686e-06,-1.18893e+09,-1.18717e+09,-1.18848e+09,-1.0768e+06,0.00671636,0.359332,0,0.359395,8442.29,-42789.6,0,43614.4,1.0768e+06
step02_gravity_refstate-mantle.xmf,1125,-6.07159e-06,2.61395e-05,0,-4.36225e-06,-1.64621e+09,-1.64191e+09,-1.6454e+09,-583015,-0.13955,0.0817482,-0,0.161731,9071.98,-56938.3,0,57656.5,583015
step02_gravity_refstate-mantle.xmf,1126,-3.08631e-06,2.27169e-05,0,-9.22093e-06,-1.51959e+09,-1.51614e+09,-1.51917e+09,-1.23238e+06,-0.136295,0.178129,-0,0.224291,9078.67,-53038,0,53809.4,1.23238e+06
step02_gravity_refstate-mantle.xmf,1127,-3.98735e-06,2.37752e-05,0,-8.21932e-06,-1.5495e+09,-1.54579e+09,-1.54897e+09,-1.09851e+06,-0.137906,0.156466,-0,0.208566,9088.37,-53958.8,0,54718.8,1.09851e+06
step02_gravity_refstate-mantle.xmf,1128,-5.46509e-06,2.54401e-05,0,-5.75718e-06,-1.61278e+09,-1.60865e+09,-1.61205e+09,-769447,-0.139488,0.108071,-0,0.176455,9102.27,-55907.8,0,56643.9,769447
step02_gravity_refstate-mantle.xmf,1129,-4.78028e-06,2.46723e-05,0,-7.04579e-06,-1.58069e+09,-1.57676e+09,-1.58006e+09,-941669,-0.138949,0.132909,-0,0.19228,9101.85,-54919.3,0,55668.5,941669
step02_gravity_refstate-mantle.xmf,1130,-3.67569e-07,1.85388e-05,0,-9.09873e-06,-1.47187e+09,-1.46935e+09,-1.47183e+09,-1.21604e+06,-0.132513,0.191446,-0,0.232833,9851.61,-51571.7,0,52504.2,1.21604e+06
step02_gravity_refstate-mantle.xmf,1131,-5.03955e-06,9.52327e-06,0,-8.1389e-06,-1.16448e+09,-1.16253e+09,-1.1638e+09,-1.08776e+06,0.0280846,0.369665,0,0.37073,8376.17,-42021.9,0,42848.5,1.08776e+06
step02_gravity_refstate-mantle.xmf,1132,-6.8498e-06,9.16419e-06,0,-8.41632e-06,-1.13996e+09,-1.13782e+09,-1.13904e+09,-1.12484e+06,0.0498541,0.380237,0,0.383491,8299.86,-41251.5,0,42078.2,1.12484e+06
step02_gravity_refstate-mantle.xmf,1133,5.1831e-08,1.81007e-05,0,-9.71744e-06,-1.45048e+09,-1.44807e+09,-1.45049e+09,-1.29874e+06,-0.128895,0.208371,-0,0.245015,9652.39,-50912.5,0,51819.4,1.29874e+06
step02_gravity_refstate-mantle.xmf,1134,7.67422e-07,1.6925e-05,0,-9.85365e-06,-1.42647e+09,-1.42431e+09,-1.42658e+09,-1.31694e+06,-0.123959,0.222099,-0,0.25435,9623.76,-50172.7,0,51087.4,1.31694e+06
step02_gravity_refstate-mantle.xmf,1135,1.46247e-06,1.55971e-05,0,-9.78344e-06,-1.39973e+09,-1.39784e+09,-1.39992e+09,-1.30756e+06,-0.117001,0.235902,-0,0.263323,9611.75,-49347.7,0,50275.1,1.30756e+06
step02_gravity_refstate-mantle.xmf,1136,1.96317e-06,1.43405e-05,0,-9.56303e-06,-1.37225e+09,-1.3706e+09,-1.37252e+09,-1.2781e+06,-0.108092,0.250149,-0,0.272503,9562.21,-48499.3,0,49432.9,1.2781e+06
step02_gravity_refstate-mantle.xmf,1137,2.19268e-06,1.32102e-05,0,-9.33181e-06,-1.34083e+09,-1.33936e+09,-1.34112e+09,-1.2472e+06,-0.0956697,0.269585,-0,0.286057,9376.46,-47527.2,0,48443.3,1.2472e+06
step02_gravity_refstate-mantle.xmf,1138,1.98926e-06,1.18885e-05,0,-8.41523e-06,-1.30932e+09,-1.308e+09,-1.30959e+09,-1.1247e+06,-0.0797384,0.279532,-0,0.290683,9446.22,-46549.2,0,47498,1.1247e+06
step02_gravity_refstate-mantle.xmf,1139,1.31321e-06,1.10081e-05,0,-7.68604e-06,-1.28018e+09,-1.27888e+09,-1.28035e+09,-1.02724e+06,-0.0625935,0.290532,-0,0.297199,9429.49,-45642.1,0,46606,1.02724e+06
step02_gravity_refstate-mantle.xmf,1140,2.2657e-07,1.03642e-05,0,-7.06894e-06,-1.25148e+09,-1.25013e+09,-1.25151e+09,-944763,-0.0435126,0.301163,-0,0.30429,9400.71,-44746.9,0,45723.7,944763
step02_gravity_refstate-mantle.xmf,1141,-2.74833e-06,9.6617e-06,0,-6.68303e-06,-1.19721e+09,-1.19556e+09,-1.19685e+09,-893187,-0.00229716,0.327191,-0,0.327199,9162.61,-43048.8,0,44013.1,893187
step02_gravity_refstate-mantle.xmf,1142,-1.15872e-06,9.9316e-06,0,-6.70499e-06,-1.22378e+09,-1.22229e+09,-1.22362e+09,-896122,-0.023278,0.312849,-0,0.313714,9323.47,-43880.6,0,44860.2,896122
step02_gravity_refstate-mantle.xmf,1143,-1.26323e-06,1.97501e-05,0,-8.51739e-06,-1.50277e+09,-1.49996e+09,-1.5026e+09,-1.13835e+06,-0.136576,0.172327,-0,0.219885,9890.13,-52523.3,0,53446.3,1.13835e+06
step02_gravity_refstate-mantle.xmf,1144,-8.52554e-06,8.88107e-06,0,-8.94757e-06,-1.11853e+09,-1.1162e+09,-1.11739e+09,-1.19584e+06,0.0693454,0.392264,0,0.398346,8167.4,-40577.6,0,41391.4,1.19584e+06
step02_gravity_refstate-mantle.xmf,1145,-4.64752e-06,2.39306e-05,0,-3.17449e-06,-1.66604e+09,-1.66222e+09,-1.66542e+09,-424271,-0.144382,0.0595237,-0,0.15617,9944.71,-57554.6,0,58407.4,424271
step02_gravity_refstate-mantle.xmf,1146,-5.2823e-06,2.48702e-05,0,-1.54014e-06,-1.70777e+09,-1.70374e+09,-1.70707e+09,-205839,-0.143815,0.0289001,-0,0.146691,9775.71,-58841.9,0,59648.4,205839
step02_gravity_refstate-mantle.xmf,1147,-6.85076e-06,2.71585e-05,0,-2.1965e-08,-1.74541e+09,-1.74087e+09,-1.7445e+09,-2935.62,-0.139214,-2.60569e-19,-0,0.139214,9014.66,-60000,0,60673.4,2935.62
step02_gravity_refstate-mantle.xmf,1148,-4.23805e-06,9.51541e-06,0,-6.9983e-06,-1.17515e+09,-1.17332e+09,-1.17459e+09,-935323,0.0164226,0.34271,0,0.343103,8939.41,-42357,0,43290.1,935323
step02_gravity_refstate-mantle.xmf,1149,-4.07933e-06,2.32148e-05,0,-4.5219e-06,-1.63005e+09,-1.62641e+09,-1.62951e+09,-604352,-0.14405,0.0853148,-0,0.167419,9998,-56445,0,57323.6,604352
step02_gravity_refstate-mantle.xmf,1150,-2.1082e-06,2.08405e-05,0,-7.75756e-06,-1.53334e+09,-1.53028e+09,-1.53306e+09,-1.0368e+06,-0.139467,0.152671,-0,0.206784,9915.12,-53464.7,0,54376.3,1.0368e+06
step02_gravity_refstate-mantle.xmf,1151,-2.82762e-06,2.17137e-05,0,-6.8157e-06,-1.56412e+09,-1.56084e+09,-1.56374e+09,-910918,-0.141586,0.131644,-0,0.193331,9962.46,-54412.7,0,55317.2,910918
step02_gravity_refstate-mantle.xmf,1152,-3.48632e-06,2.25008e-05,0,-5.72951e-06,-1.59645e+09,-1.59298e+09,-1.59598e+09,-765749,-0.143103,0.10911,-0,0.179954,9993.7,-55409.2,0,56303.2,765749
step02_gravity_refstate-mantle.xmf,1153,1.72062e-07,1.72197e-05,0,-7.73222e-06,-1.48474e+09,-1.48246e+09,-1.48476e+09,-1.03341e+06,-0.134581,0.167432,-0,0.214815,10625.7,-51969.3,0,53044.5,1.03341e+06
step02_gravity_refstate-mantle.xmf,1154,9.00623e-07,1.61673e-05,0,-8.38784e-06,-1.4475e+09,-1.44546e+09,-1.44762e+09,-1.12104e+06,-0.12796,0.191814,-0,0.230578,10393.1,-50821.1,0,51873,1.12104e+06
step02_gravity_refstate-mantle.xmf,1155,-9.9382e-06,8.88937e-06,0,-8.98518e-06,-1.10014e+09,-1.09762e+09,-1.09881e+09,-1.20087e+06,0.0829153,0.389179,0,0.397914,8352.15,-40000,0,40862.7,1.20087e+06
step02_gravity_refstate-mantle.xmf,1156,-5.91352e-06,9.27003e-06,0,-6.78632e-06,-1.15107e+09,-1.14904e+09,-1.15028e+09,-906992,0.0353444,0.343095,0,0.344911,9107.58,-41601.3,0,42586.6,906992
step02_gravity_refstate-mantle.xmf,1157,-8.09121e-06,9.08544e-06,0,-7.73296e-06,-1.12234e+09,-1.12005e+09,-1.12126e+09,-1.03351e+06,0.0609816,0.364415,0,0.369482,8786.49,-40698.9,0,41636.6,1.03351e+06
step02_gravity_refstate-mantle.xmf,1158,1.67246e-06,1.46747e-05,0,-8.34521e-06,-1.41364e+09,-1.4119e+09,-1.41386e+09,-1.11534e+06,-0.119742,0.207802,-0,0.239833,10400.6,-49776.6,0,50851.6,1.11534e+06
step02_gravity_refstate-mantle.xmf,1159,2.11675e-06,1.34717e-05,0,-8.12047e-06,-1.3843e+09,-1.38279e+09,-1.38459e+09,-1.0853e+06,-0.110701,0.221338,-0,0.247478,10373,-48870.3,0,49959.1,1.0853e+06
step02_gravity_refstate-mantle.xmf,1160,2.30712e-06,1.23707e-05,0,-7.74819e-06,-1.35432e+09,-1.35297e+09,-1.35463e+09,-1.03555e+06,-0.0994234,0.235056,-0,0.255218,10313.3,-47942.5,0,49039.3,1.03555e+06
step02_gravity_refstate-mantle.xmf,1161,2.15489e-06,1.13745e-05,0,-7.19179e-06,-1.32373e+09,-1.32249e+09,-1.32401e+09,-961183,-0.0855344,0.247816,-0,0.262162,10264.1,-46993.9,0,48101.8,961183
step02_gravity_refstate-mantle.xmf,1162,1.59968e-06,1.05668e-05,0,-6.54731e-06,-1.29365e+09,-1.29245e+09,-1.29386e+09,-875048,-0.0694753,0.258945,-0,0.268103,10236.8,-46059,0,47182.9,875048
step02_gravity_refstate-mantle.xmf,1163,6.58811e-07,9.97988e-06,0,-5.95323e-06,-1.26418e+09,-1.26294e+09,-1.26427e+09,-795649,-0.0516183,0.269355,-0,0.274257,10206.7,-45141.1,0,46280.6,795649
step02_gravity_refstate-mantle.xmf,1164,-4.14236e-06,9.32787e-06,0,-5.84237e-06,-1.1755e+09,-1.1737e+09,-1.17495e+09,-780832,0.0132362,0.315886,0,0.316163,9633.56,-42367.9,0,43449.3,780832
step02_gravity_refstate-mantle.xmf,1165,-6.43507e-07,9.59052e-06,0,-5.50253e-06,-1.23465e+09,-1.23328e+09,-1.23456e+09,-735413,-0.0318868,0.279801,-0,0.281612,10163.8,-44219.1,0,45372.1,735413
step02_gravity_refstate-mantle.xmf,1166,-2.3856e-06,9.37006e-06,0,-5.28283e-06,-1.2028e+09,-1.20123e+09,-1.20248e+09,-706050,-0.00894235,0.291802,-0,0.291939,10088,-43222.9,0,44384.6,706050
step02_gravity_refstate-mantle.xmf,1167,-5.79066e-07,1.83083e-05,0,-7.18449e-06,-1.51635e+09,-1.51383e+09,-1.51627e+09,-960207,-0.138841,0.149164,-0,0.203781,10672.8,-52943.6,0,54008.6,960207
step02_gravity_refstate-mantle.xmf,1168,-2.71173e-06,2.10276e-05,0,-3.39713e-06,-1.64738e+09,-1.64421e+09,-1.64702e+09,-454026,-0.147669,0.0652138,-0,0.161428,10935.8,-56983.7,0,58023.6,454026
step02_gravity_refstate-mantle.xmf,1169,-3.12249e-06,2.15829e-05,0,-2.14268e-06,-1.68462e+09,-1.68132e+09,-1.6842e+09,-286369,-0.148384,0.0408058,-0,0.153893,10911.1,-58132.8,0,59147.9,286369
step02_gravity_refstate-mantle.xmf,1170,-4.52211e-06,2.37548e-05,0,-8.31928e-09,-1.74519e+09,-1.74141e+09,-1.74459e+09,-1111.87,-0.146143,-1.86455e-19,-0,0.146143,10231.2,-60000,0,60866.1,1111.87
step02_gravity_refstate-mantle.xmf,1171,-2.25876e-06,2.04417e-05,0,-4.5103e-06,-1.61281e+09,-1.60977e+09,-1.6125e+09,-602801,-0.146392,0.0876291,-0,0.170615,10911.1,-55917.3,0,56971.9,602801
step02_gravity_refstate-mantle.xmf,1172,-1.17308e-06,1.90785e-05,0,-6.4247e-06,-1.54676e+09,-1.54405e+09,-1.5466e+09,-858662,-0.14199,0.129855,-0,0.192415,10775.5,-53880.9,0,54947.8,858662
step02_gravity_refstate-mantle.xmf,1173,-1.64386e-06,1.96383e-05,0,-5.51481e-06,-1.57797e+09,-1.57513e+09,-1.57775e+09,-737054,-0.144516,0.109367,-0,0.181234,10900.2,-54843.4,0,55916.1,737054
step02_gravity_refstate-mantle.xmf,1174,6.32229e-07,1.61297e-05,0,-6.52725e-06,-1.49911e+09,-1.49704e+09,-1.4992e+09,-872367,-0.136505,0.145673,-0,0.199636,11370.6,-52413.6,0,53632.7,872367
step02_gravity_refstate-mantle.xmf,1175,1.29378e-06,1.50271e-05,0,-6.93852e-06,-1.46326e+09,-1.46142e+09,-1.46343e+09,-927333,-0.130263,0.164896,-0,0.210141,11270.2,-51307.7,0,52531,927333
step02_gravity_refstate-mantle.xmf,1176,-9.57019e-06,9.13484e-06,0,-7.6497e-06,-1.10004e+09,-1.09754e+09,-1.09876e+09,-1.02238e+06,0.0749026,0.355232,0,0.363042,9172.9,-40000,0,41038.3,1.02238e+06
step02_gravity_refstate-mantle.xmf,1177,-7.61534e-06,9.17093e-06,0,-6.41356e-06,-1.125e+09,-1.12276e+09,-1.12398e+09,-857173,0.0524104,0.33156,0,0.335677,9606.39,-40784.4,0,41900.4,857173
step02_gravity_refstate-mantle.xmf,1178,-3.3965e-06,2.20178e-05,0,-9.72812e-07,-1.71824e+09,-1.71484e+09,-1.71779e+09,-130016,-0.148558,0.0183278,-0,0.149685,10857.3,-59170.6,0,60158.4,130016
step02_gravity_refstate-mantle.xmf,1179,-5.70128e-06,9.1724e-06,0,-5.43099e-06,-1.1509e+09,-1.14891e+09,-1.15013e+09,-725852,0.0300451,0.308584,0,0.310043,10038.3,-41597.1,0,42791.1,725852
step02_gravity_refstate-mantle.xmf,1180,1.88208e-06,1.38366e-05,0,-7.01237e-06,-1.42972e+09,-1.42812e+09,-1.42997e+09,-937203,-0.122605,0.180833,-0,0.218478,11226.4,-50272.6,0,51510.8,937203
step02_gravity_refstate-mantle.xmf,1181,2.28319e-06,1.27013e-05,0,-6.84819e-06,-1.39773e+09,-1.39634e+09,-1.39804e+09,-915260,-0.11338,0.194818,-0,0.225409,11191.3,-49284.3,0,50539,915260
step02_gravity_refstate-mantle.xmf,1182,2.4239e-06,1.17539e-05,0,-6.55602e-06,-1.36771e+09,-1.36646e+09,-1.36803e+09,-876212,-0.102874,0.207765,-0,0.231839,11129.1,-48355.3,0,49619.5,876212
step02_gravity_refstate-mantle.xmf,1183,2.30216e-06,1.08576e-05,0,-6.06549e-06,-1.33746e+09,-1.33631e+09,-1.33776e+09,-810653,-0.0901667,0.218881,-0,0.236725,11110.3,-47417.7,0,48701.9,810653
step02_gravity_refstate-mantle.xmf,1184,1.85518e-06,1.01474e-05,0,-5.52636e-06,-1.30804e+09,-1.30693e+09,-1.30829e+09,-738599,-0.0758654,0.229429,-0,0.241647,11075.9,-46504.3,0,47805.1,738599
step02_gravity_refstate-mantle.xmf,1185,1.05297e-06,9.61074e-06,0,-4.99043e-06,-1.27798e+09,-1.27683e+09,-1.27812e+09,-666971,-0.0593032,0.239754,-0,0.24698,11038,-45568.9,0,46886.7,666971
step02_gravity_refstate-mantle.xmf,1186,-1.00209e-07,9.26114e-06,0,-4.5506e-06,-1.24767e+09,-1.24642e+09,-1.24765e+09,-608187,-0.0408204,0.250099,-0,0.253409,10989.4,-44624,0,45957.2,608187
step02_gravity_refstate-mantle.xmf,1187,-4.03278e-06,9.10955e-06,0,-4.72116e-06,-1.17525e+09,-1.17349e+09,-1.17471e+09,-630983,0.0100188,0.287171,0,0.287346,10465.5,-42360.3,0,43633.9,630983
step02_gravity_refstate-mantle.xmf,1188,-1.48107e-06,9.08157e-06,0,-4.29265e-06,-1.21877e+09,-1.21735e+09,-1.21857e+09,-573712,-0.0218122,0.260006,-0,0.26092,10935.1,-43721.6,0,45068.3,573712
step02_gravity_refstate-mantle.xmf,1189,3.53873e-10,1.71324e-05,0,-6.09254e-06,-1.52943e+09,-1.52714e+09,-1.52943e+09,-814268,-0.140578,0.129845,-0,0.191369,11385.1,-53348.6,0,54549.9,814268
step02_gravity_refstate-mantle.xmf,1190,-1.40864e-06,1.89407e-05,0,-2.3963e-06,-1.66542e+09,-1.6627e+09,-1.66523e+09,-320265,-0.150194,0.0474858,-0,0.157522,11903.8,-57544.3,0,58762.6,320265
step02_gravity_refstate-mantle.xmf,1191,-9.57463e-07,1.82888e-05,0,-3.43205e-06,-1.62723e+09,-1.62466e+09,-1.6271e+09,-458693,-0.148709,0.0693151,-0,0.16407,11928.7,-56366,0,57614.4,458693
step02_gravity_refstate-mantle.xmf,1192,-1.50264e-06,1.91394e-05,0,-1.11746e-06,-1.70727e+09,-1.70451e+09,-1.70707e+09,-149349,-0.151261,0.0223844,-0,0.152908,12004.1,-58837.1,0,60049.2,149349
step02_gravity_refstate-mantle.xmf,1193,-2.40006e-06,2.05572e-05,0,-1.97753e-08,-1.745e+09,-1.74193e+09,-1.74468e+09,-2642.97,-0.150469,-2.42981e-19,-0,0.150469,11483.3,-60000,0,61089,2642.97
step02_gravity_refstate-mantle.xmf,1194,-2.80827e-06,8.99976e-06,0,-4.18257e-06,-1.19442e+09,-1.19284e+09,-1.19405e+09,-559001,-0.00515533,0.267049,-0,0.267099,10930.1,-42960.5,0,44329.1,559001
step02_gravity_refstate-mantle.xmf,1195,-4.24764e-07,1.75126e-05,0,-4.32309e-06,-1.59037e+09,-1.58798e+09,-1.59032e+09,-577781,-0.146457,0.0896651,-0,0.171725,11937.1,-55229.1,0,56504.4,577781
step02_gravity_refstate-mantle.xmf,1196,1.40462e-07,1.67002e-05,0,-5.15493e-06,-1.55207e+09,-1.54986e+09,-1.55209e+09,-688956,-0.143063,0.110869,-0,0.180995,11864.6,-54047.6,0,55334.6,688956
step02_gravity_refstate-mantle.xmf,1197,1.0593e-06,1.51574e-05,0,-5.41719e-06,-1.51609e+09,-1.5142e+09,-1.51623e+09,-724008,-0.138432,0.124864,-0,0.186425,12119.8,-52938.3,0,54307.9,724008
step02_gravity_refstate-mantle.xmf,1198,1.66358e-06,1.40477e-05,0,-5.68996e-06,-1.48065e+09,-1.479e+09,-1.48087e+09,-760463,-0.132449,0.140806,-0,0.193311,12124.9,-51844.9,0,53243.8,760463
step02_gravity_refstate-mantle.xmf,1199,2.15562e-06,1.29694e-05,0,-5.78308e-06,-1.44562e+09,-1.44418e+09,-1.44591e+09,-772909,-0.124889,0.15612,-0,0.199927,12089.9,-50763.4,0,52183.2,772909
step02_gravity_refstate-mantle.xmf,1200,-9.08164e-06,9.20875e-06,0,-6.48525e-06,-1.09992e+09,-1.09748e+09,-1.09871e+09,-866753,0.0668552,0.323375,0,0.330214,10034.7,-40000,0,41239.5,866753
step02_gravity_refstate-mantle.xmf,1201,-7.19815e-06,9.12258e-06,0,-5.29009e-06,-1.12543e+09,-1.12325e+09,-1.12447e+09,-707021,0.0454424,0.300365,0,0.303783,10497.6,-40800.2,0,42129,707021
step02_gravity_refstate-mantle.xmf,1202,-5.42587e-06,9.00776e-06,0,-4.37865e-06,-1.15074e+09,-1.14881e+09,-1.15001e+09,-585207,0.0250582,0.278809,0,0.279933,10948.4,-41593.6,0,43010.5,585207
step02_gravity_refstate-mantle.xmf,1203,2.47806e-06,1.19612e-05,0,-5.69069e-06,-1.41175e+09,-1.41048e+09,-1.41208e+09,-760560,-0.115766,0.170369,-0,0.205979,12033.6,-49716.7,0,51152.3,760560
step02_gravity_refstate-mantle.xmf,1204,2.58786e-06,1.10633e-05,0,-5.43151e-06,-1.37984e+09,-1.37871e+09,-1.38019e+09,-725921,-0.105308,0.183082,-0,0.211208,11974.5,-48729.4,0,50179.1,725921
step02_gravity_refstate-mantle.xmf,1205,2.43708e-06,1.05661e-05,0,-5.30304e-06,-1.35223e+09,-1.35114e+09,-1.35256e+09,-708751,-0.0950198,0.19693,-0,0.218655,11779.2,-47874.3,0,49302.1,708751
step02_gravity_refstate-mantle.xmf,1206,2.07948e-06,9.76161e-06,0,-4.6393e-06,-1.3225e+09,-1.32147e+09,-1.32277e+09,-620042,-0.0813849,0.202919,-0,0.218632,11917.8,-46951.3,0,48440.3,620042
step02_gravity_refstate-mantle.xmf,1207,1.44323e-06,9.25433e-06,0,-4.1458e-06,-1.29367e+09,-1.29263e+09,-1.29387e+09,-554086,-0.0669134,0.211746,-0,0.222067,11905.5,-46055.4,0,47569.3,554086
step02_gravity_refstate-mantle.xmf,1208,4.18173e-07,8.92071e-06,0,-3.72058e-06,-1.262e+09,-1.26086e+09,-1.26205e+09,-497255,-0.0493707,0.222106,-0,0.227527,11851.4,-45069.3,0,46601.4,497255
step02_gravity_refstate-mantle.xmf,1209,-8.74462e-07,8.76139e-06,0,-3.44541e-06,-1.2311e+09,-1.22981e+09,-1.23098e+09,-460480,-0.0307783,0.232278,-0,0.234309,11789.1,-44105.8,0,45654.1,460480
step02_gravity_refstate-mantle.xmf,1210,-3.82503e-06,8.86214e-06,0,-3.75842e-06,-1.17562e+09,-1.17392e+09,-1.17511e+09,-502312,0.00626334,0.25979,0,0.259865,11350.9,-42372.5,0,43866.5,502312
step02_gravity_refstate-mantle.xmf,1211,-2.31765e-06,8.75226e-06,0,-3.43122e-06,-1.202e+09,-1.20052e+09,-1.20169e+09,-458583,-0.0120752,0.244035,-0,0.244334,11650,-43197.1,0,44740.5,458583
step02_gravity_refstate-mantle.xmf,1212,-2.92113e-07,1.72139e-05,0,-1.65633e-06,-1.68235e+09,-1.68001e+09,-1.68231e+09,-221368,-0.151448,0.0336219,-0,0.155135,12780.3,-58070.5,0,59460.2,221368
step02_gravity_refstate-mantle.xmf,1213,7.7633e-08,1.65549e-05,0,-2.4242e-06,-1.6476e+09,-1.6454e+09,-1.64761e+09,-323995,-0.150136,0.0512777,-0,0.158651,12871.9,-56997.8,0,58433.1,323995
step02_gravity_refstate-mantle.xmf,1214,5.46575e-07,1.57998e-05,0,-3.20867e-06,-1.60905e+09,-1.60701e+09,-1.60912e+09,-428839,-0.14779,0.0701518,-0,0.163595,12930.5,-55808,0,57286.4,428839
step02_gravity_refstate-mantle.xmf,1215,-4.82889e-07,1.75637e-05,0,-1.02709e-08,-1.74483e+09,-1.74242e+09,-1.74476e+09,-1372.71,-0.152329,-1.84302e-19,-0,0.152329,12775.3,-60000,0,61345,1372.71
step02_gravity_refstate-mantle.xmf,1216,1.03012e-06,1.50042e-05,0,-3.86343e-06,-1.57122e+09,-1.56935e+09,-1.57136e+09,-516347,-0.144449,0.0881038,-0,0.169197,12940.8,-54640.9,0,56152.4,516347
step02_gravity_refstate-mantle.xmf,1217,1.57006e-06,1.40578e-05,0,-4.32175e-06,-1.53383e+09,-1.53216e+09,-1.53404e+09,-577602,-0.139876,0.104583,-0,0.174651,12970.4,-53486.9,0,55037.1,577602
step02_gravity_refstate-mantle.xmf,1218,2.05607e-06,1.3102e-05,0,-4.60439e-06,-1.49747e+09,-1.49599e+09,-1.49774e+09,-615376,-0.13404,0.119883,-0,0.179829,12971,-52364.6,0,53947.2,615376
step02_gravity_refstate-mantle.xmf,1219,2.46724e-06,1.21121e-05,0,-4.66785e-06,-1.46221e+09,-1.46092e+09,-1.46254e+09,-623858,-0.12677,0.133443,-0,0.184059,12984.9,-51275.8,0,52894.3,623858
step02_gravity_refstate-mantle.xmf,1220,2.71935e-06,1.11992e-05,0,-4.59131e-06,-1.42711e+09,-1.42598e+09,-1.42748e+09,-613629,-0.117888,0.146734,-0,0.188224,12950.8,-50190.9,0,51834.8,613629
step02_gravity_refstate-mantle.xmf,1221,-6.73556e-06,8.97887e-06,0,-4.3398e-06,-1.12558e+09,-1.12348e+09,-1.12468e+09,-580014,0.0387989,0.271512,0,0.27427,11428.7,-40807.5,0,42377.7,580014
step02_gravity_refstate-mantle.xmf,1222,-8.51328e-06,9.15312e-06,0,-5.46886e-06,-1.0998e+09,-1.09744e+09,-1.09867e+09,-730914,0.0588829,0.293549,0,0.299396,10939.7,-40000,0,41469,730914
step02_gravity_refstate-mantle.xmf,1223,2.83569e-07,1.62621e-05,0,-8.07608e-07,-1.71051e+09,-1.70837e+09,-1.71055e+09,-107937,-0.152117,0.0173273,-0,0.153101,13317.9,-58941.6,0,60427.5,107937
step02_gravity_refstate-mantle.xmf,1224,-5.01962e-06,8.7844e-06,0,-3.48131e-06,-1.15203e+09,-1.15019e+09,-1.15136e+09,-465277,0.0192595,0.251187,0,0.251924,11888.3,-41635.7,0,43299.7,465277
step02_gravity_refstate-mantle.xmf,1225,2.77052e-06,1.03645e-05,0,-4.3721e-06,-1.39181e+09,-1.39079e+09,-1.39218e+09,-584332,-0.107071,0.159745,-0,0.192308,12888.4,-49098.6,0,50762,584332
step02_gravity_refstate-mantle.xmf,1226,2.52305e-06,9.64968e-06,0,-4.08375e-06,-1.35248e+09,-1.35153e+09,-1.35282e+09,-545793,-0.0927891,0.175574,-0,0.198585,12714,-47880.3,0,49539.5,545793
step02_gravity_refstate-mantle.xmf,1227,1.92218e-06,8.9115e-06,0,-3.38688e-06,-1.31543e+09,-1.31449e+09,-1.31568e+09,-452657,-0.0761237,0.183003,-0,0.198204,12864.3,-46729.7,0,48468.1,452657
step02_gravity_refstate-mantle.xmf,1228,9.44938e-07,8.56865e-06,0,-2.98394e-06,-1.27871e+09,-1.27769e+09,-1.27883e+09,-398804,-0.057964,0.195198,-0,0.203623,12765.6,-45588.1,0,47341.7,398804
step02_gravity_refstate-mantle.xmf,1229,-2.66152e-07,8.42096e-06,0,-2.70618e-06,-1.24516e+09,-1.244e+09,-1.24513e+09,-361680,-0.0396216,0.205944,-0,0.209721,12685.4,-44543.4,0,46314.5,361680
step02_gravity_refstate-mantle.xmf,1230,-1.71459e-06,8.421e-06,0,-2.61779e-06,-1.21227e+09,-1.21091e+09,-1.21204e+09,-349868,-0.0203526,0.216913,-0,0.217866,12588.5,-43517.6,0,45301.8,349868
step02_gravity_refstate-mantle.xmf,1231,-3.32328e-06,8.56026e-06,0,-2.87126e-06,-1.18083e+09,-1.17924e+09,-1.18039e+09,-383743,-0.000546628,0.232174,-0,0.232174,12311.7,-42536.1,0,44282,383743
step02_gravity_refstate-mantle.xmf,1232,1.01584e-06,1.50778e-05,0,-1.58054e-06,-1.67149e+09,-1.66961e+09,-1.67163e+09,-211240,-0.150731,0.0346806,-0,0.154669,13777.2,-57738.3,0,59359.3,211240
step02_gravity_refstate-mantle.xmf,1233,1.427e-06,1.4248e-05,0,-2.25525e-06,-1.63007e+09,-1.62836e+09,-1.63026e+09,-301414,-0.148335,0.0527334,-0,0.15743,13910.8,-56459.4,0,58147.9,301414
step02_gravity_refstate-mantle.xmf,1234,1.81759e-06,1.3532e-05,0,-2.8294e-06,-1.59054e+09,-1.58898e+09,-1.59079e+09,-378149,-0.14498,0.069415,-0,0.160741,13956.1,-55239.2,0,56974.9,378149
step02_gravity_refstate-mantle.xmf,1235,1.17823e-06,1.48431e-05,0,-1.70465e-08,-1.74469e+09,-1.74287e+09,-1.74485e+09,-2278.27,-0.151856,-1.49562e-19,-0,0.151856,14111.6,-60000,0,61637.2,2278.27
step02_gravity_refstate-mantle.xmf,1236,2.19378e-06,1.27952e-05,0,-3.26386e-06,-1.55226e+09,-1.55084e+09,-1.55255e+09,-436215,-0.14055,0.0850041,-0,0.164256,13960.6,-54057.3,0,55830.9,436215
step02_gravity_refstate-mantle.xmf,1237,2.53583e-06,1.2036e-05,0,-3.55072e-06,-1.51516e+09,-1.51389e+09,-1.5155e+09,-474554,-0.134969,0.0995635,-0,0.167718,13937.3,-52911.6,0,54716.4,474554
step02_gravity_refstate-mantle.xmf,1238,2.82007e-06,1.12507e-05,0,-3.65669e-06,-1.47986e+09,-1.47873e+09,-1.48024e+09,-488717,-0.128213,0.112481,-0,0.170559,13924.6,-51821,0,53659.2,488717
step02_gravity_refstate-mantle.xmf,1239,2.99859e-06,1.04598e-05,0,-3.60943e-06,-1.44411e+09,-1.44312e+09,-1.44451e+09,-482400,-0.119801,0.124857,-0,0.173036,13902,-50716,0,52586.8,482400
step02_gravity_refstate-mantle.xmf,1240,3.00723e-06,9.72878e-06,0,-3.42974e-06,-1.40812e+09,-1.40722e+09,-1.40852e+09,-458385,-0.10961,0.136883,-0,0.17536,13856.2,-49602.4,0,51501.4,458385
step02_gravity_refstate-mantle.xmf,1241,-6.24488e-06,8.7669e-06,0,-3.54279e-06,-1.12552e+09,-1.12351e+09,-1.12468e+09,-473494,0.0325342,0.245134,0,0.247283,12391,-40808.4,0,42648.1,473494
step02_gravity_refstate-mantle.xmf,1242,-7.89381e-06,8.9989e-06,0,-4.57964e-06,-1.09968e+09,-1.09743e+09,-1.09863e+09,-612069,0.0510763,0.26569,0,0.270555,11890.1,-40000,0,41729.8,612069
step02_gravity_refstate-mantle.xmf,1243,2.02232e-06,1.32755e-05,0,-7.35923e-07,-1.70173e+09,-1.70023e+09,-1.702e+09,-98356.1,-0.150139,0.0178109,-0,0.151192,14853.7,-58674.5,0,60525.5,98356.1
step02_gravity_refstate-mantle.xmf,1244,-4.51035e-06,8.4994e-06,0,-2.67353e-06,-1.15464e+09,-1.1529e+09,-1.15404e+09,-357317,0.0127932,0.224443,0,0.224807,12906.3,-41719,0,43669.8,357317
step02_gravity_refstate-mantle.xmf,1245,2.78898e-06,9.08333e-06,0,-3.13077e-06,-1.37132e+09,-1.37048e+09,-1.37169e+09,-418427,-0.0972452,0.148707,-0,0.177681,13795.4,-48462.5,0,50387.8,418427
step02_gravity_refstate-mantle.xmf,1246,2.26689e-06,8.53985e-06,0,-2.71664e-06,-1.33323e+09,-1.3324e+09,-1.33354e+09,-363079,-0.0822049,0.159807,-0,0.179711,13759.6,-47281.1,0,49242.6,363079
step02_gravity_refstate-mantle.xmf,1247,1.41778e-06,8.20154e-06,0,-2.331e-06,-1.29578e+09,-1.29487e+09,-1.29597e+09,-311538,-0.0654023,0.170777,-0,0.182872,13697.5,-46117.6,0,48108.7,311538
step02_gravity_refstate-mantle.xmf,1248,3.18615e-07,8.06081e-06,0,-2.06292e-06,-1.26053e+09,-1.25949e+09,-1.26057e+09,-275709,-0.0479179,0.18146,-0,0.18768,13611.3,-45020.9,0,47033.5,275709
step02_gravity_refstate-mantle.xmf,1249,-1.00007e-06,8.07131e-06,0,-1.95403e-06,-1.22631e+09,-1.2251e+09,-1.22618e+09,-261156,-0.0296293,0.192186,-0,0.194456,13510.8,-43955.3,0,45984.9,261156
step02_gravity_refstate-mantle.xmf,1250,-2.701e-06,8.20319e-06,0,-2.01259e-06,-1.18844e+09,-1.18698e+09,-1.18808e+09,-268982,-0.00857067,0.202317,-0,0.202499,13486.3,-42774.4,0,44850.1,268982
step02_gravity_refstate-mantle.xmf,1251,2.36302e-06,1.27041e-05,0,-1.4884e-06,-1.65157e+09,-1.65019e+09,-1.65189e+09,-198924,-0.147698,0.037504,-0,0.152385,14991.5,-57125.9,0,59060.3,198924
step02_gravity_refstate-mantle.xmf,1252,2.62957e-06,1.20248e-05,0,-1.949e-06,-1.60955e+09,-1.6083e+09,-1.6099e+09,-260484,-0.144377,0.0532515,-0,0.153885,15050.6,-55828,0,57821.1,260484
step02_gravity_refstate-mantle.xmf,1253,2.84172e-06,1.15172e-05,0,-2.36206e-06,-1.57006e+09,-1.5689e+09,-1.57044e+09,-315690,-0.140259,0.0681239,-0,0.155927,14996.2,-54608.2,0,56629.9,315690
step02_gravity_refstate-mantle.xmf,1254,2.59571e-06,1.23954e-05,0,-3.31748e-09,-1.74459e+09,-1.74328e+09,-1.74494e+09,-443.381,-0.149251,-9.94581e-20,-0,0.149251,15496.7,-60000,0,61968.9,443.381
step02_gravity_refstate-mantle.xmf,1255,3.02544e-06,1.09989e-05,0,-2.63768e-06,-1.53373e+09,-1.53266e+09,-1.53413e+09,-352526,-0.1353,0.0814728,-0,0.157937,14928.6,-53485.8,0,55530.1,352526
step02_gravity_refstate-mantle.xmf,1256,3.19535e-06,1.0427e-05,0,-2.77679e-06,-1.49956e+09,-1.49859e+09,-1.49999e+09,-371118,-0.12937,0.0932987,-0,0.159503,14886.3,-52430,0,54502.3,371118
step02_gravity_refstate-mantle.xmf,1257,3.31579e-06,9.7442e-06,0,-2.74369e-06,-1.46385e+09,-1.46299e+09,-1.46429e+09,-366695,-0.121618,0.104413,-0,0.16029,14890.5,-51325.9,0,53442.2,366695
step02_gravity_refstate-mantle.xmf,1258,3.2837e-06,9.10001e-06,0,-2.6057e-06,-1.42604e+09,-1.42526e+09,-1.42648e+09,-348252,-0.111853,0.116013,-0,0.161152,14851.2,-50156,0,52308.6,348252
step02_gravity_refstate-mantle.xmf,1259,3.05525e-06,8.54318e-06,0,-2.36395e-06,-1.38835e+09,-1.38761e+09,-1.38875e+09,-315942,-0.100312,0.127146,-0,0.161953,14797.5,-48988.8,0,51174.9,315942
step02_gravity_refstate-mantle.xmf,1260,-5.63518e-06,8.49031e-06,0,-2.80852e-06,-1.12726e+09,-1.12537e+09,-1.12651e+09,-375359,0.0254636,0.219973,0,0.221442,13408.9,-40865.6,0,43009.3,375359
step02_gravity_refstate-mantle.xmf,1261,-7.24505e-06,8.77085e-06,0,-3.80199e-06,-1.09956e+09,-1.09742e+09,-1.09859e+09,-508136,0.0435127,0.239739,0,0.243656,12888,-40000,0,42025,508136
step02_gravity_refstate-mantle.xmf,1262,3.22581e-06,1.10487e-05,0,-8.23083e-07,-1.67321e+09,-1.67217e+09,-1.67364e+09,-110005,-0.145666,0.0248806,-0,0.147775,16146.1,-57795.8,0,60008.8,110005
step02_gravity_refstate-mantle.xmf,1263,3.1989e-06,1.12203e-05,0,-3.82532e-07,-1.71325e+09,-1.71217e+09,-1.71367e+09,-51125.4,-0.14689,0.0109307,-0,0.147297,16201.6,-59032.8,0,61215.7,51125.4
step02_gravity_refstate-mantle.xmf,1264,-4.09137e-06,8.19596e-06,0,-2.03275e-06,-1.15539e+09,-1.15374e+09,-1.15484e+09,-271677,0.00790517,0.201006,0,0.201161,13939.7,-41744.1,0,44010,271677
step02_gravity_refstate-mantle.xmf,1265,2.58321e-06,8.09238e-06,0,-2.04213e-06,-1.35034e+09,-1.34961e+09,-1.35069e+09,-272930,-0.0867396,0.137773,-0,0.162804,14747.5,-47810.6,0,50033.4,272930
step02_gravity_refstate-mantle.xmf,1266,1.82867e-06,7.8019e-06,0,-1.72345e-06,-1.31223e+09,-1.31143e+09,-1.31247e+09,-230339,-0.0712932,0.148494,-0,0.164722,14670.7,-46627.5,0,48881,230339
step02_gravity_refstate-mantle.xmf,1267,8.3141e-07,7.67064e-06,0,-1.46929e-06,-1.27566e+09,-1.27474e+09,-1.27577e+09,-196371,-0.054825,0.158627,-0,0.167834,14595.9,-45490.7,0,47775,196371
step02_gravity_refstate-mantle.xmf,1268,-3.20163e-07,7.7011e-06,0,-1.38514e-06,-1.24179e+09,-1.24072e+09,-1.24175e+09,-185123,-0.0383543,0.169731,-0,0.17401,14434.5,-44437.1,0,46722.7,185123
step02_gravity_refstate-mantle.xmf,1269,-1.60312e-06,7.86014e-06,0,-1.45623e-06,-1.20982e+09,-1.20856e+09,-1.20961e+09,-194626,-0.0218011,0.180701,-0,0.182011,14267.9,-43441.3,0,45724.4,194626
step02_gravity_refstate-mantle.xmf,1270,3.54676e-06,1.03515e-05,0,-1.19086e-06,-1.6295e+09,-1.62859e+09,-1.62998e+09,-159159,-0.142021,0.0384121,-0,0.147124,16382.6,-56446,0,58775.4,159159
step02_gravity_refstate-mantle.xmf,1271,3.49163e-06,1.02412e-05,0,-1.63128e-06,-1.58552e+09,-1.58461e+09,-1.58598e+09,-218021,-0.138683,0.0542641,-0,0.148922,16087.9,-55086.7,0,57387.9,218021
step02_gravity_refstate-mantle.xmf,1272,3.6143e-06,9.76837e-06,0,-1.82553e-06,-1.54764e+09,-1.54682e+09,-1.54812e+09,-243983,-0.133722,0.0662595,-0,0.149238,16058.3,-53916.3,0,56256.9,243983
step02_gravity_refstate-mantle.xmf,1273,3.73941e-06,1.02872e-05,0,-9.96086e-09,-1.74452e+09,-1.74364e+09,-1.74502e+09,-1331.27,-0.144687,-1.30111e-19,-0,0.144687,16934.8,-60000,0,62344.1,1331.27
step02_gravity_refstate-mantle.xmf,1274,-2.80055e-06,7.89984e-06,0,-1.47056e-06,-1.18013e+09,-1.1787e+09,-1.17976e+09,-196540,-0.00704712,0.182647,-0,0.182783,14540.8,-42516.3,0,44934,196540
step02_gravity_refstate-mantle.xmf,1275,3.53226e-06,9.74839e-06,0,-2.12501e-06,-1.51771e+09,-1.51688e+09,-1.51819e+09,-284007,-0.129937,0.0783429,-0,0.151728,15732.6,-52991.2,0,55277.4,284007
step02_gravity_refstate-mantle.xmf,1276,3.65004e-06,9.08293e-06,0,-2.03542e-06,-1.485e+09,-1.48427e+09,-1.48549e+09,-272033,-0.123073,0.0866374,-0,0.150509,15850.1,-51979.8,0,54342.7,272033
step02_gravity_refstate-mantle.xmf,1277,3.60163e-06,8.47597e-06,0,-1.8932e-06,-1.4463e+09,-1.44565e+09,-1.44678e+09,-253027,-0.113844,0.0968809,-0,0.149487,15875.5,-50782.5,0,53206.1,253027
step02_gravity_refstate-mantle.xmf,1278,3.35658e-06,7.99123e-06,0,-1.69579e-06,-1.40655e+09,-1.40593e+09,-1.407e+09,-226643,-0.102848,0.107686,-0,0.14891,15824.8,-49551.9,0,52017.4,226643
step02_gravity_refstate-mantle.xmf,1279,2.91064e-06,7.61268e-06,0,-1.43427e-06,-1.36784e+09,-1.36721e+09,-1.36823e+09,-191691,-0.0903494,0.117782,-0,0.148444,15772.9,-48351.9,0,50859.6,191691
step02_gravity_refstate-mantle.xmf,1280,-5.04818e-06,8.17712e-06,0,-2.1992e-06,-1.12846e+09,-1.12669e+09,-1.12779e+09,-293923,0.0191928,0.197205,0,0.198136,14459,-40905.9,0,43386.1,293923
step02_gravity_refstate-mantle.xmf,1281,-6.57831e-06,8.48407e-06,0,-3.12259e-06,-1.09944e+09,-1.09743e+09,-1.09856e+09,-417334,0.03626,0.21564,0,0.218667,13936,-40000,0,42358.1,417334
step02_gravity_refstate-mantle.xmf,1282,4.16362e-06,9.3671e-06,0,-3.50592e-07,-1.70032e+09,-1.69962e+09,-1.70087e+09,-46856.7,-0.141691,0.0129351,-0,0.14228,17521.5,-58635.1,0,61197,46856.7
step02_gravity_refstate-mantle.xmf,1283,4.04566e-06,9.44999e-06,0,-6.6797e-07,-1.66007e+09,-1.65935e+09,-1.66061e+09,-89274.1,-0.140764,0.0252419,-0,0.143009,17293.9,-57391.4,0,59940.4,89274.1
step02_gravity_refstate-mantle.xmf,1284,-3.79452e-06,7.93364e-06,0,-1.61113e-06,-1.15419e+09,-1.15262e+09,-1.15368e+09,-215328,0.00490588,0.183162,0,0.183228,14848.2,-41708.3,0,44272.5,215328
step02_gravity_refstate-mantle.xmf,1285,-1.34268e-06,7.47701e-06,0,-9.23145e-07,-1.21142e+09,-1.21024e+09,-1.21124e+09,-123378,-0.0241897,0.16057,-0,0.162382,15338.7,-43491.6,0,46117.1,123378
step02_gravity_refstate-mantle.xmf,1286,2.22541e-06,7.36427e-06,0,-1.16116e-06,-1.32904e+09,-1.32835e+09,-1.32934e+09,-155189,-0.0761196,0.127773,-0,0.148729,15706.9,-47148.3,0,49695.8,155189
step02_gravity_refstate-mantle.xmf,1287,1.29984e-06,7.25678e-06,0,-9.34008e-07,-1.29064e+09,-1.28984e+09,-1.29081e+09,-124830,-0.0604573,0.137637,-0,0.15033,15632.9,-45955.5,0,48541.7,124830
step02_gravity_refstate-mantle.xmf,1288,1.72908e-07,7.27992e-06,0,-8.12994e-07,-1.25327e+09,-1.25232e+09,-1.25329e+09,-108657,-0.0439363,0.147411,-0,0.153819,15550.2,-44793.7,0,47416.1,108657
step02_gravity_refstate-mantle.xmf,1289,4.45316e-06,8.42596e-06,0,-6.83907e-07,-1.62656e+09,-1.62603e+09,-1.62716e+09,-91404.2,-0.13558,0.032115,-0,0.139332,17930.6,-56356.3,0,59140,91404.2
step02_gravity_refstate-mantle.xmf,1290,4.07627e-06,9.14702e-06,0,-1.12102e-06,-1.59832e+09,-1.59764e+09,-1.59886e+09,-149824,-0.136218,0.0437971,-0,0.143085,17126,-55483.2,0,58066.2,149824
step02_gravity_refstate-mantle.xmf,1291,4.10836e-06,8.69634e-06,0,-1.24797e-06,-1.55621e+09,-1.5556e+09,-1.55676e+09,-166792,-0.130991,0.055627,-0,0.142313,17096.4,-54181.6,0,56814.9,166792
step02_gravity_refstate-mantle.xmf,1292,4.01077e-06,8.48335e-06,0,-1.42866e-06,-1.51441e+09,-1.51382e+09,-1.51495e+09,-190940,-0.125264,0.0690722,-0,0.143045,16812.3,-52889.3,0,55497.1,190940
step02_gravity_refstate-mantle.xmf,1293,4.66986e-06,8.44251e-06,0,-4.58724e-09,-1.74447e+09,-1.74397e+09,-1.74509e+09,-613.084,-0.138395,-8.42897e-20,-0,0.138395,18430.4,-60000,0,62766.9,613.084
step02_gravity_refstate-mantle.xmf,1294,-2.81674e-06,7.61748e-06,0,-1.09964e-06,-1.1723e+09,-1.1709e+09,-1.17192e+09,-146967,-0.00601037,0.166498,-0,0.166607,15528.1,-42273.4,0,45035.2,146967
step02_gravity_refstate-mantle.xmf,1295,3.94915e-06,7.85468e-06,0,-1.29686e-06,-1.46821e+09,-1.46769e+09,-1.46874e+09,-173325,-0.115326,0.0799379,-0,0.140321,16903.2,-51460,0,54165,173325
step02_gravity_refstate-mantle.xmf,1296,3.68879e-06,7.4244e-06,0,-1.12119e-06,-1.4261e+09,-1.4256e+09,-1.42659e+09,-149847,-0.104787,0.0901691,-0,0.138242,16880.7,-50156.4,0,52920.9,149847
step02_gravity_refstate-mantle.xmf,1297,3.24751e-06,7.09986e-06,0,-8.94413e-07,-1.38543e+09,-1.38491e+09,-1.38586e+09,-119538,-0.0929244,0.0998352,-0,0.136389,16838.4,-48896.3,0,51714.4,119538
step02_gravity_refstate-mantle.xmf,1298,2.61091e-06,6.8946e-06,0,-6.59315e-07,-1.34587e+09,-1.3453e+09,-1.34622e+09,-88117.4,-0.0797956,0.109113,-0,0.135177,16784.2,-47669.5,0,50538,88117.4
step02_gravity_refstate-mantle.xmf,1299,-4.23876e-06,7.79632e-06,0,-1.54264e-06,-1.13551e+09,-1.1339e+09,-1.13494e+09,-206174,0.0106281,0.174263,0,0.174586,15589.7,-41128,0,43983.5,206174
step02_gravity_refstate-mantle.xmf,1300,-5.90552e-06,8.15839e-06,0,-2.52223e-06,-1.09932e+09,-1.09744e+09,-1.09853e+09,-337096,0.0293845,0.193342,0,0.195562,15036.5,-40000,0,42732.8,337096
step02_gravity_refstate-mantle.xmf,1301,4.60413e-06,8.32786e-06,0,-4.31911e-07,-1.66681e+09,-1.66632e+09,-1.66743e+09,-57724.9,-0.13692,0.0204431,-0,0.138437,18276,-57600.5,0,60430.4,57724.9
step02_gravity_refstate-mantle.xmf,1302,5.069e-06,7.4331e-06,0,-1.68125e-07,-1.69693e+09,-1.69661e+09,-1.6976e+09,-22470,-0.133588,0.0110742,-0,0.134046,19251.4,-58531.5,0,61616.2,22470
step02_gravity_refstate-mantle.xmf,1303,-1.82568e-06,7.21214e-06,0,-5.88588e-07,-1.19145e+09,-1.19025e+09,-1.19121e+09,-78664.8,-0.016817,0.147216,-0,0.148173,16443.8,-42870.8,0,45916.3,78664.8
step02_gravity_refstate-mantle.xmf,1304,1.80087e-06,6.8257e-06,0,-4.77643e-07,-1.30809e+09,-1.30742e+09,-1.30833e+09,-63836.9,-0.0659358,0.118339,-0,0.135468,16695.4,-46496.9,0,49403.4,63836.9
step02_gravity_refstate-mantle.xmf,1305,7.62302e-07,6.86385e-06,0,-3.62139e-07,-1.26933e+09,-1.26851e+09,-1.26943e+09,-48399.9,-0.0504269,0.127514,-0,0.137123,16627.9,-45292.8,0,48248.6,48399.9
step02_gravity_refstate-mantle.xmf,1306,-4.46503e-07,6.99426e-06,0,-3.78414e-07,-1.23072e+09,-1.22972e+09,-1.23066e+09,-50575,-0.0340497,0.137035,-0,0.141202,16544.1,-44092.3,0,47093.9,50575
step02_gravity_refstate-mantle.xmf,1307,4.55584e-06,7.91377e-06,0,-7.94803e-07,-1.57844e+09,-1.57799e+09,-1.57905e+09,-106225,-0.129679,0.0434615,-0,0.136768,18101.7,-54869.3,0,57778.1,106225
step02_gravity_refstate-mantle.xmf,1308,5.04581e-06,7.221e-06,0,-3.08206e-07,-1.64657e+09,-1.64628e+09,-1.64725e+09,-41191.7,-0.130897,0.0225456,-0,0.132824,19254,-56975.3,0,60140.7,41191.7
step02_gravity_refstate-mantle.xmf,1309,4.46945e-06,7.53141e-06,0,-8.23173e-07,-1.53364e+09,-1.53323e+09,-1.53424e+09,-110017,-0.123421,0.0545669,-0,0.134946,18042.5,-53483.9,0,56445.2,110017
step02_gravity_refstate-mantle.xmf,1310,5.38536e-06,6.87355e-06,0,-2.24856e-10,-1.74444e+09,-1.74425e+09,-1.74516e+09,-30.052,-0.130571,-5.74759e-20,-0,0.130571,19987.9,-60000,0,63241.7,30.052
step02_gravity_refstate-mantle.xmf,1311,-3.00335e-06,7.41965e-06,0,-9.24216e-07,-1.15978e+09,-1.15839e+09,-1.15938e+09,-123521,-0.00279469,0.155903,-0,0.155928,16349,-41885.1,0,44962.7,123521
step02_gravity_refstate-mantle.xmf,1312,4.31585e-06,7.17322e-06,0,-7.728e-07,-1.48963e+09,-1.48925e+09,-1.49021e+09,-103285,-0.115483,0.064974,-0,0.132507,17996.6,-52122.5,0,55141.9,103285
step02_gravity_refstate-mantle.xmf,1313,4.0354e-06,6.83993e-06,0,-6.3553e-07,-1.44605e+09,-1.44568e+09,-1.44659e+09,-84938.6,-0.105809,0.0747743,-0,0.129564,17961,-50773.6,0,53856.9,84938.6
step02_gravity_refstate-mantle.xmf,1314,3.59566e-06,6.56257e-06,0,-4.28629e-07,-1.40337e+09,-1.40297e+09,-1.40385e+09,-57286.2,-0.0945188,0.0837762,-0,0.126302,17949.3,-49451.4,0,52608.2,57286.2
step02_gravity_refstate-mantle.xmf,1315,2.96835e-06,6.39662e-06,0,-2.15536e-07,-1.36133e+09,-1.36087e+09,-1.36172e+09,-28806.3,-0.0819138,0.0927626,-0,0.123753,17900,-48148.1,0,51367.8,28806.3
step02_gravity_refstate-mantle.xmf,1316,2.22198e-06,6.35904e-06,0,-5.33051e-08,-1.32356e+09,-1.32301e+09,-1.32386e+09,-7124.23,-0.0694378,0.101369,-0,0.122871,17801.1,-46976.5,0,50236.2,7124.23
step02_gravity_refstate-mantle.xmf,1317,-5.23097e-06,7.7923e-06,0,-2.01168e-06,-1.09921e+09,-1.09747e+09,-1.09851e+09,-268861,0.02294,0.172793,0,0.174309,16192.1,-40000,0,43153.1,268861
step02_gravity_refstate-mantle.xmf,1318,4.99582e-06,6.98099e-06,0,-3.82204e-07,-1.60086e+09,-1.60059e+09,-1.60152e+09,-51081.6,-0.12692,0.0327218,-0,0.13107,19231.2,-55562.3,0,58796.3,51081.6
step02_gravity_refstate-mantle.xmf,1319,5.67953e-06,6.02517e-06,0,-2.75547e-08,-1.70135e+09,-1.70131e+09,-1.70211e+09,-3682.69,-0.124922,0.00811596,-0,0.125186,20890.2,-58668.7,0,62276.9,3682.69
step02_gravity_refstate-mantle.xmf,1320,-3.80906e-06,7.43046e-06,0,-1.16773e-06,-1.13189e+09,-1.13039e+09,-1.13138e+09,-156067,0.00725039,0.155392,0,0.155561,16798.9,-41018.2,0,44324.9,156067
step02_gravity_refstate-mantle.xmf,1321,-2.39744e-06,7.06778e-06,0,-5.26294e-07,-1.16719e+09,-1.16593e+09,-1.16687e+09,-70339.2,-0.00851163,0.139883,-0,0.140141,17315.7,-42117.1,0,45537.8,70339.2
step02_gravity_refstate-mantle.xmf,1322,-9.99535e-07,6.7663e-06,0,-1.3066e-07,-1.20752e+09,-1.20648e+09,-1.20739e+09,-17462.7,-0.0251524,0.12767,-0,0.130124,17576,-43371.4,0,46797.4,17462.7
step02_gravity_refstate-mantle.xmf,1323,1.30874e-06,6.50622e-06,0,-3.32756e-08,-1.28681e+09,-1.28611e+09,-1.28698e+09,-4447.28,-0.0564627,0.112217,-0,0.125622,17509.4,-45835.4,0,49065.9,4447.28
step02_gravity_refstate-mantle.xmf,1324,3.46054e-07,6.55069e-06,0,2.10309e-08,-1.25082e+09,-1.24999e+09,-1.25087e+09,2810.78,-0.0423931,0.117772,-0,0.125169,17648.7,-44717.5,0,48074.2,2810.78
step02_gravity_refstate-mantle.xmf,1325,4.89927e-06,6.74358e-06,0,-4.13731e-07,-1.55452e+09,-1.55428e+09,-1.55518e+09,-55295.2,-0.121212,0.0427009,-0,0.128514,19207.6,-54129.7,0,57436.5,55295.2
step02_gravity_refstate-mantle.xmf,1326,5.45059e-06,6.40152e-06,0,-1.22649e-07,-1.6645e+09,-1.66437e+09,-1.66523e+09,-16392,-0.126486,0.0161013,-0,0.127507,20316,-57529.7,0,61011.5,16392
step02_gravity_refstate-mantle.xmf,1327,5.43422e-06,6.0944e-06,0,-1.07046e-07,-1.62315e+09,-1.62306e+09,-1.62387e+09,-14306.7,-0.122769,0.0237748,-0,0.12505,20446.2,-56251.4,0,59852.1,14306.7
step02_gravity_refstate-mantle.xmf,1328,4.70092e-06,6.43741e-06,0,-3.33383e-07,-1.51021e+09,-1.50998e+09,-1.51084e+09,-44556.6,-0.114135,0.0519283,-0,0.125392,19179.4,-52758.8,0,56136.8,44556.6
step02_gravity_refstate-mantle.xmf,1329,5.90737e-06,5.57512e-06,0,1.21081e-09,-1.74444e+09,-1.74448e+09,-1.74523e+09,161.825,-0.121405,-5.23207e-20,-0,0.121405,21611.7,-60000,0,63773.6,161.825
step02_gravity_refstate-mantle.xmf,1330,4.40119e-06,6.20799e-06,0,-2.17805e-07,-1.46655e+09,-1.46631e+09,-1.46714e+09,-29109.6,-0.105639,0.0608555,-0,0.121914,19130.4,-51407.7,0,54851.8,29109.6
step02_gravity_refstate-mantle.xmf,1331,3.96379e-06,6.01644e-06,0,-4.88914e-08,-1.42288e+09,-1.42261e+09,-1.42341e+09,-6534.33,-0.0954517,0.0694188,-0,0.118025,19096.6,-50055.3,0,53574.4,6534.33
step02_gravity_refstate-mantle.xmf,1332,3.33259e-06,5.89118e-06,0,1.51448e-07,-1.37753e+09,-1.37719e+09,-1.37798e+09,20241,-0.0831656,0.0779813,-0,0.114007,19076.6,-48649.9,0,52256.3,20241
step02_gravity_refstate-mantle.xmf,1333,2.42323e-06,5.87675e-06,0,3.30884e-07,-1.32845e+09,-1.32799e+09,-1.32877e+09,44222.6,-0.0681854,0.0872018,-0,0.110695,19049.6,-47127.5,0,50832,44222.6
step02_gravity_refstate-mantle.xmf,1334,1.34072e-06,6.08281e-06,0,3.34179e-07,-1.28254e+09,-1.28191e+09,-1.28272e+09,44663.1,-0.0533354,0.0994219,-0,0.112825,18689.3,-45702.8,0,49376.5,44663.1
step02_gravity_refstate-mantle.xmf,1335,-4.56438e-06,7.40708e-06,0,-1.56758e-06,-1.09909e+09,-1.09749e+09,-1.09848e+09,-209507,0.016988,0.15395,0,0.154884,17405.7,-40000,0,43622.9,209507
step02_gravity_refstate-mantle.xmf,1336,5.29737e-06,5.88598e-06,0,-7.31196e-08,-1.57608e+09,-1.576e+09,-1.57679e+09,-9772.43,-0.117792,0.0325429,-0,0.122204,20447.6,-54796.1,0,58486.9,9772.43
step02_gravity_refstate-mantle.xmf,1337,5.8445e-06,5.26636e-06,0,5.74279e-08,-1.65454e+09,-1.65462e+09,-1.65532e+09,7675.24,-0.117852,0.015044,-0,0.118809,21737.9,-57221.8,0,61211.7,7675.24
step02_gravity_refstate-mantle.xmf,1338,6.0831e-06,4.93851e-06,0,5.31646e-08,-1.70215e+09,-1.7023e+09,-1.70296e+09,7105.45,-0.115795,0.00653028,-0,0.115979,22446.2,-58693.1,0,62838.8,7105.45
step02_gravity_refstate-mantle.xmf,1339,6.27287e-06,4.50899e-06,0,2.86523e-09,-1.74445e+09,-1.74468e+09,-1.74529e+09,382.938,-0.111081,-5.04034e-20,-0,0.111081,23306.5,-60000,0,64367.6,382.938
step02_gravity_refstate-mantle.xmf,1340,-3.2026e-06,7.02854e-06,0,-7.715e-07,-1.1337e+09,-1.13233e+09,-1.13327e+09,-103111,0.00216882,0.137369,0,0.137386,18043.8,-41077.1,0,44865.4,103111
step02_gravity_refstate-mantle.xmf,1341,-1.5999e-06,6.58973e-06,0,-7.14521e-08,-1.17881e+09,-1.17772e+09,-1.1786e+09,-9549.57,-0.0156817,0.119855,-0,0.120877,18682.9,-42480.2,0,46407.1,9549.57
step02_gravity_refstate-mantle.xmf,1342,-6.03911e-08,6.27848e-06,0,2.73173e-07,-1.23028e+09,-1.22944e+09,-1.23028e+09,36509.6,-0.034478,0.108777,-0,0.11411,18751.5,-44079.7,0,47902.4,36509.6
step02_gravity_refstate-mantle.xmf,1343,5.08535e-06,5.74726e-06,0,-1.744e-08,-1.53121e+09,-1.53112e+09,-1.53189e+09,-2330.85,-0.111721,0.0408497,-0,0.118955,20402.7,-53408.3,0,57172.7,2330.85
step02_gravity_refstate-mantle.xmf,1344,5.6832e-06,5.11177e-06,0,1.34185e-07,-1.60031e+09,-1.60039e+09,-1.60107e+09,17933.8,-0.113406,0.0238009,-0,0.115877,21742,-55545.3,0,59648.9,17933.8
step02_gravity_refstate-mantle.xmf,1345,4.77246e-06,5.56312e-06,0,1.09705e-07,-1.48769e+09,-1.48758e+09,-1.48832e+09,14662,-0.10433,0.048719,-0,0.115144,20360.6,-52061.3,0,55901.1,14662
step02_gravity_refstate-mantle.xmf,1346,6.35921e-06,4.04196e-06,0,1.10227e-07,-1.69945e+09,-1.69976e+09,-1.7003e+09,14731.8,-0.105598,0.0056773,-0,0.105751,24072.8,-58609.5,0,63360.6,14731.8
step02_gravity_refstate-mantle.xmf,1347,4.34319e-06,5.45448e-06,0,2.52639e-07,-1.44377e+09,-1.44362e+09,-1.44435e+09,33765.2,-0.0954655,0.05663,-0,0.110998,20299.5,-50701.6,0,54614.3,33765.2
step02_gravity_refstate-mantle.xmf,1348,3.75404e-06,5.3908e-06,0,4.20954e-07,-1.39825e+09,-1.39804e+09,-1.39876e+09,56260.5,-0.0846467,0.0645898,-0,0.106475,20258.9,-49291.5,0,53292.4,56260.5
step02_gravity_refstate-mantle.xmf,1349,2.96612e-06,5.41422e-06,0,5.71633e-07,-1.35096e+09,-1.35063e+09,-1.35135e+09,76398.8,-0.0719321,0.0729491,-0,0.102449,20204.9,-47825.3,0,51918.1,76398.8
step02_gravity_refstate-mantle.xmf,1350,1.97866e-06,5.55038e-06,0,6.45151e-07,-1.30304e+09,-1.30257e+09,-1.30331e+09,86224.4,-0.0578124,0.0820076,-0,0.100337,20098.5,-46339,0,50509.9,86224.4
step02_gravity_refstate-mantle.xmf,1351,-3.9081e-06,7.0024e-06,0,-1.18772e-06,-1.09899e+09,-1.09753e+09,-1.09846e+09,-158739,0.0115812,0.136762,0,0.137251,18680.2,-40000,0,44146.9,158739
step02_gravity_refstate-mantle.xmf,1352,5.44469e-06,5.01061e-06,0,2.28255e-07,-1.5534e+09,-1.55346e+09,-1.55413e+09,30506.2,-0.108196,0.031377,-0,0.112654,21689.1,-54094.4,0,58280.5,30506.2
step02_gravity_refstate-mantle.xmf,1353,6.16893e-06,4.42154e-06,0,1.43171e-07,-1.66638e+09,-1.66661e+09,-1.6672e+09,19134.8,-0.109498,0.0108408,-0,0.110033,23241.1,-57587.5,0,62100.5,19134.8
step02_gravity_refstate-mantle.xmf,1354,6.51528e-06,3.64015e-06,0,7.34527e-09,-1.74447e+09,-1.74485e+09,-1.74534e+09,981.695,-0.0997581,-4.68039e-20,-0,0.0997581,25077,-60000,0,65029.6,981.695
step02_gravity_refstate-mantle.xmf,1355,-2.60544e-06,6.61845e-06,0,-4.35978e-07,-1.13591e+09,-1.13468e+09,-1.13556e+09,-58268.4,-0.00235391,0.121184,-0,0.121207,19330.9,-41148.3,0,45462.8,58268.4
step02_gravity_refstate-mantle.xmf,1356,-4.47722e-07,6.05636e-06,0,3.75161e-07,-1.20772e+09,-1.20686e+09,-1.20766e+09,50140.3,-0.026926,0.101177,-0,0.104698,19881.8,-43379.7,0,47718.8,50140.3
step02_gravity_refstate-mantle.xmf,1357,8.15008e-07,5.78036e-06,0,5.91519e-07,-1.25489e+09,-1.25422e+09,-1.255e+09,79056.5,-0.0425379,0.0916834,-0,0.101071,19966.5,-44844.2,0,49088.4,79056.5
step02_gravity_refstate-mantle.xmf,1358,5.13047e-06,4.9603e-06,0,3.32238e-07,-1.50887e+09,-1.50889e+09,-1.50955e+09,44403.6,-0.101864,0.0385491,-0,0.108914,21623.7,-52716.5,0,56979,44403.6
step02_gravity_refstate-mantle.xmf,1359,6.01341e-06,4.3955e-06,0,2.43927e-07,-1.62379e+09,-1.62401e+09,-1.62459e+09,32600.9,-0.107636,0.0169247,-0,0.108959,23090.7,-56270.8,0,60824.2,32600.9
step02_gravity_refstate-mantle.xmf,1360,5.77598e-06,4.32914e-06,0,3.7079e-07,-1.57483e+09,-1.57502e+09,-1.5756e+09,49556.1,-0.10319,0.0236765,-0,0.105871,23051.5,-54756.6,0,59410.9,49556.1
step02_gravity_refstate-mantle.xmf,1361,4.71337e-06,4.88702e-06,0,4.76615e-07,-1.465e+09,-1.46497e+09,-1.46563e+09,63699.5,-0.0942357,0.0455772,-0,0.104679,21558.7,-51358.3,0,55699.7,63699.5
step02_gravity_refstate-mantle.xmf,1362,6.2887e-06,3.79344e-06,0,2.60146e-07,-1.6485e+09,-1.64884e+09,-1.64934e+09,34768.6,-0.100936,0.0114479,-0,0.101583,24458.4,-57034.5,0,62057.6,34768.6
step02_gravity_refstate-mantle.xmf,1363,6.53985e-06,3.21856e-06,0,1.87559e-07,-1.68551e+09,-1.68595e+09,-1.68638e+09,25067.3,-0.0929995,0.00593833,-0,0.0931889,25960.3,-58177.7,0,63707,25067.3
step02_gravity_refstate-mantle.xmf,1364,-1.48883e-06,6.27681e-06,0,6.16964e-08,-1.16955e+09,-1.16851e+09,-1.16935e+09,8245.72,-0.0143656,0.10862,-0,0.109565,19869.2,-42194.1,0,46638.2,8245.72
step02_gravity_refstate-mantle.xmf,1365,4.16973e-06,4.87296e-06,0,6.2678e-07,-1.42001e+09,-1.41991e+09,-1.42056e+09,83769.1,-0.0849473,0.0526816,-0,0.0999569,21509.7,-49964.9,0,54398.2,83769.1
step02_gravity_refstate-mantle.xmf,1366,3.4504e-06,4.93672e-06,0,7.61241e-07,-1.37278e+09,-1.37258e+09,-1.37324e+09,101740,-0.0739207,0.0604128,-0,0.0954672,21425.9,-48501.5,0,53023.2,101740
step02_gravity_refstate-mantle.xmf,1367,2.56327e-06,5.07484e-06,0,8.44866e-07,-1.32476e+09,-1.32443e+09,-1.3251e+09,112916,-0.0613696,0.0684157,-0,0.0919072,21349.1,-47012.6,0,51633,112916
step02_gravity_refstate-mantle.xmf,1368,1.53828e-06,5.28729e-06,0,8.30707e-07,-1.27709e+09,-1.27658e+09,-1.27729e+09,111024,-0.0479104,0.0767322,-0,0.0904612,21263.7,-45533.5,0,50253.8,111024
step02_gravity_refstate-mantle.xmf,1369,-3.26699e-06,6.58851e-06,0,-8.65026e-07,-1.09888e+09,-1.09756e+09,-1.09844e+09,-115611,0.00677174,0.121181,0,0.12137,20018.5,-40000,0,44729.6,115611
step02_gravity_refstate-mantle.xmf,1370,5.44784e-06,4.33589e-06,0,4.94228e-07,-1.52936e+09,-1.52951e+09,-1.53009e+09,66053.5,-0.0981573,0.0302337,-0,0.102708,22921,-53350,0,58065.4,66053.5
step02_gravity_refstate-mantle.xmf,1371,6.65593e-06,2.94788e-06,0,7.37191e-09,-1.74449e+09,-1.74499e+09,-1.74538e+09,985.255,-0.0875681,-3.08964e-20,-0,0.0875681,26927.8,-60000,0,65765.5,985.255
step02_gravity_refstate-mantle.xmf,1372,-2.04094e-06,6.21102e-06,0,-1.74067e-07,-1.13797e+09,-1.13687e+09,-1.1377e+09,-23264.1,-0.00607535,0.106939,-0,0.107112,20650,-41214.8,0,46098.6,23264.1
step02_gravity_refstate-mantle.xmf,1373,-8.32833e-07,5.87808e-06,0,3.39349e-07,-1.18165e+09,-1.18075e+09,-1.18153e+09,45353.9,-0.01945,0.095455,-0,0.0974165,21002,-42571,0,47469.7,45353.9
step02_gravity_refstate-mantle.xmf,1374,4.00552e-07,5.56162e-06,0,6.76857e-07,-1.22962e+09,-1.22893e+09,-1.22967e+09,90461.9,-0.0338848,0.0856508,-0,0.09211,21149.9,-44060.4,0,48873.7,90461.9
step02_gravity_refstate-mantle.xmf,1375,5.06152e-06,4.36705e-06,0,6.11966e-07,-1.48676e+09,-1.48685e+09,-1.48744e+09,81789.3,-0.0920554,0.0363877,-0,0.0989862,22819.5,-52031.6,0,56815.6,81789.3
step02_gravity_refstate-mantle.xmf,1376,6.06274e-06,3.7174e-06,0,4.2668e-07,-1.59726e+09,-1.59758e+09,-1.59807e+09,57025.8,-0.097155,0.0174279,-0,0.0987058,24453.6,-55450,0,60602.7,57025.8
step02_gravity_refstate-mantle.xmf,1377,5.71857e-06,3.72185e-06,0,5.96106e-07,-1.54508e+09,-1.54535e+09,-1.54585e+09,79669.6,-0.0920253,0.0236249,-0,0.0950094,24390.2,-53835.8,0,59103.1,79669.6
step02_gravity_refstate-mantle.xmf,1378,4.56647e-06,4.35932e-06,0,7.62549e-07,-1.44234e+09,-1.44237e+09,-1.44295e+09,101915,-0.0840067,0.0424705,-0,0.0941322,22803.6,-50656.2,0,55552.3,101915
step02_gravity_refstate-mantle.xmf,1379,6.64425e-06,2.58467e-06,0,1.9485e-07,-1.69289e+09,-1.69343e+09,-1.69378e+09,26041.7,-0.0801201,0.00419076,-0,0.0802296,27947.9,-58404.9,0,64747.3,26041.7
step02_gravity_refstate-mantle.xmf,1380,6.31148e-06,3.20498e-06,0,3.97964e-07,-1.6232e+09,-1.62362e+09,-1.62405e+09,53187.9,-0.0903636,0.0122072,-0,0.0911844,25881.9,-56251.7,0,61920.3,53187.9
step02_gravity_refstate-mantle.xmf,1381,6.72068e-06,2.41528e-06,0,7.98402e-09,-1.74452e+09,-1.7451e+09,-1.74542e+09,1067.06,-0.0746211,-3.08654e-20,-0,0.0746211,28863.5,-60000,0,66581.5,1067.06
step02_gravity_refstate-mantle.xmf,1382,3.91186e-06,4.43809e-06,0,8.97257e-07,-1.39522e+09,-1.39515e+09,-1.39574e+09,119918,-0.0743723,0.049173,-0,0.0891584,22752.3,-49196.4,0,54202.9,119918
step02_gravity_refstate-mantle.xmf,1383,3.10319e-06,4.59319e-06,0,9.86078e-07,-1.34685e+09,-1.34665e+09,-1.34726e+09,131789,-0.0633813,0.0564246,-0,0.0848582,22669.8,-47697.1,0,52810.3,131789
step02_gravity_refstate-mantle.xmf,1384,2.17041e-06,4.80722e-06,0,9.97339e-07,-1.2986e+09,-1.29825e+09,-1.29889e+09,133294,-0.0514025,0.0639603,-0,0.0820557,22590.1,-46201,0,51428.1,133294
step02_gravity_refstate-mantle.xmf,1385,1.13401e-06,5.07824e-06,0,8.92325e-07,-1.25052e+09,-1.24999e+09,-1.25067e+09,119259,-0.0388166,0.0720404,-0,0.0818324,22485.4,-44709.6,0,50045.4,119259
step02_gravity_refstate-mantle.xmf,1386,-2.64721e-06,6.17474e-06,0,-5.92011e-07,-1.09878e+09,-1.0976e+09,-1.09843e+09,-79122.3,0.00261008,0.107157,0,0.107189,21423.9,-40000,0,45376,79122.3
step02_gravity_refstate-mantle.xmf,1387,5.34791e-06,3.9147e-06,0,6.82451e-07,-1.50724e+09,-1.50743e+09,-1.50796e+09,91209.5,-0.0893909,0.0294507,-0,0.0941173,23952.1,-52665,0,57855.9,91209.5
step02_gravity_refstate-mantle.xmf,1388,6.47307e-06,2.76395e-06,0,3.47838e-07,-1.646e+09,-1.6465e+09,-1.64687e+09,46488.6,-0.0827563,0.00851633,-0,0.0831934,27280.8,-56955.9,0,63152.3,46488.6
step02_gravity_refstate-mantle.xmf,1389,6.67236e-06,2.15636e-06,0,1.87874e-07,-1.69162e+09,-1.69222e+09,-1.69251e+09,25109.3,-0.0677853,0.0035818,-0,0.0678799,29795.2,-58364.7,0,65530.1,25109.3
step02_gravity_refstate-mantle.xmf,1390,6.73671e-06,2.00726e-06,0,1.19539e-08,-1.74456e+09,-1.74519e+09,-1.74546e+09,1597.64,-0.0609927,-2.95191e-20,-0,0.0609927,30889.1,-60000,0,67484.3,1597.64
step02_gravity_refstate-mantle.xmf,1391,-1.26734e-06,5.73416e-06,0,1.56666e-07,-1.14842e+09,-1.14748e+09,-1.14825e+09,20938.4,-0.0115012,0.0913318,-0,0.0920531,22197.2,-41541.3,0,47099.8,20938.4
step02_gravity_refstate-mantle.xmf,1392,-2.58551e-08,5.40708e-06,0,6.22762e-07,-1.20102e+09,-1.2003e+09,-1.20102e+09,83232.2,-0.0255195,0.0814906,-0,0.085393,22292.8,-43173.8,0,48589.6,83232.2
step02_gravity_refstate-mantle.xmf,1393,4.94775e-06,3.876e-06,0,8.26107e-07,-1.46664e+09,-1.46679e+09,-1.4673e+09,110409,-0.0820967,0.0337069,-0,0.0887469,24131.2,-51408.1,0,56790,110409
step02_gravity_refstate-mantle.xmf,1394,5.9818e-06,3.20159e-06,0,5.97751e-07,-1.56711e+09,-1.56748e+09,-1.56791e+09,79889.5,-0.0860022,0.0178638,-0,0.0878379,25833.5,-54516.8,0,60327.9,79889.5
step02_gravity_refstate-mantle.xmf,1395,5.42087e-06,3.38622e-06,0,7.96038e-07,-1.50298e+09,-1.50326e+09,-1.50371e+09,106391,-0.080901,0.0254331,-0,0.0848046,25417.9,-52532.6,0,58358.7,106391
step02_gravity_refstate-mantle.xmf,1396,4.33624e-06,3.95247e-06,0,9.68972e-07,-1.41783e+09,-1.41788e+09,-1.41841e+09,129503,-0.0734253,0.039705,-0,0.0834731,24113.5,-49896.5,0,55417.6,129503
step02_gravity_refstate-mantle.xmf,1397,6.47911e-06,2.3584e-06,0,3.92773e-07,-1.63261e+09,-1.63316e+09,-1.63348e+09,52494.1,-0.0721174,0.00824755,-0,0.0725875,28821.8,-56541.3,0,63463.5,52494.1
step02_gravity_refstate-mantle.xmf,1398,6.23255e-06,2.76207e-06,0,5.23857e-07,-1.59515e+09,-1.59561e+09,-1.59598e+09,70013.5,-0.079457,0.0128354,-0,0.080487,27302,-55383.4,0,61747.3,70013.5
step02_gravity_refstate-mantle.xmf,1399,6.65358e-06,1.78445e-06,0,1.97903e-07,-1.68206e+09,-1.68271e+09,-1.68295e+09,26449.8,-0.0532451,0.00352028,-0,0.0533613,31947.3,-58068.3,0,66276.4,26449.8
step02_gravity_refstate-mantle.xmf,1400,3.59936e-06,4.12761e-06,0,1.06476e-06,-1.36948e+09,-1.36941e+09,-1.36996e+09,142305,-0.0641084,0.0463078,-0,0.0790841,23995.6,-48398.5,0,54020.4,142305
step02_gravity_refstate-mantle.xmf,1401,2.69017e-06,4.34948e-06,0,1.09636e-06,-1.31744e+09,-1.31722e+09,-1.3178e+09,146528,-0.0526552,0.05328,-0,0.0749088,23971.7,-46785.5,0,52569.3,146528
step02_gravity_refstate-mantle.xmf,1402,6.6387e-07,4.96383e-06,0,8.18959e-07,-1.21918e+09,-1.2186e+09,-1.21927e+09,109454,-0.0297777,0.0695828,-0,0.0756867,23604.3,-43738,0,49700.9,109454
step02_gravity_refstate-mantle.xmf,1403,1.70716e-06,4.63508e-06,0,1.02174e-06,-1.26755e+09,-1.26716e+09,-1.26777e+09,136556,-0.0412312,0.060979,-0,0.0736101,23837,-45238.3,0,51134.2,136556
step02_gravity_refstate-mantle.xmf,1404,-2.05057e-06,5.75471e-06,0,-3.78965e-07,-1.09869e+09,-1.09764e+09,-1.09841e+09,-50648.7,-0.000865693,0.0946345,-0,0.0946385,22899.8,-40000,0,46091.2,50648.7
step02_gravity_refstate-mantle.xmf,1405,6.53107e-06,2.01813e-06,0,3.29588e-07,-1.64353e+09,-1.64413e+09,-1.6444e+09,44049.4,-0.061413,0.00635132,-0,0.0617406,30542.5,-56878,0,64559.7,44049.4
step02_gravity_refstate-mantle.xmf,1406,6.72015e-06,1.71092e-06,0,1.05512e-08,-1.74458e+09,-1.74525e+09,-1.74548e+09,1410.16,-0.0467214,-2.39088e-20,-0,0.0467214,33009.9,-60000,0,68481,1410.16
step02_gravity_refstate-mantle.xmf,1407,-2.44666e-07,5.25656e-06,0,5.398e-07,-1.17957e+09,-1.17883e+09,-1.17953e+09,72144.3,-0.0201672,0.0775763,-0,0.0801548,23342,-42509.1,0,48496.2,72144.3
step02_gravity_refstate-mantle.xmf,1408,-9.14747e-07,5.35173e-06,0,2.2715e-07,-1.14122e+09,-1.14038e+09,-1.1411e+09,30358.6,-0.0115137,0.0809995,-0,0.0818137,23769.8,-41320.3,0,47669.4,30358.6
step02_gravity_refstate-mantle.xmf,1409,4.72255e-06,3.49972e-06,0,9.80838e-07,-1.44127e+09,-1.44143e+09,-1.4419e+09,131089,-0.0711708,0.0317046,-0,0.0779132,25524.3,-50621.9,0,56692.7,131089
step02_gravity_refstate-mantle.xmf,1410,5.74955e-06,2.87322e-06,0,7.44259e-07,-1.53053e+09,-1.53091e+09,-1.5313e+09,99470.3,-0.0749011,0.0188404,-0,0.0772343,27086.6,-53384.4,0,59863,99470.3
step02_gravity_refstate-mantle.xmf,1411,4.00293e-06,3.66968e-06,0,1.09053e-06,-1.38883e+09,-1.38888e+09,-1.38937e+09,145750,-0.0623465,0.0377355,-0,0.0728769,25467.3,-48997.7,0,55221,145750
step02_gravity_refstate-mantle.xmf,1412,6.05922e-06,2.44993e-06,0,6.25637e-07,-1.56394e+09,-1.56443e+09,-1.56475e+09,83616.3,-0.0684321,0.0134786,-0,0.0697468,28705.3,-54417.5,0,61524.5,83616.3
step02_gravity_refstate-mantle.xmf,1413,6.26513e-06,2.10438e-06,0,5.01848e-07,-1.59189e+09,-1.59245e+09,-1.59273e+09,67072,-0.060608,0.00982394,-0,0.061399,30284.2,-55281.3,0,63033,67072
step02_gravity_refstate-mantle.xmf,1414,6.41481e-06,1.82429e-06,0,3.71337e-07,-1.61868e+09,-1.61929e+09,-1.61953e+09,49629.2,-0.051668,0.00708416,-0,0.0521514,31899.3,-56109,0,64542.9,49629.2
step02_gravity_refstate-mantle.xmf,1415,6.64249e-06,1.53559e-06,0,1.42932e-07,-1.688e+09,-1.68869e+09,-1.68889e+09,19102.9,-0.0382351,0.0027428,-0,0.0383334,34220.1,-58251.3,0,67559.1,19102.9
step02_gravity_refstate-mantle.xmf,1416,3.18238e-06,3.90203e-06,0,1.13664e-06,-1.33755e+09,-1.33745e+09,-1.33797e+09,151912,-0.0527428,0.0440071,-0,0.0686909,25406.9,-47408.6,0,53787.4,151912
step02_gravity_refstate-mantle.xmf,1417,1.7896e-07,4.92039e-06,0,6.44321e-07,-1.18517e+09,-1.18453e+09,-1.18519e+09,86113.6,-0.0215096,0.0689652,-0,0.0722417,24575.5,-42684.2,0,49253.4,86113.6
step02_gravity_refstate-mantle.xmf,1418,2.22061e-06,4.19371e-06,0,1.08791e-06,-1.28369e+09,-1.28342e+09,-1.28398e+09,145399,-0.0419118,0.0510945,-0,0.0660852,25335,-45739.2,0,52287,145399
step02_gravity_refstate-mantle.xmf,1419,1.19308e-06,4.53841e-06,0,9.23086e-07,-1.23124e+09,-1.23079e+09,-1.2314e+09,123370,-0.0311707,0.0593823,-0,0.0670661,25092.9,-44113.2,0,50750.6,123370
step02_gravity_refstate-mantle.xmf,1420,-1.48741e-06,5.35159e-06,0,-2.07003e-07,-1.0986e+09,-1.09768e+09,-1.0984e+09,-27666,-0.00361374,0.0835628,-0,0.0836409,24449.7,-40000,0,46880.6,27666
step02_gravity_refstate-mantle.xmf,1421,5.16227e-06,3.01847e-06,0,9.2074e-07,-1.47187e+09,-1.47215e+09,-1.47256e+09,123057,-0.0682585,0.0243588,-0,0.0724746,27021.9,-51568.7,0,58219.5,123057
step02_gravity_refstate-mantle.xmf,1422,6.50411e-06,1.63775e-06,0,2.64938e-07,-1.64235e+09,-1.643e+09,-1.64322e+09,35408.9,-0.0432177,0.00519955,-0,0.0435294,33328,-56840.4,0,65890.7,35408.9
step02_gravity_refstate-mantle.xmf,1423,6.6941e-06,1.50862e-06,0,1.13015e-08,-1.74461e+09,-1.7453e+09,-1.7455e+09,1510.44,-0.031822,-2.47068e-20,-0,0.031822,35231.4,-60000,0,69579.1,1510.44
step02_gravity_refstate-mantle.xmf,1424,-4.37482e-07,4.96968e-06,0,3.30325e-07,-1.14285e+09,-1.14212e+09,-1.14279e+09,44148,-0.0129053,0.0712928,-0,0.0724514,25307.5,-41372.9,0,48499.3,44148
step02_gravity_refstate-mantle.xmf,1425,4.434e-06,3.23315e-06,0,1.05663e-06,-1.41393e+09,-1.41409e+09,-1.41452e+09,141218,-0.0602066,0.0301062,-0,0.0673144,26973.5,-49774.6,0,56613.4,141218
step02_gravity_refstate-mantle.xmf,1426,5.51717e-06,2.59222e-06,0,8.18256e-07,-1.50119e+09,-1.50158e+09,-1.50192e+09,109360,-0.0632823,0.0185447,-0,0.0659436,28601,-52475.7,0,59763.8,109360
step02_gravity_refstate-mantle.xmf,1427,3.64549e-06,3.47008e-06,0,1.11992e-06,-1.35906e+09,-1.35909e+09,-1.35955e+09,149677,-0.0515776,0.0360041,-0,0.0629011,26909.7,-48075.2,0,55094.1,149677
step02_gravity_refstate-mantle.xmf,1428,5.81446e-06,2.23292e-06,0,6.82491e-07,-1.53129e+09,-1.53176e+09,-1.53206e+09,91214.9,-0.0569436,0.0139708,-0,0.0586324,30204.8,-53406.5,0,61356.2,91214.9
step02_gravity_refstate-mantle.xmf,1429,6.05574e-06,1.91751e-06,0,5.28139e-07,-1.56086e+09,-1.56142e+09,-1.56167e+09,70585.8,-0.0489781,0.0104397,-0,0.0500784,31883.2,-54321,0,62986.6,70585.8
step02_gravity_refstate-mantle.xmf,1430,6.24556e-06,1.67193e-06,0,3.74765e-07,-1.59026e+09,-1.59087e+09,-1.5911e+09,50087.3,-0.0400946,0.00777235,-0,0.040841,33552.8,-55229.7,0,64622.8,50087.3
step02_gravity_refstate-mantle.xmf,1431,6.41949e-06,1.47045e-06,0,2.29398e-07,-1.62661e+09,-1.62727e+09,-1.62747e+09,30659.1,-0.0299135,0.00537053,-0,0.0303918,35327.7,-56353.3,0,66511.2,30659.1
step02_gravity_refstate-mantle.xmf,1432,6.62064e-06,1.38009e-06,0,9.34778e-08,-1.68811e+09,-1.68881e+09,-1.68899e+09,12493.3,-0.0234526,0.00247113,-0,0.0235824,36449.8,-58253.9,0,68717.6,12493.3
step02_gravity_refstate-mantle.xmf,1433,6.6678e-06,1.39359e-06,0,6.29738e-09,-1.74462e+09,-1.74533e+09,-1.74551e+09,841.645,-0.0162656,-2.56945e-20,-0,0.0162656,37559.4,-60000,0,70786.4,841.645
step02_gravity_refstate-mantle.xmf,1434,2.75571e-06,3.76296e-06,0,1.1031e-06,-1.30435e+09,-1.30422e+09,-1.30472e+09,147430,-0.0422115,0.0424112,-0,0.0598374,26834,-46380.1,0,53583.4,147430
step02_gravity_refstate-mantle.xmf,1435,5.96584e-07,4.5522e-06,0,7.00839e-07,-1.18929e+09,-1.18876e+09,-1.18937e+09,93667.1,-0.0217704,0.0603386,-0,0.0641459,26100.1,-42813.4,0,50141.8,93667.1
step02_gravity_refstate-mantle.xmf,1436,1.7063e-06,4.09472e-06,0,9.7064e-07,-1.24399e+09,-1.24367e+09,-1.24422e+09,129726,-0.0311265,0.0496468,-0,0.0585975,26867.8,-44509.2,0,51989.9,129726
step02_gravity_refstate-mantle.xmf,1437,-9.60418e-07,4.96406e-06,0,-7.73139e-08,-1.09852e+09,-1.09772e+09,-1.09839e+09,-10333,-0.0056114,0.0738845,-0,0.0740973,26077.3,-40000,0,47749.6,10333
step02_gravity_refstate-mantle.xmf,1438,4.85616e-06,2.79991e-06,0,9.63535e-07,-1.44134e+09,-1.44161e+09,-1.44199e+09,128776,-0.0567909,0.0237015,-0,0.0615384,28528.2,-50623.1,0,58108.1,128776
step02_gravity_refstate-mantle.xmf,1439,6.6169e-06,1.3265e-06,0,3.17441e-08,-1.69198e+09,-1.69268e+09,-1.69286e+09,4242.6,-0.0110717,0.00219148,-0,0.0112865,38324.8,-58373.3,0,69830,4242.6
step02_gravity_refstate-mantle.xmf,1440,6.68854e-06,1.34559e-06,0,-8.98893e-10,-1.74462e+09,-1.74533e+09,-1.74551e+09,-120.137,1.46431e-19,1.79982e-19,0,2.32025e-19,40000,-60000,0,72111,120.137
step02_gravity_refstate-mantle.xmf,1441,-7.24662e-09,4.60512e-06,0,3.82172e-07,-1.14314e+09,-1.14252e+09,-1.14314e+09,51077.3,-0.013335,0.0629166,-0,0.0643142,26951.5,-41383.7,0,49386.2,51077.3
step02_gravity_refstate-mantle.xmf,1442,4.08739e-06,3.06711e-06,0,1.05502e-06,-1.38359e+09,-1.38373e+09,-1.38414e+09,141004,-0.049388,0.0291127,-0,0.05733,28460,-48834.9,0,56522.7,141004
step02_gravity_refstate-mantle.xmf,1443,5.22598e-06,2.4159e-06,0,8.31788e-07,-1.47015e+09,-1.47052e+09,-1.47084e+09,111168,-0.051838,0.0184563,-0,0.0550256,30147.3,-51514.4,0,59687.5,111168
step02_gravity_refstate-mantle.xmf,1444,3.26268e-06,3.3575e-06,0,1.06947e-06,-1.32757e+09,-1.32755e+09,-1.328e+09,142935,-0.0415868,0.0350413,-0,0.0543816,28329.4,-47099.5,0,54962.8,142935
step02_gravity_refstate-mantle.xmf,1445,5.54627e-06,2.08741e-06,0,6.71479e-07,-1.50037e+09,-1.50083e+09,-1.50111e+09,89743.2,-0.0453338,0.014232,-0,0.0475153,31833.5,-52449.4,0,61354,89743.2
step02_gravity_refstate-mantle.xmf,1446,5.81832e-06,1.80966e-06,0,4.99268e-07,-1.53055e+09,-1.53109e+09,-1.53133e+09,66727.2,-0.0375537,0.0109999,-0,0.0391315,33531.2,-53382.9,0,63040.2,66727.2
step02_gravity_refstate-mantle.xmf,1447,6.03661e-06,1.59999e-06,0,3.38348e-07,-1.55977e+09,-1.56036e+09,-1.56057e+09,45220.2,-0.0290104,0.00859635,-0,0.0302572,35180.2,-54286.2,0,64688.8,45220.2
step02_gravity_refstate-mantle.xmf,1448,6.42844e-06,1.34735e-06,0,9.9988e-08,-1.63188e+09,-1.63255e+09,-1.63273e+09,13363.4,-0.0136109,0.00470326,-0,0.0144006,37879.4,-56515.6,0,68035.8,13363.4
step02_gravity_refstate-mantle.xmf,1449,6.57138e-06,1.29392e-06,0,2.39778e-09,-1.67087e+09,-1.67158e+09,-1.67175e+09,320.463,1.73358e-19,0.00301583,0,0.00301583,40000,-57721,0,70226.2,320.463
step02_gravity_refstate-mantle.xmf,1450,2.47058e-06,3.66422e-06,0,1.02203e-06,-1.27941e+09,-1.27925e+09,-1.27974e+09,136595,-0.0346465,0.0409867,-0,0.0536683,28098.6,-45607.4,0,53568.3,136595
step02_gravity_refstate-mantle.xmf,1451,9.39429e-07,4.20671e-06,0,6.90161e-07,-1.18967e+09,-1.18924e+09,-1.1898e+09,92240,-0.0205414,0.0529998,-0,0.0568413,27799.8,-42826.6,0,51058.3,92240
step02_gravity_refstate-mantle.xmf,1452,-4.76798e-07,4.60077e-06,0,1.48529e-08,-1.09844e+09,-1.09776e+09,-1.09838e+09,1985.09,-0.00684415,0.0655463,-0,0.0659026,27786.5,-40000,0,48704.1,1985.09
step02_gravity_refstate-mantle.xmf,1453,4.52276e-06,2.66704e-06,0,9.3445e-07,-1.41041e+09,-1.41065e+09,-1.41101e+09,124889,-0.0458026,0.0232801,-0,0.0513794,30084.3,-49665,0,58066.2,124889
step02_gravity_refstate-mantle.xmf,1454,6.17454e-06,1.46837e-06,0,2.10797e-07,-1.58315e+09,-1.58378e+09,-1.58397e+09,28173,-0.0203797,0.00701459,-0,0.0215531,36695.6,-55009,0,66125.3,28173
step02_gravity_refstate-mantle.xmf,1455,1.83728e-06,3.80061e-06,0,8.72711e-07,-1.23593e+09,-1.23567e+09,-1.23618e+09,116638,-0.0265264,0.0440918,-0,0.0514562,28706.9,-44260.5,0,52754.9,116638
step02_gravity_refstate-mantle.xmf,1456,4.04728e-07,4.26143e-06,0,4.0511e-07,-1.14454e+09,-1.14402e+09,-1.14459e+09,54142.9,-0.013211,0.0555956,-0,0.0571437,28688.2,-41428.8,0,50392.1,54142.9
step02_gravity_refstate-mantle.xmf,1457,3.69815e-06,2.98441e-06,0,9.83813e-07,-1.35041e+09,-1.3505e+09,-1.3509e+09,131487,-0.0390223,0.0287428,-0,0.0484653,29979.8,-47807,0,56429.6,131487
step02_gravity_refstate-mantle.xmf,1458,4.91283e-06,2.31703e-06,0,7.81114e-07,-1.43933e+09,-1.43968e+09,-1.43999e+09,104396,-0.0408367,0.0184921,-0,0.0448285,31753.3,-50560.3,0,59704.4,104396
step02_gravity_refstate-mantle.xmf,1459,2.7392e-06,3.35266e-06,0,9.36784e-07,-1.28577e+09,-1.28569e+09,-1.28614e+09,125201,-0.0312859,0.0356206,-0,0.0474092,29751.5,-45804.8,0,54619,125201
step02_gravity_refstate-mantle.xmf,1460,5.25441e-06,2.02394e-06,0,6.07804e-07,-1.46947e+09,-1.4699e+09,-1.47017e+09,81233,-0.0345342,0.0146915,-0,0.0375294,33440.6,-51492.8,0,61398.6,81233
step02_gravity_refstate-mantle.xmf,1461,5.53949e-06,1.78573e-06,0,4.31785e-07,-1.49827e+09,-1.49877e+09,-1.49901e+09,57708,-0.0271073,0.0118543,-0,0.029586,35101.4,-52383.7,0,63056.8,57708
step02_gravity_refstate-mantle.xmf,1462,5.78075e-06,1.60467e-06,0,2.68829e-07,-1.52678e+09,-1.52734e+09,-1.52755e+09,35929.1,-0.0189933,0.00968906,-0,0.0213219,36709.3,-53265.6,0,64690,35929.1
step02_gravity_refstate-mantle.xmf,1463,6.02892e-06,1.45959e-06,0,1.23503e-07,-1.56063e+09,-1.56124e+09,-1.56144e+09,16506.2,-0.0104083,0.00774811,-0,0.0129756,38270.9,-54312.5,0,66441.8,16506.2
step02_gravity_refstate-mantle.xmf,1464,6.26266e-06,1.36146e-06,0,1.64004e-09,-1.59802e+09,-1.59868e+09,-1.59886e+09,219.192,1.24115e-19,0.00600789,0,0.00600789,40000,-55468.9,0,68387.1,219.192
step02_gravity_refstate-mantle.xmf,1465,1.25351e-06,3.89758e-06,0,6.47245e-07,-1.19083e+09,-1.19047e+09,-1.19099e+09,86504.3,-0.0188315,0.0469565,-0,0.0505919,29520.8,-42863.5,0,52045.7,86504.3
step02_gravity_refstate-mantle.xmf,1466,-4.32598e-08,4.26921e-06,0,7.36368e-08,-1.09838e+09,-1.0978e+09,-1.09837e+09,9841.55,-0.00731428,0.0584984,-0,0.0589539,29581.4,-40000,0,49750,9841.55
step02_gravity_refstate-mantle.xmf,1467,4.16513e-06,2.60837e-06,0,8.43162e-07,-1.37817e+09,-1.37838e+09,-1.37873e+09,112689,-0.0354744,0.023284,-0,0.0424332,31672.9,-48666.7,0,58065.7,112689
step02_gravity_refstate-mantle.xmf,1468,1.9562e-06,3.58687e-06,0,7.7436e-07,-1.23123e+09,-1.23101e+09,-1.23149e+09,103493,-0.0230433,0.040362,-0,0.0464767,30199.1,-44115.4,0,53461.7,103493
step02_gravity_refstate-mantle.xmf,1469,7.78756e-07,3.9536e-06,0,4.00418e-07,-1.14676e+09,-1.14633e+09,-1.14686e+09,53515.9,-0.0124314,0.0494623,-0,0.0510006,30489.2,-41499.2,0,51495.4,53515.9
step02_gravity_refstate-mantle.xmf,1470,3.32223e-06,2.94819e-06,0,8.47075e-07,-1.31691e+09,-1.31696e+09,-1.31736e+09,113212,-0.0295574,0.0287485,-0,0.0412325,31560.6,-46769.7,0,56422.3,113212
step02_gravity_refstate-mantle.xmf,1471,4.57434e-06,2.29257e-06,0,6.8188e-07,-1.40745e+09,-1.40776e+09,-1.40807e+09,91133.3,-0.0307212,0.0189353,-0,0.0360879,33341.5,-49573.2,0,59742.4,91133.3
step02_gravity_refstate-mantle.xmf,1472,4.90874e-06,2.04245e-06,0,5.07018e-07,-1.43507e+09,-1.43546e+09,-1.43573e+09,67762.9,-0.0246505,0.0156655,-0,0.0292071,34990.9,-50428,0,61378.7,67762.9
step02_gravity_refstate-mantle.xmf,1473,5.19968e-06,1.8363e-06,0,3.27023e-07,-1.46206e+09,-1.46251e+09,-1.46276e+09,43706.7,-0.0173735,0.0131517,-0,0.0217901,36657.4,-51263.1,0,63021.2,43706.7
step02_gravity_refstate-mantle.xmf,1474,5.49283e-06,1.66379e-06,0,1.52674e-07,-1.49277e+09,-1.49328e+09,-1.4935e+09,20404.9,-0.00918586,0.011018,-0,0.0143449,38325.2,-52213.1,0,64769,20404.9
step02_gravity_refstate-mantle.xmf,1475,5.77169e-06,1.53544e-06,0,1.61672e-09,-1.52588e+09,-1.52645e+09,-1.52666e+09,216.074,1.05634e-19,0.00923855,0,0.00923855,40000,-53237.6,0,66590.1,216.074
step02_gravity_refstate-mantle.xmf,1476,2.50041e-06,3.268e-06,0,7.71548e-07,-1.25952e+09,-1.25942e+09,-1.25985e+09,103117,-0.0237851,0.0346206,-0,0.0420038,31383.9,-44992.1,0,54856.6,103117
step02_gravity_refstate-mantle.xmf,1477,1.61e-06,3.60315e-06,0,6.0327e-07,-1.19849e+09,-1.19822e+09,-1.19871e+09,80627.1,-0.0173233,0.0414769,-0,0.0449492,31229.3,-43101.9,0,53226.3,80627.1
step02_gravity_refstate-mantle.xmf,1478,3.34091e-07,3.97721e-06,0,1.02394e-07,-1.09832e+09,-1.09783e+09,-1.09836e+09,13684.9,-0.00704533,0.0527015,-0,0.0531703,31466.4,-40000,0,50893.4,13684.9
step02_gravity_refstate-mantle.xmf,1479,3.80581e-06,2.60811e-06,0,7.07693e-07,-1.34588e+09,-1.34604e+09,-1.34639e+09,94583.2,-0.0263088,0.0237384,-0,0.0354354,33238.2,-47666.9,0,58111.2,94583.2
step02_gravity_refstate-mantle.xmf,1480,1.14347e-06,3.66859e-06,0,3.72953e-07,-1.15193e+09,-1.1516e+09,-1.15209e+09,49845.2,-0.0110608,0.043993,-0,0.0453622,32456.1,-41660.8,0,52811.2,49845.2
step02_gravity_refstate-mantle.xmf,1481,3.03494e-06,2.92221e-06,0,6.79933e-07,-1.28861e+09,-1.28863e+09,-1.28902e+09,90873.1,-0.0216283,0.0287085,-0,0.0359439,33194,-45893.5,0,56639.7,90873.1
step02_gravity_refstate-mantle.xmf,1482,4.18708e-06,2.34149e-06,0,5.52583e-07,-1.37222e+09,-1.37247e+09,-1.37278e+09,73852.7,-0.0217334,0.020043,-0,0.0295646,34852.1,-48482.5,0,59709.5,73852.7
step02_gravity_refstate-mantle.xmf,1483,4.4835e-06,2.13888e-06,0,3.7086e-07,-1.39517e+09,-1.39548e+09,-1.39577e+09,49565.5,-0.0155323,0.0173173,-0,0.0232625,36543.8,-49192.7,0,61281.1,49565.5
step02_gravity_refstate-mantle.xmf,1484,4.82016e-06,1.94401e-06,0,1.80215e-07,-1.42434e+09,-1.42473e+09,-1.42499e+09,24085.8,-0.00831222,0.0148475,-0,0.0170159,38274,-50095.6,0,63043.4,24085.8
step02_gravity_refstate-mantle.xmf,1485,5.12862e-06,1.79646e-06,0,2.0164e-09,-1.45426e+09,-1.4547e+09,-1.45494e+09,269.492,9.22952e-20,0.012927,0,0.012927,40000,-51021.4,0,64831.9,269.492
step02_gravity_refstate-mantle.xmf,1486,2.11947e-06,3.26131e-06,0,5.3817e-07,-1.21919e+09,-1.21903e+09,-1.21947e+09,71926.4,-0.0153584,0.0351293,-0,0.0383399,33347.7,-43743.7,0,55005.3,71926.4
step02_gravity_refstate-mantle.xmf,1487,6.43916e-07,3.73195e-06,0,1.04446e-07,-1.09827e+09,-1.09786e+09,-1.09836e+09,13959.2,-0.00608168,0.0481304,-0,0.0485131,33445.9,-40000,0,52140.4,13959.2
step02_gravity_refstate-mantle.xmf,1488,3.51832e-06,2.6412e-06,0,5.79552e-07,-1.31996e+09,-1.32008e+09,-1.32043e+09,77457.2,-0.0197219,0.0244049,-0,0.0313776,34506.7,-46864.4,0,58197.8,77457.2
step02_gravity_refstate-mantle.xmf,1489,1.41406e-06,3.43907e-06,0,2.95106e-07,-1.15512e+09,-1.15485e+09,-1.15531e+09,39441,-0.0086994,0.0400383,-0,0.0409725,34493.3,-41760.5,0,54163.9,39441
step02_gravity_refstate-mantle.xmf,1490,2.90805e-06,2.86452e-06,0,4.94103e-07,-1.27118e+09,-1.27118e+09,-1.27156e+09,66036.9,-0.0150555,0.0280845,-0,0.0318655,34968.9,-45353.9,0,57269.5,66036.9
step02_gravity_refstate-mantle.xmf,1491,3.59914e-06,2.52168e-06,0,3.97166e-07,-1.32191e+09,-1.32205e+09,-1.32239e+09,53081.3,-0.0135157,0.0227527,-0,0.0264643,36280.2,-46924.9,0,59314.4,53081.3
step02_gravity_refstate-mantle.xmf,1492,4.01852e-06,2.28694e-06,0,1.94583e-07,-1.35346e+09,-1.35369e+09,-1.35399e+09,26006,-0.00721342,0.0195058,-0,0.0207969,38206.3,-47901.5,0,61272.1,26006
step02_gravity_refstate-mantle.xmf,1493,4.3684e-06,2.12037e-06,0,2.85947e-09,-1.38294e+09,-1.38324e+09,-1.38353e+09,382.168,7.34324e-20,0.0172458,0,0.0172458,40000,-48814.3,0,63109.7,382.168
step02_gravity_refstate-mantle.xmf,1494,8.79242e-07,3.54347e-06,0,8.51198e-08,-1.09824e+09,-1.09788e+09,-1.09835e+09,11376.3,-0.00450247,0.0447849,-0,0.0450107,35524.6,-40000,0,53497.6,11376.3
step02_gravity_refstate-mantle.xmf,1495,2.16827e-06,3.11558e-06,0,3.39559e-07,-1.20945e+09,-1.20933e+09,-1.20974e+09,45382.1,-0.00964644,0.0330476,-0,0.0344267,35708.6,-43443,0,56235.2,45382.1
step02_gravity_refstate-mantle.xmf,1496,1.56111e-06,3.29354e-06,0,1.85994e-07,-1.15404e+09,-1.1538e+09,-1.15424e+09,24858.1,-0.00546558,0.0376995,-0,0.0380937,36630,-41727.6,0,55524.3,24858.1
step02_gravity_refstate-mantle.xmf,1497,2.81088e-06,2.82682e-06,0,3.27595e-07,-1.25775e+09,-1.25774e+09,-1.25812e+09,43783,-0.00973524,0.0278626,-0,0.0295144,36584.3,-44938.3,0,57947.1,43783
step02_gravity_refstate-mantle.xmf,1498,3.14071e-06,2.65787e-06,0,1.84763e-07,-1.28128e+09,-1.28135e+09,-1.2817e+09,24693.6,-0.00577745,0.0250404,-0,0.0256982,38167.5,-45667.2,0,59516.8,24693.6
step02_gravity_refstate-mantle.xmf,1499,3.53123e-06,2.47848e-06,0,3.88353e-09,-1.31176e+09,-1.3119e+09,-1.31223e+09,519.034,4.93111e-20,0.022311,0,0.022311,40000,-46610.6,0,61421.1,519.034
step02_gravity_refstate-mantle.xmf,1500,1.02785e-06,3.42338e-06,0,4.70816e-08,-1.09821e+09,-1.09789e+09,-1.09835e+09,6292.46,-0.00242088,0.0427019,-0,0.0427704,37707.6,-40000,0,54971.4,6292.46
step02_gravity_refstate-mantle.xmf,1501,2.24825e-06,3.00204e-06,0,1.61878e-07,-1.20814e+09,-1.20804e+09,-1.20844e+09,21635,-0.00460837,0.031549,-0,0.0318838,37965.5,-43402.6,0,57664.2,21635
step02_gravity_refstate-mantle.xmf,1502,1.58666e-06,3.2412e-06,0,8.45257e-08,-1.1496e+09,-1.14938e+09,-1.14981e+09,11296.9,-0.00258432,0.0370424,-0,0.0371324,38383.9,-41590.6,0,56596,11296.9
step02_gravity_refstate-mantle.xmf,1503,1.05927e-06,3.39143e-06,0,-8.84335e-09,-1.09821e+09,-1.0979e+09,-1.09835e+09,-1181.91,2.24292e-19,0.0419752,0,0.0419752,40000,-40000,0,56568.5,1181.91
step02_gravity_refstate-mantle.xmf,1504,2.66616e-06,2.83561e-06,0,5.71572e-09,-1.24058e+09,-1.24056e+09,-1.24093e+09,763.906,2.54724e-20,0.0281666,0,0.0281666,40000,-44407.1,0,59766.1,763.906
step02_gravity_refstate-mantle.xmf,1505,1.82347e-06,3.15319e-06,0,-6.01844e-09,-1.1694e+09,-1.16922e+09,-1.16964e+09,-804.364,4.17077e-19,0.0347649,0,0.0347649,40000,-42203.5,0,58147.6,804.364
step02_gravity_refstate-intrusion.xmf,0,-1.13294e-05,7.41949e-05,0,8.21977e-05,-1.32397e+09,-1.31807e+09,-1.32319e+09,5.66943e+06,0.0731196,0.703876,0,0.707664,-2000,-46998.5,-0,47041,5.66943e+06
step02_gravity_refstate-intrusion.xmf,1,-1.21699e-05,6.69491e-05,0,9.25604e-05,-1.3081e+09,-1.30264e+09,-1.30726e+09,6.38418e+06,0.0657615,0.739145,0,0.742065,-2000,-46498.1,-0,46541.1,6.38418e+06
step02_gravity_refstate-intrusion.xmf,2,-1.16569e-05,5.94102e-05,0,0.000101106,-1.29211e+09,-1.28721e+09,-1.29131e+09,6.97359e+06,0.0562357,0.770749,0,0.772797,-2000,-45998.2,-0,46041.6,6.97359e+06
step02_gravity_refstate-intrusion.xmf,3,-1.18105e-05,7.99742e-05,0,6.73905e-05,-1.34e+09,-1.33367e+09,-1.33919e+09,4.64813e+06,0.0765191,0.665349,0,0.669735,-2000,-47498.2,-0,47540.3,4.64813e+06
step02_gravity_refstate-intrusion.xmf,4,-1.01027e-05,5.17461e-05,0,0.000107587,-1.27604e+09,-1.27178e+09,-1.27535e+09,7.42063e+06,0.0454452,0.798464,0,0.799756,-2000,-45498.8,-0,45542.7,7.42063e+06
step02_gravity_refstate-intrusion.xmf,5,-7.97615e-06,4.37441e-05,0,0.00011256,-1.25994e+09,-1.25637e+09,-1.25939e+09,7.76359e+06,0.0338635,0.822187,0,0.822884,-2000,-44999.8,-0,45044.2,7.76359e+06
step02_gravity_refstate-intrusion.xmf,6,8.19835e-06,2.3739e-06,0,0.000113582,-1.17877e+09,-1.17918e+09,-1.17934e+09,7.83414e+06,-0.0317342,0.879759,-0,0.880331,-2000,-42501.2,-0,42548.2,7.83414e+06
step02_gravity_refstate-intrusion.xmf,7,1.15406e-05,-5.66566e-06,0,0.000108733,-1.16253e+09,-1.16372e+09,-1.16333e+09,7.49963e+06,-0.046439,0.879035,-0,0.880261,-2000,-42001.8,-0,42049.4,7.49963e+06
step02_gravity_refstate-intrusion.xmf,8,-5.45099e-06,3.53446e-05,0,0.000116105,-1.24378e+09,-1.24097e+09,-1.24341e+09,8.00815e+06,0.0217046,0.841885,0,0.842164,-2000,-44500.2,-0,44545.1,8.00815e+06
step02_gravity_refstate-intrusion.xmf,9,4.69173e-06,1.06377e-05,0,0.000116627,-1.19501e+09,-1.1946e+09,-1.19534e+09,8.04414e+06,-0.0176199,0.876438,-0,0.876615,-2000,-43000.2,-0,43046.7,8.04414e+06
step02_gravity_refstate-intrusion.xmf,10,-2.1785e-06,2.73012e-05,0,0.000117672,-1.22753e+09,-1.22549e+09,-1.22738e+09,8.11621e+06,0.00906338,0.857511,0,0.857559,-2000,-44000,-0,44045.4,8.11621e+06
step02_gravity_refstate-intrusion.xmf,11,1.25068e-06,1.91248e-05,0,0.000117909,-1.21125e+09,-1.21002e+09,-1.21134e+09,8.13258e+06,-0.00403684,0.869033,-0,0.869043,-2000,-43499.8,-0,43545.8,8.13258e+06
step02_gravity_refstate-intrusion.xmf,12,1.43576e-05,-1.34674e-05,0,0.000101936,-1.14632e+09,-1.14824e+09,-1.14731e+09,7.03086e+06,-0.061716,0.874323,-0,0.876499,-2000,-41501.9,-0,41550,7.03086e+06
step02_gravity_refstate-intrusion.xmf,13,-3.17369e-05,0.000105282,0,4.48702e-05,-1.35744e+09,-1.34799e+09,-1.35525e+09,3.09484e+06,0.0706719,0.624879,0,0.628863,-2000,-48000,-0,48041.6,3.09484e+06
step02_gravity_refstate-intrusion.xmf,14,1.78435e-05,-2.15171e-05,0,9.1846e-05,-1.13003e+09,-1.13275e+09,-1.13127e+09,6.33491e+06,-0.077393,0.865713,-0,0.869166,-2000,-41001.5,-0,41050.3,6.33491e+06
step02_gravity_refstate-intrusion.xmf,15,2.18273e-05,-2.92059e-05,0,7.80118e-05,-1.1137e+09,-1.11722e+09,-1.11521e+09,5.38072e+06,-0.0928497,0.853392,-0,0.858428,-2000,-40501.8,-0,40551.1,5.38072e+06
step02_gravity_refstate-intrusion.xmf,16,4.17484e-05,-5.00523e-05,0,5.69042e-05,-1.09612e+09,-1.10245e+09,-1.099e+09,3.92486e+06,-0.105097,0.838174,-0,0.844737,-2000,-40000,-0,40050,3.92486e+06
step02_gravity_refstate-intrusion.xmf,17,-3.34533e-05,0.000146462,0,4.74348e-05,-1.35625e+09,-1.34384e+09,-1.35394e+09,3.27173e+06,0.0541631,0.652269,0,0.654514,-1499.28,-48000,-0,48023.4,3.27173e+06
step02_gravity_refstate-intrusion.xmf,18,-3.56847e-05,0.000165355,0,3.28915e-05,-1.35585e+09,-1.34198e+09,-1.35338e+09,2.26863e+06,0.0368459,0.676472,0,0.677475,-999.317,-48000,-0,48010.4,2.26863e+06
step02_gravity_refstate-intrusion.xmf,19,-3.70521e-05,0.000175203,0,1.67289e-05,-1.35566e+09,-1.34102e+09,-1.3531e+09,1.15384e+06,0.0186477,0.691628,0,0.69188,-499.831,-48000,-0,48002.6,1.15384e+06
step02_gravity_refstate-intrusion.xmf,20,-3.76118e-05,0.000178454,0,-5.91973e-07,-1.35561e+09,-1.3407e+09,-1.35301e+09,-40830.2,9.20226e-06,0.696763,0,0.696763,2.07592e-10,-48000,0,48000,40830.2
step02_gravity_refstate-intrusion.xmf,21,-3.7132e-05,0.000175478,0,-1.75388e-05,-1.35566e+09,-1.34099e+09,-1.35309e+09,-1.2097e+06,-0.0186643,0.691628,-0,0.691879,499.831,-48000,0,48002.6,1.2097e+06
step02_gravity_refstate-intrusion.xmf,22,-3.59018e-05,0.000166065,0,-3.45562e-05,-1.35584e+09,-1.34191e+09,-1.35337e+09,-2.38345e+06,-0.0368304,0.676473,-0,0.677475,999.317,-48000,0,48010.4,2.38345e+06
step02_gravity_refstate-intrusion.xmf,23,-3.42381e-05,0.000150554,0,-5.16165e-05,-1.35619e+09,-1.34344e+09,-1.35383e+09,-3.56015e+06,-0.0541448,0.652298,-0,0.654542,1499.28,-48000,0,48023.4,3.56015e+06
step02_gravity_refstate-intrusion.xmf,24,-1.60135e-05,8.10531e-05,0,-4.84225e-05,-1.35664e+09,-1.34995e+09,-1.35554e+09,-3.33985e+06,-0.0706967,0.624919,-0,0.628905,2000,-48000,0,48041.6,3.33985e+06
step02_gravity_refstate-intrusion.xmf,25,-1.21484e-05,8.00384e-05,0,-6.8334e-05,-1.34004e+09,-1.33368e+09,-1.3392e+09,-4.71321e+06,-0.0765124,0.665348,-0,0.669733,2000,-47498.2,0,47540.3,4.71321e+06
step02_gravity_refstate-intrusion.xmf,26,-1.20941e-05,7.39252e-05,0,-8.19831e-05,-1.32406e+09,-1.31812e+09,-1.32322e+09,-5.65463e+06,-0.0731253,0.703877,-0,0.707666,2000,-46998.5,0,47041,5.65463e+06
step02_gravity_refstate-intrusion.xmf,27,-1.22232e-05,6.69357e-05,0,-9.26254e-05,-1.3081e+09,-1.30264e+09,-1.30726e+09,-6.38866e+06,-0.0657677,0.739145,-0,0.742065,2000,-46498.1,0,46541.1,6.38866e+06
step02_gravity_refstate-intrusion.xmf,28,-1.16282e-05,5.94046e-05,0,-0.000101104,-1.29211e+09,-1.28721e+09,-1.29131e+09,-6.97347e+06,-0.0562365,0.770749,-0,0.772798,2000,-45998.2,0,46041.6,6.97347e+06
step02_gravity_refstate-intrusion.xmf,29,-1.02297e-05,5.15521e-05,0,-0.000107747,-1.27606e+09,-1.2718e+09,-1.27536e+09,-7.43168e+06,-0.045442,0.798464,-0,0.799756,2000,-45498.8,0,45542.7,7.43168e+06
step02_gravity_refstate-intrusion.xmf,30,-8.12985e-06,4.35111e-05,0,-0.00011271,-1.25996e+09,-1.2564e+09,-1.2594e+09,-7.77394e+06,-0.0338583,0.822186,-0,0.822883,2000,-44999.8,0,45044.2,7.77394e+06
step02_gravity_refstate-intrusion.xmf,31,-5.45492e-06,3.53587e-05,0,-0.000116068,-1.24378e+09,-1.24097e+09,-1.24341e+09,-8.00555e+06,-0.0217016,0.841884,-0,0.842164,2000,-44500.2,0,44545.1,8.00555e+06
step02_gravity_refstate-intrusion.xmf,32,-2.35967e-06,2.71466e-05,0,-0.000117873,-1.22755e+09,-1.22551e+09,-1.22739e+09,-8.13005e+06,-0.00906072,0.857512,-0,0.85756,2000,-44000,0,44045.4,8.13005e+06
step02_gravity_refstate-intrusion.xmf,33,9.85357e-07,1.8919e-05,0,-0.000118129,-1.21129e+09,-1.21005e+09,-1.21136e+09,-8.14774e+06,0.00403923,0.86903,0,0.86904,2000,-43499.8,0,43545.8,8.14774e+06
step02_gravity_refstate-intrusion.xmf,34,1.12221e-05,-5.57039e-06,0,-0.000109013,-1.16256e+09,-1.16372e+09,-1.16334e+09,-7.51895e+06,0.0464353,0.879037,0,0.880263,2000,-42001.8,0,42049.4,7.51895e+06
step02_gravity_refstate-intrusion.xmf,35,8.36993e-06,2.60958e-06,0,-0.000113757,-1.17875e+09,-1.17915e+09,-1.17933e+09,-7.84615e+06,0.0317282,0.879759,0,0.880331,2000,-42501.2,0,42548.2,7.84615e+06
step02_gravity_refstate-intrusion.xmf,36,4.92257e-06,1.07284e-05,0,-0.000116765,-1.19499e+09,-1.19459e+09,-1.19533e+09,-8.05364e+06,0.0176166,0.876436,0,0.876613,2000,-43000.2,0,43046.7,8.05364e+06
step02_gravity_refstate-intrusion.xmf,37,1.44176e-05,-1.34575e-05,0,-0.000101893,-1.14631e+09,-1.14824e+09,-1.14731e+09,-7.02788e+06,0.0617159,0.874327,0,0.876503,2000,-41501.9,0,41550,7.02788e+06
step02_gravity_refstate-intrusion.xmf,38,2.18686e-05,-2.84462e-05,0,-7.79169e-05,-1.11367e+09,-1.11714e+09,-1.11518e+09,-5.37417e+06,0.0928491,0.853398,0,0.858434,2000,-40501.8,0,40551.1,5.37417e+06
step02_gravity_refstate-intrusion.xmf,39,1.82984e-05,-2.09785e-05,0,-9.2414e-05,-1.12997e+09,-1.13268e+09,-1.13123e+09,-6.37408e+06,0.0773924,0.865713,0,0.869165,2000,-41001.5,0,41050.3,6.37408e+06
step02_gravity_refstate-intrusion.xmf,40,3.08202e-05,-3.22253e-05,0,-6.02319e-05,-1.09664e+09,-1.10099e+09,-1.09877e+09,-4.15438e+06,0.105132,0.838177,0,0.844745,2000,-40000,0,40050,4.15438e+06
step02_gravity_refstate-intrusion.xmf,41,4.82492e-05,-8.42551e-05,0,5.00373e-05,-1.09659e+09,-1.10573e+09,-1.09992e+09,3.45123e+06,-0.0824717,0.89445,-0,0.898244,-1499.28,-40000,-0,40028.1,3.45123e+06
step02_gravity_refstate-intrusion.xmf,42,5.41367e-05,-0.000100676,0,3.3774e-05,-1.09654e+09,-1.10721e+09,-1.10027e+09,2.3295e+06,-0.0568489,0.937456,-0,0.939178,-999.317,-40000,-0,40012.5,2.3295e+06
step02_gravity_refstate-intrusion.xmf,43,5.74599e-05,-0.000109232,0,1.68887e-05,-1.09648e+09,-1.10798e+09,-1.10044e+09,1.16487e+06,-0.0289776,0.963615,-0,0.964051,-499.831,-40000,-0,40003.1,1.16487e+06
step02_gravity_refstate-intrusion.xmf,44,5.85672e-05,-0.000111973,0,-2.13095e-07,-1.09646e+09,-1.10822e+09,-1.1005e+09,-14697.8,-4.48038e-06,0.972391,-0,0.972391,-2.07592e-10,-40000,-0,40000,14697.8
step02_gravity_refstate-intrusion.xmf,45,5.75613e-05,-0.000109355,0,-1.73656e-05,-1.09648e+09,-1.10799e+09,-1.10045e+09,-1.19776e+06,0.0289707,0.96362,0,0.964055,499.831,-40000,0,40003.1,1.19776e+06
step02_gravity_refstate-intrusion.xmf,46,5.43575e-05,-0.000101233,0,-3.4615e-05,-1.09653e+09,-1.10726e+09,-1.10028e+09,-2.3875e+06,0.0568436,0.937462,0,0.939184,999.317,-40000,0,40012.5,2.3875e+06
step02_gravity_refstate-intrusion.xmf,47,4.82679e-05,-8.60926e-05,0,-5.27358e-05,-1.09665e+09,-1.10592e+09,-1.09998e+09,-3.63735e+06,0.0824642,0.894462,0,0.898255,1499.28,-40000,0,40028.1,3.63735e+06
step02_gravity_refstate-intrusion.xmf,48,-2.50605e-05,9.41281e-05,0,6.06814e-05,-1.31915e+09,-1.31093e+09,-1.31742e+09,4.18539e+06,0.0634458,0.781248,0,0.78382,-1594,-46826.7,-0,46853.9,4.18539e+06
step02_gravity_refstate-intrusion.xmf,49,-2.60646e-05,0.000102176,0,5.37584e-05,-1.33263e+09,-1.32379e+09,-1.33084e+09,3.70789e+06,0.0688389,0.732711,0,0.735938,-1650.88,-47248.4,-0,47277.2,3.70789e+06
step02_gravity_refstate-intrusion.xmf,50,-2.26237e-05,8.13333e-05,0,6.91197e-05,-1.30282e+09,-1.29565e+09,-1.30126e+09,4.7674e+06,0.0552453,0.828591,0,0.830431,-1575.24,-46317,-0,46343.8,4.7674e+06
step02_gravity_refstate-intrusion.xmf,51,-3.92316e-05,0.000130791,0,3.85376e-05,-1.33393e+09,-1.3222e+09,-1.33122e+09,2.65806e+06,0.0549811,0.770535,0,0.772494,-1222.44,-47276.3,-0,47292.1,2.65806e+06
step02_gravity_refstate-intrusion.xmf,52,-3.5422e-05,0.000110181,0,4.17162e-05,-1.31491e+09,-1.30487e+09,-1.31247e+09,2.8773e+06,0.047839,0.848628,0,0.849975,-1136.35,-46679.6,-0,46693.4,2.8773e+06
step02_gravity_refstate-intrusion.xmf,53,-1.90547e-05,6.86193e-05,0,7.72669e-05,-1.28589e+09,-1.27984e+09,-1.28458e+09,5.32934e+06,0.0457078,0.866738,0,0.867942,-1582.63,-45792.1,-0,45819.4,5.32934e+06
step02_gravity_refstate-intrusion.xmf,54,-3.21267e-05,0.000119631,0,4.68228e-05,-1.34524e+09,-1.33477e+09,-1.34303e+09,3.22951e+06,0.0678301,0.691103,0,0.694424,-1636.94,-47636.7,-0,47664.8,3.22951e+06
step02_gravity_refstate-intrusion.xmf,55,-1.45687e-05,5.65488e-05,0,8.38029e-05,-1.26825e+09,-1.26335e+09,-1.26725e+09,5.78015e+06,0.0349761,0.898095,0,0.898775,-1596.46,-45249,-0,45277.2,5.78015e+06
step02_gravity_refstate-intrusion.xmf,56,-9.95976e-06,4.46628e-05,0,8.85889e-05,-1.25089e+09,-1.24713e+09,-1.25021e+09,6.11026e+06,0.0237839,0.922756,0,0.923062,-1607.61,-44715.2,-0,44744,6.11026e+06
step02_gravity_refstate-intrusion.xmf,57,8.89336e-06,3.52213e-06,0,8.73336e-05,-1.1886e+09,-1.18897e+09,-1.18922e+09,6.02367e+06,-0.0198328,0.975512,-0,0.975714,-1575.69,-42808.2,-0,42837.2,6.02367e+06
step02_gravity_refstate-intrusion.xmf,58,1.43684e-05,-7.78873e-06,0,8.43753e-05,-1.17165e+09,-1.17318e+09,-1.17264e+09,5.81963e+06,-0.0329515,0.972205,-0,0.972763,-1587.81,-42290.1,-0,42319.9,5.81963e+06
step02_gravity_refstate-intrusion.xmf,59,2.00084e-05,-1.96768e-05,0,7.91148e-05,-1.1546e+09,-1.15733e+09,-1.15598e+09,5.45679e+06,-0.0468234,0.963797,-0,0.964934,-1595.55,-41769,-0,41799.5,5.45679e+06
step02_gravity_refstate-intrusion.xmf,60,-2.94956e-05,8.95122e-05,0,4.92401e-05,-1.29647e+09,-1.28826e+09,-1.29443e+09,3.39625e+06,0.0404883,0.90512,0,0.906026,-1138.49,-46107.3,-0,46121.4,3.39625e+06
step02_gravity_refstate-intrusion.xmf,61,-3.95835e-05,0.000146275,0,3.90304e-05,-1.34663e+09,-1.33381e+09,-1.3439e+09,2.69205e+06,0.0531079,0.713542,0,0.715516,-1242.16,-47683.5,-0,47699.7,2.69205e+06
step02_gravity_refstate-intrusion.xmf,62,-5.86285e-06,3.44679e-05,0,8.98911e-05,-1.23534e+09,-1.23256e+09,-1.23494e+09,6.20007e+06,0.0132053,0.944976,0,0.945068,-1590.8,-44237.3,-0,44265.9,6.20007e+06
step02_gravity_refstate-intrusion.xmf,63,4.1166e-06,1.31951e-05,0,9.4146e-05,-1.20263e+09,-1.202e+09,-1.20291e+09,6.49354e+06,-0.00990897,0.955359,-0,0.955411,-1655.33,-43236.4,-0,43268,6.49354e+06
step02_gravity_refstate-intrusion.xmf,64,-4.02258e-07,2.32679e-05,0,8.49591e-05,-1.2171e+09,-1.21547e+09,-1.21707e+09,5.85989e+06,0.000649447,0.978182,0,0.978182,-1503.61,-43679.4,-0,43705.2,5.85989e+06
step02_gravity_refstate-intrusion.xmf,65,2.57675e-05,-3.11048e-05,0,7.1358e-05,-1.13848e+09,-1.1424e+09,-1.14025e+09,4.92178e+06,-0.0602162,0.951553,-0,0.953457,-1594.69,-41277.5,-0,41308.3,4.92178e+06
step02_gravity_refstate-intrusion.xmf,66,-4.42349e-05,0.000133595,0,2.42521e-05,-1.32426e+09,-1.31199e+09,-1.32121e+09,1.67274e+06,0.0340703,0.843252,0,0.84394,-737.088,-46964.6,-0,46970.4,1.67274e+06
step02_gravity_refstate-intrusion.xmf,67,-3.84136e-05,0.000110292,0,2.85452e-05,-1.3057e+09,-1.29544e+09,-1.30305e+09,1.96885e+06,0.0306038,0.912117,0,0.912631,-748.171,-46385.6,-0,46391.7,1.96885e+06
step02_gravity_refstate-intrusion.xmf,68,-2.27934e-05,7.15177e-05,0,5.70245e-05,-1.27759e+09,-1.27109e+09,-1.27602e+09,3.93316e+06,0.0323944,0.947457,0,0.948011,-1174.52,-45527,-0,45542.1,3.93316e+06
step02_gravity_refstate-intrusion.xmf,69,-4.44835e-05,0.000155572,0,2.39311e-05,-1.34227e+09,-1.32847e+09,-1.33921e+09,1.6506e+06,0.0341561,0.759694,0,0.760461,-751.346,-47542.9,-0,47548.8,1.6506e+06
step02_gravity_refstate-intrusion.xmf,70,-1.62808e-05,5.68817e-05,0,6.2008e-05,-1.25977e+09,-1.25473e+09,-1.25865e+09,4.27688e+06,0.0236451,0.979502,0,0.979787,-1195.02,-44982,-0,44997.9,4.27688e+06
step02_gravity_refstate-intrusion.xmf,71,-1.00206e-05,4.30162e-05,0,6.54997e-05,-1.24263e+09,-1.23897e+09,-1.24194e+09,4.51772e+06,0.0146822,1.00333,0,1.00344,-1209.49,-44457.9,-0,44474.4,4.51772e+06
step02_gravity_refstate-intrusion.xmf,72,3.56499e-05,-4.95879e-05,0,5.84811e-05,-1.12147e+09,-1.12735e+09,-1.12393e+09,4.03362e+06,-0.0721311,0.939951,-0,0.942715,-1538.78,-40764.5,-0,40793.5,4.03362e+06
step02_gravity_refstate-intrusion.xmf,73,4.00869e-05,-5.95193e-05,0,5.52068e-05,-1.10838e+09,-1.11525e+09,-1.11115e+09,3.80779e+06,-0.0848223,0.90476,-0,0.908727,-1636.36,-40363.9,-0,40397.1,3.80779e+06
step02_gravity_refstate-intrusion.xmf,74,6.13432e-06,1.01641e-05,0,6.71811e-05,-1.20052e+09,-1.20025e+09,-1.20095e+09,4.63369e+06,-0.00909012,1.03515,-0,1.03519,-1223.93,-43174.6,-0,43191.9,4.63369e+06
step02_gravity_refstate-intrusion.xmf,75,1.3902e-05,-4.59598e-06,0,6.11923e-05,-1.18236e+09,-1.18363e+09,-1.18332e+09,4.22062e+06,-0.0192414,1.0463,-0,1.04648,-1160.41,-42622.7,-0,42638.5,4.22062e+06
step02_gravity_refstate-intrusion.xmf,76,2.19427e-05,-2.03805e-05,0,5.86376e-05,-1.16351e+09,-1.16643e+09,-1.16502e+09,4.04442e+06,-0.031441,1.0353,-0,1.03578,-1189.27,-42049.6,-0,42066.4,4.04442e+06
step02_gravity_refstate-intrusion.xmf,77,2.98994e-05,-3.62208e-05,0,5.38945e-05,-1.14612e+09,-1.15069e+09,-1.14819e+09,3.71727e+06,-0.0431527,1.01897,-0,1.01988,-1201.95,-41521.5,-0,41538.9,3.71727e+06
step02_gravity_refstate-intrusion.xmf,78,-3.08228e-05,8.74027e-05,0,3.40731e-05,-1.2867e+09,-1.27855e+09,-1.28458e+09,2.35013e+06,0.0252253,0.968433,0,0.968762,-763.504,-45799.4,-0,45805.7,2.35013e+06
step02_gravity_refstate-intrusion.xmf,79,-4.63691e-06,3.17824e-05,0,6.72417e-05,-1.22803e+09,-1.22552e+09,-1.22771e+09,4.63787e+06,0.00673294,1.01841,0,1.01843,-1218.81,-44012.4,-0,44029.3,4.63787e+06
step02_gravity_refstate-intrusion.xmf,80,3.58756e-05,-4.8394e-05,0,5.04869e-05,-1.13265e+09,-1.13846e+09,-1.13512e+09,3.48224e+06,-0.0532148,0.997469,-0,0.998887,-1235.76,-41111.5,-0,41130.1,3.48224e+06
step02_gravity_refstate-intrusion.xmf,81,-4.83749e-05,0.000150995,0,8.12589e-06,-1.33211e+09,-1.31836e+09,-1.32877e+09,560468,0.0121649,0.824477,0,0.824566,-254.165,-47212,-0,47212.7,560468
step02_gravity_refstate-intrusion.xmf,82,-4.53313e-05,0.000128263,0,9.16781e-06,-1.31462e+09,-1.30265e+09,-1.31149e+09,632332,0.011878,0.900684,0,0.900763,-263.24,-46657.9,-0,46658.7,632332
step02_gravity_refstate-intrusion.xmf,83,-3.81703e-05,0.000104798,0,1.14601e-05,-1.29595e+09,-1.28608e+09,-1.29331e+09,790436,0.0108683,0.96656,0,0.966621,-284.812,-46079.5,-0,46080.4,790436
step02_gravity_refstate-intrusion.xmf,84,-2.30378e-05,6.88779e-05,0,3.79022e-05,-1.26816e+09,-1.26182e+09,-1.26657e+09,2.61423e+06,0.0190094,1.01213,0,1.01231,-771.019,-45232,-0,45238.6,2.61423e+06
step02_gravity_refstate-intrusion.xmf,85,-4.4822e-05,0.000166685,0,8.65398e-06,-1.34556e+09,-1.33097e+09,-1.34247e+09,596892,0.0112517,0.754687,0,0.754771,-251.964,-47654.8,-0,47655.5,596892
step02_gravity_refstate-intrusion.xmf,86,-1.51326e-05,5.27181e-05,0,4.05153e-05,-1.25008e+09,-1.2454e+09,-1.24904e+09,2.79446e+06,0.0127003,1.04449,0,1.04456,-781.354,-44681.9,-0,44688.8,2.79446e+06
step02_gravity_refstate-intrusion.xmf,87,-7.34068e-06,3.69615e-05,0,4.31961e-05,-1.23248e+09,-1.22942e+09,-1.23197e+09,2.97937e+06,0.0063741,1.0659,0,1.06592,-805.659,-44146.6,-0,44153.9,2.97937e+06
step02_gravity_refstate-intrusion.xmf,88,1.15852e-06,2.0359e-05,0,4.95174e-05,-1.21341e+09,-1.21208e+09,-1.21349e+09,3.41537e+06,-0.00119341,1.07077,-0,1.07077,-913.907,-43567.4,-0,43576.9,3.41537e+06
step02_gravity_refstate-intrusion.xmf,89,4.88653e-05,-7.81372e-05,0,4.30375e-05,-1.10885e+09,-1.1176e+09,-1.11222e+09,2.96843e+06,-0.0666835,0.952054,-0,0.954386,-1238.14,-40386.8,-0,40405.7,2.96843e+06
step02_gravity_refstate-intrusion.xmf,90,1.1054e-05,1.65425e-06,0,4.28268e-05,-1.19231e+09,-1.19296e+09,-1.19307e+09,2.9539e+06,-0.00973681,1.08882,-0,1.08887,-812.556,-42927.6,-0,42935.2,2.9539e+06
step02_gravity_refstate-intrusion.xmf,91,2.09454e-05,-1.6846e-05,0,3.9618e-05,-1.17256e+09,-1.17517e+09,-1.17401e+09,2.73258e+06,-0.0180116,1.08598,-0,1.08613,-798.336,-42329.8,-0,42337.3,2.73258e+06
step02_gravity_refstate-intrusion.xmf,92,3.08695e-05,-3.58503e-05,0,3.58611e-05,-1.15388e+09,-1.15848e+09,-1.15601e+09,2.47345e+06,-0.0261739,1.07216,-0,1.07248,-791.551,-41764.6,-0,41772.1,2.47345e+06
step02_gravity_refstate-intrusion.xmf,93,4.02495e-05,-5.49354e-05,0,3.38958e-05,-1.13612e+09,-1.14269e+09,-1.1389e+09,2.3379e+06,-0.0358311,1.0446,-0,1.04522,-834.35,-41226,-0,41234.5,2.3379e+06
step02_gravity_refstate-intrusion.xmf,94,4.58296e-05,-6.83494e-05,0,3.77571e-05,-1.12149e+09,-1.12937e+09,-1.12465e+09,2.60422e+06,-0.0505877,1.00143,-0,1.00271,-1016.82,-40777.9,-0,40790.5,2.60422e+06
step02_gravity_refstate-intrusion.xmf,95,-2.9431e-05,8.16701e-05,0,1.4344e-05,-1.27698e+09,-1.26932e+09,-1.27495e+09,989352,0.00907203,1.01969,0,1.01973,-306.856,-45497.5,-0,45498.5,989352
step02_gravity_refstate-intrusion.xmf,96,-4.67988e-05,0.000162959,0,-8.0865e-06,-1.3415e+09,-1.32703e+09,-1.33827e+09,-557751,-0.0113662,0.776931,-0,0.777014,245.522,-47519.2,0,47519.8,557751
step02_gravity_refstate-intrusion.xmf,97,-4.75399e-05,0.000139823,0,-7.88265e-06,-1.32337e+09,-1.31044e+09,-1.32009e+09,-543691,-0.0114204,0.864717,-0,0.864792,242.052,-46933,0,46933.7,543691
step02_gravity_refstate-intrusion.xmf,98,-4.22527e-05,0.000116752,0,-8.43148e-06,-1.3053e+09,-1.29434e+09,-1.30239e+09,-581546,-0.00965562,0.93636,-0,0.93641,229.998,-46368,0,46368.5,581546
step02_gravity_refstate-intrusion.xmf,99,-3.40957e-05,9.37254e-05,0,-8.82705e-06,-1.28618e+09,-1.27736e+09,-1.28383e+09,-608829,-0.00695152,0.997871,-0,0.997895,204.96,-45779.3,0,45779.7,608829
step02_gravity_refstate-intrusion.xmf,100,-2.05191e-05,6.23251e-05,0,1.65112e-05,-1.2582e+09,-1.25248e+09,-1.25678e+09,1.13883e+06,0.00675122,1.06014,0,1.06016,-327.298,-44925.6,-0,44926.8,1.13883e+06
step02_gravity_refstate-intrusion.xmf,101,-1.17448e-05,4.52583e-05,0,1.71075e-05,-1.23994e+09,-1.23601e+09,-1.23913e+09,1.17996e+06,0.00387492,1.08977,0,1.08978,-328.122,-44371.9,-0,44373.1,1.17996e+06
step02_gravity_refstate-intrusion.xmf,102,-2.56618e-06,2.75925e-05,0,1.90102e-05,-1.22125e+09,-1.21917e+09,-1.22107e+09,1.31119e+06,0.000921583,1.10902,0,1.10902,-357.643,-43805.3,-0,43806.7,1.31119e+06
step02_gravity_refstate-intrusion.xmf,103,5.36727e-05,-8.90614e-05,0,2.58377e-05,-1.10987e+09,-1.11972e+09,-1.11357e+09,1.78211e+06,-0.0404587,0.994575,-0,0.995397,-733.7,-40422.4,-0,40429.1,1.78211e+06
step02_gravity_refstate-intrusion.xmf,104,7.23041e-06,9.2879e-06,0,1.91578e-05,-1.20181e+09,-1.20166e+09,-1.2023e+09,1.32137e+06,-0.00266781,1.11962,-0,1.11962,-364.325,-43216.7,-0,43218.3,1.32137e+06
step02_gravity_refstate-intrusion.xmf,105,1.76686e-05,-9.93447e-06,0,1.77375e-05,-1.18217e+09,-1.18407e+09,-1.18339e+09,1.22341e+06,-0.00628564,1.12021,-0,1.12023,-352.357,-42623.3,-0,42624.8,1.22341e+06
step02_gravity_refstate-intrusion.xmf,106,2.86183e-05,-3.03537e-05,0,1.58118e-05,-1.16275e+09,-1.16681e+09,-1.16472e+09,1.09059e+06,-0.00979682,1.10937,-0,1.10942,-339.931,-42036.9,-0,42038.3,1.09059e+06
step02_gravity_refstate-intrusion.xmf,107,3.9224e-05,-5.12941e-05,0,1.50915e-05,-1.14429e+09,-1.15053e+09,-1.14699e+09,1.04091e+06,-0.0142064,1.08643,-0,1.08652,-359.832,-41478.7,-0,41480.3,1.04091e+06
step02_gravity_refstate-intrusion.xmf,108,4.91165e-05,-7.39703e-05,0,1.67087e-05,-1.12529e+09,-1.13378e+09,-1.12868e+09,1.15245e+06,-0.0221094,1.0475,-0,1.04774,-446.289,-40899.7,-0,40902.2,1.15245e+06
step02_gravity_refstate-intrusion.xmf,109,-2.49048e-05,7.16661e-05,0,-7.8497e-06,-1.26694e+09,-1.26028e+09,-1.26523e+09,-541418,-0.00421165,1.04677,-0,1.04678,168.885,-45191.5,0,45191.8,541418
step02_gravity_refstate-intrusion.xmf,110,-4.5451e-05,0.000143218,0,-2.33834e-05,-1.33154e+09,-1.31853e+09,-1.32841e+09,-1.61283e+06,-0.0347884,0.811534,-0,0.812279,741.25,-47195.6,0,47201.5,1.61283e+06
step02_gravity_refstate-intrusion.xmf,111,-4.34591e-05,0.000159834,0,-2.29967e-05,-1.34548e+09,-1.33146e+09,-1.34248e+09,-1.58615e+06,-0.0329317,0.743258,-0,0.743987,744.1,-47649.6,0,47655.4,1.58615e+06
step02_gravity_refstate-intrusion.xmf,112,-4.17601e-05,0.000122188,0,-2.53025e-05,-1.31502e+09,-1.30372e+09,-1.31214e+09,-1.74519e+06,-0.0318625,0.880544,-0,0.88112,722.031,-46675.4,0,46681,1.74519e+06
step02_gravity_refstate-intrusion.xmf,113,-3.44185e-05,9.73009e-05,0,-3.18073e-05,-1.29586e+09,-1.28678e+09,-1.29349e+09,-2.19385e+06,-0.0285599,0.941671,-0,0.942104,773.438,-46081.1,0,46087.6,2.19385e+06
step02_gravity_refstate-intrusion.xmf,114,-2.68286e-05,7.79819e-05,0,-3.14803e-05,-1.2758e+09,-1.26857e+09,-1.27395e+09,-2.1713e+06,-0.0192234,1.00262,-0,1.00281,676.572,-45465.3,0,45470.4,2.1713e+06
step02_gravity_refstate-intrusion.xmf,115,-1.57978e-05,5.28642e-05,0,-7.73504e-06,-1.24806e+09,-1.24333e+09,-1.24697e+09,-533510,-0.00243563,1.08279,-0,1.08279,153.81,-44617.6,0,44617.9,533510
step02_gravity_refstate-intrusion.xmf,116,-6.84146e-06,3.5662e-05,0,-7.6289e-06,-1.22967e+09,-1.22674e+09,-1.2292e+09,-526189,-0.000988527,1.10757,-0,1.10757,145.156,-44060,0,44060.3,526189
step02_gravity_refstate-intrusion.xmf,117,2.7226e-06,1.7699e-05,0,-7.45323e-06,-1.21073e+09,-1.2097e+09,-1.21092e+09,-514073,0.000387033,1.12288,0,1.12288,141.341,-43486.9,0,43487.2,514073
step02_gravity_refstate-intrusion.xmf,118,5.5781e-05,-9.39953e-05,0,8.9276e-06,-1.11015e+09,-1.12048e+09,-1.114e+09,615765,-0.0139391,1.01446,-0,1.01456,-249.916,-40432.7,-0,40433.5,615765
step02_gravity_refstate-intrusion.xmf,119,1.27248e-05,-6.84598e-07,0,-7.46184e-06,-1.19173e+09,-1.19266e+09,-1.19261e+09,-514666,0.00184933,1.12783,0,1.12783,145.373,-42912.7,0,42913,514666
step02_gravity_refstate-intrusion.xmf,120,2.34805e-05,-2.04884e-05,0,-7.04024e-06,-1.1724e+09,-1.17543e+09,-1.17402e+09,-485587,0.00341933,1.12197,0,1.12198,146.003,-42329,0,42329.2,485587
step02_gravity_refstate-intrusion.xmf,121,3.46233e-05,-4.16998e-05,0,-6.11851e-06,-1.15331e+09,-1.15857e+09,-1.1557e+09,-422013,0.00482262,1.10468,0,1.10469,140.124,-41752.8,0,41753,422013
step02_gravity_refstate-intrusion.xmf,122,4.51142e-05,-6.3613e-05,0,-2.81842e-06,-1.13516e+09,-1.14266e+09,-1.13827e+09,-194395,0.00337304,1.07706,0,1.07707,75.1292,-41202.8,0,41202.8,194395
step02_gravity_refstate-intrusion.xmf,123,-1.84208e-05,5.90979e-05,0,-3.24129e-05,-1.25657e+09,-1.25122e+09,-1.2553e+09,-2.23562e+06,-0.0125481,1.04519,-0,1.04527,642.995,-44878.6,0,44883.2,2.23562e+06
step02_gravity_refstate-intrusion.xmf,124,-4.02454e-05,0.000142749,0,-3.70943e-05,-1.34291e+09,-1.33029e+09,-1.34014e+09,-2.55851e+06,-0.0538512,0.731936,-0,0.733914,1223.49,-47562.9,0,47578.6,2.55851e+06
step02_gravity_refstate-intrusion.xmf,125,-3.73193e-05,0.000120455,0,-3.9546e-05,-1.32473e+09,-1.31385e+09,-1.32216e+09,-2.72761e+06,-0.0520693,0.809876,-0,0.811548,1177.32,-46987.5,0,47002.2,2.72761e+06
step02_gravity_refstate-intrusion.xmf,126,5.2116e-05,-8.11099e-05,0,2.58559e-07,-1.12088e+09,-1.13007e+09,-1.12448e+09,17833.6,7.00312e-06,1.04605,0,1.04605,0.0332432,-40765.8,0,40765.8,17833.6
step02_gravity_refstate-intrusion.xmf,127,-3.25862e-05,0.000102256,0,-4.56292e-05,-1.30901e+09,-1.29971e+09,-1.30676e+09,-3.14719e+06,-0.047033,0.863732,-0,0.865012,1176.04,-46498.1,0,46512.9,3.14719e+06
step02_gravity_refstate-intrusion.xmf,128,-2.41133e-05,7.54252e-05,0,-5.48846e-05,-1.28143e+09,-1.27457e+09,-1.27977e+09,-3.78556e+06,-0.0340627,0.940085,-0,0.940702,1164.11,-45645.4,0,45660.3,3.78556e+06
step02_gravity_refstate-intrusion.xmf,129,-1.84718e-05,6.12562e-05,0,-5.69473e-05,-1.2642e+09,-1.2587e+09,-1.26292e+09,-3.92783e+06,-0.0246295,0.981528,-0,0.981837,1122.18,-45116.3,0,45130.2,3.92783e+06
step02_gravity_refstate-intrusion.xmf,130,-1.01013e-05,4.22089e-05,0,-3.33482e-05,-1.23808e+09,-1.23447e+09,-1.23738e+09,-2.30013e+06,-0.00677558,1.07455,-0,1.07457,631.546,-44316.2,0,44320.7,2.30013e+06
step02_gravity_refstate-intrusion.xmf,131,-1.79247e-06,2.60434e-05,0,-3.37514e-05,-1.21983e+09,-1.21791e+09,-1.21971e+09,-2.32794e+06,-0.00116413,1.09356,-0,1.09356,630.003,-43762.3,0,43766.8,2.32794e+06
step02_gravity_refstate-intrusion.xmf,132,7.0966e-06,9.35577e-06,0,-3.30357e-05,-1.20137e+09,-1.20122e+09,-1.20186e+09,-2.27857e+06,0.00464335,1.10398,0,1.10399,623.69,-43203,0,43207.5,2.27857e+06
step02_gravity_refstate-intrusion.xmf,133,5.58135e-05,-9.42814e-05,0,-9.00306e-06,-1.10987e+09,-1.12023e+09,-1.11372e+09,-620969,0.0146635,1.01337,0,1.01348,262.532,-40423.8,0,40424.7,620969
step02_gravity_refstate-intrusion.xmf,134,1.67275e-05,-8.49061e-06,0,-3.13397e-05,-1.18235e+09,-1.18409e+09,-1.18351e+09,-2.16159e+06,0.0107922,1.1049,0,1.10496,616.969,-42627.5,0,42632,2.16159e+06
step02_gravity_refstate-intrusion.xmf,135,2.72526e-05,-2.83024e-05,0,-2.91983e-05,-1.1628e+09,-1.16664e+09,-1.16468e+09,-2.0139e+06,0.0176121,1.09414,0,1.09428,620.975,-42036.5,0,42041.1,2.0139e+06
step02_gravity_refstate-intrusion.xmf,136,4.92797e-05,-7.41892e-05,0,-1.71973e-05,-1.12461e+09,-1.13313e+09,-1.12801e+09,-1.18615e+06,0.0236572,1.04482,0,1.04509,474.608,-40879.2,0,40882,1.18615e+06
step02_gravity_refstate-intrusion.xmf,137,3.88685e-05,-5.12726e-05,0,-2.45672e-05,-1.14288e+09,-1.14909e+09,-1.14556e+09,-1.69447e+06,0.0236014,1.0728,0,1.07306,592.882,-41434.1,0,41438.3,1.69447e+06
step02_gravity_refstate-intrusion.xmf,138,-2.70602e-05,8.58135e-05,0,-5.52263e-05,-1.29517e+09,-1.28739e+09,-1.29331e+09,-3.80913e+06,-0.043176,0.894462,-0,0.895504,1254.32,-46071.2,0,46088.3,3.80913e+06
step02_gravity_refstate-intrusion.xmf,139,-1.16253e-05,4.6292e-05,0,-5.89813e-05,-1.24611e+09,-1.24212e+09,-1.24531e+09,-4.06812e+06,-0.0153421,1.01361,-0,1.01372,1103.8,-44563.8,0,44577.5,4.06812e+06
step02_gravity_refstate-intrusion.xmf,140,-2.73338e-05,0.000106102,0,-5.26733e-05,-1.33247e+09,-1.32326e+09,-1.33058e+09,-3.63304e+06,-0.0677234,0.738127,-0,0.741227,1608.02,-47243.3,0,47270.6,3.63304e+06
step02_gravity_refstate-intrusion.xmf,141,-2.43713e-05,9.20559e-05,0,-6.20814e-05,-1.31665e+09,-1.30862e+09,-1.31497e+09,-4.28195e+06,-0.0624156,0.788523,-0,0.79099,1593.11,-46749.7,0,46776.8,4.28195e+06
step02_gravity_refstate-intrusion.xmf,142,-3.30621e-05,0.000125038,0,-4.66709e-05,-1.34597e+09,-1.33506e+09,-1.34369e+09,-3.21904e+06,-0.0683321,0.686009,-0,0.689404,1661.78,-47661.7,0,47690.6,3.21904e+06
step02_gravity_refstate-intrusion.xmf,143,-2.14553e-05,7.95668e-05,0,-7.10716e-05,-1.30135e+09,-1.29438e+09,-1.29987e+09,-4.90203e+06,-0.0550376,0.828093,-0,0.82992,1600.72,-46273.2,0,46300.9,4.90203e+06
step02_gravity_refstate-intrusion.xmf,144,-1.86844e-05,6.87911e-05,0,-7.74549e-05,-1.28638e+09,-1.28034e+09,-1.28509e+09,-5.3423e+06,-0.0462423,0.863544,-0,0.864781,1594.48,-45808.4,0,45836.2,5.3423e+06
step02_gravity_refstate-intrusion.xmf,145,-1.53736e-05,5.81669e-05,0,-8.16741e-05,-1.27045e+09,-1.26538e+09,-1.26939e+09,-5.63332e+06,-0.0360101,0.898617,-0,0.899338,1573.12,-45316.1,0,45343.4,5.63332e+06
step02_gravity_refstate-intrusion.xmf,146,-1.1114e-05,4.69614e-05,0,-8.47428e-05,-1.25356e+09,-1.24956e+09,-1.25279e+09,-5.84497e+06,-0.0249738,0.929173,-0,0.929508,1555.75,-44796.2,0,44823.2,5.84497e+06
step02_gravity_refstate-intrusion.xmf,147,-4.71672e-06,3.20969e-05,0,-6.04623e-05,-1.22833e+09,-1.2258e+09,-1.22801e+09,-4.17028e+06,-0.00633906,1.03499,-0,1.03501,1102.76,-44021.9,0,44035.7,4.17028e+06
step02_gravity_refstate-intrusion.xmf,148,2.17089e-06,1.81907e-05,0,-6.02031e-05,-1.21076e+09,-1.20966e+09,-1.21091e+09,-4.15239e+06,0.00280874,1.04903,0,1.04903,1098.6,-43486.5,0,43500.4,4.15239e+06
step02_gravity_refstate-intrusion.xmf,149,9.88638e-06,3.39669e-06,0,-5.80949e-05,-1.19254e+09,-1.19299e+09,-1.19322e+09,-4.00699e+06,0.0125145,1.0569,0,1.05697,1085.01,-42932.8,0,42946.6,4.00699e+06
step02_gravity_refstate-intrusion.xmf,150,5.36421e-05,-8.85124e-05,0,-2.59494e-05,-1.11019e+09,-1.11999e+09,-1.11389e+09,-1.78981e+06,0.0412331,0.994534,0,0.995388,749.574,-40432.6,0,40439.5,1.78981e+06
step02_gravity_refstate-intrusion.xmf,151,1.86909e-05,-1.30785e-05,0,-5.39925e-05,-1.17306e+09,-1.17525e+09,-1.17435e+09,-3.72403e+06,0.0231907,1.0561,0,1.05636,1069.6,-42341.9,0,42355.4,3.72403e+06
step02_gravity_refstate-intrusion.xmf,152,2.7314e-05,-3.1343e-05,0,-5.42102e-05,-1.15277e+09,-1.15681e+09,-1.15465e+09,-3.73905e+06,0.0377924,1.03026,0,1.03095,1166.26,-41723.5,0,41739.8,3.73905e+06
step02_gravity_refstate-intrusion.xmf,153,4.10192e-05,-5.88014e-05,0,-4.13936e-05,-1.12873e+09,-1.13562e+09,-1.13156e+09,-2.85505e+06,0.0493584,1.00956,0,1.01076,1074.16,-40996.2,0,41010.3,2.85505e+06
step02_gravity_refstate-intrusion.xmf,154,-5.95929e-06,3.54455e-05,0,-8.73232e-05,-1.23645e+09,-1.2336e+09,-1.23604e+09,-6.02296e+06,-0.013753,0.951204,-0,0.951303,1553.39,-44272.2,0,44299.4,6.02296e+06
step02_gravity_refstate-intrusion.xmf,155,-7.64179e-07,2.41944e-05,0,-8.86185e-05,-1.21942e+09,-1.21769e+09,-1.21936e+09,-6.11229e+06,-0.00227125,0.965833,-0,0.965836,1558,-43750.8,0,43778.5,6.11229e+06
step02_gravity_refstate-intrusion.xmf,156,4.4218e-06,1.30027e-05,0,-8.742e-05,-1.20245e+09,-1.20185e+09,-1.20275e+09,-6.02963e+06,0.00958377,0.976696,0,0.976743,1551.92,-43231.4,0,43259.3,6.02963e+06
step02_gravity_refstate-intrusion.xmf,157,1.01879e-05,1.3601e-06,0,-8.46826e-05,-1.18516e+09,-1.18577e+09,-1.18587e+09,-5.84082e+06,0.0220817,0.981683,0,0.981932,1545.72,-42703.8,0,42731.8,5.84082e+06
step02_gravity_refstate-intrusion.xmf,158,4.79348e-05,-7.56517e-05,0,-4.29527e-05,-1.1101e+09,-1.11863e+09,-1.11341e+09,-2.96258e+06,0.0671406,0.952926,0,0.955289,1258.66,-40425.3,0,40444.9,2.96258e+06
step02_gravity_refstate-intrusion.xmf,159,1.54984e-05,-9.45933e-06,0,-8.22884e-05,-1.16916e+09,-1.17088e+09,-1.17023e+09,-5.67569e+06,0.0345577,0.975432,0,0.976044,1567.77,-42215.2,0,42244.3,5.67569e+06
step02_gravity_refstate-intrusion.xmf,160,2.58985e-05,-3.21841e-05,0,-7.04664e-05,-1.13892e+09,-1.14293e+09,-1.14071e+09,-4.86028e+06,0.0593638,0.955443,0,0.957285,1574.23,-41290.6,0,41320.6,4.86028e+06
step02_gravity_refstate-intrusion.xmf,161,3.34468e-05,-4.71458e-05,0,-6.10945e-05,-1.12158e+09,-1.12714e+09,-1.12389e+09,-4.21387e+06,0.0739572,0.932159,0,0.935088,1591.5,-40763.4,0,40794.5,4.21387e+06
step02_gravity_refstate-intrusion.xmf,162,1.9101e-05,-1.8237e-05,0,-8.31619e-05,-1.15392e+09,-1.15649e+09,-1.15523e+09,-5.73593e+06,0.048718,0.950847,0,0.952094,1661.65,-41746.6,0,41779.7,5.73593e+06
step02_gravity_refstate-intrusion.xmf,163,4.21829e-05,-6.52599e-05,0,-5.47154e-05,-1.10836e+09,-1.11577e+09,-1.11127e+09,-3.77389e+06,0.0848299,0.904738,0,0.908706,1636.36,-40363.9,0,40397.1,3.77389e+06
step02_gravity_refstate-crust.xmf,0,1.06744e-06,6.98099e-06,0,-1.15044e-08,-1.0983e+09,-1.0979e+09,-1.09838e+09,-789.2,7.77565e-20,0.0419751,0,0.0419751,-40000,-40000,-0,56568.5,789.2
step02_gravity_refstate-crust.xmf,1,1.01452e-06,7.03315e-06,0,-8.51347e-08,-1.09831e+09,-1.0979e+09,-1.09838e+09,-5840.24,0.00242072,0.0427018,0,0.0427704,-37707.6,-40000,-0,54971.4,5840.24
step02_gravity_refstate-crust.xmf,2,8.61919e-07,7.21252e-06,0,-1.47072e-07,-1.09832e+09,-1.09788e+09,-1.09838e+09,-10089.2,0.00450246,0.0447847,0,0.0450105,-35524.6,-40000,-0,53497.6,10089.2
step02_gravity_refstate-crust.xmf,3,3.15957e-07,7.85375e-06,0,-1.7267e-07,-1.09835e+09,-1.09783e+09,-1.09837e+09,-11845.2,0.00704441,0.0527018,0,0.0531705,-31466.4,-40000,-0,50893.4,11845.2
step02_gravity_refstate-crust.xmf,4,6.25202e-07,7.49192e-06,0,-1.80486e-07,-1.09833e+09,-1.09786e+09,-1.09837e+09,-12381.3,0.00608182,0.0481301,0,0.0485128,-33445.9,-40000,-0,52140.4,12381.3
step02_gravity_refstate-crust.xmf,5,-5.8443e-08,8.28469e-06,0,-1.13968e-07,-1.09837e+09,-1.0978e+09,-1.09837e+09,-7818.18,0.00731428,0.0584991,0,0.0589546,-29581.4,-40000,-0,49750,7818.18
step02_gravity_refstate-crust.xmf,6,-9.85723e-07,9.30814e-06,0,1.8606e-07,-1.09843e+09,-1.09773e+09,-1.09837e+09,12763.7,0.00561124,0.0738845,0,0.0740973,-26077.3,-40000,-0,47749.6,12763.7
step02_gravity_refstate-crust.xmf,7,-4.99419e-07,8.77882e-06,0,8.77124e-10,-1.0984e+09,-1.09777e+09,-1.09837e+09,60.1707,0.0068452,0.0655465,0,0.0659029,-27786.5,-40000,-0,48704.1,60.1707
step02_gravity_refstate-crust.xmf,8,-1.51142e-06,9.86896e-06,0,4.4247e-07,-1.09847e+09,-1.09769e+09,-1.09836e+09,30353.4,0.00361327,0.0835631,0,0.0836412,-24449.7,-40000,-0,46880.6,30353.4
step02_gravity_refstate-crust.xmf,9,-2.07859e-06,1.04527e-05,0,7.8072e-07,-1.09851e+09,-1.09765e+09,-1.09836e+09,53557.4,0.000864836,0.094635,0,0.0946389,-22899.8,-40000,-0,46091.2,53557.4
step02_gravity_refstate-crust.xmf,10,-2.67584e-06,1.10431e-05,0,1.20974e-06,-1.09855e+09,-1.09761e+09,-1.09836e+09,82988.4,-0.00260905,0.107156,-0,0.107188,-21423.9,-40000,-0,45376,82988.4
step02_gravity_refstate-crust.xmf,11,-3.30118e-06,1.16318e-05,0,1.73503e-06,-1.09859e+09,-1.09757e+09,-1.09837e+09,119023,-0.00677217,0.121181,-0,0.12137,-20018.5,-40000,-0,44729.6,119023
step02_gravity_refstate-crust.xmf,12,-3.94573e-06,1.22053e-05,0,2.36615e-06,-1.09864e+09,-1.09753e+09,-1.09837e+09,162318,-0.0115812,0.136762,-0,0.137251,-18680.2,-40000,-0,44146.9,162318
step02_gravity_refstate-crust.xmf,13,-4.57724e-06,1.27746e-05,0,3.08301e-06,-1.09869e+09,-1.0975e+09,-1.09837e+09,211495,-0.0169883,0.15395,-0,0.154885,-17405.7,-40000,-0,43622.9,211495
step02_gravity_refstate-crust.xmf,14,-5.24908e-06,1.32962e-05,0,3.94489e-06,-1.09874e+09,-1.09747e+09,-1.09838e+09,270620,-0.0229393,0.172793,-0,0.174309,-16192.1,-40000,-0,43153.1,270620
step02_gravity_refstate-crust.xmf,15,-5.94891e-06,1.3714e-05,0,4.9939e-06,-1.0988e+09,-1.09745e+09,-1.09839e+09,342582,-0.0293845,0.193341,-0,0.195561,-15036.5,-40000,-0,42732.8,342582
step02_gravity_refstate-crust.xmf,16,-6.61015e-06,1.41029e-05,0,6.14967e-06,-1.09885e+09,-1.09743e+09,-1.0984e+09,421867,-0.0362611,0.21564,-0,0.218667,-13936,-40000,-0,42358.1,421867
step02_gravity_refstate-crust.xmf,17,-7.26343e-06,1.44596e-05,0,7.43731e-06,-1.09891e+09,-1.09742e+09,-1.09841e+09,510200,-0.0435125,0.239739,-0,0.243656,-12888,-40000,-0,42025,510200
step02_gravity_refstate-crust.xmf,18,-7.91564e-06,1.46836e-05,0,8.95802e-06,-1.09898e+09,-1.09742e+09,-1.09843e+09,614520,-0.0510763,0.26569,-0,0.270555,-11890.1,-40000,-0,41729.8,614520
step02_gravity_refstate-crust.xmf,19,-8.53979e-06,1.4769e-05,0,1.06892e-05,-1.09904e+09,-1.09744e+09,-1.09846e+09,733281,-0.0588822,0.293548,-0,0.299396,-10939.7,-40000,-0,41469,733281
step02_gravity_refstate-crust.xmf,20,-9.15503e-06,1.45924e-05,0,1.27517e-05,-1.09912e+09,-1.09749e+09,-1.09849e+09,874765,-0.0668554,0.323374,-0,0.330213,-10034.7,-40000,-0,41239.5,874765
step02_gravity_refstate-crust.xmf,21,-9.61545e-06,1.42558e-05,0,1.50109e-05,-1.09918e+09,-1.09754e+09,-1.09852e+09,1.02975e+06,-0.0749026,0.355231,-0,0.363042,-9172.9,-40000,-0,41038.3,1.02975e+06
step02_gravity_refstate-crust.xmf,22,-9.95889e-06,1.37028e-05,0,1.75338e-05,-1.09924e+09,-1.09762e+09,-1.09856e+09,1.20282e+06,-0.0829147,0.38918,-0,0.397914,-8352.15,-40000,-0,40862.7,1.20282e+06
step02_gravity_refstate-crust.xmf,23,-1.01782e-05,1.26673e-05,0,2.05487e-05,-1.09931e+09,-1.09775e+09,-1.09861e+09,1.40964e+06,-0.090762,0.425279,-0,0.434856,-7570.51,-40000,-0,40710.1,1.40964e+06
step02_gravity_refstate-crust.xmf,24,-1.0093e-05,1.11771e-05,0,2.38872e-05,-1.09937e+09,-1.09791e+09,-1.09867e+09,1.63866e+06,-0.0982728,0.463581,-0,0.473883,-6826.09,-40000,-0,40578.3,1.63866e+06
step02_gravity_refstate-crust.xmf,25,-9.63122e-06,9.12802e-06,0,2.75862e-05,-1.0994e+09,-1.09812e+09,-1.09874e+09,1.89241e+06,-0.105248,0.504116,-0,0.514986,-6117.1,-40000,-0,40465,1.89241e+06
step02_gravity_refstate-crust.xmf,26,-8.68666e-06,6.12299e-06,0,3.18214e-05,-1.09942e+09,-1.09841e+09,-1.09883e+09,2.18295e+06,-0.111422,0.546889,-0,0.558125,-5441.79,-40000,-0,40368.5,2.18295e+06
step02_gravity_refstate-crust.xmf,27,-7.08671e-06,2.25517e-06,0,3.64248e-05,-1.09941e+09,-1.09877e+09,-1.09893e+09,2.49874e+06,-0.116504,0.591847,-0,0.603205,-4798.49,-40000,-0,40286.8,2.49874e+06
step02_gravity_refstate-crust.xmf,28,-4.60099e-06,-3.08688e-06,0,4.15124e-05,-1.09936e+09,-1.09926e+09,-1.09905e+09,2.84775e+06,-0.120075,0.638876,-0,0.650062,-4185.58,-40000,-0,40218.4,2.84775e+06
step02_gravity_refstate-crust.xmf,29,-8.47119e-07,-1.03612e-05,0,4.70952e-05,-1.09925e+09,-1.09991e+09,-1.0992e+09,3.23073e+06,-0.121678,0.687773,-0,0.698453,-3601.4,-40000,-0,40161.8,3.23073e+06
step02_gravity_refstate-crust.xmf,30,4.64381e-06,-2.01201e-05,0,5.32644e-05,-1.09906e+09,-1.10076e+09,-1.09938e+09,3.65394e+06,-0.120661,0.738168,-0,0.747965,-3044.18,-40000,-0,40115.7,3.65394e+06
step02_gravity_refstate-crust.xmf,31,1.37623e-05,-3.55013e-05,0,6.08564e-05,-1.0987e+09,-1.10208e+09,-1.09964e+09,4.17475e+06,-0.116009,0.789385,-0,0.797864,-2511.47,-40000,-0,40078.8,4.17475e+06
step02_gravity_refstate-crust.xmf,32,4.17484e-05,-5.30093e-05,0,6.80854e-05,-1.09634e+09,-1.10284e+09,-1.0992e+09,4.67066e+06,-0.105097,0.838174,-0,0.844737,-2000,-40000,-0,40050,4.67066e+06
step02_gravity_refstate-crust.xmf,33,2.87069e-05,-4.74138e-05,0,-5.80135e-05,-1.09755e+09,-1.10277e+09,-1.09952e+09,-3.97973e+06,0.105132,0.838177,0,0.844745,2000,-40000,0,40050,3.97973e+06
step02_gravity_refstate-crust.xmf,34,1.27256e-05,-3.2667e-05,0,-5.87957e-05,-1.0987e+09,-1.10181e+09,-1.09957e+09,-4.03339e+06,0.11603,0.78939,0,0.797872,2511.47,-40000,0,40078.8,4.03339e+06
step02_gravity_refstate-crust.xmf,35,4.58149e-06,-1.98775e-05,0,-5.26793e-05,-1.09906e+09,-1.10073e+09,-1.09937e+09,-3.6138e+06,0.120647,0.738167,0,0.747961,3044.18,-40000,0,40115.7,3.6138e+06
step02_gravity_refstate-crust.xmf,36,-8.5614e-07,-1.04359e-05,0,-4.68913e-05,-1.09926e+09,-1.09992e+09,-1.0992e+09,-3.21675e+06,0.121676,0.687772,0,0.698452,3601.4,-40000,0,40161.8,3.21675e+06
step02_gravity_refstate-crust.xmf,37,-4.56216e-06,-3.35381e-06,0,-4.14318e-05,-1.09937e+09,-1.09929e+09,-1.09906e+09,-2.84222e+06,0.120075,0.638877,0,0.650063,4185.58,-40000,0,40218.4,2.84222e+06
step02_gravity_refstate-crust.xmf,38,-7.08473e-06,2.03346e-06,0,-3.63937e-05,-1.09942e+09,-1.0988e+09,-1.09893e+09,-2.49661e+06,0.116505,0.591847,0,0.603205,4798.49,-40000,0,40286.8,2.49661e+06
step02_gravity_refstate-crust.xmf,39,-8.65212e-06,6.00669e-06,0,-3.17383e-05,-1.09943e+09,-1.09842e+09,-1.09883e+09,-2.17725e+06,0.111422,0.546889,0,0.558124,5441.79,-40000,0,40368.5,2.17725e+06
step02_gravity_refstate-crust.xmf,40,-9.60312e-06,8.9613e-06,0,-2.75702e-05,-1.09941e+09,-1.09813e+09,-1.09875e+09,-1.89132e+06,0.105248,0.504116,0,0.514986,6117.1,-40000,0,40465,1.89132e+06
step02_gravity_refstate-crust.xmf,41,-1.00303e-05,1.10825e-05,0,-2.38261e-05,-1.09936e+09,-1.09791e+09,-1.09868e+09,-1.63447e+06,0.098273,0.463581,0,0.473883,6826.09,-40000,0,40578.3,1.63447e+06
step02_gravity_refstate-crust.xmf,42,-1.01213e-05,1.26009e-05,0,-2.0501e-05,-1.09931e+09,-1.09775e+09,-1.09861e+09,-1.40637e+06,0.0907621,0.425277,0,0.434854,7570.51,-40000,0,40710.1,1.40637e+06
step02_gravity_refstate-crust.xmf,43,-9.9382e-06,1.36118e-05,0,-1.75631e-05,-1.09925e+09,-1.09763e+09,-1.09856e+09,-1.20483e+06,0.0829153,0.389179,0,0.397914,8352.15,-40000,0,40862.7,1.20483e+06
step02_gravity_refstate-crust.xmf,44,-9.57019e-06,1.42171e-05,0,-1.4981e-05,-1.09918e+09,-1.09755e+09,-1.09852e+09,-1.0277e+06,0.0749026,0.355232,0,0.363042,9172.9,-40000,0,41038.3,1.0277e+06
step02_gravity_refstate-crust.xmf,45,-9.08164e-06,1.45461e-05,0,-1.27135e-05,-1.09911e+09,-1.09749e+09,-1.09849e+09,-872145,0.0668552,0.323375,0,0.330214,10034.7,-40000,0,41239.5,872145
step02_gravity_refstate-crust.xmf,46,-8.51328e-06,1.46549e-05,0,-1.07277e-05,-1.09904e+09,-1.09745e+09,-1.09846e+09,-735918,0.0588829,0.293549,0,0.299396,10939.7,-40000,0,41469,735918
step02_gravity_refstate-crust.xmf,47,-7.89381e-06,1.45902e-05,0,-8.98946e-06,-1.09898e+09,-1.09743e+09,-1.09844e+09,-616677,0.0510763,0.26569,0,0.270555,11890.1,-40000,0,41729.8,616677
step02_gravity_refstate-crust.xmf,48,-7.24505e-06,1.43867e-05,0,-7.4714e-06,-1.09891e+09,-1.09743e+09,-1.09842e+09,-512538,0.0435127,0.239739,0,0.243656,12888,-40000,0,42025,512538
step02_gravity_refstate-crust.xmf,49,-6.57831e-06,1.40819e-05,0,-6.13754e-06,-1.09885e+09,-1.09743e+09,-1.0984e+09,-421035,0.03626,0.21564,0,0.218667,13936,-40000,0,42358.1,421035
step02_gravity_refstate-crust.xmf,50,-5.90552e-06,1.36929e-05,0,-4.98111e-06,-1.09879e+09,-1.09745e+09,-1.09839e+09,-341704,0.0293845,0.193342,0,0.195562,15036.5,-40000,0,42732.8,341704
step02_gravity_refstate-crust.xmf,51,-5.23097e-06,1.32368e-05,0,-3.97016e-06,-1.09874e+09,-1.09747e+09,-1.09838e+09,-272353,0.02294,0.172793,0,0.174309,16192.1,-40000,0,43153.1,272353
step02_gravity_refstate-crust.xmf,52,-4.56438e-06,1.27286e-05,0,-3.1023e-06,-1.09869e+09,-1.0975e+09,-1.09837e+09,-212818,0.016988,0.15395,0,0.154884,17405.7,-40000,0,43622.9,212818
step02_gravity_refstate-crust.xmf,53,-3.9081e-06,1.21825e-05,0,-2.35862e-06,-1.09864e+09,-1.09753e+09,-1.09837e+09,-161802,0.0115812,0.136762,0,0.137251,18680.2,-40000,0,44146.9,161802
step02_gravity_refstate-crust.xmf,54,-3.26699e-06,1.16114e-05,0,-1.72875e-06,-1.09859e+09,-1.09757e+09,-1.09837e+09,-118592,0.00677174,0.121181,0,0.12137,20018.5,-40000,0,44729.6,118592
step02_gravity_refstate-crust.xmf,55,-2.64721e-06,1.10267e-05,0,-1.20583e-06,-1.09855e+09,-1.09761e+09,-1.09836e+09,-82720,0.00261008,0.107157,0,0.107189,21423.9,-40000,0,45376,82720
step02_gravity_refstate-crust.xmf,56,-2.05057e-06,1.04408e-05,0,-7.74883e-07,-1.0985e+09,-1.09765e+09,-1.09836e+09,-53157,-0.000865693,0.0946345,-0,0.0946385,22899.8,-40000,0,46091.2,53157
step02_gravity_refstate-crust.xmf,57,-1.48741e-06,9.86214e-06,0,-4.37184e-07,-1.09847e+09,-1.09769e+09,-1.09836e+09,-29990.8,-0.00361374,0.0835628,-0,0.0836409,24449.7,-40000,0,46880.6,29990.8
step02_gravity_refstate-crust.xmf,58,-9.60418e-07,9.30132e-06,0,-1.80978e-07,-1.09843e+09,-1.09773e+09,-1.09837e+09,-12415.1,-0.0056114,0.0738845,-0,0.0740973,26077.3,-40000,0,47749.6,12415.1
step02_gravity_refstate-crust.xmf,59,-4.76798e-07,8.77081e-06,0,-6.06086e-11,-1.0984e+09,-1.09777e+09,-1.09837e+09,-4.15775,-0.00684415,0.0655463,-0,0.0659026,27786.5,-40000,0,48704.1,4.15775
step02_gravity_refstate-crust.xmf,60,-4.32598e-08,8.28314e-06,0,1.13949e-07,-1.09837e+09,-1.0978e+09,-1.09837e+09,7816.9,-0.00731428,0.0584984,-0,0.0589539,29581.4,-40000,0,49750,7816.9
step02_gravity_refstate-crust.xmf,61,3.34091e-07,7.84756e-06,0,1.70621e-07,-1.09835e+09,-1.09783e+09,-1.09837e+09,11704.6,-0.00704533,0.0527015,-0,0.0531703,31466.4,-40000,0,50893.4,11704.6
step02_gravity_refstate-crust.xmf,62,6.43916e-07,7.48681e-06,0,1.75924e-07,-1.09833e+09,-1.09786e+09,-1.09837e+09,12068.4,-0.00608168,0.0481304,-0,0.0485131,33445.9,-40000,0,52140.4,12068.4
step02_gravity_refstate-crust.xmf,63,8.79242e-07,7.21024e-06,0,1.42261e-07,-1.09832e+09,-1.09788e+09,-1.09838e+09,9759.08,-0.00450247,0.0447849,-0,0.0450107,35524.6,-40000,0,53497.6,9759.08
step02_gravity_refstate-crust.xmf,64,1.02785e-06,7.0342e-06,0,8.06821e-08,-1.09831e+09,-1.09789e+09,-1.09838e+09,5534.79,-0.00242088,0.0427019,-0,0.0427704,37707.6,-40000,0,54971.4,5534.79
step02_gravity_refstate-crust.xmf,65,1.0842e-06,6.96084e-06,0,1.01204e-08,-1.0983e+09,-1.0979e+09,-1.09838e+09,694.26,-4.64934e-20,0.0419752,-0,0.0419752,40000,-40000,0,56568.5,694.26
step02_gravity_refstate-crust.xmf,66,5.26322e-07,7.10125e-06,0,-2.29507e-08,-1.05602e+09,-1.05556e+09,-1.05605e+09,-1574.42,0.000869628,0.0532015,0,0.0532086,-38399.3,-38458.4,-0,54346.6,1574.42
step02_gravity_refstate-crust.xmf,67,3.58405e-07,7.20935e-06,0,-7.97569e-09,-1.05117e+09,-1.0507e+09,-1.05119e+09,-547.132,0.00155882,0.0559613,0,0.055983,-36539.6,-38281.4,-0,52920.8,547.132
step02_gravity_refstate-crust.xmf,68,1.79254e-07,7.43402e-06,0,5.09231e-09,-1.05363e+09,-1.05313e+09,-1.05364e+09,349.332,0.00231925,0.058555,0,0.0586009,-34354.9,-38370.6,-0,51503,349.332
step02_gravity_refstate-crust.xmf,69,2.79914e-07,7.10587e-06,0,-1.23753e-08,-1.03299e+09,-1.03252e+09,-1.033e+09,-848.945,-2.53834e-21,0.0587478,-0,0.0587478,-40000,-37619,-0,54910.7,848.945
step02_gravity_refstate-crust.xmf,70,-4.29122e-07,8.14186e-06,0,1.43656e-07,-1.05746e+09,-1.05688e+09,-1.05743e+09,9854.79,0.00231753,0.0682418,0,0.0682811,-30297.9,-38508.9,-0,48998.9,9854.79
step02_gravity_refstate-crust.xmf,71,-1.14455e-07,7.75677e-06,0,6.09575e-08,-1.05406e+09,-1.05352e+09,-1.05405e+09,4181.68,0.00246347,0.0631778,0,0.0632258,-32259.1,-38385.7,-0,50140.9,4181.68
step02_gravity_refstate-crust.xmf,72,-6.57755e-07,8.51491e-06,0,1.91595e-07,-1.06637e+09,-1.06574e+09,-1.06633e+09,13143.4,0.0026102,0.0715819,0,0.0716295,-28730.2,-38832.8,-0,48305.4,13143.4
step02_gravity_refstate-crust.xmf,73,-1.76342e-06,9.52924e-06,0,7.69533e-07,-1.05996e+09,-1.05919e+09,-1.05984e+09,52790,-0.00263459,0.0924946,-0,0.0925321,-25169.5,-38596.6,-0,46078.2,52790
step02_gravity_refstate-crust.xmf,74,-1.28064e-06,8.94387e-06,0,5.19264e-07,-1.05174e+09,-1.05104e+09,-1.05165e+09,35621.5,-0.00111002,0.083984,-0,0.0839913,-27093.1,-38298.2,-0,46912.6,35621.5
step02_gravity_refstate-crust.xmf,75,-1.54908e-07,7.1845e-06,0,6.35711e-08,-9.99319e+08,-9.98816e+08,-9.99309e+08,4360.98,-0.000250219,0.0683848,-0,0.0683853,-37749.3,-36391.7,-0,52434.4,4360.98
step02_gravity_refstate-crust.xmf,76,-2.28328e-07,7.35243e-06,0,1.45228e-07,-1.00867e+09,-1.00815e+09,-1.00865e+09,9962.63,-0.000329417,0.0690016,-0,0.0690024,-35291.8,-36732,-0,50938.7,9962.63
step02_gravity_refstate-crust.xmf,77,-2.22707e-06,1.00599e-05,0,1.05403e-06,-1.06558e+09,-1.06473e+09,-1.06542e+09,72306.7,-0.00465548,0.101454,-0,0.101561,-23611.9,-38799.9,-0,45419.8,72306.7
step02_gravity_refstate-crust.xmf,78,-4.5693e-07,7.61705e-06,0,2.4859e-07,-1.01161e+09,-1.01106e+09,-1.01158e+09,17053.3,-0.000853705,0.0727949,-0,0.0727999,-33130.4,-36838.6,-0,49545.1,17053.3
step02_gravity_refstate-crust.xmf,79,-4.24391e-07,7.12954e-06,0,-7.95499e-09,-9.67422e+08,-9.66904e+08,-9.67393e+08,-545.712,-9.86352e-20,0.0757517,-0,0.0757517,-40000,-35229.3,-0,53302,545.712
step02_gravity_refstate-crust.xmf,80,-1.11158e-06,8.43672e-06,0,5.3165e-07,-1.02487e+09,-1.02421e+09,-1.02479e+09,36471.2,-0.00270611,0.0837042,-0,0.083748,-28892,-37320,-0,47196.7,36471.2
step02_gravity_refstate-crust.xmf,81,-8.86314e-07,7.99944e-06,0,4.48129e-07,-1.00579e+09,-1.00518e+09,-1.00573e+09,30741.6,-0.00281904,0.0812578,-0,0.0813067,-30910.4,-36625.5,-0,47925.8,30741.6
step02_gravity_refstate-crust.xmf,82,-2.79328e-06,1.05802e-05,0,1.48418e-06,-1.06539e+09,-1.06447e+09,-1.0652e+09,101814,-0.00835196,0.113645,-0,0.113951,-22147.4,-38791.6,-0,44668.7,101814
step02_gravity_refstate-crust.xmf,83,-3.34839e-06,1.10816e-05,0,1.97953e-06,-1.06658e+09,-1.06559e+09,-1.06635e+09,135796,-0.0122799,0.126426,-0,0.127021,-20774.5,-38833.4,-0,44041,135796
step02_gravity_refstate-crust.xmf,84,-2.43888e-06,9.73148e-06,0,1.40159e-06,-1.02999e+09,-1.02916e+09,-1.02982e+09,96149.2,-0.0102272,0.11059,-0,0.111062,-24097,-37503,-0,44577.4,96149.2
step02_gravity_refstate-crust.xmf,85,-3.94904e-06,1.15803e-05,0,2.58627e-06,-1.0669e+09,-1.06583e+09,-1.06663e+09,177418,-0.0170492,0.141205,-0,0.142231,-19438.8,-38843.5,-0,43436,177418
step02_gravity_refstate-crust.xmf,86,-4.55323e-06,1.20365e-05,0,3.31074e-06,-1.0671e+09,-1.06597e+09,-1.06679e+09,227116,-0.0224007,0.157539,-0,0.159123,-18161.3,-38849.2,-0,42884.7,227116
step02_gravity_refstate-crust.xmf,87,-2.07204e-06,9.21884e-06,0,1.17803e-06,-1.01609e+09,-1.01532e+09,-1.01595e+09,80812.7,-0.00898704,0.104226,-0,0.104613,-25668.8,-36997.8,-0,45030.3,80812.7
step02_gravity_refstate-crust.xmf,88,-7.99396e-07,7.13057e-06,0,1.66267e-07,-9.32143e+08,-9.31599e+08,-9.32089e+08,11405.9,-0.00160494,0.0857824,-0,0.0857974,-37900.8,-33943.4,-0,50878.5,11405.9
step02_gravity_refstate-crust.xmf,89,-6.82516e-07,7.47061e-06,0,3.50559e-07,-9.76662e+08,-9.76103e+08,-9.76616e+08,24048.3,-0.00264505,0.0800611,-0,0.0801048,-34091.1,-35565.2,-0,49265.5,24048.3
step02_gravity_refstate-crust.xmf,90,-7.02388e-07,7.28355e-06,0,2.78198e-07,-9.56728e+08,-9.5618e+08,-9.5668e+08,19084.4,-0.00243915,0.0819752,-0,0.0820115,-35817.2,-34839.1,-0,49966.3,19084.4
step02_gravity_refstate-crust.xmf,91,-1.78788e-06,8.73329e-06,0,1.04035e-06,-9.97333e+08,-9.96611e+08,-9.9721e+08,71368.2,-0.00850678,0.100361,-0,0.100721,-27303.9,-36315.2,-0,45434.5,71368.2
step02_gravity_refstate-crust.xmf,92,-2.75596e-06,1.01801e-05,0,1.61091e-06,-1.04114e+09,-1.04025e+09,-1.04095e+09,110509,-0.0113814,0.116592,-0,0.117146,-22857.1,-37908.4,-0,44266.2,110509
step02_gravity_refstate-crust.xmf,93,-5.14681e-06,1.25463e-05,0,4.11623e-06,-1.06997e+09,-1.06876e+09,-1.06962e+09,282373,-0.0279384,0.17546,-0,0.177671,-16860.6,-38951.9,-0,42444.5,282373
step02_gravity_refstate-crust.xmf,94,-9.84638e-07,7.71537e-06,0,5.44858e-07,-9.73095e+08,-9.72498e+08,-9.73028e+08,37377.2,-0.00442238,0.0861331,-0,0.0862465,-32232.2,-35434.5,-0,47901.1,37377.2
step02_gravity_refstate-crust.xmf,95,-1.01171e-06,7.03076e-06,0,-7.10293e-09,-9.0141e+08,-9.00858e+08,-9.0134e+08,-487.261,-1.74326e-19,0.0927825,-0,0.0927825,-40000,-32823.5,-0,51743.4,487.261
step02_gravity_refstate-crust.xmf,96,-1.58199e-06,8.29057e-06,0,9.50982e-07,-9.74786e+08,-9.74109e+08,-9.74678e+08,65237.4,-0.00835292,0.0985446,-0,0.098898,-28983.4,-35494.5,-0,45824.7,65237.4
step02_gravity_refstate-crust.xmf,97,-3.86693e-06,1.10422e-05,0,2.75366e-06,-1.0395e+09,-1.03848e+09,-1.03924e+09,188901,-0.0208459,0.144742,-0,0.146236,-20099.2,-37845.6,-0,42851.7,188901
step02_gravity_refstate-crust.xmf,98,-3.37976e-06,1.05228e-05,0,2.2618e-06,-1.03061e+09,-1.02965e+09,-1.03037e+09,155159,-0.0175568,0.132978,-0,0.134132,-21520.4,-37522.9,-0,43256.2,155159
step02_gravity_refstate-crust.xmf,99,-3.03992e-06,9.91892e-06,0,2.08597e-06,-1.00747e+09,-1.00658e+09,-1.00726e+09,143098,-0.0174026,0.128473,-0,0.129646,-22909.3,-36681,-0,43247.3,143098
step02_gravity_refstate-crust.xmf,100,-2.69548e-06,9.4019e-06,0,1.85177e-06,-9.89218e+08,-9.88389e+08,-9.89034e+08,127032,-0.0161742,0.12273,-0,0.123791,-24365.7,-36017.1,-0,43484.7,127032
step02_gravity_refstate-crust.xmf,101,-4.44681e-06,1.13012e-05,0,3.57271e-06,-1.03132e+09,-1.03024e+09,-1.03102e+09,245088,-0.0276784,0.163005,-0,0.165338,-18885.8,-37545.8,-0,42028.1,245088
step02_gravity_refstate-crust.xmf,102,-5.06016e-06,1.18297e-05,0,4.36005e-06,-1.04057e+09,-1.03941e+09,-1.04023e+09,299099,-0.0323947,0.179371,-0,0.182273,-17450.3,-37880.9,-0,41707,299099
step02_gravity_refstate-crust.xmf,103,-5.89404e-06,1.28922e-05,0,5.30918e-06,-1.06769e+09,-1.0664e+09,-1.06729e+09,364210,-0.0358417,0.198962,-0,0.202165,-15543,-38866.5,-0,41859.2,364210
step02_gravity_refstate-crust.xmf,104,-6.50556e-06,1.33882e-05,0,6.32965e-06,-1.07617e+09,-1.0748e+09,-1.07572e+09,434214,-0.0407668,0.218203,-0,0.221978,-14350.9,-39173.3,-0,41719.2,434214
step02_gravity_refstate-crust.xmf,105,-2.40848e-06,8.92813e-06,0,1.67361e-06,-9.69464e+08,-9.68686e+08,-9.69298e+08,114810,-0.0152053,0.118573,-0,0.119544,-25828.4,-35298.4,-0,43738.8,114810
step02_gravity_refstate-crust.xmf,106,-1.45571e-06,7.92684e-06,0,8.8467e-07,-9.51651e+08,-9.51007e+08,-9.51551e+08,60688.3,-0.00817458,0.0982946,-0,0.0986339,-30565.8,-34652.2,-0,46206.5,60688.3
step02_gravity_refstate-crust.xmf,107,-1.30391e-06,6.96399e-06,0,2.62753e-07,-8.67234e+08,-8.66667e+08,-8.67144e+08,18024.9,-0.00264795,0.102433,-0,0.102467,-37920.9,-31578,-0,49347.4,18024.9
step02_gravity_refstate-crust.xmf,108,-1.18532e-06,7.42364e-06,0,6.03221e-07,-9.27177e+08,-9.26587e+08,-9.27096e+08,41381,-0.00576354,0.0943882,-0,0.094564,-33734,-33761.5,-0,47726.6,41381
step02_gravity_refstate-crust.xmf,109,-1.20224e-06,7.15732e-06,0,4.56386e-07,-8.97379e+08,-8.96805e+08,-8.97296e+08,31308.1,-0.00449718,0.0974814,-0,0.0975851,-35880.3,-32676.2,-0,48529.7,31308.1
step02_gravity_refstate-crust.xmf,110,-2.16789e-06,8.47829e-06,0,1.52657e-06,-9.47096e+08,-9.46365e+08,-9.46947e+08,104723,-0.0143458,0.115765,-0,0.11665,-27364.3,-34484.3,-0,44022.4,104723
step02_gravity_refstate-crust.xmf,111,-5.528e-06,1.22071e-05,0,5.07734e-06,-1.04664e+09,-1.04543e+09,-1.04626e+09,348305,-0.0365793,0.193812,-0,0.197233,-16382.2,-38100.6,-0,41473.3,348305
step02_gravity_refstate-crust.xmf,112,-7.00029e-06,1.37978e-05,0,7.26034e-06,-1.08325e+09,-1.08183e+09,-1.08277e+09,498059,-0.0449577,0.235375,-0,0.239631,-13409.4,-39430,-0,41647.7,498059
step02_gravity_refstate-crust.xmf,113,-1.41727e-06,7.65355e-06,0,8.48937e-07,-9.29219e+08,-9.28596e+08,-9.29121e+08,58237.1,-0.00805657,0.0996978,-0,0.100023,-31854.6,-33835.2,-0,46470.8,58237.1
step02_gravity_refstate-crust.xmf,114,-1.47324e-06,6.81013e-06,0,-5.58204e-09,-8.34743e+08,-8.34175e+08,-8.34642e+08,-382.928,-2.33628e-19,0.109593,-0,0.109593,-40000,-30394.3,-0,50237.5,382.928
step02_gravity_refstate-crust.xmf,115,-1.97851e-06,8.07742e-06,0,1.39168e-06,-9.24084e+08,-9.23394e+08,-9.23948e+08,95469.2,-0.0133901,0.114002,-0,0.114786,-28916.6,-33646.7,-0,44365.2,95469.2
step02_gravity_refstate-crust.xmf,116,-4.00955e-06,1.05996e-05,0,3.26461e-06,-1.00602e+09,-1.00502e+09,-1.00575e+09,223952,-0.0270329,0.156259,-0,0.15858,-20245.1,-36625.5,-0,41848.5,223952
step02_gravity_refstate-crust.xmf,117,-3.61794e-06,1.00557e-05,0,2.89997e-06,-9.87655e+08,-9.86717e+08,-9.87407e+08,198938,-0.0250614,0.14817,-0,0.150274,-21610.2,-35957.5,-0,41951.6,198938
step02_gravity_refstate-crust.xmf,118,-3.25921e-06,9.52221e-06,0,2.63089e-06,-9.66348e+08,-9.65472e+08,-9.66125e+08,180479,-0.0236266,0.142337,-0,0.144285,-22987,-35182.4,-0,42026.3,180479
step02_gravity_refstate-crust.xmf,119,-2.93998e-06,9.03443e-06,0,2.3859e-06,-9.44929e+08,-9.44107e+08,-9.44727e+08,163673,-0.0220939,0.13729,-0,0.139056,-24405.5,-34403.2,-0,42180.6,163673
step02_gravity_refstate-crust.xmf,120,-4.96977e-06,1.11328e-05,0,4.74516e-06,-1.00777e+09,-1.00667e+09,-1.00743e+09,325518,-0.0375544,0.187514,-0,0.191238,-17822.4,-36686,-0,40786,325518
step02_gravity_refstate-crust.xmf,121,-5.47764e-06,1.15902e-05,0,5.49168e-06,-1.02044e+09,-1.01927e+09,-1.02006e+09,376729,-0.041491,0.201947,-0,0.206165,-16573.9,-37145.9,-0,40675.8,376729
step02_gravity_refstate-crust.xmf,122,-5.96951e-06,1.20803e-05,0,6.19381e-06,-1.03454e+09,-1.0333e+09,-1.03413e+09,424895,-0.0446196,0.215157,-0,0.219735,-15483.1,-37657.9,-0,40716.6,424895
step02_gravity_refstate-crust.xmf,123,-6.47313e-06,1.25679e-05,0,6.97226e-06,-1.04807e+09,-1.04676e+09,-1.04763e+09,478297,-0.0477916,0.229422,-0,0.234347,-14450.5,-38149.3,-0,40794.4,478297
step02_gravity_refstate-crust.xmf,124,-7.61287e-06,1.3628e-05,0,8.95142e-06,-1.0752e+09,-1.07374e+09,-1.07468e+09,614067,-0.0546456,0.263717,-0,0.26932,-12419.7,-39134.1,-0,41057.6,614067
step02_gravity_refstate-crust.xmf,125,-7.01331e-06,1.30275e-05,0,7.93985e-06,-1.06003e+09,-1.05866e+09,-1.05955e+09,544674,-0.0516194,0.246452,-0,0.2518,-13421.4,-38583.4,-0,40851.1,544674
step02_gravity_refstate-crust.xmf,126,-2.66624e-06,8.57813e-06,0,2.17453e-06,-9.22104e+08,-9.21333e+08,-9.21921e+08,149173,-0.0206111,0.13344,-0,0.135022,-25862.5,-33572.6,-0,42379.1,149173
step02_gravity_refstate-crust.xmf,127,-1.82135e-06,7.73556e-06,0,1.23629e-06,-9.03262e+08,-9.02607e+08,-9.03137e+08,84809.5,-0.0120621,0.112409,-0,0.113055,-30493.9,-32888.8,-0,44850.3,84809.5
step02_gravity_refstate-crust.xmf,128,-1.68603e-06,6.68276e-06,0,3.525e-07,-8.01823e+08,-8.01249e+08,-8.01707e+08,24181.5,-0.0034605,0.118701,-0,0.118751,-37915.2,-29194.7,-0,47852.9,24181.5
step02_gravity_refstate-crust.xmf,129,-1.61118e-06,6.91565e-06,0,6.2806e-07,-8.34456e+08,-8.33871e+08,-8.34346e+08,43084.9,-0.00620208,0.113563,-0,0.113732,-35907.7,-30383.4,-0,47037.4,43084.9
step02_gravity_refstate-crust.xmf,130,-1.69613e-06,7.44565e-06,0,1.06207e-06,-8.84416e+08,-8.83788e+08,-8.84299e+08,72857.9,-0.0104431,0.111129,-0,0.111618,-32102.5,-32202.7,-0,45470.7,72857.9
step02_gravity_refstate-crust.xmf,131,-1.59447e-06,7.1846e-06,0,8.37601e-07,-8.65474e+08,-8.64872e+08,-8.65365e+08,57459.4,-0.00829402,0.110156,-0,0.110467,-33973.7,-31513.1,-0,46338.8,57459.4
step02_gravity_refstate-crust.xmf,132,-2.43869e-06,8.15608e-06,0,1.98385e-06,-8.98021e+08,-8.97294e+08,-8.97853e+08,136092,-0.0190994,0.130703,-0,0.132092,-27353.7,-32696.1,-0,42629.3,136092
step02_gravity_refstate-crust.xmf,133,-4.54016e-06,1.06514e-05,0,4.27729e-06,-9.91305e+08,-9.90263e+08,-9.90993e+08,293422,-0.0353042,0.178329,-0,0.18179,-18937.1,-36087.6,-0,40754.5,293422
step02_gravity_refstate-crust.xmf,134,-1.8088e-06,6.47101e-06,0,-3.85406e-09,-7.6722e+08,-7.66652e+08,-7.67095e+08,-264.389,-2.76395e-19,0.125931,-0,0.125931,-40000,-27934.1,-0,48788.5,264.389
step02_gravity_refstate-crust.xmf,135,-2.25863e-06,7.7801e-06,0,1.80054e-06,-8.73936e+08,-8.73248e+08,-8.73781e+08,123517,-0.0174741,0.128863,-0,0.130042,-28847.1,-31819.4,-0,42949.2,123517
step02_gravity_refstate-crust.xmf,136,-4.91807e-06,1.04965e-05,0,5.32965e-06,-9.76664e+08,-9.75607e+08,-9.76327e+08,365614,-0.0431141,0.200054,-0,0.204647,-17803.3,-35552.8,-0,39761.3,365614
step02_gravity_refstate-crust.xmf,137,-4.18433e-06,1.00207e-05,0,4.04163e-06,-9.64275e+08,-9.63301e+08,-9.63988e+08,277256,-0.0346502,0.173781,-0,0.177202,-20091.4,-35104,-0,40446.9,277256
step02_gravity_refstate-crust.xmf,138,-3.73582e-06,9.51546e-06,0,3.52009e-06,-9.44735e+08,-9.43826e+08,-9.44479e+08,241478,-0.0313667,0.163395,-0,0.166379,-21617.6,-34393.6,-0,40623.2,241478
step02_gravity_refstate-crust.xmf,139,-3.38263e-06,9.03768e-06,0,3.18104e-06,-9.22765e+08,-9.21913e+08,-9.22533e+08,218220,-0.0291279,0.156909,-0,0.15959,-23004.6,-33594.5,-0,40716.1,218220
step02_gravity_refstate-crust.xmf,140,-3.07997e-06,8.58247e-06,0,2.89849e-06,-8.99137e+08,-8.98337e+08,-8.98926e+08,198836,-0.0270757,0.151977,-0,0.15437,-24406.6,-32734.8,-0,40832,198836
step02_gravity_refstate-crust.xmf,141,-5.34138e-06,1.08466e-05,0,5.99451e-06,-9.89459e+08,-9.88349e+08,-9.89093e+08,411223,-0.0466319,0.212406,-0,0.217465,-16705.9,-36017.4,-0,39703.2,411223
step02_gravity_refstate-crust.xmf,142,-8.14493e-06,1.3733e-05,0,1.06663e-05,-1.07807e+09,-1.07657e+09,-1.07751e+09,731705,-0.0622129,0.291929,-0,0.298484,-11350.6,-39236.6,-0,40845.4,731705
step02_gravity_refstate-crust.xmf,143,-5.80174e-06,1.12157e-05,0,6.79678e-06,-1.00326e+09,-1.00209e+09,-1.00286e+09,466259,-0.0505076,0.226796,-0,0.232352,-15570.7,-36518.5,-0,39699.5,466259
step02_gravity_refstate-crust.xmf,144,-6.29727e-06,1.16115e-05,0,7.6959e-06,-1.01788e+09,-1.01665e+09,-1.01745e+09,527938,-0.0544273,0.242504,-0,0.248537,-14460.8,-37049.5,-0,39771.6,527938
step02_gravity_refstate-crust.xmf,145,-6.7976e-06,1.19958e-05,0,8.66362e-06,-1.03183e+09,-1.03054e+09,-1.03136e+09,594325,-0.0582157,0.258807,-0,0.265274,-13443.1,-37555.8,-0,39889.3,594325
step02_gravity_refstate-crust.xmf,146,-7.30116e-06,1.23628e-05,0,9.70833e-06,-1.04496e+09,-1.04361e+09,-1.04446e+09,665991,-0.0619116,0.275828,-0,0.282691,-12505.2,-38032.4,-0,40035.6,665991
step02_gravity_refstate-crust.xmf,147,-2.82155e-06,8.15735e-06,0,2.64456e-06,-8.74524e+08,-8.73771e+08,-8.74331e+08,181417,-0.0250271,0.148146,-0,0.150245,-25835.1,-31839.1,-0,41002.3,181417
step02_gravity_refstate-crust.xmf,148,-2.10151e-06,7.44975e-06,0,1.58057e-06,-8.51827e+08,-8.51172e+08,-8.51683e+08,108427,-0.0153945,0.126877,-0,0.127808,-30441.5,-31014.7,-0,43457.9,108427
step02_gravity_refstate-crust.xmf,149,-1.94918e-06,6.29783e-06,0,4.29978e-07,-7.36226e+08,-7.3566e+08,-7.36092e+08,29496.5,-0.00403977,0.134223,-0,0.134283,-37903.9,-26804.9,-0,46424.2,29496.5
step02_gravity_refstate-crust.xmf,150,-1.90726e-06,6.56953e-06,0,7.87129e-07,-7.70669e+08,-7.70087e+08,-7.70538e+08,53997,-0.00751692,0.129273,-0,0.129492,-35887,-28059.4,-0,45554.5,53997
step02_gravity_refstate-crust.xmf,151,-1.91471e-06,6.85513e-06,0,1.08318e-06,-8.02248e+08,-8.01647e+08,-8.02117e+08,74306.1,-0.0104759,0.126374,-0,0.126807,-33957.1,-29209.5,-0,44791.5,74306.1
step02_gravity_refstate-crust.xmf,152,-1.98051e-06,7.15002e-06,0,1.33955e-06,-8.29421e+08,-8.28795e+08,-8.29286e+08,91893.3,-0.0130412,0.12562,-0,0.126295,-32137.7,-30199,-0,44100,91893.3
step02_gravity_refstate-crust.xmf,153,-2.60625e-06,7.76309e-06,0,2.40584e-06,-8.4909e+08,-8.48379e+08,-8.48912e+08,165040,-0.0229142,0.145284,-0,0.14708,-27293.2,-30913.5,-0,41237.9,165040
step02_gravity_refstate-crust.xmf,154,-4.5872e-06,1.01563e-05,0,4.88615e-06,-9.63003e+08,-9.61991e+08,-9.62688e+08,335190,-0.0406907,0.191574,-0,0.195848,-18751.3,-35056.2,-0,39756.1,335190
step02_gravity_refstate-crust.xmf,155,-5.07848e-06,1.01908e-05,0,6.25417e-06,-9.62746e+08,-9.61699e+08,-9.62398e+08,429036,-0.0496052,0.21919,-0,0.224733,-16915.1,-35045,-0,38913.6,429036
step02_gravity_refstate-crust.xmf,156,-7.76398e-06,1.26105e-05,0,1.08868e-05,-1.05527e+09,-1.05388e+09,-1.05474e+09,746833,-0.0659518,0.294313,-0,0.301612,-11645.6,-38406.4,-0,40133.2,746833
step02_gravity_refstate-crust.xmf,157,-8.6445e-06,1.32744e-05,0,1.283e-05,-1.07558e+09,-1.07408e+09,-1.07499e+09,880137,-0.0711115,0.323724,-0,0.331442,-10374.6,-39143.2,-0,40494.7,880137
step02_gravity_refstate-crust.xmf,158,-2.02873e-06,6.01372e-06,0,1.30124e-09,-6.98635e+08,-6.98083e+08,-6.98495e+08,89.2653,-6.96123e-19,0.141543,-0,0.141543,-40000,-25435.6,-0,47402.2,89.2653
step02_gravity_refstate-crust.xmf,159,-2.44023e-06,7.40367e-06,0,2.17969e-06,-8.23038e+08,-8.22363e+08,-8.22871e+08,149527,-0.0207669,0.143499,-0,0.144994,-28748.2,-29965.1,-0,41525.5,149527
step02_gravity_refstate-crust.xmf,160,-4.77508e-06,9.87486e-06,0,5.76874e-06,-9.48281e+08,-9.47276e+08,-9.47954e+08,395736,-0.0469848,0.210148,-0,0.215336,-17832.3,-34519.1,-0,38853.1,395736
step02_gravity_refstate-crust.xmf,161,-4.4203e-06,9.62748e-06,0,5.06897e-06,-9.36749e+08,-9.35785e+08,-9.36446e+08,347731,-0.042743,0.196714,-0,0.201304,-19069,-34100.3,-0,39069.9,347731
step02_gravity_refstate-crust.xmf,162,-4.06013e-06,9.30263e-06,0,4.49042e-06,-9.21782e+08,-9.20866e+08,-9.21504e+08,308043,-0.0390752,0.185628,-0,0.189696,-20348.6,-33556.4,-0,39244.1,308043
step02_gravity_refstate-crust.xmf,163,-3.71135e-06,8.89584e-06,0,4.05187e-06,-9.01228e+08,-9.00364e+08,-9.00974e+08,277958,-0.03618,0.177621,-0,0.181269,-21651.5,-32808.9,-0,39309.2,277958
step02_gravity_refstate-crust.xmf,164,-3.39202e-06,8.47727e-06,0,3.67518e-06,-8.78175e+08,-8.77361e+08,-8.77943e+08,252117,-0.0334684,0.171108,-0,0.174351,-23007.3,-31970.3,-0,39388.2,252117
step02_gravity_refstate-crust.xmf,165,-3.10941e-06,8.07468e-06,0,3.33217e-06,-8.54104e+08,-8.53336e+08,-8.5389e+08,228587,-0.0307608,0.165584,-0,0.168417,-24413.3,-31094.4,-0,39533.1,228587
step02_gravity_refstate-crust.xmf,166,-5.42233e-06,1.01709e-05,0,7.30817e-06,-9.66124e+08,-9.65054e+08,-9.65752e+08,501340,-0.0554425,0.238586,-0,0.244943,-15715.3,-35166.5,-0,38518.2,501340
step02_gravity_refstate-crust.xmf,167,-8.10122e-06,1.2616e-05,0,1.21228e-05,-1.0604e+09,-1.05898e+09,-1.05985e+09,831627,-0.0703614,0.313026,-0,0.320837,-10932.4,-38591.8,-0,40110.4,831627
step02_gravity_refstate-crust.xmf,168,-5.92352e-06,1.05261e-05,0,8.32222e-06,-9.85857e+08,-9.84729e+08,-9.85451e+08,570904,-0.0597732,0.255201,-0,0.262108,-14471.1,-35883.4,-0,38691.5,570904
step02_gravity_refstate-crust.xmf,169,-6.38311e-06,1.08125e-05,0,9.3585e-06,-1.00187e+09,-1.00069e+09,-1.00143e+09,641993,-0.0638476,0.271862,-0,0.279259,-13416.5,-36465,-0,38854.8,641993
step02_gravity_refstate-crust.xmf,170,-6.83157e-06,1.10618e-05,0,1.04578e-05,-1.01641e+09,-1.01518e+09,-1.01594e+09,717404,-0.0677564,0.288942,-0,0.29678,-12468.6,-36993,-0,39037.8,717404
step02_gravity_refstate-crust.xmf,171,-7.26622e-06,1.13123e-05,0,1.15269e-05,-1.02983e+09,-1.02856e+09,-1.02933e+09,790742,-0.0711267,0.304983,-0,0.313167,-11660.4,-37480.2,-0,39252.1,790742
step02_gravity_refstate-crust.xmf,172,-9.11402e-06,1.31372e-05,0,1.49017e-05,-1.08174e+09,-1.08022e+09,-1.08112e+09,1.02226e+06,-0.0774514,0.352746,-0,0.361149,-9465.35,-39365.4,-0,40487.4,1.02226e+06
step02_gravity_refstate-crust.xmf,173,-2.86567e-06,7.6961e-06,0,3.01394e-06,-8.294e+08,-8.28675e+08,-8.29203e+08,206756,-0.0280607,0.161067,-0,0.163493,-25849.6,-30195.4,-0,39748.8,206756
step02_gravity_refstate-crust.xmf,174,-2.10491e-06,5.81406e-06,0,4.71666e-07,-6.69966e+08,-6.69423e+08,-6.69821e+08,32356.3,-0.00423526,0.148775,-0,0.148835,-37975.1,-24391.3,-0,45133.6,32356.3
step02_gravity_refstate-crust.xmf,175,-2.14953e-06,5.48101e-06,0,1.72895e-09,-6.28783e+08,-6.2826e+08,-6.28636e+08,118.606,-2.37857e-19,0.15619,-0,0.15619,-40000,-22891.3,-0,46087,118.606
step02_gravity_refstate-crust.xmf,176,-2.18035e-06,5.28175e-06,0,4.78623e-07,-6.04138e+08,-6.03626e+08,-6.03989e+08,32833.5,-0.00414315,0.16197,-0,0.162022,-38093.5,-21993.6,-0,43986.7,32833.5
step02_gravity_refstate-crust.xmf,177,-2.19564e-06,4.87884e-06,0,2.14672e-11,-5.57462e+08,-5.56977e+08,-5.57312e+08,1.47265,-2.6179e-19,0.169657,-0,0.169657,-40000,-20293.6,-0,44853.5,1.47265
step02_gravity_refstate-crust.xmf,178,-2.29904e-06,7.06601e-06,0,1.91776e-06,-7.96767e+08,-7.96125e+08,-7.96609e+08,131558,-0.0182048,0.141922,-0,0.143085,-30340.1,-29008.7,-0,41976.5,131558
step02_gravity_refstate-crust.xmf,179,-2.09597e-06,6.12413e-06,0,9.10899e-07,-7.05676e+08,-7.05112e+08,-7.05532e+08,62487.7,-0.00833671,0.144269,-0,0.14451,-35901.9,-25691.8,-0,44147.7,62487.7
step02_gravity_refstate-crust.xmf,180,-2.11924e-06,6.43592e-06,0,1.29211e-06,-7.39435e+08,-7.38848e+08,-7.3929e+08,88638.6,-0.0120238,0.141705,-0,0.142214,-33915.6,-26921.3,-0,43301.5,88638.6
step02_gravity_refstate-crust.xmf,181,-2.18692e-06,6.75221e-06,0,1.62075e-06,-7.70166e+08,-7.69553e+08,-7.70016e+08,111183,-0.0152778,0.140938,-0,0.141763,-32058,-28040.3,-0,42590.8,111183
step02_gravity_refstate-crust.xmf,182,-2.66775e-06,7.30305e-06,0,2.75171e-06,-7.99402e+08,-7.98718e+08,-7.99219e+08,188767,-0.0256406,0.158989,-0,0.161043,-27281.8,-29103.5,-0,39891.3,188767
step02_gravity_refstate-crust.xmf,183,-4.89598e-06,9.41748e-06,0,6.94874e-06,-9.34555e+08,-9.33573e+08,-9.34219e+08,476684,-0.0544329,0.234231,-0,0.240473,-16612.8,-34018.2,-0,37857.9,476684
step02_gravity_refstate-crust.xmf,184,-7.64345e-06,1.14835e-05,0,1.25739e-05,-1.04047e+09,-1.03916e+09,-1.03995e+09,862567,-0.0742385,0.320339,-0,0.328829,-10979.2,-37866.4,-0,39426,862567
step02_gravity_refstate-crust.xmf,185,-8.03132e-06,1.15916e-05,0,1.38002e-05,-1.05041e+09,-1.04906e+09,-1.04986e+09,946695,-0.077689,0.337841,-0,0.346659,-10292.1,-38226.7,-0,39587.9,946695
step02_gravity_refstate-crust.xmf,186,-9.44098e-06,1.29497e-05,0,1.67482e-05,-1.08705e+09,-1.08551e+09,-1.0864e+09,1.14893e+06,-0.0825021,0.377696,-0,0.386602,-8762.52,-39556.9,-0,40515.8,1.14893e+06
step02_gravity_refstate-crust.xmf,187,-2.20134e-06,4.78116e-06,0,4.44418e-07,-5.46321e+08,-5.45842e+08,-5.4617e+08,30487.1,-0.00377279,0.172387,-0,0.172428,-38284.7,-19887.9,-0,43142.1,30487.1
step02_gravity_refstate-crust.xmf,188,-2.53942e-06,6.90737e-06,0,2.57926e-06,-7.65988e+08,-7.6534e+08,-7.65814e+08,176938,-0.0237619,0.159832,-0,0.161589,-28501.5,-27887,-0,39875.1,176938
step02_gravity_refstate-crust.xmf,189,-4.53672e-06,9.13732e-06,0,6.19215e-06,-9.15957e+08,-9.15019e+08,-9.15646e+08,424781,-0.0504339,0.22119,-0,0.226867,-17842.3,-33342.1,-0,37815.9,424781
step02_gravity_refstate-crust.xmf,190,-4.2121e-06,8.87554e-06,0,5.54786e-06,-8.98738e+08,-8.9784e+08,-8.98449e+08,380583,-0.0466467,0.209627,-0,0.214754,-19061.2,-32716.2,-0,37863.9,380583
step02_gravity_refstate-crust.xmf,191,-3.89481e-06,8.57871e-06,0,4.98276e-06,-8.79881e+08,-8.79026e+08,-8.79614e+08,341817,-0.043052,0.199497,-0,0.204089,-20329.9,-32030.5,-0,37937.5,341817
step02_gravity_refstate-crust.xmf,192,-3.59177e-06,8.23501e-06,0,4.51852e-06,-8.58022e+08,-8.5721e+08,-8.57775e+08,309970,-0.0398498,0.19155,-0,0.195652,-21609.9,-31235.4,-0,37982,309970
step02_gravity_refstate-crust.xmf,193,-3.04068e-06,7.53654e-06,0,3.63144e-06,-8.10172e+08,-8.09446e+08,-8.09963e+08,249117,-0.0329204,0.176953,-0,0.179989,-24544,-29494.5,-0,38371,249117
step02_gravity_refstate-crust.xmf,194,-3.29579e-06,7.88236e-06,0,4.04313e-06,-8.34467e+08,-8.337e+08,-8.3424e+08,277359,-0.036274,0.183449,-0,0.187001,-23077.9,-30378.5,-0,38150.2,277359
step02_gravity_refstate-crust.xmf,195,-5.41485e-06,9.39234e-06,0,8.84928e-06,-9.53749e+08,-9.52733e+08,-9.53378e+08,607060,-0.0638108,0.267797,-0,0.275294,-14424.3,-34714.8,-0,37592.3,607060
step02_gravity_refstate-crust.xmf,196,-5.0327e-06,9.10779e-06,0,8.0888e-06,-9.34137e+08,-9.33167e+08,-9.33791e+08,554892,-0.0606626,0.256257,-0,0.263339,-15362.8,-34001.9,-0,37311.5,554892
step02_gravity_refstate-crust.xmf,197,-5.80084e-06,9.5759e-06,0,9.88387e-06,-9.71536e+08,-9.70481e+08,-9.71138e+08,678034,-0.067853,0.283742,-0,0.291743,-13389.1,-35361.1,-0,37811,678034
step02_gravity_refstate-crust.xmf,198,-6.15684e-06,9.69284e-06,0,1.09618e-05,-9.86798e+08,-9.85711e+08,-9.86376e+08,751981,-0.0717125,0.300005,-0,0.308457,-12473.4,-35915.5,-0,38019.8,751981
step02_gravity_refstate-crust.xmf,199,-6.50969e-06,9.79406e-06,0,1.20815e-05,-1.00118e+09,-1.00006e+09,-1.00073e+09,828789,-0.0753302,0.316319,-0,0.325165,-11648.4,-36437.8,-0,38254.4,828789
step02_gravity_refstate-crust.xmf,200,-6.86373e-06,9.9295e-06,0,1.3127e-05,-1.01435e+09,-1.01319e+09,-1.01387e+09,900509,-0.0783338,0.330938,-0,0.340083,-10965.2,-36915.9,-0,38509.9,900509
step02_gravity_refstate-crust.xmf,201,-8.41253e-06,1.15738e-05,0,1.53222e-05,-1.05982e+09,-1.05845e+09,-1.05924e+09,1.0511e+06,-0.0817391,0.358829,-0,0.368021,-9568.27,-38567.7,-0,39736.8,1.0511e+06
step02_gravity_refstate-crust.xmf,202,-9.25999e-06,1.13154e-05,0,1.9497e-05,-1.08037e+09,-1.07896e+09,-1.07973e+09,1.33749e+06,-0.091017,0.412221,-0,0.422149,-8026.13,-39312,-0,40122.9,1.33749e+06
step02_gravity_refstate-crust.xmf,203,-8.78685e-06,1.13903e-05,0,1.72713e-05,-1.06886e+09,-1.06748e+09,-1.06826e+09,1.18481e+06,-0.0865405,0.384544,-0,0.394161,-8792.35,-38895.1,-0,39876.5,1.18481e+06
step02_gravity_refstate-crust.xmf,204,-2.84427e-06,7.25412e-06,0,3.28861e-06,-7.89046e+08,-7.88353e+08,-7.88851e+08,225598,-0.0299754,0.171933,-0,0.174527,-25864.8,-28725.7,-0,38654.3,225598
step02_gravity_refstate-crust.xmf,205,-2.2055e-06,4.22946e-06,0,1.94476e-09,-4.84493e+08,-4.84051e+08,-4.84341e+08,133.411,-3.76567e-19,0.181763,-0,0.181763,-40000,-17636.1,-0,43715.3,133.411
step02_gravity_refstate-crust.xmf,206,-2.17844e-06,5.61687e-06,0,9.62056e-07,-6.42228e+08,-6.41693e+08,-6.42078e+08,65997.1,-0.00849582,0.157549,-0,0.157778,-36041.1,-23380.8,-0,42960.7,65997.1
step02_gravity_refstate-crust.xmf,207,-2.20839e-06,5.04371e-06,0,9.23757e-07,-5.75722e+08,-5.75224e+08,-5.7557e+08,63369.7,-0.00789831,0.169752,-0,0.169936,-36400.7,-20958.6,-0,42003.2,63369.7
step02_gravity_refstate-crust.xmf,208,-2.39988e-06,6.59318e-06,0,2.22143e-06,-7.39615e+08,-7.38998e+08,-7.3945e+08,152390,-0.0203506,0.156862,-0,0.158176,-30196.1,-26926.9,-0,40458.2,152390
step02_gravity_refstate-crust.xmf,209,-2.22547e-06,5.87556e-06,0,1.47826e-06,-6.68533e+08,-6.67978e+08,-6.68381e+08,101408,-0.0131683,0.157868,-0,0.158417,-33831.2,-24338.7,-0,41676.4,101408
step02_gravity_refstate-crust.xmf,210,-2.29408e-06,6.26885e-06,0,1.86251e-06,-7.09441e+08,-7.08853e+08,-7.09283e+08,127768,-0.0168948,0.155809,-0,0.156722,-31943.2,-25828.3,-0,41078.8,127768
step02_gravity_refstate-crust.xmf,211,-2.72376e-06,6.77286e-06,0,3.27237e-06,-7.47662e+08,-7.47011e+08,-7.47475e+08,224485,-0.0292835,0.177013,-0,0.179419,-26600.9,-27218.8,-0,38058.8,224485
step02_gravity_refstate-crust.xmf,212,-4.47783e-06,8.5313e-06,0,7.20933e-06,-8.99473e+08,-8.9858e+08,-8.99166e+08,494560,-0.0566018,0.24335,-0,0.249846,-16755.8,-32741.3,-0,36779.7,494560
step02_gravity_refstate-crust.xmf,213,-4.71938e-06,8.76367e-06,0,7.69545e-06,-9.15984e+08,-9.15059e+08,-9.1566e+08,527908,-0.0590353,0.251054,-0,0.257902,-15984,-33341.8,-0,36975.2,527908
step02_gravity_refstate-crust.xmf,214,-7.1937e-06,9.96261e-06,0,1.43241e-05,-1.02599e+09,-1.02481e+09,-1.02549e+09,982632,-0.081604,0.347473,-0,0.356926,-10290.3,-37338.4,-0,38730.5,982632
step02_gravity_refstate-crust.xmf,215,-7.47182e-06,9.78505e-06,0,1.58621e-05,-1.03639e+09,-1.0352e+09,-1.03588e+09,1.08814e+06,-0.0856082,0.36824,-0,0.37806,-9559.54,-37715.7,-0,38908.3,1.08814e+06
step02_gravity_refstate-crust.xmf,216,-9.09304e-06,9.83361e-06,0,2.27451e-05,-1.08237e+09,-1.08107e+09,-1.08175e+09,1.56032e+06,-0.0983139,0.4513,-0,0.461885,-7184.93,-39383.2,-0,40033.3,1.56032e+06
step02_gravity_refstate-crust.xmf,217,-2.20388e-06,4.45436e-06,0,8.02141e-07,-5.09791e+08,-5.09335e+08,-5.0964e+08,55026.9,-0.00676611,0.180227,-0,0.180354,-36929.1,-18557.4,-0,41329.6,55026.9
step02_gravity_refstate-crust.xmf,218,-2.53956e-06,6.38069e-06,0,2.86474e-06,-7.12582e+08,-7.1197e+08,-7.12408e+08,196521,-0.0254811,0.173713,-0,0.175572,-28345.3,-25941.9,-0,38424.4,196521
step02_gravity_refstate-crust.xmf,219,-2.91281e-06,6.97249e-06,0,3.83552e-06,-7.65135e+08,-7.64456e+08,-7.64935e+08,263117,-0.0339973,0.187115,-0,0.190178,-24748.2,-27854.5,-0,37260.5,263117
step02_gravity_refstate-crust.xmf,220,-4.19506e-06,8.31644e-06,0,6.55311e-06,-8.80206e+08,-8.79347e+08,-8.79918e+08,449544,-0.0530594,0.232471,-0,0.238449,-17847.6,-32040.7,-0,36676.2,449544
step02_gravity_refstate-crust.xmf,221,-3.92142e-06,8.09694e-06,0,5.93451e-06,-8.60482e+08,-8.59657e+08,-8.60213e+08,407107,-0.0493958,0.22193,-0,0.227361,-19025.1,-31323.4,-0,36648.4,407107
step02_gravity_refstate-crust.xmf,222,-3.65397e-06,7.85499e-06,0,5.3587e-06,-8.39492e+08,-8.38702e+08,-8.39241e+08,367607,-0.0456686,0.212038,-0,0.2169,-20291.9,-30559.9,-0,36683.4,367607
step02_gravity_refstate-crust.xmf,223,-3.38872e-06,7.57807e-06,0,4.82365e-06,-8.16293e+08,-8.15541e+08,-8.16061e+08,330903,-0.0418891,0.203009,-0,0.207286,-21661.2,-29716,-0,36772.9,330903
step02_gravity_refstate-crust.xmf,224,-3.1134e-06,7.25059e-06,0,4.26298e-06,-7.88872e+08,-7.88161e+08,-7.88658e+08,292440,-0.0375756,0.193797,-0,0.197406,-23310,-28718.3,-0,36987.8,292440
step02_gravity_refstate-crust.xmf,225,-4.85235e-06,8.32028e-06,0,9.24361e-06,-9.24236e+08,-9.23332e+08,-9.23903e+08,634111,-0.0664439,0.279264,-0,0.287059,-14326.8,-33641,-0,36564.6,634111
step02_gravity_refstate-crust.xmf,226,-5.10636e-06,8.34632e-06,0,1.01928e-05,-9.40689e+08,-9.39767e+08,-9.40339e+08,699227,-0.0702272,0.293875,-0,0.302149,-13385.7,-34239,-0,36762.5,699227
step02_gravity_refstate-crust.xmf,227,-4.64688e-06,8.28547e-06,0,8.53958e-06,-9.10786e+08,-9.09899e+08,-9.10467e+08,585815,-0.0634039,0.268182,-0,0.275575,-15116.8,-33152.1,-0,36436,585815
step02_gravity_refstate-crust.xmf,228,-4.22882e-06,7.74855e-06,0,8.29519e-06,-8.84796e+08,-8.83974e+08,-8.84506e+08,569050,-0.0625601,0.267988,-0,0.275193,-15547.9,-32206.8,-0,35763.3,569050
step02_gravity_refstate-crust.xmf,229,-5.35994e-06,8.30738e-06,0,1.13137e-05,-9.57016e+08,-9.56079e+08,-9.56648e+08,776121,-0.0742817,0.310668,-0,0.319426,-12436,-34832.3,-0,36985.7,776121
step02_gravity_refstate-crust.xmf,230,-5.59706e-06,8.2197e-06,0,1.25012e-05,-9.72122e+08,-9.71175e+08,-9.71738e+08,857579,-0.0781541,0.327822,-0,0.337009,-11574.4,-35381.2,-0,37226.2,857579
step02_gravity_refstate-crust.xmf,231,-5.82512e-06,8.19085e-06,0,1.35466e-05,-9.85841e+08,-9.84879e+08,-9.85441e+08,929295,-0.0812897,0.342514,-0,0.352029,-10890.1,-35879.6,-0,37495.9,929295
step02_gravity_refstate-crust.xmf,232,-6.16653e-06,8.25907e-06,0,1.46872e-05,-1.0008e+09,-9.99809e+08,-1.00038e+09,1.00754e+06,-0.0842474,0.357233,-0,0.367032,-10245.4,-36422.9,-0,37836.4,1.00754e+06
step02_gravity_refstate-crust.xmf,233,-7.73906e-06,9.49762e-06,0,1.7662e-05,-1.04685e+09,-1.04567e+09,-1.04632e+09,1.21161e+06,-0.0898391,0.391624,-0,0.401796,-8824.78,-38095.2,-0,39103.9,1.21161e+06
step02_gravity_refstate-crust.xmf,234,-7.98461e-06,9.06024e-06,0,1.98371e-05,-1.05755e+09,-1.05638e+09,-1.057e+09,1.36082e+06,-0.0943618,0.418481,-0,0.428988,-8075.98,-38482.8,-0,39321,1.36082e+06
step02_gravity_refstate-crust.xmf,235,-8.53559e-06,7.78576e-06,0,2.60317e-05,-1.08346e+09,-1.08234e+09,-1.08288e+09,1.78578e+06,-0.104425,0.488519,-0,0.499555,-6471.26,-39422.1,-0,39949.7,1.78578e+06
step02_gravity_refstate-crust.xmf,236,-2.20264e-06,3.83933e-06,0,6.38201e-07,-4.4152e+08,-4.41105e+08,-4.41368e+08,43780.6,-0.00542158,0.189653,-0,0.18973,-37541.5,-16071,-0,40836.7,43780.6
step02_gravity_refstate-crust.xmf,237,-2.22842e-06,5.3384e-06,0,1.36603e-06,-6.07943e+08,-6.07424e+08,-6.0779e+08,93709.9,-0.0118238,0.167922,-0,0.168338,-34595.7,-22132,-0,41069.3,93709.9
step02_gravity_refstate-crust.xmf,238,-2.21519e-06,4.73914e-06,0,1.38579e-06,-5.42079e+08,-5.41602e+08,-5.41927e+08,95065,-0.01169,0.179713,-0,0.180093,-34697.7,-19733.3,-0,39916.6,95065
step02_gravity_refstate-crust.xmf,239,-2.21458e-06,3.5671e-06,0,3.27973e-09,-4.09673e+08,-4.09277e+08,-4.09522e+08,224.989,-3.75024e-19,0.192388,-0,0.192388,-40000,-14911.1,-0,42688.9,224.989
step02_gravity_refstate-crust.xmf,240,-2.4144e-06,6.06683e-06,0,2.47611e-06,-6.82852e+08,-6.8227e+08,-6.82686e+08,169861,-0.0218616,0.171002,-0,0.172394,-29993.3,-24859.5,-0,38956.3,169861
step02_gravity_refstate-crust.xmf,241,-2.32531e-06,5.74563e-06,0,2.11021e-06,-6.50542e+08,-6.49989e+08,-6.50383e+08,144760,-0.0184154,0.170222,-0,0.171215,-31587.8,-23683.1,-0,39480.1,144760
step02_gravity_refstate-crust.xmf,242,-2.59052e-06,6.08614e-06,0,3.51735e-06,-6.87299e+08,-6.86703e+08,-6.87121e+08,241291,-0.0303719,0.191461,-0,0.193855,-26557.3,-25020.7,-0,36487.4,241291
step02_gravity_refstate-crust.xmf,243,-4.00886e-06,7.58689e-06,0,7.52638e-06,-8.63644e+08,-8.62849e+08,-8.63369e+08,516310,-0.0585798,0.255162,-0,0.2618,-16674.4,-31437.4,-0,35585.7,516310
step02_gravity_refstate-crust.xmf,244,-6.32189e-06,7.94285e-06,0,1.61195e-05,-1.01167e+09,-1.01069e+09,-1.01124e+09,1.10579e+06,-0.0878709,0.376346,-0,0.386468,-9555.33,-36817.7,-0,38037.4,1.10579e+06
step02_gravity_refstate-crust.xmf,245,-5.15573e-06,6.78514e-06,0,1.48081e-05,-9.78172e+08,-9.77353e+08,-9.77819e+08,1.01584e+06,-0.0853984,0.365174,-0,0.375027,-10187.5,-35601,-0,37029.9,1.01584e+06
step02_gravity_refstate-crust.xmf,246,-6.45632e-06,7.48298e-06,0,1.78728e-05,-1.02335e+09,-1.0224e+09,-1.02291e+09,1.22608e+06,-0.0918747,0.398954,-0,0.409396,-8822.63,-37241.6,-0,38272.4,1.22608e+06
step02_gravity_refstate-crust.xmf,247,-8.04888e-06,8.52584e-06,0,2.1867e-05,-1.0661e+09,-1.06497e+09,-1.06555e+09,1.50008e+06,-0.0982509,0.443212,-0,0.453971,-7463.21,-38793.2,-0,39504.5,1.50008e+06
step02_gravity_refstate-crust.xmf,248,-7.53103e-06,5.05958e-06,0,2.96714e-05,-1.08437e+09,-1.08351e+09,-1.08385e+09,2.03546e+06,-0.109906,0.52844,-0,0.539748,-5778.77,-39454.9,-0,39875.9,2.03546e+06
step02_gravity_refstate-crust.xmf,249,-7.28738e-06,6.20176e-06,0,2.48032e-05,-1.06512e+09,-1.0642e+09,-1.06462e+09,1.7015e+06,-0.103759,0.478185,-0,0.489312,-6753.1,-38756.9,-0,39340.9,1.7015e+06
step02_gravity_refstate-crust.xmf,250,-2.74565e-06,6.3533e-06,0,4.01359e-06,-7.15609e+08,-7.14985e+08,-7.1542e+08,275332,-0.0346195,0.198218,-0,0.201219,-24857.6,-26051.2,-0,36007.9,275332
step02_gravity_refstate-crust.xmf,251,-2.18215e-06,4.13171e-06,0,1.34412e-06,-4.75991e+08,-4.75557e+08,-4.75841e+08,92206.6,-0.0113107,0.189952,-0,0.190288,-34853.3,-17326.5,-0,38922.5,92206.6
step02_gravity_refstate-crust.xmf,252,-2.22545e-06,3.21644e-06,0,5.96939e-07,-3.69471e+08,-3.69098e+08,-3.69319e+08,40950,-0.00540316,0.19886,-0,0.198934,-37581.9,-13446.9,-0,39915.2,40950
step02_gravity_refstate-crust.xmf,253,-2.27706e-06,2.92976e-06,0,4.74911e-09,-3.32796e+08,-3.32439e+08,-3.3264e+08,325.789,-3.9294e-19,0.201487,-0,0.201487,-40000,-12111.1,-0,41793.3,325.789
step02_gravity_refstate-crust.xmf,254,-2.27307e-06,5.45247e-06,0,1.80634e-06,-6.20144e+08,-6.19614e+08,-6.19988e+08,123915,-0.015565,0.171044,-0,0.171751,-32909.3,-22576.2,-0,39908.8,123915
step02_gravity_refstate-crust.xmf,255,-2.46369e-06,5.81481e-06,0,3.08359e-06,-6.59016e+08,-6.58449e+08,-6.58847e+08,211534,-0.0265461,0.186812,-0,0.188689,-28152.6,-23991.2,-0,36988.5,211534
step02_gravity_refstate-crust.xmf,256,-2.90926e-06,6.62003e-06,0,4.45888e-06,-7.43174e+08,-7.4252e+08,-7.42974e+08,305879,-0.0384149,0.204609,-0,0.208184,-23387.9,-27054.5,-0,35762.3,305879
step02_gravity_refstate-crust.xmf,257,-3.78971e-06,7.46879e-06,0,6.84025e-06,-8.43439e+08,-8.42666e+08,-8.43179e+08,469241,-0.0548104,0.243811,-0,0.249896,-17794.3,-30702.5,-0,35486.3,469241
step02_gravity_refstate-crust.xmf,258,-3.57825e-06,7.32073e-06,0,6.22353e-06,-8.22556e+08,-8.21809e+08,-8.22311e+08,426934,-0.0510924,0.233466,-0,0.238991,-18957.5,-29942.8,-0,35439.6,426934
step02_gravity_refstate-crust.xmf,259,-3.36787e-06,7.14643e-06,0,5.62644e-06,-8.0018e+08,-7.99459e+08,-7.99949e+08,385974,-0.0471683,0.223319,-0,0.228246,-20246.1,-29128.8,-0,35473.8,385974
step02_gravity_refstate-crust.xmf,260,-3.14842e-06,6.96518e-06,0,4.95846e-06,-7.74873e+08,-7.74179e+08,-7.74657e+08,340150,-0.0424264,0.211682,-0,0.215892,-21876.1,-28208.1,-0,35696.8,340150
step02_gravity_refstate-crust.xmf,261,-3.59449e-06,6.60748e-06,0,8.45071e-06,-8.4612e+08,-8.4542e+08,-8.45874e+08,579719,-0.0631901,0.278539,-0,0.285617,-15519.4,-30799.5,-0,34488.6,579719
step02_gravity_refstate-crust.xmf,262,-4.26562e-06,7.35643e-06,0,9.36172e-06,-8.9477e+08,-8.93973e+08,-8.94477e+08,642214,-0.0673225,0.286958,-0,0.294749,-14362.7,-32569.1,-0,35595.4,642214
step02_gravity_refstate-crust.xmf,263,-4.38565e-06,7.19616e-06,0,1.03344e-05,-9.1054e+08,-9.09746e+08,-9.10239e+08,708941,-0.0712995,0.30266,-0,0.310945,-13373.3,-33142.5,-0,35738.9,708941
step02_gravity_refstate-crust.xmf,264,-4.50303e-06,6.98233e-06,0,1.14409e-05,-9.26941e+08,-9.26153e+08,-9.26632e+08,784845,-0.0753488,0.319677,-0,0.328437,-12408.6,-33738.8,-0,35948.3,784845
step02_gravity_refstate-crust.xmf,265,-4.60162e-06,6.68954e-06,0,1.26808e-05,-9.43174e+08,-9.424e+08,-9.42859e+08,869900,-0.0794088,0.338007,-0,0.34721,-11484.1,-34328.9,-0,36198.9,869900
step02_gravity_refstate-crust.xmf,266,-4.63154e-06,6.2367e-06,0,1.41152e-05,-9.58562e+08,-9.57816e+08,-9.58244e+08,968303,-0.0835688,0.358511,-0,0.368122,-10578,-34888.3,-0,36456.7,968303
step02_gravity_refstate-crust.xmf,267,-5.14965e-06,6.25678e-06,0,1.61561e-05,-9.88288e+08,-9.87506e+08,-9.87935e+08,1.10831e+06,-0.0887185,0.383382,-0,0.393513,-9524.82,-35968.5,-0,37208.2,1.10831e+06
step02_gravity_refstate-crust.xmf,268,-6.54137e-06,6.81807e-06,0,2.00046e-05,-1.03541e+09,-1.03449e+09,-1.03496e+09,1.37231e+06,-0.0961882,0.425307,-0,0.436049,-8065.45,-37679.3,-0,38532.8,1.37231e+06
step02_gravity_refstate-crust.xmf,269,-6.45072e-06,5.96063e-06,0,2.26352e-05,-1.04745e+09,-1.0466e+09,-1.04701e+09,1.55277e+06,-0.100912,0.456985,-0,0.467994,-7270.89,-38116.6,-0,38803.9,1.55277e+06
step02_gravity_refstate-crust.xmf,270,-6.69557e-06,4.34236e-06,0,2.78871e-05,-1.07129e+09,-1.07054e+09,-1.07084e+09,1.91305e+06,-0.108074,0.511862,-0,0.523147,-6100.37,-38981.2,-0,39455.7,1.91305e+06
step02_gravity_refstate-crust.xmf,271,-5.7519e-06,1.08749e-06,0,3.37695e-05,-1.08465e+09,-1.08418e+09,-1.08426e+09,2.31659e+06,-0.114361,0.570933,-0,0.582274,-5109.73,-39466.2,-0,39795.6,2.31659e+06
step02_gravity_refstate-crust.xmf,272,-2.17194e-06,3.50308e-06,0,1.22073e-06,-4.06541e+08,-4.06152e+08,-4.06392e+08,83742,-0.0105814,0.198731,-0,0.199012,-35191.8,-14797.2,-0,38176.1,83742
step02_gravity_refstate-crust.xmf,273,-2.24377e-06,5.00088e-06,0,1.89947e-06,-5.7132e+08,-5.70823e+08,-5.71166e+08,130303,-0.0160726,0.181014,-0,0.181726,-32728.1,-20798.2,-0,38777.5,130303
step02_gravity_refstate-crust.xmf,274,-2.18422e-06,4.39756e-06,0,1.91556e-06,-5.07868e+08,-5.07416e+08,-5.07718e+08,131408,-0.0159802,0.191839,-0,0.192504,-32732.6,-18487.4,-0,37592.6,131408
step02_gravity_refstate-crust.xmf,275,-2.32889e-06,2.62055e-06,0,5.39748e-07,-2.93353e+08,-2.93014e+08,-2.93194e+08,37026.7,-0.00567441,0.206956,-0,0.207034,-37579.7,-10674.5,-0,39066.4,37026.7
step02_gravity_refstate-crust.xmf,276,-2.36372e-06,5.51275e-06,0,2.72058e-06,-6.27548e+08,-6.27007e+08,-6.27386e+08,186632,-0.0232287,0.184887,-0,0.186341,-29580.5,-22845.5,-0,37375.4,186632
step02_gravity_refstate-crust.xmf,277,-2.29258e-06,5.18298e-06,0,2.35864e-06,-5.927e+08,-5.92187e+08,-5.92542e+08,161803,-0.0199001,0.184263,-0,0.185334,-31033.6,-21576.6,-0,37797.2,161803
step02_gravity_refstate-crust.xmf,278,-2.42954e-06,5.47364e-06,0,3.65972e-06,-6.34325e+08,-6.33783e+08,-6.34158e+08,251057,-0.03067,0.203256,-0,0.205557,-26467.6,-23091.9,-0,35125,251057
step02_gravity_refstate-crust.xmf,279,-2.526e-06,5.66185e-06,0,4.16397e-06,-6.60491e+08,-6.59929e+08,-6.60318e+08,285648,-0.0348393,0.21058,-0,0.213442,-24820.7,-24044.4,-0,34557.2,285648
step02_gravity_refstate-crust.xmf,280,-3.47986e-06,6.6576e-06,0,7.69221e-06,-8.26796e+08,-8.26101e+08,-8.26557e+08,527686,-0.0593408,0.265768,-0,0.272312,-16606.7,-30096.6,-0,34374.2,527686
step02_gravity_refstate-crust.xmf,281,-3.61954e-06,6.45658e-06,0,9.30813e-06,-8.62973e+08,-8.62282e+08,-8.62725e+08,638538,-0.0672597,0.293922,-0,0.301519,-14415.5,-31412.8,-0,34562.5,638538
step02_gravity_refstate-crust.xmf,282,-5.0639e-06,5.52054e-06,0,1.78245e-05,-9.99407e+08,-9.98681e+08,-9.99059e+08,1.22276e+06,-0.0924558,0.405554,-0,0.415959,-8796.4,-36372.5,-0,37421,1.22276e+06
step02_gravity_refstate-crust.xmf,283,-4.09014e-06,4.88877e-06,0,1.58363e-05,-9.65049e+08,-9.64433e+08,-9.64768e+08,1.08637e+06,-0.088047,0.386435,-0,0.396339,-9576.99,-35124.6,-0,36406.8,1.08637e+06
step02_gravity_refstate-crust.xmf,284,-4.9515e-06,4.64478e-06,0,1.97994e-05,-1.01193e+09,-1.01127e+09,-1.01159e+09,1.35824e+06,-0.096341,0.430394,-0,0.441045,-8060.4,-36827.6,-0,37699.3,1.35824e+06
step02_gravity_refstate-crust.xmf,285,-4.54385e-06,3.83536e-08,0,3.123e-05,-1.06791e+09,-1.0676e+09,-1.0676e+09,2.14238e+06,-0.111717,0.550889,-0,0.562103,-5432.37,-38860.1,-0,39237.9,2.14238e+06
step02_gravity_refstate-crust.xmf,286,-4.87023e-06,1.68772e-06,0,2.77522e-05,-1.05577e+09,-1.05532e+09,-1.05544e+09,1.9038e+06,-0.108068,0.517105,-0,0.528277,-6035.9,-38419.4,-0,38890.7,1.9038e+06
step02_gravity_refstate-crust.xmf,287,-2.72054e-06,-5.09146e-06,0,3.87652e-05,-1.08459e+09,-1.08475e+09,-1.0844e+09,2.65929e+06,-0.117444,0.620997,-0,0.632005,-4390.16,-39466.7,-0,39710.1,2.65929e+06
step02_gravity_refstate-crust.xmf,288,-2.63796e-06,5.89172e-06,0,4.74391e-06,-6.90916e+08,-6.90331e+08,-6.90735e+08,325432,-0.0396335,0.219941,-0,0.223483,-23017.7,-25151.9,-0,34094.5,325432
step02_gravity_refstate-crust.xmf,289,-2.12201e-06,3.78543e-06,0,1.85594e-06,-4.42399e+08,-4.41994e+08,-4.42254e+08,127317,-0.0156803,0.201284,-0,0.201894,-32809.6,-16103.3,-0,36548.3,127317
step02_gravity_refstate-crust.xmf,290,-2.2027e-06,2.90307e-06,0,1.12637e-06,-3.35235e+08,-3.34885e+08,-3.35084e+08,77268.7,-0.0107436,0.206965,-0,0.207244,-35227.6,-12200.2,-0,37280.4,77268.7
step02_gravity_refstate-crust.xmf,291,-2.45524e-06,2.36179e-06,0,6.59851e-09,-2.53648e+08,-2.53318e+08,-2.5348e+08,452.658,-4.37809e-19,0.209118,-0,0.209118,-40000,-9228.03,-0,41050.7,452.658
step02_gravity_refstate-crust.xmf,292,-2.36131e-06,5.32769e-06,0,3.23952e-06,-6.14304e+08,-6.13776e+08,-6.14142e+08,222231,-0.0272087,0.197547,-0,0.199412,-27889.5,-22363,-0,35748.1,222231
step02_gravity_refstate-crust.xmf,293,-2.85715e-06,6.32048e-06,0,4.9993e-06,-7.30247e+08,-7.29617e+08,-7.30051e+08,342952,-0.0421174,0.219753,-0,0.223753,-22138.4,-26583.6,-0,34594.7,342952
step02_gravity_refstate-crust.xmf,294,-3.33854e-06,6.61878e-06,0,7.03923e-06,-8.06062e+08,-8.05379e+08,-8.05833e+08,482891,-0.0556817,0.254908,-0,0.260918,-17688,-29342.2,-0,34261.2,482891
step02_gravity_refstate-crust.xmf,295,-3.18858e-06,6.53023e-06,0,6.44612e-06,-7.83937e+08,-7.8327e+08,-7.83718e+08,442204,-0.0520457,0.245103,-0,0.250568,-18811.4,-28537.2,-0,34179.5,442204
step02_gravity_refstate-crust.xmf,296,-3.05014e-06,6.42681e-06,0,5.89972e-06,-7.61852e+08,-7.61202e+08,-7.61643e+08,404721,-0.0484138,0.235891,-0,0.240808,-19983.7,-27733.6,-0,34183.4,404721
step02_gravity_refstate-crust.xmf,297,-2.98968e-06,5.67535e-06,0,8.43202e-06,-8.09874e+08,-8.0928e+08,-8.09669e+08,578436,-0.0627258,0.287215,-0,0.293985,-15484.3,-29481,-0,33300,578436
step02_gravity_refstate-crust.xmf,298,-2.99236e-06,5.46082e-06,0,9.24281e-06,-8.29584e+08,-8.29004e+08,-8.29378e+08,634057,-0.0665147,0.301126,-0,0.308385,-14415.5,-30198.2,-0,33462.5,634057
step02_gravity_refstate-crust.xmf,299,-3.65984e-06,6.12503e-06,0,1.03192e-05,-8.80164e+08,-8.79493e+08,-8.79913e+08,707898,-0.0712922,0.310214,-0,0.3183,-13363.8,-32037.9,-0,34713.4,707898
step02_gravity_refstate-crust.xmf,300,-3.64306e-06,5.76154e-06,0,1.13684e-05,-8.96422e+08,-8.95777e+08,-8.96172e+08,779871,-0.0751553,0.327116,-0,0.335638,-12392.3,-32629.3,-0,34903.3,779871
step02_gravity_refstate-crust.xmf,301,-3.59411e-06,5.30722e-06,0,1.25328e-05,-9.12752e+08,-9.12142e+08,-9.12506e+08,859751,-0.0789773,0.345109,-0,0.35403,-11465.2,-33223.3,-0,35146,859751
step02_gravity_refstate-crust.xmf,302,-3.47757e-06,4.70431e-06,0,1.38487e-05,-9.28747e+08,-9.28186e+08,-9.28509e+08,950024,-0.0827964,0.364805,-0,0.374083,-10564.6,-33805.2,-0,35417.5,950024
step02_gravity_refstate-crust.xmf,303,-3.75151e-06,3.82741e-06,0,1.7491e-05,-9.76207e+08,-9.75687e+08,-9.7595e+08,1.19988e+06,-0.0916774,0.410015,-0,0.420139,-8781.05,-35530.6,-0,36599.5,1.19988e+06
step02_gravity_refstate-crust.xmf,304,-3.06546e-06,3.64355e-06,0,1.5322e-05,-9.40621e+08,-9.4016e+08,-9.4041e+08,1.05109e+06,-0.0864736,0.388149,-0,0.397665,-9647.06,-34237.5,-0,35570.6,1.05109e+06
step02_gravity_refstate-crust.xmf,305,-4.69933e-06,3.47804e-06,0,2.20831e-05,-1.02401e+09,-1.02345e+09,-1.02369e+09,1.5149e+06,-0.100231,0.457974,-0,0.468814,-7337.45,-37266.5,-0,37982,1.5149e+06
step02_gravity_refstate-crust.xmf,306,-5.39582e-06,3.29199e-06,0,2.54415e-05,-1.0494e+09,-1.0488e+09,-1.04903e+09,1.74529e+06,-0.105193,0.491388,-0,0.502522,-6544.6,-38187.7,-0,38744.4,1.74529e+06
step02_gravity_refstate-crust.xmf,307,-2.72412e-06,-3.74738e-06,0,3.5041e-05,-1.07283e+09,-1.0729e+09,-1.07264e+09,2.40381e+06,-0.114569,0.591112,-0,0.602113,-4795.72,-39040.6,-0,39334.1,2.40381e+06
step02_gravity_refstate-crust.xmf,308,-5.21498e-07,-9.51807e-06,0,4.31814e-05,-1.08961e+09,-1.09022e+09,-1.08957e+09,2.96224e+06,-0.119229,0.66074,-0,0.671411,-3884.51,-39651.4,-0,39841.2,2.96224e+06
step02_gravity_refstate-crust.xmf,309,-2.09862e-06,3.17768e-06,0,1.74317e-06,-3.75314e+08,-3.74952e+08,-3.7517e+08,119581,-0.0155005,0.209393,-0,0.209966,-32916.1,-13660.1,-0,35638,119581
step02_gravity_refstate-crust.xmf,310,-2.20152e-06,4.62493e-06,0,2.45946e-06,-5.35924e+08,-5.35455e+08,-5.35773e+08,168719,-0.0204283,0.195783,-0,0.196846,-30741,-19509.1,-0,36409,168719
step02_gravity_refstate-crust.xmf,311,-2.09707e-06,4.01934e-06,0,2.44634e-06,-4.74401e+08,-4.73981e+08,-4.74257e+08,167819,-0.0202645,0.205734,-0,0.20673,-30679.2,-17268.8,-0,35205.5,167819
step02_gravity_refstate-crust.xmf,312,-2.58703e-06,2.10292e-06,0,4.46933e-07,-2.12367e+08,-2.12045e+08,-2.12189e+08,30659.6,-0.00635741,0.21394,-0,0.214034,-37567.9,-7724.21,-0,38353.8,30659.6
step02_gravity_refstate-crust.xmf,313,-2.3384e-06,2.32464e-06,0,1.00382e-06,-2.56611e+08,-2.56291e+08,-2.56451e+08,68861.7,-0.0118209,0.214754,-0,0.21508,-35101,-9336.32,-0,36321.4,68861.7
step02_gravity_refstate-crust.xmf,314,-2.83122e-06,1.92148e-06,0,7.92024e-09,-1.72017e+08,-1.71691e+08,-1.71823e+08,543.328,-5.09709e-19,0.215493,-0,0.215493,-40000,-6253.97,-0,40485.9,543.328
step02_gravity_refstate-crust.xmf,315,-2.25768e-06,4.86417e-06,0,3.04475e-06,-5.68022e+08,-5.67533e+08,-5.67867e+08,208870,-0.0250996,0.201101,-0,0.202661,-28709.3,-20677.8,-0,35380.7,208870
step02_gravity_refstate-crust.xmf,316,-2.25513e-06,4.89203e-06,0,3.67853e-06,-5.82606e+08,-5.82116e+08,-5.82452e+08,252347,-0.0300934,0.212516,-0,0.214636,-26537.5,-21208.8,-0,33971.3,252347
step02_gravity_refstate-crust.xmf,317,-2.28045e-06,4.98679e-06,0,4.21194e-06,-6.0491e+08,-6.04411e+08,-6.04753e+08,288939,-0.0343097,0.22155,-0,0.224191,-24796.3,-22020.8,-0,33162.9,288939
step02_gravity_refstate-crust.xmf,318,-2.33162e-06,5.11083e-06,0,4.74787e-06,-6.32357e+08,-6.31846e+08,-6.32197e+08,325704,-0.0385142,0.230293,-0,0.233492,-23164.8,-23020.1,-0,32657.8,325704
step02_gravity_refstate-crust.xmf,319,-2.94792e-06,6.37037e-06,0,5.4061e-06,-7.44308e+08,-7.43669e+08,-7.44106e+08,370859,-0.044973,0.226903,-0,0.231317,-21142.2,-27095.2,-0,34367.8,370859
step02_gravity_refstate-crust.xmf,320,-2.9563e-06,5.79889e-06,0,7.7531e-06,-7.911e+08,-7.90499e+08,-7.90897e+08,531863,-0.0592397,0.275467,-0,0.281765,-16500.2,-28797.8,-0,33189.9,531863
step02_gravity_refstate-crust.xmf,321,-2.92047e-06,5.176e-06,0,1.01213e-05,-8.47839e+08,-8.47284e+08,-8.47639e+08,694325,-0.0702932,0.316699,-0,0.324406,-13370.1,-30862.6,-0,33634.2,694325
step02_gravity_refstate-crust.xmf,322,-3.35818e-06,2.62418e-06,0,1.93408e-05,-9.88321e+08,-9.87911e+08,-9.88091e+08,1.32678e+06,-0.0951842,0.434889,-0,0.445184,-8023.64,-35971.3,-0,36855.3,1.32678e+06
step02_gravity_refstate-crust.xmf,323,-2.48832e-06,2.31392e-06,0,1.69026e-05,-9.51926e+08,-9.51596e+08,-9.51755e+08,1.15952e+06,-0.0898046,0.412899,-0,0.422553,-8775.5,-34649.3,-0,35743.3,1.15952e+06
step02_gravity_refstate-crust.xmf,324,-3.8894e-06,1.72391e-06,0,2.45623e-05,-1.03254e+09,-1.03215e+09,-1.03227e+09,1.68498e+06,-0.103884,0.489565,-0,0.500466,-6612.75,-37577.4,-0,38154.8,1.68498e+06
step02_gravity_refstate-crust.xmf,325,-2.89105e-06,1.2457e-06,0,2.14062e-05,-1.00094e+09,-1.00066e+09,-1.00074e+09,1.46847e+06,-0.0985519,0.461097,-0,0.471512,-7309.79,-36430.5,-0,37156.6,1.46847e+06
step02_gravity_refstate-crust.xmf,326,-2.93066e-06,-7.78447e-07,0,2.7213e-05,-1.03965e+09,-1.0395e+09,-1.03945e+09,1.86681e+06,-0.106761,0.520282,-0,0.531123,-5980.2,-37836.4,-0,38306.1,1.86681e+06
step02_gravity_refstate-crust.xmf,327,-1.89413e-06,-3.2436e-06,0,3.00977e-05,-1.04856e+09,-1.04866e+09,-1.04843e+09,2.0647e+06,-0.109428,0.55211,-0,0.56285,-5391.99,-38161.4,-0,38540.4,2.0647e+06
step02_gravity_refstate-crust.xmf,328,1.04593e-06,-9.78408e-06,0,3.73047e-05,-1.06763e+09,-1.06837e+09,-1.0677e+09,2.5591e+06,-0.113945,0.624234,-0,0.634548,-4279.35,-38857.1,-0,39092,2.5591e+06
step02_gravity_refstate-crust.xmf,329,-5.15086e-07,-6.31493e-06,0,3.34757e-05,-1.0578e+09,-1.05819e+09,-1.05776e+09,2.29643e+06,-0.111822,0.587306,-0,0.597856,-4812.92,-38498.3,-0,38798,2.29643e+06
step02_gravity_refstate-crust.xmf,330,2.59712e-06,-1.27745e-05,0,4.12754e-05,-1.0775e+09,-1.07855e+09,-1.07768e+09,2.8315e+06,-0.115909,0.659926,-0,0.670028,-3831.4,-39218.2,-0,39404.9,2.8315e+06
step02_gravity_refstate-crust.xmf,331,4.08821e-06,-1.70984e-05,0,4.65199e-05,-1.08724e+09,-1.08869e+09,-1.08752e+09,3.19126e+06,-0.117701,0.697798,-0,0.707655,-3414.04,-39572.1,-0,39719.1,3.19126e+06
step02_gravity_refstate-crust.xmf,332,-2.63198e-06,5.75468e-06,0,5.41449e-06,-7.01193e+08,-7.00618e+08,-7.01013e+08,371434,-0.0443752,0.235198,-0,0.239347,-21254.3,-25525.9,-0,33216.2,371434
step02_gravity_refstate-crust.xmf,333,-2.00539e-06,3.41976e-06,0,2.35738e-06,-4.10875e+08,-4.10502e+08,-4.10737e+08,161716,-0.0200959,0.214435,-0,0.215375,-30652.6,-14955.5,-0,34106.4,161716
step02_gravity_refstate-crust.xmf,334,-2.12091e-06,2.64384e-06,0,1.614e-06,-3.11277e+08,-3.1095e+08,-3.11132e+08,110720,-0.0159662,0.216243,-0,0.216832,-32903.2,-11327.9,-0,34798.6,110720
step02_gravity_refstate-crust.xmf,335,-3.07915e-06,1.7597e-06,0,3.05446e-07,-1.30659e+08,-1.30327e+08,-1.30448e+08,20953.6,-0.0074384,0.219633,-0,0.219759,-37616.9,-4747.03,-0,37915.2,20953.6
step02_gravity_refstate-crust.xmf,336,-3.52164e-06,1.69236e-06,0,4.73776e-09,-8.76879e+07,-8.73302e+07,-8.74463e+07,325.01,-5.97079e-19,0.221033,-0,0.221033,-40000,-3180.74,-0,40126.3,325.01
step02_gravity_refstate-crust.xmf,337,-2.33586e-06,5.15961e-06,0,5.32143e-06,-6.5601e+08,-6.55495e+08,-6.55849e+08,365050,-0.0429044,0.241657,-0,0.245436,-21495.9,-23881.2,-0,32130.8,365050
step02_gravity_refstate-crust.xmf,338,-2.6927e-06,5.72036e-06,0,6.00521e-06,-7.21234e+08,-7.20656e+08,-7.21049e+08,411957,-0.0483583,0.246183,-0,0.250888,-19870.8,-26255.2,-0,32926.9,411957
step02_gravity_refstate-crust.xmf,339,-2.84988e-06,5.76563e-06,0,7.1741e-06,-7.68427e+08,-7.67836e+08,-7.68231e+08,492143,-0.0559035,0.266342,-0,0.272146,-17475.8,-27972.7,-0,32983,492143
step02_gravity_refstate-crust.xmf,340,-2.75456e-06,5.71139e-06,0,6.61818e-06,-7.439e+08,-7.43319e+08,-7.43711e+08,454007,-0.0523588,0.257289,-0,0.262562,-18555.1,-27080.1,-0,32827.2,454007
step02_gravity_refstate-crust.xmf,341,-2.4364e-06,4.85892e-06,0,8.32384e-06,-7.75155e+08,-7.74655e+08,-7.74988e+08,571015,-0.0615686,0.294764,-0,0.301126,-15427.2,-28218,-0,32159.8,571015
step02_gravity_refstate-crust.xmf,342,-2.37179e-06,4.58943e-06,0,9.05342e-06,-7.95207e+08,-7.94729e+08,-7.95044e+08,621064,-0.0650479,0.307799,-0,0.314597,-14392.8,-28947.8,-0,32328.5,621064
step02_gravity_refstate-crust.xmf,343,-2.26716e-06,4.23597e-06,0,9.86186e-06,-8.15146e+08,-8.147e+08,-8.14991e+08,676523,-0.0685236,0.321964,-0,0.329175,-13386.1,-29673.6,-0,32553.2,676523
step02_gravity_refstate-crust.xmf,344,-2.81872e-06,4.66278e-06,0,1.11304e-05,-8.65226e+08,-8.64713e+08,-8.65033e+08,763545,-0.073943,0.333224,-0,0.341329,-12383.1,-31495.2,-0,33842.2,763545
step02_gravity_refstate-crust.xmf,345,-2.64341e-06,4.08295e-06,0,1.22107e-05,-8.82141e+08,-8.81679e+08,-8.8196e+08,837656,-0.0774983,0.350933,-0,0.359388,-11439.5,-32110.8,-0,34087.7,837656
step02_gravity_refstate-crust.xmf,346,-2.37649e-06,3.33218e-06,0,1.34034e-05,-8.98349e+08,-8.97957e+08,-8.98186e+08,919471,-0.0809379,0.370149,-0,0.378895,-10529,-32700.8,-0,34354.1,919471
step02_gravity_refstate-crust.xmf,347,-1.9393e-06,2.30336e-06,0,1.4723e-05,-9.1311e+08,-9.12819e+08,-9.12977e+08,1.01e+06,-0.0841811,0.391603,-0,0.400549,-9629.74,-33238.4,-0,34605.2,1.01e+06
step02_gravity_refstate-crust.xmf,348,-1.86434e-06,8.71324e-07,0,1.85896e-05,-9.64219e+08,-9.64031e+08,-9.64091e+08,1.27525e+06,-0.0928224,0.437635,-0,0.447371,-7988.96,-35097.2,-0,35994.9,1.27525e+06
step02_gravity_refstate-crust.xmf,349,-1.32635e-06,1.00284e-06,0,1.61149e-05,-9.26432e+08,-9.26272e+08,-9.26341e+08,1.10549e+06,-0.087029,0.414391,-0,0.423431,-8777.06,-33723.9,-0,34847.3,1.10549e+06
step02_gravity_refstate-crust.xmf,350,-2.12295e-06,-6.0816e-07,0,2.36857e-05,-1.01202e+09,-1.01192e+09,-1.01187e+09,1.62484e+06,-0.101597,0.489778,-0,0.500204,-6615.78,-36834,-0,37423.5,1.62484e+06
step02_gravity_refstate-crust.xmf,351,-1.97203e-06,2.8203e-06,0,2.18504e-06,-3.434e+08,-3.43071e+08,-3.43264e+08,149894,-0.0201056,0.221753,-0,0.222663,-30725.4,-12498.2,-0,33170.1,149894
step02_gravity_refstate-crust.xmf,352,-2.08063e-06,4.20551e-06,0,3.02713e-06,-5.02977e+08,-5.02545e+08,-5.02834e+08,207661,-0.0247558,0.212335,-0,0.213773,-28621.7,-18309.5,-0,33977,207661
step02_gravity_refstate-crust.xmf,353,-1.94083e-06,3.59515e-06,0,2.92751e-06,-4.41208e+08,-4.40828e+08,-4.41075e+08,200827,-0.0242077,0.221013,-0,0.222334,-28631.6,-16060.3,-0,32828.4,200827
step02_gravity_refstate-crust.xmf,354,-2.69184e-06,1.8483e-06,0,7.42656e-07,-1.70299e+08,-1.69987e+08,-1.70114e+08,50946.2,-0.0133865,0.221037,-0,0.221442,-35222.8,-6191.86,-0,35762.9,50946.2
step02_gravity_refstate-crust.xmf,355,-2.27332e-06,1.97316e-06,0,1.32967e-06,-2.12575e+08,-2.12284e+08,-2.12419e+08,91215.5,-0.018598,0.225554,-0,0.226319,-32614,-7732.88,-0,33518.2,91215.5
step02_gravity_refstate-crust.xmf,356,-3.75546e-06,1.65731e-06,0,1.53561e-07,-6.22441e+07,-6.18727e+07,-6.19864e+07,10534.3,-0.00849018,0.223757,-0,0.223918,-37762.5,-2253.43,-0,37829.7,10534.3
step02_gravity_refstate-crust.xmf,357,-4.67933e-06,1.78836e-06,0,-3.21611e-08,-443961,-277.68,-122959,-2206.25,-4.33597e-19,0.226485,-0,0.226485,-40000,0,-0,40000,2206.25
step02_gravity_refstate-crust.xmf,358,-2.04919e-06,4.24649e-06,0,3.63626e-06,-5.23206e+08,-5.22774e+08,-5.23066e+08,249447,-0.0292897,0.222392,-0,0.224313,-26538.4,-19046.1,-0,32665.6,249447
step02_gravity_refstate-crust.xmf,359,-2.04764e-06,4.37288e-06,0,4.1682e-06,-5.51572e+08,-5.51132e+08,-5.51432e+08,285939,-0.0333291,0.230607,-0,0.233003,-24800.4,-20079,-0,31909.7,285939
step02_gravity_refstate-crust.xmf,360,-2.03944e-06,4.44616e-06,0,4.70664e-06,-5.78713e+08,-5.78268e+08,-5.78573e+08,322876,-0.0373759,0.240022,-0,0.242914,-23119.8,-21067.3,-0,31278.7,322876
step02_gravity_refstate-crust.xmf,361,-2.02021e-06,4.46578e-06,0,5.25668e-06,-6.0546e+08,-6.05015e+08,-6.05322e+08,360608,-0.0414145,0.250353,-0,0.253755,-21509.4,-22041.1,-0,30797.2,360608
step02_gravity_refstate-crust.xmf,362,-2.48768e-06,5.08277e-06,0,7.73778e-06,-7.59564e+08,-7.59045e+08,-7.59394e+08,530812,-0.0586136,0.283838,-0,0.289827,-16354.1,-27650.5,-0,32124.9,530812
step02_gravity_refstate-crust.xmf,363,-2.06299e-06,3.77422e-06,0,1.0738e-05,-8.33501e+08,-8.33101e+08,-8.3336e+08,736627,-0.0719203,0.337987,-0,0.345555,-12386.5,-30341.9,-0,32772.8,736627
step02_gravity_refstate-crust.xmf,364,-1.15238e-06,-7.62539e-07,0,2.04549e-05,-9.77182e+08,-9.77155e+08,-9.77103e+08,1.40321e+06,-0.0956429,0.463391,-0,0.473158,-7255.44,-35569.4,-0,36301.9,1.40321e+06
step02_gravity_refstate-crust.xmf,365,-5.39281e-07,-5.76713e-07,0,1.76149e-05,-9.39488e+08,-9.3949e+08,-9.39451e+08,1.20838e+06,-0.0895341,0.438648,-0,0.447692,-7961.92,-34199.9,-0,35114.5,1.20838e+06
step02_gravity_refstate-crust.xmf,366,-9.15662e-07,-2.82954e-06,0,2.59935e-05,-1.02108e+09,-1.02121e+09,-1.02102e+09,1.78315e+06,-0.104012,0.520399,-0,0.530692,-5951.67,-37165.4,-0,37638.9,1.78315e+06
step02_gravity_refstate-crust.xmf,367,-2.38826e-07,-2.7298e-06,0,2.24885e-05,-9.8975e+08,-9.89921e+08,-9.89734e+08,1.54271e+06,-0.0981504,0.490706,-0,0.500425,-6561.56,-36027.7,-0,36620.3,1.54271e+06
step02_gravity_refstate-crust.xmf,368,4.85961e-07,-5.92587e-06,0,2.8628e-05,-1.03e+09,-1.03044e+09,-1.03004e+09,1.96388e+06,-0.105898,0.551849,-0,0.561918,-5339.36,-37491.1,-0,37869.4,1.96388e+06
step02_gravity_refstate-crust.xmf,369,2.13338e-06,-9.21004e-06,0,3.14757e-05,-1.03963e+09,-1.04041e+09,-1.03978e+09,2.15924e+06,-0.107466,0.584837,-0,0.594628,-4768.16,-37843.2,-0,38142.5,2.15924e+06
step02_gravity_refstate-crust.xmf,370,6.27065e-06,-1.74516e-05,0,3.87798e-05,-1.06209e+09,-1.06372e+09,-1.06252e+09,2.66029e+06,-0.110263,0.659212,-0,0.66837,-3722.12,-38664.8,-0,38843.5,2.66029e+06
step02_gravity_refstate-crust.xmf,371,4.21475e-06,-1.33079e-05,0,3.49843e-05,-1.05055e+09,-1.05175e+09,-1.05084e+09,2.39993e+06,-0.108815,0.622449,-0,0.631889,-4196.67,-38242.8,-0,38472.4,2.39993e+06
step02_gravity_refstate-crust.xmf,372,8.41816e-06,-2.13381e-05,0,4.32587e-05,-1.0739e+09,-1.07594e+09,-1.07447e+09,2.96755e+06,-0.111812,0.697333,-0,0.70624,-3303.1,-39097.3,-0,39236.6,2.96755e+06
step02_gravity_refstate-crust.xmf,373,1.23489e-05,-2.87249e-05,0,4.88678e-05,-1.08352e+09,-1.08633e+09,-1.08436e+09,3.35233e+06,-0.111553,0.742175,-0,0.750512,-2846.53,-39452,-0,39554.6,3.35233e+06
step02_gravity_refstate-crust.xmf,374,-2.31293e-06,5.07365e-06,0,5.94777e-06,-6.77135e+08,-6.76628e+08,-6.76976e+08,408017,-0.0472374,0.254707,-0,0.25905,-19880.4,-24650.3,-0,31668.1,408017
step02_gravity_refstate-crust.xmf,375,-1.8332e-06,3.01445e-06,0,2.74986e-06,-3.77848e+08,-3.77516e+08,-3.77723e+08,188640,-0.0238994,0.228441,-0,0.229687,-28660.5,-13753.2,-0,31789.6,188640
step02_gravity_refstate-crust.xmf,376,-1.99228e-06,2.27015e-06,0,1.95117e-06,-2.72784e+08,-2.72492e+08,-2.72648e+08,133850,-0.0213142,0.228909,-0,0.2299,-30591.6,-9926.45,-0,32161.8,133850
step02_gravity_refstate-crust.xmf,377,-3.42634e-06,1.60567e-06,0,4.17932e-07,-8.01256e+07,-7.97804e+07,-7.98905e+07,28670.1,-0.0167861,0.226623,-0,0.227244,-35258.3,-2905.67,-0,35377.8,28670.1
step02_gravity_refstate-crust.xmf,378,-4.55501e-06,1.72916e-06,0,-1.94169e-08,-432663,-1568.56,-120189,-1332,-0.0144558,0.228607,-0,0.229064,-36874.5,0,-0,36874.5,1332
step02_gravity_refstate-crust.xmf,379,-1.95827e-06,4.42962e-06,0,5.81616e-06,-6.3041e+08,-6.29972e+08,-6.30276e+08,398989,-0.0454448,0.262155,-0,0.266065,-19933.5,-22949.6,-0,30397.9,398989
step02_gravity_refstate-crust.xmf,380,-2.29122e-06,4.91651e-06,0,6.60463e-06,-7.00057e+08,-6.99562e+08,-6.99899e+08,453078,-0.0513955,0.267549,-0,0.27244,-18411.3,-25484.6,-0,31439.5,453078
step02_gravity_refstate-crust.xmf,381,-2.23747e-06,4.73484e-06,0,7.34086e-06,-7.25986e+08,-7.25508e+08,-7.25833e+08,503583,-0.0557777,0.281639,-0,0.287109,-16945.8,-26428.5,-0,31394.7,503583
step02_gravity_refstate-crust.xmf,382,-1.91765e-06,4.12008e-06,0,8.08402e-06,-7.37048e+08,-7.36634e+08,-7.36917e+08,554564,-0.0594845,0.300794,-0,0.30662,-15439.6,-26831.6,-0,30956.7,554564
step02_gravity_refstate-crust.xmf,383,-1.78505e-06,3.78578e-06,0,8.79763e-06,-7.6041e+08,-7.60028e+08,-7.60288e+08,603518,-0.0630434,0.314175,-0,0.320438,-14326.5,-27682.1,-0,31169.7,603518
step02_gravity_refstate-crust.xmf,384,-1.65963e-06,3.45434e-06,0,9.50496e-06,-7.81891e+08,-7.8154e+08,-7.81777e+08,652040,-0.0662211,0.326725,-0,0.333368,-13379.8,-28464.2,-0,31452,652040
step02_gravity_refstate-crust.xmf,385,-1.41157e-06,2.91332e-06,0,1.02905e-05,-8.0078e+08,-8.00483e+08,-8.00683e+08,705927,-0.0692531,0.341557,-0,0.348507,-12406.3,-29152,-0,31682.1,705927
step02_gravity_refstate-crust.xmf,386,-1.79304e-06,3.04942e-06,0,1.17181e-05,-8.50483e+08,-8.50151e+08,-8.5036e+08,803860,-0.0750837,0.354969,-0,0.362823,-11442.6,-30960.1,-0,33007,803860
step02_gravity_refstate-crust.xmf,387,-1.41784e-06,2.20609e-06,0,1.27967e-05,-8.67772e+08,-8.67523e+08,-8.67674e+08,877855,-0.0781938,0.373731,-0,0.381823,-10507.7,-31589.8,-0,33291.5,877855
step02_gravity_refstate-crust.xmf,388,-9.16308e-07,1.14985e-06,0,1.39774e-05,-8.84534e+08,-8.84393e+08,-8.84472e+08,958852,-0.0810899,0.394066,-0,0.402323,-9603.69,-32200.4,-0,33602.1,958852
step02_gravity_refstate-crust.xmf,389,-2.14834e-07,-2.07547e-07,0,1.5222e-05,-8.99629e+08,-8.99629e+08,-8.99614e+08,1.04423e+06,-0.083545,0.416155,-0,0.424459,-8727.4,-32750.7,-0,33893.6,1.04423e+06
step02_gravity_refstate-crust.xmf,390,3.97513e-07,-2.41447e-06,0,1.92309e-05,-9.52683e+08,-9.52876e+08,-9.52711e+08,1.31924e+06,-0.091706,0.463928,-0,0.472905,-7200.17,-34681.3,-0,35420.8,1.31924e+06
step02_gravity_refstate-crust.xmf,391,6.32368e-07,-1.78555e-06,0,1.64981e-05,-9.13796e+08,-9.13962e+08,-9.13839e+08,1.13177e+06,-0.0855351,0.438776,-0,0.447036,-7920.74,-33267.4,-0,34197.4,1.13177e+06
step02_gravity_refstate-crust.xmf,392,9.96351e-07,-5.16488e-06,0,2.46079e-05,-1.00091e+09,-1.00133e+09,-1.00097e+09,1.6881e+06,-0.100076,0.519565,-0,0.529115,-5903.92,-36435,-0,36910.2,1.6881e+06
step02_gravity_refstate-crust.xmf,393,1.1262e-05,-2.42102e-05,0,3.91678e-05,-1.05886e+09,-1.0613e+09,-1.05964e+09,2.68691e+06,-0.105025,0.688071,-0,0.69604,-3258.12,-38557.1,-0,38694.5,2.68691e+06
step02_gravity_refstate-crust.xmf,394,1.45663e-05,-2.95663e-05,0,4.22322e-05,-1.06657e+09,-1.0696e+09,-1.06757e+09,2.89713e+06,-0.103824,0.721474,-0,0.728906,-2883.57,-38842.7,-0,38949.6,2.89713e+06
step02_gravity_refstate-crust.xmf,395,-1.78755e-06,2.45208e-06,0,2.52037e-06,-3.12297e+08,-3.12007e+08,-3.12175e+08,172897,-0.02433,0.235124,-0,0.236379,-28628.5,-11366.1,-0,30802.3,172897
step02_gravity_refstate-crust.xmf,396,-1.87717e-06,3.71461e-06,0,3.48862e-06,-4.68677e+08,-4.68293e+08,-4.68548e+08,239319,-0.0282278,0.229373,-0,0.231104,-26673,-17060.8,-0,31662.6,239319
step02_gravity_refstate-crust.xmf,397,-1.71991e-06,3.14536e-06,0,3.31502e-06,-4.09312e+08,-4.08978e+08,-4.09194e+08,227410,-0.0275506,0.236734,-0,0.238331,-26675.5,-14899.3,-0,30554.4,227410
step02_gravity_refstate-crust.xmf,398,-2.068e-06,1.8655e-06,0,1.71242e-06,-2.10796e+08,-2.10526e+08,-2.10654e+08,117472,-0.0239635,0.235369,-0,0.236586,-30190.3,-7668.74,-0,31149,117472
step02_gravity_refstate-crust.xmf,399,-2.78094e-06,1.63532e-06,0,8.48114e-07,-1.30056e+08,-1.29753e+08,-1.29865e+08,58180.6,-0.0204331,0.228918,-0,0.229828,-33243.8,-4726.1,-0,33578,58180.6
step02_gravity_refstate-crust.xmf,400,-1.60706e-06,3.77663e-06,0,5.63668e-06,-5.81657e+08,-5.81288e+08,-5.81547e+08,386676,-0.0433996,0.269674,-0,0.273143,-19907.5,-21175.2,-0,29063.6,386676
step02_gravity_refstate-crust.xmf,401,-1.82409e-06,3.77578e-06,0,4.05508e-06,-4.96125e+08,-4.95741e+08,-4.96e+08,278179,-0.032159,0.238841,-0,0.240996,-24799.1,-18060.4,-0,30678.5,278179
step02_gravity_refstate-crust.xmf,402,-1.76763e-06,3.83042e-06,0,4.59045e-06,-5.25054e+08,-5.24669e+08,-5.24932e+08,314905,-0.0359614,0.248503,-0,0.251092,-23073.3,-19113.9,-0,29962,314905
step02_gravity_refstate-crust.xmf,403,-1.70888e-06,3.84446e-06,0,5.11762e-06,-5.54241e+08,-5.5386e+08,-5.54123e+08,351069,-0.0397015,0.258535,-0,0.261566,-21463.3,-20176.7,-0,29458,351069
step02_gravity_refstate-crust.xmf,404,-1.05446e-06,2.2538e-06,0,1.11337e-05,-8.18872e+08,-8.18645e+08,-8.188e+08,763772,-0.0721413,0.358127,-0,0.365321,-11435.3,-29811.1,-0,31929.1,763772
step02_gravity_refstate-crust.xmf,405,1.56789e-06,-4.65658e-06,0,2.10367e-05,-9.66089e+08,-9.66516e+08,-9.66197e+08,1.44312e+06,-0.0935285,0.491361,-0,0.500184,-6461.41,-35170.6,-0,35759.2,1.44312e+06
step02_gravity_refstate-crust.xmf,406,1.69365e-06,-3.69067e-06,0,1.78511e-05,-9.27644e+08,-9.28013e+08,-9.2776e+08,1.22459e+06,-0.0870861,0.462959,-0,0.471079,-7143.94,-33772.9,-0,34520.2,1.22459e+06
step02_gravity_refstate-crust.xmf,407,2.54623e-06,-7.80456e-06,0,2.67407e-05,-1.0112e+09,-1.01191e+09,-1.01138e+09,1.83441e+06,-0.101401,0.549416,-0,0.558695,-5292.24,-36812.1,-0,37190.6,1.83441e+06
step02_gravity_refstate-crust.xmf,408,2.90422e-06,-7.19264e-06,0,2.296e-05,-9.7973e+08,-9.80423e+08,-9.7993e+08,1.57506e+06,-0.0950673,0.519514,-0,0.528141,-5790.79,-35668.7,-0,36135.7,1.57506e+06
step02_gravity_refstate-crust.xmf,409,4.496e-06,-1.15576e-05,0,2.91466e-05,-1.02103e+09,-1.02213e+09,-1.02134e+09,1.99946e+06,-0.102048,0.581214,-0,0.590104,-4704.82,-37172,-0,37468.6,1.99946e+06
step02_gravity_refstate-crust.xmf,410,6.95978e-06,-1.59264e-05,0,3.18524e-05,-1.03177e+09,-1.03334e+09,-1.03225e+09,2.18507e+06,-0.102221,0.616584,-0,0.625,-4126.89,-37566.1,-0,37792.1,2.18507e+06
step02_gravity_refstate-crust.xmf,411,1.05248e-05,-2.19489e-05,0,3.53152e-05,-1.04422e+09,-1.04645e+09,-1.04494e+09,2.42262e+06,-0.101647,0.659884,-0,0.667667,-3512.26,-38024.5,-0,38186.4,2.42262e+06
step02_gravity_refstate-crust.xmf,412,1.59546e-05,-3.02239e-05,0,3.71171e-05,-1.05038e+09,-1.05355e+09,-1.05147e+09,2.54623e+06,-0.0964491,0.702789,-0,0.709377,-2900.33,-38257.9,-0,38367.7,2.54623e+06
step02_gravity_refstate-crust.xmf,413,2.19738e-05,-4.13971e-05,0,5.01357e-05,-1.0853e+09,-1.08965e+09,-1.08681e+09,3.43931e+06,-0.102623,0.794522,-0,0.801122,-2259.37,-39536.3,-0,39600.8,3.43931e+06
step02_gravity_refstate-crust.xmf,414,-1.86802e-06,4.27424e-06,0,6.41962e-06,-6.54675e+08,-6.54254e+08,-6.54547e+08,440386,-0.0494064,0.275006,-0,0.279409,-18419.7,-23833.2,-0,30121.5,440386
step02_gravity_refstate-crust.xmf,415,-1.48908e-06,3.64772e-06,0,6.19192e-06,-6.07869e+08,-6.07517e+08,-6.07767e+08,424766,-0.0470265,0.281857,-0,0.285754,-18404.8,-22129.7,-0,28783,424766
step02_gravity_refstate-crust.xmf,416,-1.59819e-06,2.60057e-06,0,3.0691e-06,-3.47259e+08,-3.46971e+08,-3.47149e+08,210540,-0.0273896,0.243325,-0,0.244862,-26653.7,-12639.9,-0,29498.9,210540
step02_gravity_refstate-crust.xmf,417,-1.8018e-06,1.96695e-06,0,2.20917e-06,-2.45633e+08,-2.45375e+08,-2.4551e+08,151549,-0.0260022,0.241241,-0,0.242639,-28486.7,-8938.28,-0,29856,151549
step02_gravity_refstate-crust.xmf,418,-2.42682e-06,1.54329e-06,0,1.23521e-06,-1.40826e+08,-1.40554e+08,-1.4066e+08,84735.4,-0.0265219,0.237669,-0,0.239144,-30661.1,-5119.49,-0,31085.6,84735.4
step02_gravity_refstate-crust.xmf,419,-3.20443e-06,1.46291e-06,0,5.61e-07,-6.71192e+07,-6.67991e+07,-6.68994e+07,38484.6,-0.0275076,0.23558,-0,0.237181,-32286,-2432.84,-0,32377.5,38484.6
step02_gravity_refstate-crust.xmf,420,-4.24455e-06,1.6094e-06,0,-2.29872e-09,-403255,-1673.8,-112078,-157.692,-0.0277716,0.234616,-0,0.236254,-33847.7,0,-0,33847.7,157.692
step02_gravity_refstate-crust.xmf,421,-1.72345e-06,3.95662e-06,0,7.06244e-06,-6.77032e+08,-6.76642e+08,-6.76914e+08,484483,-0.0531674,0.28895,-0,0.293801,-16979,-24647.2,-0,29929.4,484483
step02_gravity_refstate-crust.xmf,422,-1.44731e-06,3.47092e-06,0,7.72235e-06,-6.9585e+08,-6.95512e+08,-6.95751e+08,529753,-0.0566675,0.305364,-0,0.310577,-15519.6,-25332.6,-0,29708.6,529753
step02_gravity_refstate-crust.xmf,423,-1.11311e-06,2.8986e-06,0,8.52876e-06,-7.21689e+08,-7.21414e+08,-7.21613e+08,585073,-0.0605492,0.323636,-0,0.329251,-14012.5,-26273.8,-0,29776.9,585073
step02_gravity_refstate-crust.xmf,424,-1.16786e-06,2.85711e-06,0,9.14658e-06,-7.52382e+08,-7.52106e+08,-7.52302e+08,627456,-0.0638923,0.330889,-0,0.337001,-13331.8,-27390.9,-0,30463.1,627456
step02_gravity_refstate-crust.xmf,425,-8.6152e-07,2.27039e-06,0,9.76684e-06,-7.67917e+08,-7.67702e+08,-7.67858e+08,670005,-0.0662028,0.34404,-0,0.350352,-12441.4,-27956.8,-0,30600.2,670005
step02_gravity_refstate-crust.xmf,426,-4.33308e-07,1.48732e-06,0,1.0519e-05,-7.86081e+08,-7.8595e+08,-7.86052e+08,721600,-0.0687116,0.360322,-0,0.366815,-11435.2,-28618.6,-0,30818.7,721600
step02_gravity_refstate-crust.xmf,427,-6.02333e-07,1.29472e-06,0,1.20816e-05,-8.36441e+08,-8.36311e+08,-8.364e+08,828801,-0.0748059,0.375965,-0,0.383335,-10496.8,-30451,-0,32209.4,828801
step02_gravity_refstate-crust.xmf,428,-3.15116e-08,2.03836e-07,0,1.31146e-05,-8.54575e+08,-8.54559e+08,-8.54573e+08,899663,-0.0773325,0.395392,-0,0.402883,-9578.8,-31111.9,-0,32553.1,899663
step02_gravity_refstate-crust.xmf,429,7.11702e-07,-1.15111e-06,0,1.42157e-05,-8.7187e+08,-8.71998e+08,-8.71919e+08,975200,-0.0794809,0.416459,-0,0.423976,-8688.54,-31742.4,-0,32910,975200
step02_gravity_refstate-crust.xmf,430,1.61773e-06,-2.74088e-06,0,1.53096e-05,-8.87469e+08,-8.87768e+08,-8.8758e+08,1.05024e+06,-0.0810532,0.438119,-0,0.445553,-7865.4,-32311.5,-0,33255,1.05024e+06
step02_gravity_refstate-crust.xmf,431,3.06324e-06,-6.05481e-06,0,1.92858e-05,-9.41312e+08,-9.41937e+08,-9.41522e+08,1.32301e+06,-0.088079,0.489379,-0,0.497242,-6379.47,-34272.4,-0,34861.1,1.32301e+06
step02_gravity_refstate-crust.xmf,432,2.72201e-06,-4.61927e-06,0,1.64182e-05,-9.02255e+08,-9.02758e+08,-9.02441e+08,1.12629e+06,-0.0820863,0.460856,-0,0.468109,-7084.47,-32851.3,-0,33606.6,1.12629e+06
step02_gravity_refstate-crust.xmf,433,4.29018e-06,-9.76728e-06,0,2.49068e-05,-9.92845e+08,-9.93809e+08,-9.93139e+08,1.7086e+06,-0.0963608,0.546732,-0,0.555159,-5219.94,-36147.7,-0,36522.7,1.7086e+06
step02_gravity_refstate-crust.xmf,434,1.95178e-05,-3.75528e-05,0,4.49866e-05,-1.0731e+09,-1.07702e+09,-1.07444e+09,3.08608e+06,-0.100289,0.75957,-0,0.766162,-2474.09,-39088.3,-0,39166.5,3.08608e+06
step02_gravity_refstate-crust.xmf,435,2.11367e-05,-3.80474e-05,0,3.96234e-05,-1.05945e+09,-1.06351e+09,-1.0609e+09,2.71816e+06,-0.0921338,0.744673,-0,0.750351,-2419.72,-38597.1,-0,38672.9,2.71816e+06
step02_gravity_refstate-crust.xmf,436,-1.14709e-06,3.04564e-06,0,5.93146e-06,-5.60062e+08,-5.59775e+08,-5.59984e+08,406898,-0.044486,0.288387,-0,0.291798,-18335.1,-20389.7,-0,27421.1,406898
step02_gravity_refstate-crust.xmf,437,-1.54244e-06,2.075e-06,0,2.75966e-06,-2.82399e+08,-2.82151e+08,-2.82294e+08,189313,-0.0282136,0.249294,-0,0.250885,-26577.9,-10278,-0,28496,189313
step02_gravity_refstate-crust.xmf,438,-1.61066e-06,3.22709e-06,0,3.86466e-06,-4.39233e+08,-4.38901e+08,-4.39123e+08,265116,-0.0310949,0.246275,-0,0.24823,-24771.6,-15989.2,-0,29483.7,265116
step02_gravity_refstate-crust.xmf,439,-1.43501e-06,2.68248e-06,0,3.61436e-06,-3.79648e+08,-3.79366e+08,-3.7955e+08,247945,-0.0303741,0.252885,-0,0.254702,-24737.7,-13819.8,-0,28336.2,247945
step02_gravity_refstate-crust.xmf,440,-1.94408e-06,1.58152e-06,0,1.77753e-06,-1.78961e+08,-1.78719e+08,-1.78827e+08,121939,-0.0289176,0.245585,-0,0.247282,-28479.7,-6509.82,-0,29214.2,121939
step02_gravity_refstate-crust.xmf,441,-1.30939e-06,3.23437e-06,0,5.41267e-06,-5.33766e+08,-5.33455e+08,-5.33676e+08,371309,-0.0412759,0.276222,-0,0.279289,-19862.8,-19432,-0,27787.3,371309
step02_gravity_refstate-crust.xmf,442,-1.50858e-06,3.2404e-06,0,4.42659e-06,-4.69892e+08,-4.69567e+08,-4.69789e+08,303664,-0.034622,0.256734,-0,0.259058,-22935.8,-17105.8,-0,28612.2,303664
step02_gravity_refstate-crust.xmf,443,-1.40714e-06,3.24737e-06,0,4.92788e-06,-5.01381e+08,-5.01062e+08,-5.01285e+08,338052,-0.0379512,0.266562,-0,0.26925,-21330.6,-18252.6,-0,28074,338052
step02_gravity_refstate-crust.xmf,444,9.50544e-08,6.08739e-07,0,1.13281e-05,-8.05148e+08,-8.05112e+08,-8.05154e+08,777108,-0.0710879,0.377893,-0,0.384522,-10452.8,-29313.5,-0,31121.5,777108
step02_gravity_refstate-crust.xmf,445,5.08053e-06,-9.33811e-06,0,2.09065e-05,-9.55767e+08,-9.56756e+08,-9.56116e+08,1.43418e+06,-0.0881762,0.521383,-0,0.528787,-5546.36,-34801.8,-0,35240.9,1.43418e+06
step02_gravity_refstate-crust.xmf,446,4.09391e-06,-6.87916e-06,0,1.75293e-05,-9.16383e+08,-9.17135e+08,-9.16664e+08,1.20251e+06,-0.0824577,0.485116,-0,0.492074,-6328.02,-33367.7,-0,33962.5,1.20251e+06
step02_gravity_refstate-crust.xmf,447,6.16978e-06,-1.28087e-05,0,2.67078e-05,-1.00311e+09,-1.00441e+09,-1.00353e+09,1.83215e+06,-0.0964625,0.575059,-0,0.583094,-4667.1,-36524.4,-0,36821.3,1.83215e+06
step02_gravity_refstate-crust.xmf,448,6.1374e-06,-1.16906e-05,0,2.30347e-05,-9.74669e+08,-9.75892e+08,-9.7509e+08,1.58018e+06,-0.0903407,0.547442,-0,0.554846,-5027.43,-35490.5,-0,35844.8,1.58018e+06
step02_gravity_refstate-crust.xmf,449,8.82591e-06,-1.7324e-05,0,2.86195e-05,-1.01286e+09,-1.01465e+09,-1.01346e+09,1.9633e+06,-0.0953691,0.607245,-0,0.614689,-4087.19,-36882.9,-0,37108.7,1.9633e+06
step02_gravity_refstate-crust.xmf,450,1.22823e-05,-2.28824e-05,0,3.06785e-05,-1.02355e+09,-1.02596e+09,-1.02439e+09,2.10454e+06,-0.093265,0.643854,-0,0.650574,-3499.39,-37277.6,-0,37441.5,2.10454e+06
step02_gravity_refstate-crust.xmf,451,1.68683e-05,-2.99642e-05,0,3.22723e-05,-1.03309e+09,-1.0363e+09,-1.03425e+09,2.21388e+06,-0.0888636,0.68332,-0,0.689074,-2911.78,-37632.6,-0,37745,2.21388e+06
step02_gravity_refstate-crust.xmf,452,2.23199e-05,-3.83193e-05,0,3.35696e-05,-1.04281e+09,-1.04697e+09,-1.04434e+09,2.30287e+06,-0.0830966,0.723956,-0,0.72871,-2378.75,-37995.6,-0,38070,2.30287e+06
step02_gravity_refstate-crust.xmf,453,3.5156e-05,-6.06786e-05,0,5.21604e-05,-1.08549e+09,-1.09207e+09,-1.0879e+09,3.57821e+06,-0.088867,0.840218,-0,0.844905,-1749.64,-39566.7,-0,39605.4,3.57821e+06
step02_gravity_refstate-crust.xmf,454,2.80359e-05,-4.93799e-05,0,4.3686e-05,-1.0706e+09,-1.07591e+09,-1.07252e+09,2.99686e+06,-0.0869849,0.793831,-0,0.798582,-1961.25,-39013.1,-0,39062.4,2.99686e+06
step02_gravity_refstate-crust.xmf,455,-1.30714e-06,3.37654e-06,0,6.76049e-06,-6.32646e+08,-6.32325e+08,-6.32557e+08,463770,-0.0505033,0.295106,-0,0.299396,-16957.2,-23032.1,-0,28601.1,463770
step02_gravity_refstate-crust.xmf,456,-9.38702e-07,2.81501e-06,0,6.4311e-06,-5.86742e+08,-5.86484e+08,-5.86677e+08,441173,-0.0475948,0.300864,-0,0.304605,-16900.4,-21361.5,-0,27238.5,441173
step02_gravity_refstate-crust.xmf,457,-1.30035e-06,2.1709e-06,0,3.28659e-06,-3.17358e+08,-3.17119e+08,-3.17268e+08,225460,-0.0304219,0.258809,-0,0.260591,-24670.9,-11551.8,-0,27241.5,225460
step02_gravity_refstate-crust.xmf,458,-1.55551e-06,1.62598e-06,0,2.33783e-06,-2.15021e+08,-2.14803e+08,-2.14914e+08,160375,-0.0306038,0.254714,-0,0.256546,-26430.2,-7824.28,-0,27564,160375
step02_gravity_refstate-crust.xmf,459,-2.1238e-06,1.32583e-06,0,1.3066e-06,-1.20843e+08,-1.20606e+08,-1.20697e+08,89633,-0.0333798,0.249504,-0,0.251727,-28314.7,-4392.88,-0,28653.4,89633
step02_gravity_refstate-crust.xmf,460,-2.74897e-06,1.28482e-06,0,7.27141e-07,-6.56878e+07,-6.5411e+07,-6.54992e+07,49881.9,-0.0359383,0.246554,-0,0.24916,-29498.2,-2382.3,-0,29594.2,49881.9
step02_gravity_refstate-crust.xmf,461,-3.72867e-06,1.41464e-06,0,1.96703e-10,-354208,-1376.76,-98420.7,13.4938,-0.0395018,0.243965,-0,0.247142,-30911.6,0,-0,30911.6,13.4938
step02_gravity_refstate-crust.xmf,462,-8.85964e-07,2.60677e-06,0,5.60787e-06,-5.13653e+08,-5.13414e+08,-5.13593e+08,384700,-0.0419193,0.292717,-0,0.295703,-18379.3,-18700.5,-0,26220.4,384700
step02_gravity_refstate-crust.xmf,463,-1.04376e-06,2.91399e-06,0,7.3522e-06,-6.55045e+08,-6.54773e+08,-6.54973e+08,504361,-0.0536923,0.309652,-0,0.314273,-15554.3,-23847.8,-0,28472,504361
step02_gravity_refstate-crust.xmf,464,-6.69251e-07,2.32249e-06,0,7.9604e-06,-6.76997e+08,-6.76792e+08,-6.76951e+08,546083,-0.0566519,0.325843,-0,0.330731,-14154.4,-24647.6,-0,28422.8,546083
step02_gravity_refstate-crust.xmf,465,-4.18136e-07,1.80646e-06,0,9.16385e-06,-7.3242e+08,-7.32267e+08,-7.32391e+08,628640,-0.0626721,0.345237,-0,0.35088,-12528.2,-26665.6,-0,29462,628640
step02_gravity_refstate-crust.xmf,466,4.82492e-05,-8.16573e-05,0,5.18831e-05,-1.09683e+09,-1.10574e+09,-1.10014e+09,3.55918e+06,-0.0824717,0.89445,-0,0.898244,-1499.28,-40000,-0,40028.1,3.55918e+06
step02_gravity_refstate-crust.xmf,467,7.96259e-08,9.40653e-07,0,9.83657e-06,-7.51879e+08,-7.5182e+08,-7.51885e+08,674789,-0.0649245,0.361542,-0,0.367325,-11451.9,-27374.7,-0,29673.6,674789
step02_gravity_refstate-crust.xmf,468,6.89565e-07,-8.36066e-08,0,1.05696e-05,-7.72496e+08,-7.72549e+08,-7.72543e+08,725073,-0.0669858,0.379385,-0,0.385253,-10386.7,-28126.1,-0,29982.7,725073
step02_gravity_refstate-crust.xmf,469,7.13342e-07,-5.64576e-07,0,1.22355e-05,-8.24633e+08,-8.24721e+08,-8.24682e+08,839354,-0.073263,0.396378,-0,0.403092,-9524.23,-30023.6,-0,31498.1,839354
step02_gravity_refstate-crust.xmf,470,1.48689e-06,-1.90192e-06,0,1.31774e-05,-8.43462e+08,-8.43694e+08,-8.43564e+08,903973,-0.0750553,0.416271,-0,0.422983,-8628.71,-30710.1,-0,31899.3,903973
step02_gravity_refstate-crust.xmf,471,2.4263e-06,-3.47458e-06,0,1.40825e-05,-8.60185e+08,-8.60589e+08,-8.60351e+08,966059,-0.0761941,0.436784,-0,0.44338,-7794.62,-31320.3,-0,32275.7,966059
step02_gravity_refstate-crust.xmf,472,3.51991e-06,-5.27095e-06,0,1.49789e-05,-8.76172e+08,-8.76775e+08,-8.76413e+08,1.02756e+06,-0.0768312,0.457956,-0,0.464356,-7016.09,-31904,-0,32666.4,1.02756e+06
step02_gravity_refstate-crust.xmf,473,5.84325e-06,-9.65167e-06,0,1.85808e-05,-9.29654e+08,-9.30717e+08,-9.30055e+08,1.27464e+06,-0.081869,0.511286,-0,0.517799,-5580.12,-33853.7,-0,34310.5,1.27464e+06
step02_gravity_refstate-crust.xmf,474,4.85097e-06,-7.3944e-06,0,1.58434e-05,-8.91377e+08,-8.92217e+08,-8.9171e+08,1.08686e+06,-0.0767979,0.480377,-0,0.486477,-6264.63,-32459.6,-0,33058.6,1.08686e+06
step02_gravity_refstate-crust.xmf,475,7.24791e-06,-1.37322e-05,0,2.46824e-05,-9.87914e+08,-9.89353e+08,-9.88411e+08,1.69321e+06,-0.0916611,0.568794,-0,0.576132,-4641.93,-35974,-0,36272.3,1.69321e+06
step02_gravity_refstate-crust.xmf,476,2.89578e-05,-4.82706e-05,0,3.45132e-05,-1.05265e+09,-1.05795e+09,-1.05463e+09,2.36761e+06,-0.0754677,0.766864,-0,0.770569,-1883.54,-38365.1,-0,38411.3,2.36761e+06
step02_gravity_refstate-crust.xmf,477,-6.28017e-07,2.30296e-06,0,6.07247e-06,-5.39785e+08,-5.39584e+08,-5.39742e+08,416571,-0.0445999,0.305815,-0,0.30905,-16843.5,-19652.4,-0,25882.8,416571
step02_gravity_refstate-crust.xmf,478,-1.22754e-06,1.68564e-06,0,2.90326e-06,-2.53749e+08,-2.53549e+08,-2.53665e+08,199163,-0.0317605,0.264263,-0,0.266165,-24521.4,-9235.64,-0,26203,199163
step02_gravity_refstate-crust.xmf,479,-1.27098e-06,2.7069e-06,0,4.14475e-06,-4.10754e+08,-4.10481e+08,-4.10667e+08,284330,-0.0333256,0.263671,-0,0.265768,-22865.1,-14953,-0,27320.4,284330
step02_gravity_refstate-crust.xmf,480,-1.08965e-06,2.20736e-06,0,3.81169e-06,-3.51485e+08,-3.51259e+08,-3.5141e+08,261482,-0.0326047,0.269276,-0,0.271243,-22819.1,-12795.2,-0,26161.6,261482
step02_gravity_refstate-crust.xmf,481,-1.68225e-06,1.27971e-06,0,1.78212e-06,-1.48125e+08,-1.47922e+08,-1.4801e+08,122253,-0.0348145,0.258581,-0,0.260914,-26373.8,-5387.82,-0,26918.5,122253
step02_gravity_refstate-crust.xmf,482,-1.08012e-06,2.81306e-06,0,5.19356e-06,-4.92297e+08,-4.9203e+08,-4.92223e+08,356278,-0.0395022,0.281434,-0,0.284193,-19793.5,-17922.6,-0,26702,356278
step02_gravity_refstate-crust.xmf,483,-1.07173e-06,2.6478e-06,0,4.75581e-06,-4.47752e+08,-4.47497e+08,-4.47679e+08,326249,-0.0367356,0.277099,-0,0.279524,-20779.4,-16300.6,-0,26410.1,326249
step02_gravity_refstate-crust.xmf,484,-1.62659e-07,1.55898e-06,0,8.56169e-06,-6.97333e+08,-6.97215e+08,-6.97322e+08,587332,-0.0591146,0.343562,-0,0.348611,-12780.6,-25388.8,-0,28424.2,587332
step02_gravity_refstate-crust.xmf,485,4.84769e-05,-8.10722e-05,0,4.07644e-05,-1.08485e+09,-1.09373e+09,-1.08817e+09,2.79644e+06,-0.0675202,0.88176,-0,0.884341,-1239.63,-39565.6,-0,39585,2.79644e+06
step02_gravity_refstate-crust.xmf,486,1.36451e-06,-1.14165e-06,0,1.12966e-05,-7.93008e+08,-7.9318e+08,-7.93102e+08,774947,-0.0687564,0.397156,-0,0.403064,-9433.1,-28874,-0,30375.8,774947
step02_gravity_refstate-crust.xmf,487,7.88181e-06,-1.3359e-05,0,2.11891e-05,-9.58874e+08,-9.60331e+08,-9.59415e+08,1.45357e+06,-0.0839214,0.550329,-0,0.556691,-4750.52,-34920,-0,35241.6,1.45357e+06
step02_gravity_refstate-crust.xmf,488,8.08237e-06,-1.30658e-05,0,1.93435e-05,-9.41086e+08,-9.42536e+08,-9.4164e+08,1.32696e+06,-0.0796543,0.539146,-0,0.544999,-4829.79,-34273.6,-0,34612.3,1.32696e+06
step02_gravity_refstate-crust.xmf,489,6.50312e-06,-9.95828e-06,0,1.66008e-05,-9.05521e+08,-9.06651e+08,-9.05968e+08,1.13881e+06,-0.0757744,0.50437,-0,0.51003,-5521.61,-32977.3,-0,33436.4,1.13881e+06
step02_gravity_refstate-crust.xmf,490,9.84692e-06,-1.76232e-05,0,2.56859e-05,-9.94763e+08,-9.96648e+08,-9.95439e+08,1.76205e+06,-0.0890925,0.596175,-0,0.602796,-4077.69,-36227.9,-0,36456.7,1.76205e+06
step02_gravity_refstate-crust.xmf,491,9.83884e-06,-1.66603e-05,0,2.28374e-05,-9.74171e+08,-9.75989e+08,-9.74846e+08,1.56664e+06,-0.0837961,0.577762,-0,0.583807,-4217.5,-35479.7,-0,35729.5,1.56664e+06
step02_gravity_refstate-crust.xmf,492,1.33802e-05,-2.31591e-05,0,2.68482e-05,-1.00481e+09,-1.00732e+09,-1.00573e+09,1.84178e+06,-0.0856352,0.629965,-0,0.635759,-3462.77,-36599.5,-0,36763,1.84178e+06
step02_gravity_refstate-crust.xmf,493,1.74833e-05,-2.94074e-05,0,2.77858e-05,-1.01527e+09,-1.01848e+09,-1.01647e+09,1.90611e+06,-0.0810023,0.665279,-0,0.670193,-2888.74,-36987.1,-0,37099.7,1.90611e+06
step02_gravity_refstate-crust.xmf,494,2.2525e-05,-3.69579e-05,0,2.81408e-05,-1.02555e+09,-1.02963e+09,-1.0271e+09,1.93046e+06,-0.0744203,0.702549,-0,0.70648,-2335.56,-37370.1,-0,37443,1.93046e+06
step02_gravity_refstate-crust.xmf,495,2.86719e-05,-4.60447e-05,0,2.7585e-05,-1.03581e+09,-1.04093e+09,-1.03777e+09,1.89233e+06,-0.065656,0.741571,-0,0.744472,-1810.41,-37754.3,-0,37797.7,1.89233e+06
step02_gravity_refstate-crust.xmf,496,3.87952e-05,-6.48798e-05,0,4.11921e-05,-1.07471e+09,-1.08183e+09,-1.07738e+09,2.82578e+06,-0.074083,0.835863,-0,0.839139,-1499.01,-39182.5,-0,39211.2,2.82578e+06
step02_gravity_refstate-crust.xmf,497,-6.64284e-07,2.42711e-06,0,6.94554e-06,-6.12024e+08,-6.11811e+08,-6.11978e+08,476464,-0.0504993,0.314369,-0,0.318399,-15508.2,-22282.4,-0,27147.9,476464
step02_gravity_refstate-crust.xmf,498,-3.2672e-07,1.95082e-06,0,6.52393e-06,-5.67107e+08,-5.66951e+08,-5.67085e+08,447542,-0.0471704,0.319039,-0,0.322507,-15407.4,-20647.8,-0,25762.7,447542
step02_gravity_refstate-crust.xmf,499,-9.46902e-07,1.74366e-06,0,3.40226e-06,-2.89611e+08,-2.89427e+08,-2.89546e+08,233395,-0.0329198,0.274446,-0,0.276414,-22715.5,-10542.5,-0,25042.8,233395
step02_gravity_refstate-crust.xmf,500,-1.14048e-06,1.22167e-06,0,2.36786e-06,-1.82164e+08,-1.82002e+08,-1.82086e+08,162435,-0.0357161,0.271676,-0,0.274013,-23967,-6629.15,-0,24866.9,162435
step02_gravity_refstate-crust.xmf,501,-2.06683e-06,1.05047e-06,0,1.01295e-06,-7.42002e+07,-7.39863e+07,-7.40584e+07,69488.7,-0.0420203,0.260778,-0,0.264141,-26542.3,-2694.6,-0,26678.8,69488.7
step02_gravity_refstate-crust.xmf,502,-3.05068e-06,1.15573e-06,0,3.63737e-09,-289872,-1313.21,-80596,249.524,-0.049216,0.256042,-0,0.260729,-28058.3,0,-0,28058.3,249.524
step02_gravity_refstate-crust.xmf,503,-3.7734e-07,1.91204e-06,0,5.66763e-06,-4.91421e+08,-4.91264e+08,-4.91395e+08,388799,-0.0416685,0.309636,-0,0.312428,-16832.3,-17892.1,-0,24565.3,388799
step02_gravity_refstate-crust.xmf,504,-7.05022e-07,2.26334e-06,0,5.22383e-06,-4.64933e+08,-4.64729e+08,-4.64884e+08,358355,-0.0393369,0.294797,-0,0.29741,-18615.2,-16927,-0,25160.5,358355
step02_gravity_refstate-crust.xmf,505,-3.063e-07,1.85902e-06,0,7.46214e-06,-6.35369e+08,-6.3522e+08,-6.35348e+08,511903,-0.0530484,0.328801,-0,0.333053,-14170.6,-23132.9,-0,27128.1,511903
step02_gravity_refstate-crust.xmf,506,1.64915e-07,1.15805e-06,0,7.96745e-06,-6.57843e+08,-6.57775e+08,-6.57854e+08,546567,-0.0552248,0.344544,-0,0.348942,-12849.1,-23951.9,-0,27180.8,546567
step02_gravity_refstate-crust.xmf,507,4.60237e-07,5.94801e-07,0,9.12637e-06,-7.15995e+08,-7.15986e+08,-7.16027e+08,626069,-0.0609073,0.361625,-0,0.366718,-11508.2,-26069.3,-0,28496.4,626069
step02_gravity_refstate-crust.xmf,508,5.41367e-05,-9.71977e-05,0,3.46097e-05,-1.09684e+09,-1.10722e+09,-1.10055e+09,2.37422e+06,-0.0568489,0.937456,-0,0.939178,-999.317,-40000,-0,40012.5,2.37422e+06
step02_gravity_refstate-crust.xmf,509,1.17671e-06,-5.44901e-07,0,9.7009e-06,-7.36028e+08,-7.36146e+08,-7.36109e+08,665482,-0.0623485,0.379765,-0,0.384849,-10339.2,-26799.7,-0,28725,665482
step02_gravity_refstate-crust.xmf,510,2.05337e-06,-1.88934e-06,0,1.03007e-05,-7.57612e+08,-7.57882e+08,-7.57752e+08,706628,-0.063382,0.399484,-0,0.404481,-9188.96,-27587,-0,29077.1,706628
step02_gravity_refstate-crust.xmf,511,2.12055e-06,-2.466e-06,0,1.20936e-05,-8.13408e+08,-8.13723e+08,-8.13554e+08,829619,-0.0702566,0.415394,-0,0.421294,-8556.87,-29617.7,-0,30829,829619
step02_gravity_refstate-crust.xmf,512,3.11418e-06,-4.06727e-06,0,1.2839e-05,-8.31507e+08,-8.32e+08,-8.31721e+08,880754,-0.0709235,0.435471,-0,0.441209,-7676.41,-30278.2,-0,31236.1,880754
step02_gravity_refstate-crust.xmf,513,4.17e-06,-5.78288e-06,0,1.35791e-05,-8.49556e+08,-8.50239e+08,-8.49842e+08,931525,-0.0713671,0.455201,-0,0.460761,-6905.57,-30936.9,-0,31698.2,931525
step02_gravity_refstate-crust.xmf,514,2.55543e-06,-2.76703e-06,0,1.11023e-05,-7.84761e+08,-7.85126e+08,-7.84936e+08,761617,-0.0657167,0.413937,-0,0.419121,-8489,-28576.1,-0,29810.3,761617
step02_gravity_refstate-crust.xmf,515,5.3831e-06,-7.67286e-06,0,1.42758e-05,-8.66469e+08,-8.67364e+08,-8.66838e+08,979318,-0.0712452,0.475481,-0,0.480789,-6185.95,-31554.6,-0,32155.2,979318
step02_gravity_refstate-crust.xmf,516,1.0584e-05,-1.68208e-05,0,1.99352e-05,-9.52545e+08,-9.54425e+08,-9.53271e+08,1.36756e+06,-0.0764906,0.567212,-0,0.572347,-4139.29,-34695.1,-0,34941.2,1.36756e+06
step02_gravity_refstate-crust.xmf,517,8.48255e-06,-1.29624e-05,0,1.71678e-05,-9.18665e+08,-9.20136e+08,-9.19247e+08,1.17771e+06,-0.0736149,0.529392,-0,0.534486,-4801.08,-33459.2,-0,33801.9,1.17771e+06
step02_gravity_refstate-crust.xmf,518,6.9136e-06,-9.98992e-06,0,1.47655e-05,-8.80881e+08,-8.8204e+08,-8.81355e+08,1.01291e+06,-0.0698273,0.497068,-0,0.501948,-5456.99,-32081.8,-0,32542.6,1.01291e+06
step02_gravity_refstate-crust.xmf,519,3.76736e-05,-6.17287e-05,0,3.33322e-05,-1.0616e+09,-1.06842e+09,-1.06419e+09,2.28659e+06,-0.06435,0.81123,-0,0.813778,-1408.96,-38705.6,-0,38731.3,2.28659e+06
step02_gravity_refstate-crust.xmf,520,3.58485e-05,-5.71949e-05,0,2.54917e-05,-1.04574e+09,-1.05213e+09,-1.0482e+09,1.74873e+06,-0.0539082,0.781672,-0,0.783528,-1309.29,-38127.9,-0,38150.3,1.74873e+06
step02_gravity_refstate-crust.xmf,521,4.79175e-05,-7.7535e-05,0,2.71035e-05,-1.07133e+09,-1.07994e+09,-1.07462e+09,1.8593e+06,-0.0485993,0.860437,-0,0.861809,-940.932,-39076.7,-0,39088,1.8593e+06
step02_gravity_refstate-crust.xmf,522,-2.19832e-08,1.4904e-06,0,6.08318e-06,-5.20059e+08,-5.19955e+08,-5.20057e+08,417306,-0.0438124,0.323813,-0,0.326764,-15232.4,-18935.5,-0,24301.8,417306
step02_gravity_refstate-crust.xmf,523,-8.48887e-07,1.34874e-06,0,2.94965e-06,-2.31586e+08,-2.31436e+08,-2.31528e+08,202346,-0.0345669,0.278903,-0,0.281037,-22545.1,-8429.78,-0,24069.5,202346
step02_gravity_refstate-crust.xmf,524,-8.56476e-07,2.15076e-06,0,4.31833e-06,-3.83207e+08,-3.83001e+08,-3.83149e+08,296238,-0.0348624,0.281542,-0,0.283692,-20917.9,-13950.9,-0,25143.3,296238
step02_gravity_refstate-crust.xmf,525,-6.84005e-07,1.71599e-06,0,3.88992e-06,-3.23128e+08,-3.22964e+08,-3.23081e+08,266849,-0.0342016,0.285908,-0,0.287946,-20895.5,-11763.7,-0,23979.3,266849
step02_gravity_refstate-crust.xmf,526,-1.36498e-06,9.94298e-07,0,1.67006e-06,-1.20311e+08,-1.20149e+08,-1.20217e+08,114566,-0.040188,0.270839,-0,0.273805,-24499.4,-4376.04,-0,24887.1,114566
step02_gravity_refstate-crust.xmf,527,7.3594e-07,3.31482e-07,0,8.44664e-06,-6.79222e+08,-6.7925e+08,-6.79273e+08,579439,-0.0568863,0.360978,-0,0.365433,-11592.1,-24731.2,-0,27313.2,579439
step02_gravity_refstate-crust.xmf,528,5.46407e-05,-9.25718e-05,0,2.50992e-05,-1.0847e+09,-1.0948e+09,-1.08845e+09,1.7218e+06,-0.042284,0.91078,-0,0.911761,-749.574,-39567.4,-0,39574.5,1.7218e+06
step02_gravity_refstate-crust.xmf,529,2.95649e-06,-3.18706e-06,0,1.03533e-05,-7.62856e+08,-7.63278e+08,-7.63059e+08,710238,-0.0619187,0.414891,-0,0.419486,-8296.15,-27779.6,-0,28991.9,710238
step02_gravity_refstate-crust.xmf,530,1.07934e-05,-1.64177e-05,0,1.75182e-05,-9.31553e+08,-9.33419e+08,-9.32293e+08,1.20175e+06,-0.0703742,0.55535,-0,0.559791,-4110.93,-33932.4,-0,34180.5,1.20175e+06
step02_gravity_refstate-crust.xmf,531,8.74996e-06,-1.27411e-05,0,1.51092e-05,-8.95182e+08,-8.96656e+08,-8.95782e+08,1.03649e+06,-0.0673908,0.520243,-0,0.52459,-4730.27,-32605.7,-0,32947,1.03649e+06
step02_gravity_refstate-crust.xmf,532,1.40593e-05,-2.30043e-05,0,2.33798e-05,-9.86209e+08,-9.88752e+08,-9.87174e+08,1.60386e+06,-0.0780463,0.617167,-0,0.622083,-3393.41,-35925.2,-0,36085.1,1.60386e+06
step02_gravity_refstate-crust.xmf,533,1.77529e-05,-2.85144e-05,0,2.36781e-05,-9.96906e+08,-1.00008e+09,-9.98123e+08,1.62432e+06,-0.0730793,0.648168,-0,0.652275,-2835.64,-36321,-0,36431.5,1.62432e+06
step02_gravity_refstate-crust.xmf,534,2.21792e-05,-3.50665e-05,0,2.34219e-05,-1.00778e+09,-1.01171e+09,-1.0093e+09,1.60674e+06,-0.0662185,0.681476,-0,0.684686,-2282.46,-36724.8,-0,36795.6,1.60674e+06
step02_gravity_refstate-crust.xmf,535,2.74767e-05,-4.28095e-05,0,2.21176e-05,-1.01855e+09,-1.02337e+09,-1.02044e+09,1.51727e+06,-0.0569717,0.716371,-0,0.718633,-1741.23,-37126.3,-0,37167.1,1.51727e+06
step02_gravity_refstate-crust.xmf,536,3.35178e-05,-5.16251e-05,0,1.91295e-05,-1.02895e+09,-1.03479e+09,-1.03125e+09,1.31228e+06,-0.0448609,0.751601,-0,0.752939,-1218.93,-37515.7,-0,37535.5,1.31228e+06
step02_gravity_refstate-crust.xmf,537,1.84389e-08,1.47594e-06,0,6.96929e-06,-5.93497e+08,-5.93397e+08,-5.93499e+08,478093,-0.0494737,0.332246,-0,0.33591,-14093.6,-21609.2,-0,25799,478093
step02_gravity_refstate-crust.xmf,538,3.13745e-07,1.0924e-06,0,6.45911e-06,-5.4875e+08,-5.48697e+08,-5.48772e+08,443095,-0.0457695,0.335941,-0,0.339044,-13945.4,-19980.8,-0,24366.1,443095
step02_gravity_refstate-crust.xmf,539,-5.5273e-07,1.31656e-06,0,3.37691e-06,-2.60056e+08,-2.59927e+08,-2.60018e+08,231656,-0.0348595,0.289578,-0,0.291669,-20865.9,-9467.39,-0,22913.3,231656
step02_gravity_refstate-crust.xmf,540,-5.32808e-07,9.30331e-07,0,2.68944e-06,-1.87475e+08,-1.87375e+08,-1.87439e+08,184495,-0.0377909,0.291111,-0,0.293553,-21064.5,-6824.52,-0,22142.5,184495
step02_gravity_refstate-crust.xmf,541,-8.72761e-07,8.06963e-07,0,1.89791e-06,-1.25717e+08,-1.25602e+08,-1.25657e+08,130197,-0.0419371,0.28379,-0,0.286872,-22431.5,-4574.57,-0,22893.2,130197
step02_gravity_refstate-crust.xmf,542,-1.3912e-06,7.44814e-07,0,1.01809e-06,-6.38923e+07,-6.37458e+07,-6.37969e+07,69840.8,-0.0482467,0.27719,-0,0.281357,-23753.8,-2321.59,-0,23867,69840.8
step02_gravity_refstate-crust.xmf,543,-2.248e-06,8.52103e-07,0,1.20424e-08,-213583,-915.911,-59370.2,826.106,-0.0566029,0.270204,-0,0.276069,-25280.2,0,-0,25280.2,826.106
step02_gravity_refstate-crust.xmf,544,-5.78581e-07,1.97546e-06,0,4.78693e-06,-4.12144e+08,-4.11968e+08,-4.12104e+08,328384,-0.0370047,0.295377,-0,0.297686,-19004.8,-15005.2,-0,24214.4,328384
step02_gravity_refstate-crust.xmf,545,2.15849e-07,1.15268e-06,0,5.59223e-06,-4.69226e+08,-4.69162e+08,-4.69241e+08,383627,-0.0404945,0.327421,-0,0.329916,-15114.3,-17085.3,-0,22811.2,383627
step02_gravity_refstate-crust.xmf,546,-1.8905e-07,1.59423e-06,0,5.22481e-06,-4.40151e+08,-4.40028e+08,-4.40138e+08,358422,-0.0389438,0.3121,-0,0.314521,-16917.6,-16025.8,-0,23303.1,358422
step02_gravity_refstate-crust.xmf,547,4.6901e-07,8.05638e-07,0,7.38654e-06,-6.17093e+08,-6.1707e+08,-6.17125e+08,506716,-0.0512857,0.34654,-0,0.350315,-12806.7,-22469,-0,25862.5,506716
step02_gravity_refstate-crust.xmf,548,1.02157e-06,1.50957e-08,0,7.76969e-06,-6.39763e+08,-6.39832e+08,-6.39833e+08,533001,-0.0526326,0.361676,-0,0.365485,-11556.4,-23295.4,-0,26004.3,533001
step02_gravity_refstate-crust.xmf,549,1.46278e-06,-7.47891e-07,0,8.87826e-06,-6.99087e+08,-6.99239e+08,-6.99188e+08,609049,-0.0578291,0.378602,-0,0.382993,-10357.1,-25455.7,-0,27482.1,609049
step02_gravity_refstate-crust.xmf,550,5.74599e-05,-0.000105361,0,1.74131e-05,-1.09682e+09,-1.10799e+09,-1.10076e+09,1.19454e+06,-0.0289776,0.963615,-0,0.964051,-499.831,-40000,-0,40003.1,1.19454e+06
step02_gravity_refstate-crust.xmf,551,2.32166e-06,-2.03348e-06,0,9.27416e-06,-7.19499e+08,-7.19798e+08,-7.19658e+08,636207,-0.0582334,0.396686,-0,0.400937,-9193.92,-26200.3,-0,27766.6,636207
step02_gravity_refstate-crust.xmf,552,5.75579e-06,-7.81104e-06,0,1.29545e-05,-8.4456e+08,-8.4549e+08,-8.44955e+08,888680,-0.0663626,0.471601,-0,0.476248,-6081.4,-30758.2,-0,31353.7,888680
step02_gravity_refstate-crust.xmf,553,3.61381e-06,-4.4021e-06,0,1.15806e-05,-8.01576e+08,-8.02126e+08,-8.01824e+08,794431,-0.0655543,0.433007,-0,0.437941,-7568.42,-29190,-0,30155.2,794431
step02_gravity_refstate-crust.xmf,554,5.07019e-06,-6.55683e-06,0,1.20508e-05,-8.21079e+08,-8.21877e+08,-8.21427e+08,826682,-0.0644715,0.456423,-0,0.460954,-6535.73,-29902.6,-0,30608.5,826682
step02_gravity_refstate-crust.xmf,555,3.88695e-06,-4.50512e-06,0,1.04116e-05,-7.71e+08,-7.71576e+08,-7.71267e+08,714234,-0.0603522,0.429701,-0,0.433918,-7474.87,-28077.8,-0,29055.7,714234
step02_gravity_refstate-crust.xmf,556,3.29624e-06,-3.49714e-06,0,9.6399e-06,-7.39628e+08,-7.40094e+08,-7.39854e+08,661297,-0.0578697,0.415595,-0,0.419604,-8074.9,-26934.8,-0,28119.2,661297
step02_gravity_refstate-crust.xmf,557,1.35995e-05,-2.14178e-05,0,2.04276e-05,-9.65421e+08,-9.67823e+08,-9.66354e+08,1.40133e+06,-0.0724025,0.597543,-0,0.601913,-3474.4,-35169,-0,35340.2,1.40133e+06
step02_gravity_refstate-crust.xmf,558,7.11373e-06,-9.81033e-06,0,1.3122e-05,-8.56265e+08,-8.57426e+08,-8.56753e+08,900167,-0.0642516,0.489669,-0,0.493867,-5391.04,-31186.8,-0,31649.3,900167
step02_gravity_refstate-crust.xmf,559,1.34528e-05,-2.04048e-05,0,1.76155e-05,-9.44346e+08,-9.46669e+08,-9.45269e+08,1.20843e+06,-0.0658132,0.582491,-0,0.586197,-3441.45,-34402.7,-0,34574.4,1.20843e+06
step02_gravity_refstate-crust.xmf,560,1.08465e-05,-1.58425e-05,0,1.52059e-05,-9.08839e+08,-9.1067e+08,-9.09583e+08,1.04312e+06,-0.0638755,0.54393,-0,0.547668,-4037.34,-33106.5,-0,33351.8,1.04312e+06
step02_gravity_refstate-crust.xmf,561,8.80806e-06,-1.23055e-05,0,1.32249e-05,-8.70759e+08,-8.72207e+08,-8.71363e+08,907226,-0.0613879,0.510856,-0,0.514531,-4652.53,-31717.4,-0,32056.8,907226
step02_gravity_refstate-crust.xmf,562,4.37715e-05,-6.96969e-05,0,1.98789e-05,-1.0551e+09,-1.06289e+09,-1.05811e+09,1.36369e+06,-0.0382629,0.82118,-0,0.822071,-827.876,-38481.3,-0,38490.2,1.36369e+06
step02_gravity_refstate-crust.xmf,563,3.97411e-05,-6.18302e-05,0,1.39696e-05,-1.03915e+09,-1.04612e+09,-1.04188e+09,958315,-0.0295027,0.786099,-0,0.786652,-717.382,-37896.4,-0,37903.2,958315
step02_gravity_refstate-crust.xmf,564,5.36477e-05,-8.77336e-05,0,1.53764e-05,-1.07537e+09,-1.08506e+09,-1.07905e+09,1.05482e+06,-0.0272242,0.889447,-0,0.889864,-499.812,-39231,-0,39234.2,1.05482e+06
step02_gravity_refstate-crust.xmf,565,5.71473e-07,7.26954e-07,0,5.94983e-06,-5.02696e+08,-5.02685e+08,-5.02735e+08,408159,-0.0421734,0.33972,-0,0.342328,-13724.8,-18304.6,-0,22878.5,408159
step02_gravity_refstate-crust.xmf,566,-3.89957e-07,1.58611e-06,0,4.34024e-06,-3.54679e+08,-3.54544e+08,-3.54653e+08,297740,-0.0355265,0.299097,-0,0.301199,-19000.8,-12913.3,-0,22973.6,297740
step02_gravity_refstate-crust.xmf,567,-2.39164e-07,1.23822e-06,0,3.84609e-06,-2.9577e+08,-2.95669e+08,-2.95754e+08,263842,-0.035105,0.302043,-0,0.304076,-19007,-10768.8,-0,21845.7,263842
step02_gravity_refstate-crust.xmf,568,1.68769e-06,-9.23506e-07,0,8.10381e-06,-6.61265e+08,-6.61444e+08,-6.61381e+08,555921,-0.053354,0.377699,-0,0.381449,-10335.9,-24079.4,-0,26204,555921
step02_gravity_refstate-crust.xmf,569,5.74229e-05,-9.81792e-05,0,7.6051e-06,-1.08493e+09,-1.0956e+09,-1.08887e+09,521710,-0.0128356,0.927399,-0,0.927488,-223.71,-39578.2,-0,39578.9,521710
step02_gravity_refstate-crust.xmf,570,7.07964e-06,-9.35517e-06,0,1.15954e-05,-8.29804e+08,-8.30931e+08,-8.30289e+08,795442,-0.0589697,0.481103,-0,0.484704,-5357.11,-30224,-0,30695.1,795442
step02_gravity_refstate-crust.xmf,571,1.32546e-05,-1.93555e-05,0,1.49703e-05,-9.22178e+08,-9.24415e+08,-9.23087e+08,1.02696e+06,-0.059083,0.568387,-0,0.57145,-3365.56,-33596.5,-0,33764.6,1.02696e+06
step02_gravity_refstate-crust.xmf,572,1.07479e-05,-1.51382e-05,0,1.30872e-05,-8.85168e+08,-8.86944e+08,-8.85905e+08,897779,-0.0574563,0.532873,-0,0.535961,-3934.17,-32245.5,-0,32484.6,897779
step02_gravity_refstate-crust.xmf,573,1.73278e-05,-2.69272e-05,0,2.01253e-05,-9.77097e+08,-9.80133e+08,-9.78286e+08,1.3806e+06,-0.0657555,0.629417,-0,0.632843,-2800.19,-35600.6,-0,35710.6,1.3806e+06
step02_gravity_refstate-crust.xmf,574,2.14619e-05,-3.28531e-05,0,1.91735e-05,-9.8873e+08,-9.92456e+08,-9.90203e+08,1.3153e+06,-0.0580225,0.660558,-0,0.663102,-2203.63,-36031.7,-0,36099,1.3153e+06
step02_gravity_refstate-crust.xmf,575,3.07881e-05,-4.64585e-05,0,1.44014e-05,-1.01131e+09,-1.01661e+09,-1.01342e+09,987934,-0.0369355,0.722368,-0,0.723312,-1125.77,-36870.4,-0,36887.5,987934
step02_gravity_refstate-crust.xmf,576,2.58871e-05,-3.92969e-05,0,1.74669e-05,-1.00004e+09,-1.00451e+09,-1.00181e+09,1.19823e+06,-0.048707,0.691258,-0,0.692972,-1656.51,-36451.2,-0,36488.9,1.19823e+06
step02_gravity_refstate-crust.xmf,577,3.57129e-05,-5.45028e-05,0,9.6066e-06,-1.02234e+09,-1.02852e+09,-1.02478e+09,659013,-0.0223013,0.752483,-0,0.752814,-612.463,-37279.2,-0,37284.3,659013
step02_gravity_refstate-crust.xmf,578,5.04019e-05,-7.96497e-05,0,9.70862e-06,-1.06363e+09,-1.07255e+09,-1.06709e+09,666011,-0.0182787,0.856533,-0,0.856728,-361.371,-38803,-0,38804.7,666011
step02_gravity_refstate-crust.xmf,579,7.24597e-07,5.35227e-07,0,6.81288e-06,-5.75261e+08,-5.75274e+08,-5.75311e+08,467364,-0.0473723,0.348766,-0,0.351969,-12701.6,-20946.7,-0,24496.9,467364
step02_gravity_refstate-crust.xmf,580,9.31709e-07,2.93375e-07,0,6.25851e-06,-5.32696e+08,-5.3274e+08,-5.3276e+08,429333,-0.0436131,0.350886,-0,0.353586,-12560.2,-19397.6,-0,23109,429333
step02_gravity_refstate-crust.xmf,581,-9.64093e-08,8.98525e-07,0,3.26066e-06,-2.32502e+08,-2.32434e+08,-2.32496e+08,223681,-0.0362794,0.305108,-0,0.307257,-18923.7,-8465.48,-0,20730.9,223681
step02_gravity_refstate-crust.xmf,582,-2.28208e-07,5.05328e-07,0,1.96805e-06,-1.2104e+08,-1.20989e+08,-1.21024e+08,135008,-0.0438014,0.300858,-0,0.304029,-19913.8,-4406.43,-0,20395.5,135008
step02_gravity_refstate-crust.xmf,583,-6.45651e-07,4.50695e-07,0,1.09951e-06,-6.27986e+07,-6.27233e+07,-6.27543e+07,75426.1,-0.0510009,0.293294,-0,0.297696,-21199.6,-2284.33,-0,21322.3,75426.1
step02_gravity_refstate-crust.xmf,584,-1.32002e-06,5.00742e-07,0,1.45951e-08,-125398,-494.436,-34845.4,1001.22,-0.0614796,0.285799,-0,0.292336,-22569.7,0,-0,22569.7,1001.22
step02_gravity_refstate-crust.xmf,585,-3.37625e-08,1.32116e-06,0,4.73981e-06,-3.85007e+08,-3.84914e+08,-3.85005e+08,325151,-0.0367107,0.314018,-0,0.316156,-17029.9,-14018.5,-0,22057.5,325151
step02_gravity_refstate-crust.xmf,586,8.8919e-07,3.5716e-07,0,5.35908e-06,-4.50647e+08,-4.50683e+08,-4.50708e+08,367633,-0.0383093,0.345795,-0,0.347911,-13190.6,-16410.4,-0,21054.5,367633
step02_gravity_refstate-crust.xmf,587,4.14172e-07,8.77316e-07,0,5.06166e-06,-4.14838e+08,-4.14806e+08,-4.14867e+08,347230,-0.0375289,0.330438,-0,0.332562,-15004.1,-15105.6,-0,21290.9,347230
step02_gravity_refstate-crust.xmf,588,1.23657e-06,-1.94807e-07,0,7.12555e-06,-5.99787e+08,-5.99885e+08,-5.99872e+08,488813,-0.048495,0.362413,-0,0.365643,-11484.9,-21840.5,-0,24676.1,488813
step02_gravity_refstate-crust.xmf,589,1.87391e-06,-1.08125e-06,0,7.36382e-06,-6.22329e+08,-6.22532e+08,-6.22458e+08,505158,-0.0489123,0.377282,-0,0.38044,-10253.4,-22662.4,-0,24874,505158
step02_gravity_refstate-crust.xmf,590,2.4783e-06,-2.06591e-06,0,8.38202e-06,-6.82392e+08,-6.82704e+08,-6.82562e+08,575006,-0.0534433,0.394306,-0,0.397912,-9165.33,-24850,-0,26486.3,575006
step02_gravity_refstate-crust.xmf,591,5.85672e-05,-0.000108029,0,2.27944e-07,-1.09681e+09,-1.10823e+09,-1.10082e+09,15636.9,-4.48038e-06,0.972391,-0,0.972391,-2.07592e-10,-40000,-0,40000,15636.9
step02_gravity_refstate-crust.xmf,592,5.42565e-05,-8.78789e-05,0,-2.69097e-06,-1.07243e+09,-1.08218e+09,-1.07615e+09,-184601,0.00416533,0.886669,0,0.886679,76.6991,-39126.2,0,39126.2,184601
step02_gravity_refstate-crust.xmf,593,3.43952e-06,-3.44245e-06,0,8.54891e-06,-7.02804e+08,-7.03276e+08,-7.0304e+08,586455,-0.0526646,0.4118,-0,0.415154,-8015.31,-25594.9,-0,26820.5,586455
step02_gravity_refstate-crust.xmf,594,5.08248e-06,-6.22116e-06,0,1.06047e-05,-7.87383e+08,-7.88158e+08,-7.87732e+08,727481,-0.0588788,0.448157,-0,0.452008,-6559.74,-28676.4,-0,29417.1,727481
step02_gravity_refstate-crust.xmf,595,4.97189e-06,-5.83228e-06,0,9.42425e-06,-7.5498e+08,-7.55721e+08,-7.55321e+08,646503,-0.0539353,0.440834,-0,0.444121,-6573.64,-27496.9,-0,28271.7,646503
step02_gravity_refstate-crust.xmf,596,1.66966e-05,-2.51733e-05,0,1.70226e-05,-9.56566e+08,-9.59438e+08,-9.57711e+08,1.16775e+06,-0.0590686,0.611013,-0,0.613862,-2763.83,-34853.3,-0,34962.7,1.16775e+06
step02_gravity_refstate-crust.xmf,597,8.61413e-06,-1.1598e-05,0,1.15707e-05,-8.45061e+08,-8.46448e+08,-8.45652e+08,793751,-0.0559815,0.500482,-0,0.503603,-4611.09,-30782.2,-0,31125.6,793751
step02_gravity_refstate-crust.xmf,598,1.59538e-05,-2.3393e-05,0,1.4299e-05,-9.35158e+08,-9.37857e+08,-9.36252e+08,980911,-0.05261,0.593589,-0,0.595916,-2702.97,-34073.7,-0,34180.7,980911
step02_gravity_refstate-crust.xmf,599,1.28432e-05,-1.8195e-05,0,1.27548e-05,-8.99774e+08,-9.01904e+08,-9.00656e+08,874981,-0.0528853,0.554962,-0,0.557476,-3278,-32781,-0,32944.5,874981
step02_gravity_refstate-crust.xmf,600,1.04396e-05,-1.42312e-05,0,1.1226e-05,-8.60384e+08,-8.62076e+08,-8.611e+08,770103,-0.0515348,0.521438,-0,0.523979,-3837.88,-31343.3,-0,31577.4,770103
step02_gravity_refstate-crust.xmf,601,4.53705e-05,-7.10834e-05,0,5.44663e-06,-1.04903e+09,-1.05702e+09,-1.05214e+09,373639,-0.0107394,0.817732,-0,0.817803,-236.965,-38264.5,-0,38265.3,373639
step02_gravity_refstate-crust.xmf,602,4.01762e-05,-6.17667e-05,0,2.23092e-06,-1.03318e+09,-1.04017e+09,-1.03593e+09,153041,-0.00486141,0.780204,-0,0.780219,-121.331,-37680.8,-0,37681,153041
step02_gravity_refstate-crust.xmf,603,1.09987e-06,8.66411e-08,0,5.78367e-06,-4.95585e+08,-4.95655e+08,-4.95661e+08,396760,-0.0405085,0.353244,-0,0.355559,-12346.6,-18046.9,-0,21866.1,396760
step02_gravity_refstate-crust.xmf,604,9.15235e-08,5.44646e-07,0,2.63608e-06,-1.71712e+08,-1.71681e+08,-1.71719e+08,180835,-0.0393836,0.309762,-0,0.312256,-18503.8,-6252.58,-0,19531.6,180835
step02_gravity_refstate-crust.xmf,605,1.02895e-07,1.0472e-06,0,4.23026e-06,-3.27641e+08,-3.27577e+08,-3.27648e+08,290196,-0.0353818,0.31573,-0,0.317707,-17117.8,-11930.2,-0,20865,290196
step02_gravity_refstate-crust.xmf,606,2.43264e-07,7.75616e-07,0,3.67597e-06,-2.68236e+08,-2.682e+08,-2.68253e+08,252171,-0.0353243,0.317761,-0,0.319718,-17107.3,-9767.59,-0,19699.4,252171
step02_gravity_refstate-crust.xmf,607,2.59431e-06,-2.08437e-06,0,7.55231e-06,-6.44702e+08,-6.45023e+08,-6.4488e+08,518088,-0.0487855,0.392447,-0,0.395468,-9084.8,-23478.3,-0,25174.7,518088
step02_gravity_refstate-crust.xmf,608,5.71017e-05,-9.72149e-05,0,-1.03051e-05,-1.08413e+09,-1.09471e+09,-1.08805e+09,-706928,0.0178207,0.923143,0,0.923315,311.9,-39549.3,0,39550.5,706928
step02_gravity_refstate-crust.xmf,609,4.58582e-06,-5.09529e-06,0,8.55805e-06,-7.22244e+08,-7.22908e+08,-7.22558e+08,587083,-0.0505115,0.430813,-0,0.433765,-6824.39,-26304.7,-0,27175.5,587083
step02_gravity_refstate-crust.xmf,610,6.55833e-06,-8.33068e-06,0,1.05402e-05,-8.03093e+08,-8.04115e+08,-8.03543e+08,723055,-0.0558041,0.468691,-0,0.472002,-5576.55,-29251.1,-0,29777.9,723055
step02_gravity_refstate-crust.xmf,611,8.19339e-06,-1.06504e-05,0,1.01795e-05,-8.17808e+08,-8.191e+08,-8.1837e+08,698317,-0.0513951,0.489013,-0,0.491706,-4636.6,-29789.8,-0,30148.4,698317
step02_gravity_refstate-crust.xmf,612,1.51825e-05,-2.15612e-05,0,1.1859e-05,-9.12942e+08,-9.15462e+08,-9.13983e+08,813529,-0.0464414,0.577138,-0,0.579003,-2617.76,-33264.6,-0,33367.4,813529
step02_gravity_refstate-crust.xmf,613,1.22637e-05,-1.68747e-05,0,1.07047e-05,-8.74928e+08,-8.76926e+08,-8.75769e+08,734345,-0.0467035,0.541018,-0,0.54303,-3171.7,-31876.1,-0,32033.5,734345
step02_gravity_refstate-crust.xmf,614,2.0281e-05,-3.04267e-05,0,1.57782e-05,-9.68758e+08,-9.72237e+08,-9.7015e+08,1.08239e+06,-0.050754,0.639535,-0,0.641546,-2130.25,-35303.6,-0,35367.8,1.08239e+06
step02_gravity_refstate-crust.xmf,615,2.41837e-05,-3.58451e-05,0,1.35783e-05,-9.80708e+08,-9.84826e+08,-9.82367e+08,931473,-0.0409388,0.66735,-0,0.668604,-1548.19,-35746,-0,35779.5,931473
step02_gravity_refstate-crust.xmf,616,3.2148e-05,-4.77484e-05,0,5.96129e-06,-1.00503e+09,-1.01051e+09,-1.00724e+09,408945,-0.0154663,0.721833,-0,0.721998,-478.222,-36645.3,-0,36648.4,408945
step02_gravity_refstate-crust.xmf,617,2.81581e-05,-4.16685e-05,0,1.07426e-05,-9.92969e+08,-9.97759e+08,-9.94901e+08,736940,-0.0301218,0.694707,-0,0.69536,-1028.59,-36199.4,-0,36214,736940
step02_gravity_refstate-crust.xmf,618,3.55142e-05,-5.37339e-05,0,1.27302e-07,-1.01668e+09,-1.0228e+09,-1.01911e+09,8732.91,-0.000304891,0.7458,-0,0.7458,-8.41606,-37073.6,-0,37073.6,8732.91
step02_gravity_refstate-crust.xmf,619,4.91109e-05,-7.67816e-05,0,-6.76182e-06,-1.05904e+09,-1.06768e+09,-1.06241e+09,-463861,0.0118402,0.84495,0,0.845033,241.514,-38635.2,0,38635.9,463861
step02_gravity_refstate-crust.xmf,620,1.39759e-06,-3.29324e-07,0,6.49537e-06,-5.57878e+08,-5.57997e+08,-5.57974e+08,445582,-0.0444015,0.363248,-0,0.365951,-11371.6,-20315.3,-0,23281.4,445582
step02_gravity_refstate-crust.xmf,621,1.49871e-06,-4.17182e-07,0,5.91538e-06,-5.16006e+08,-5.16137e+08,-5.16109e+08,405795,-0.0406914,0.363664,-0,0.365934,-11271.4,-18791.1,-0,21912.3,405795
step02_gravity_refstate-crust.xmf,622,1.4776e-06,-3.489e-07,0,5.34817e-06,-4.67652e+08,-4.67777e+08,-4.67753e+08,366884,-0.0372988,0.361815,-0,0.363733,-11397.5,-17030.8,-0,20492.7,366884
step02_gravity_refstate-crust.xmf,623,3.98335e-07,5.13094e-07,0,3.09107e-06,-2.10809e+08,-2.10802e+08,-2.10837e+08,212047,-0.0368095,0.320188,-0,0.322297,-16960.9,-7677.13,-0,18617.5,212047
step02_gravity_refstate-crust.xmf,624,4.47331e-07,1.90495e-07,0,1.95481e-06,-1.16059e+08,-1.16077e+08,-1.1609e+08,134100,-0.0440739,0.317559,-0,0.320603,-17502.3,-4227.35,-0,18005.6,134100
step02_gravity_refstate-crust.xmf,625,1.51435e-07,1.30006e-07,0,1.11634e-06,-6.04624e+07,-6.04638e+07,-6.04728e+07,76581.1,-0.0519815,0.309885,-0,0.314215,-18684.5,-2202.01,-0,18813.8,76581.1
step02_gravity_refstate-crust.xmf,626,-3.20341e-07,1.21939e-07,0,1.98197e-08,-30413.9,-73.4496,-8438.46,1359.63,-0.0636968,0.302153,-0,0.308794,-19919.3,0,-0,19919.3,1359.63
step02_gravity_refstate-crust.xmf,627,5.11577e-07,7.15044e-07,0,4.52308e-06,-3.57634e+08,-3.5762e+08,-3.57669e+08,310283,-0.0354137,0.330871,-0,0.332761,-15146.6,-13023.2,-0,19975.6,310283
step02_gravity_refstate-crust.xmf,628,9.7934e-07,2.48636e-07,0,4.7224e-06,-3.88377e+08,-3.88427e+08,-3.88444e+08,323957,-0.0350951,0.346224,-0,0.347998,-13220.2,-14143.6,-0,19360.2,323957
step02_gravity_refstate-crust.xmf,629,1.98025e-06,-1.13059e-06,0,6.67327e-06,-5.82232e+08,-5.82446e+08,-5.82368e+08,457786,-0.0446635,0.376656,-0,0.379295,-10165.6,-21203,-0,23514,457786
step02_gravity_refstate-crust.xmf,630,2.65908e-06,-2.06403e-06,0,6.77851e-06,-6.05926e+08,-6.0625e+08,-6.06109e+08,465005,-0.0443051,0.390739,-0,0.393243,-8976.07,-22066.9,-0,23822.7,465005
step02_gravity_refstate-crust.xmf,631,3.43907e-06,-3.28195e-06,0,7.65025e-06,-6.6652e+08,-6.66981e+08,-6.66755e+08,524807,-0.0479295,0.408154,-0,0.410959,-7952.49,-24274.1,-0,25543.6,524807
step02_gravity_refstate-crust.xmf,632,5.75613e-05,-0.000105601,0,-1.69739e-05,-1.09681e+09,-1.10801e+09,-1.10076e+09,-1.16441e+06,0.0289707,0.96362,0,0.964055,499.831,-40000,0,40003.1,1.16441e+06
step02_gravity_refstate-crust.xmf,633,5.04049e-05,-8.08918e-05,0,-2.06819e-05,-1.07013e+09,-1.07913e+09,-1.07358e+09,-1.41878e+06,0.035454,0.867683,0,0.868407,678.676,-39037.7,0,39043.6,1.41878e+06
step02_gravity_refstate-crust.xmf,634,4.43741e-06,-4.66753e-06,0,7.58512e-06,-6.8723e+08,-6.87855e+08,-6.87535e+08,520339,-0.0460465,0.424519,-0,0.427009,-6830.9,-25030,-0,25945.4,520339
step02_gravity_refstate-crust.xmf,635,6.25966e-06,-7.63202e-06,0,9.33735e-06,-7.72582e+08,-7.73535e+08,-7.73011e+08,640542,-0.0513016,0.459007,-0,0.461865,-5629.24,-28140.1,-0,28697.6,640542
step02_gravity_refstate-crust.xmf,636,5.90695e-06,-6.95152e-06,0,8.28466e-06,-7.40433e+08,-7.41315e+08,-7.40838e+08,568328,-0.046942,0.449955,-0,0.452397,-5667.82,-26969.3,-0,27558.5,568328
step02_gravity_refstate-crust.xmf,637,1.90192e-05,-2.78808e-05,0,1.28835e-05,-9.47945e+08,-9.51163e+08,-9.4925e+08,883807,-0.044262,0.619172,-0,0.620752,-2053.76,-34544.7,-0,34605.7,883807
step02_gravity_refstate-crust.xmf,638,9.88468e-06,-1.30636e-05,0,9.68148e-06,-8.33741e+08,-8.35315e+08,-8.34419e+08,664149,-0.0465459,0.50877,-0,0.510894,-3802.19,-30372.9,-0,30610,664149
step02_gravity_refstate-crust.xmf,639,1.77085e-05,-2.53955e-05,0,1.04796e-05,-9.26296e+08,-9.29253e+08,-9.27511e+08,718901,-0.038367,0.599786,-0,0.601012,-1966.7,-33755.1,-0,33812.3,718901
step02_gravity_refstate-crust.xmf,640,1.42601e-05,-1.97575e-05,0,9.83158e-06,-8.89436e+08,-8.9177e+08,-8.90414e+08,674447,-0.040706,0.561024,-0,0.562498,-2522.44,-32407.9,-0,32505.9,674447
step02_gravity_refstate-crust.xmf,641,1.1579e-05,-1.54903e-05,0,8.95703e-06,-8.48909e+08,-8.50765e+08,-8.49703e+08,614452,-0.0410857,0.527307,-0,0.528905,-3063.8,-30928.2,-0,31079.6,614452
step02_gravity_refstate-crust.xmf,642,3.19276e-05,-4.75163e-05,0,-1.44868e-06,-1.00232e+09,-1.00777e+09,-1.00451e+09,-99379.6,0.00368747,0.719146,0,0.719155,116.103,-36546,0,36546.2,99379.6
step02_gravity_refstate-crust.xmf,643,4.30204e-05,-6.70935e-05,0,-7.48262e-06,-1.04357e+09,-1.05112e+09,-1.04652e+09,-513308,0.0150673,0.80283,0,0.802971,348.443,-38062.3,0,38063.9,513308
step02_gravity_refstate-crust.xmf,644,3.75367e-05,-5.76117e-05,0,-7.8896e-06,-1.02724e+09,-1.03377e+09,-1.02982e+09,-541227,0.0176695,0.764494,0,0.764698,465.538,-37460.5,0,37463.4,541227
step02_gravity_refstate-crust.xmf,645,3.30208e-05,-4.99882e-05,0,-7.84341e-06,-1.01074e+09,-1.01643e+09,-1.013e+09,-538058,0.0194022,0.730902,0,0.731159,578.529,-36853.2,0,36857.7,538058
step02_gravity_refstate-crust.xmf,646,1.46041e-06,-2.82712e-07,0,4.81302e-06,-4.17056e+08,-4.17175e+08,-4.17156e+08,330173,-0.0344067,0.360232,-0,0.361872,-11513.7,-15188.8,-0,19059.5,330173
step02_gravity_refstate-crust.xmf,647,5.90889e-07,2.62603e-07,0,2.51939e-06,-1.60995e+08,-1.61018e+08,-1.61036e+08,172830,-0.0395051,0.323337,-0,0.325742,-16620.2,-5863.99,-0,17624.3,172830
step02_gravity_refstate-crust.xmf,648,6.16378e-07,5.38426e-07,0,3.97839e-06,-3.00165e+08,-3.0017e+08,-3.00207e+08,272917,-0.034431,0.331514,-0,0.333297,-15228.5,-10931.1,-0,18745.6,272917
step02_gravity_refstate-crust.xmf,649,7.52676e-07,3.4245e-07,0,3.38487e-06,-2.40593e+08,-2.40621e+08,-2.40644e+08,232202,-0.0348411,0.332679,-0,0.334499,-15199.3,-8762.59,-0,17544.3,232202
step02_gravity_refstate-crust.xmf,650,3.40137e-06,-3.09407e-06,0,6.83946e-06,-6.29997e+08,-6.30443e+08,-6.3023e+08,469187,-0.0435159,0.404836,-0,0.407168,-7870.21,-22944.6,-0,24256.9,469187
step02_gravity_refstate-crust.xmf,651,5.39715e-05,-9.14267e-05,0,-2.72186e-05,-1.08476e+09,-1.09473e+09,-1.08846e+09,-1.8672e+06,0.0458896,0.907733,0,0.908893,816.443,-39568.6,0,39577,1.8672e+06
step02_gravity_refstate-crust.xmf,652,5.56464e-06,-6.28002e-06,0,7.33586e-06,-7.07155e+08,-7.07968e+08,-7.07537e+08,503240,-0.0428246,0.441656,-0,0.443727,-5693.34,-25757.5,-0,26379.2,503240
step02_gravity_refstate-crust.xmf,653,7.69146e-06,-9.65967e-06,0,9.00906e-06,-7.89395e+08,-7.90585e+08,-7.89923e+08,618022,-0.0473581,0.477663,-0,0.480005,-4693.24,-28754.9,-0,29135.4,618022
step02_gravity_refstate-crust.xmf,654,9.25825e-06,-1.18693e-05,0,8.37059e-06,-8.05759e+08,-8.07208e+08,-8.06394e+08,574222,-0.0420693,0.496377,-0,0.498157,-3779.42,-29353.5,-0,29595.9,574222
step02_gravity_refstate-crust.xmf,655,1.64441e-05,-2.29101e-05,0,8.44676e-06,-9.03969e+08,-9.06668e+08,-9.05097e+08,579448,-0.0331415,0.581506,-0,0.582449,-1874.11,-32940.9,-0,32994.2,579448
step02_gravity_refstate-crust.xmf,656,1.33018e-05,-1.79963e-05,0,8.10666e-06,-8.64785e+08,-8.66932e+08,-8.65698e+08,556117,-0.0354037,0.545545,-0,0.546693,-2414.03,-31509.3,-0,31601.7,556117
step02_gravity_refstate-crust.xmf,657,2.22646e-05,-3.2655e-05,0,1.06103e-05,-9.60463e+08,-9.6423e+08,-9.6199e+08,727868,-0.03402,0.64425,-0,0.645148,-1430.91,-35006.1,-0,35035.3,727868
step02_gravity_refstate-crust.xmf,658,2.56246e-05,-3.72017e-05,0,7.04696e-06,-9.72806e+08,-9.77116e+08,-9.74564e+08,483421,-0.0215542,0.668392,-0,0.668739,-825.204,-35462.1,-0,35471.7,483421
step02_gravity_refstate-crust.xmf,659,2.87564e-05,-4.20875e-05,0,1.46862e-06,-9.86449e+08,-9.91308e+08,-9.88421e+08,100747,-0.00466459,0.692957,-0,0.692973,-162.213,-35963.8,-0,35964.2,100747
step02_gravity_refstate-crust.xmf,660,2.91646e-05,-4.32343e-05,0,-7.13441e-06,-9.92782e+08,-9.97749e+08,-9.94783e+08,-489421,0.0193067,0.699647,0,0.699914,650.837,-36194.3,0,36200.1,489421
step02_gravity_refstate-crust.xmf,661,4.34945e-05,-6.81366e-05,0,-1.91631e-05,-1.05392e+09,-1.06158e+09,-1.0569e+09,-1.31459e+06,0.0365854,0.81924,0,0.820056,797.181,-38439.4,0,38447.7,1.31459e+06
step02_gravity_refstate-crust.xmf,662,2.02021e-06,-1.10153e-06,0,6.0316e-06,-5.40427e+08,-5.40641e+08,-5.40566e+08,413767,-0.0406465,0.375832,-0,0.378024,-10078.8,-19681.3,-0,22111.8,413767
step02_gravity_refstate-crust.xmf,663,2.03571e-06,-1.05331e-06,0,5.39789e-06,-4.95224e+08,-4.95436e+08,-4.95364e+08,370296,-0.0367606,0.375106,-0,0.376903,-9963,-18035.7,-0,20604.6,370296
step02_gravity_refstate-crust.xmf,664,1.98907e-06,-9.28764e-07,0,4.83732e-06,-4.48198e+08,-4.48398e+08,-4.48334e+08,331840,-0.0335209,0.373519,-0,0.37502,-9948.87,-16323.7,-0,19116.6,331840
step02_gravity_refstate-crust.xmf,665,9.29522e-07,1.32501e-07,0,2.76371e-06,-1.83765e+08,-1.83819e+08,-1.83828e+08,189590,-0.0368492,0.334249,-0,0.336274,-15048.3,-6694.1,-0,16470,189590
step02_gravity_refstate-crust.xmf,666,1.12377e-06,-1.0311e-07,0,1.98967e-06,-1.1985e+08,-1.19934e+08,-1.19927e+08,136491,-0.0416966,0.334544,-0,0.337132,-15011,-4367.64,-0,15633.5,136491
step02_gravity_refstate-crust.xmf,667,9.83161e-07,-2.02065e-07,0,1.10123e-06,-5.90367e+07,-5.91181e+07,-5.91042e+07,75544.1,-0.0507704,0.326534,-0,0.330458,-16169.8,-2152.96,-0,16312.5,75544.1
step02_gravity_refstate-crust.xmf,668,7.18596e-07,-2.70994e-07,0,2.33675e-08,68333.1,447.238,19037.4,1603.01,-0.0632235,0.3186,-0,0.324813,-17321.5,0,-0,17321.5,1603.01
step02_gravity_refstate-crust.xmf,669,1.04734e-06,1.69899e-07,0,4.15308e-06,-3.29772e+08,-3.29832e+08,-3.29844e+08,284902,-0.0332421,0.3462,-0,0.347792,-13279.3,-12010.2,-0,17904.9,284902
step02_gravity_refstate-crust.xmf,670,1.56634e-06,-3.52912e-07,0,4.17991e-06,-3.6113e+08,-3.61262e+08,-3.61238e+08,286742,-0.0314544,0.361942,-0,0.363306,-11206.8,-13153.1,-0,17279.9,286742
step02_gravity_refstate-crust.xmf,671,1.95795e-06,-8.16838e-07,0,4.3291e-06,-4.01681e+08,-4.01871e+08,-4.01815e+08,296976,-0.0308643,0.372422,-0,0.373699,-9897.71,-14630.3,-0,17663.8,296976
step02_gravity_refstate-crust.xmf,672,2.6847e-06,-1.99499e-06,0,6.03537e-06,-5.64571e+08,-5.64892e+08,-5.64755e+08,414026,-0.0398158,0.389464,-0,0.391494,-8800.4,-20561.5,-0,22365.7,414026
step02_gravity_refstate-crust.xmf,673,3.37296e-06,-2.94728e-06,0,6.05539e-06,-5.91974e+08,-5.92408e+08,-5.92206e+08,415399,-0.0390422,0.402488,-0,0.404377,-7688.27,-21560.5,-0,22890.3,415399
step02_gravity_refstate-crust.xmf,674,4.25842e-06,-4.29762e-06,0,6.75896e-06,-6.52246e+08,-6.52833e+08,-6.52538e+08,463665,-0.0417853,0.419369,-0,0.421446,-6781.07,-23756.2,-0,24705.1,463665
step02_gravity_refstate-crust.xmf,675,4.07378e-06,-3.92129e-06,0,6.0133e-06,-6.16788e+08,-6.17336e+08,-6.17067e+08,412512,-0.0378364,0.414737,-0,0.416459,-6713.93,-22465.2,-0,23447,412512
step02_gravity_refstate-crust.xmf,676,5.43575e-05,-9.75215e-05,0,-3.41079e-05,-1.09683e+09,-1.10725e+09,-1.10056e+09,-2.3398e+06,0.0568436,0.937462,0,0.939184,999.317,-40000,0,40012.5,2.3398e+06
step02_gravity_refstate-crust.xmf,677,4.66457e-05,-7.72254e-05,0,-3.40479e-05,-1.0756e+09,-1.08409e+09,-1.0788e+09,-2.33569e+06,0.0583994,0.863097,0,0.865071,1117.49,-39227.3,0,39243.2,2.33569e+06
step02_gravity_refstate-crust.xmf,678,4.08037e-05,-6.59724e-05,0,-3.14435e-05,-1.06389e+09,-1.07121e+09,-1.06669e+09,-2.15702e+06,0.0585608,0.82602,0,0.828093,1233.2,-38794.9,0,38814.5,2.15702e+06
step02_gravity_refstate-crust.xmf,679,5.24607e-06,-5.63272e-06,0,6.45703e-06,-6.72668e+08,-6.73415e+08,-6.73028e+08,442952,-0.0388267,0.434295,-0,0.436028,-5683.42,-24501.7,-0,25152.2,442952
step02_gravity_refstate-crust.xmf,680,7.24214e-06,-8.77811e-06,0,7.866e-06,-7.58685e+08,-7.59784e+08,-7.59181e+08,539607,-0.0429373,0.467528,-0,0.469496,-4679.66,-27636.4,-0,28029.8,539607
step02_gravity_refstate-crust.xmf,681,6.7597e-06,-7.95348e-06,0,6.86456e-06,-7.26061e+08,-7.27071e+08,-7.26525e+08,470909,-0.0386203,0.458041,-0,0.459666,-4641.16,-26448,-0,26852.2,470909
step02_gravity_refstate-crust.xmf,682,2.03979e-05,-2.93555e-05,0,8.2173e-06,-9.39267e+08,-9.4268e+08,-9.40666e+08,563707,-0.0282926,0.621937,-0,0.62258,-1323.82,-34232,-0,34257.6,563707
step02_gravity_refstate-crust.xmf,683,1.08277e-05,-1.40932e-05,0,7.48871e-06,-8.21635e+08,-8.23344e+08,-8.22377e+08,513726,-0.036034,0.513951,-0,0.515213,-2956.78,-29934.4,-0,30080.1,513726
step02_gravity_refstate-crust.xmf,684,1.86236e-05,-2.63159e-05,0,6.40814e-06,-9.1753e+08,-9.20613e+08,-9.18807e+08,439598,-0.0235897,0.60109,-0,0.601553,-1224.68,-33438.2,-0,33460.6,439598
step02_gravity_refstate-crust.xmf,685,1.51291e-05,-2.0647e-05,0,6.84434e-06,-8.80247e+08,-8.82701e+08,-8.81285e+08,469522,-0.0284676,0.563764,-0,0.564482,-1779.04,-32075.5,-0,32124.8,469522
step02_gravity_refstate-crust.xmf,686,1.23402e-05,-1.62736e-05,0,6.42366e-06,-8.37083e+08,-8.39046e+08,-8.3793e+08,440663,-0.0296041,0.530227,-0,0.531053,-2234.8,-30499.6,-0,30581.4,440663
step02_gravity_refstate-crust.xmf,687,3.77686e-05,-5.92751e-05,0,-1.73186e-05,-1.03802e+09,-1.04468e+09,-1.04061e+09,-1.18806e+06,0.037145,0.778415,0,0.779301,923.544,-37851.1,0,37862.4,1.18806e+06
step02_gravity_refstate-crust.xmf,688,3.29922e-05,-5.1009e-05,0,-1.56514e-05,-1.02151e+09,-1.02727e+09,-1.02377e+09,-1.07369e+06,0.0373214,0.74204,0,0.742978,1056.32,-37243.6,0,37258.6,1.07369e+06
step02_gravity_refstate-crust.xmf,689,2.91386e-05,-4.44048e-05,0,-1.39022e-05,-1.00429e+09,-1.00934e+09,-1.00629e+09,-953691,0.0365254,0.709705,0,0.710644,1169.5,-36611.4,0,36630.1,953691
step02_gravity_refstate-crust.xmf,690,1.13161e-06,8.18453e-08,0,3.58786e-06,-2.71341e+08,-2.71413e+08,-2.71419e+08,246127,-0.032725,0.34598,-0,0.347524,-13344.9,-9883.16,-0,16606.2,246127
step02_gravity_refstate-crust.xmf,691,1.277e-06,-4.8e-08,0,2.98889e-06,-2.13021e+08,-2.13112e+08,-2.13109e+08,205038,-0.0336395,0.346431,-0,0.34806,-13286.3,-7760.34,-0,15386.6,205038
step02_gravity_refstate-crust.xmf,692,2.05513e-06,-8.71237e-07,0,3.86471e-06,-3.6732e+08,-3.67521e+08,-3.67461e+08,265119,-0.028453,0.374674,-0,0.375753,-9425.29,-13379.6,-0,16366.1,265119
step02_gravity_refstate-crust.xmf,693,3.91208e-06,-3.60298e-06,0,5.34394e-06,-5.82272e+08,-5.82788e+08,-5.82541e+08,366594,-0.0341486,0.411155,-0,0.412571,-6585.3,-21208.5,-0,22207.3,366594
step02_gravity_refstate-crust.xmf,694,4.74655e-05,-7.85429e-05,0,-4.36352e-05,-1.08596e+09,-1.09461e+09,-1.08922e+09,-2.99338e+06,0.070857,0.880332,0,0.883179,1302.08,-39605.9,0,39627.3,2.99338e+06
step02_gravity_refstate-crust.xmf,695,3.48526e-05,-5.86819e-05,0,-4.45954e-05,-1.07552e+09,-1.08194e+09,-1.07791e+09,-3.05925e+06,0.0800499,0.82668,0,0.830547,1649.85,-39205.6,0,39240.3,3.05925e+06
step02_gravity_refstate-crust.xmf,696,6.30763e-06,-7.15263e-06,0,5.96465e-06,-6.92612e+08,-6.93535e+08,-6.93045e+08,409175,-0.0345925,0.44946,-0,0.450789,-4581.69,-25229.7,-0,25642.3,409175
step02_gravity_refstate-crust.xmf,697,8.60921e-06,-1.07009e-05,0,7.25638e-06,-7.7644e+08,-7.77765e+08,-7.77031e+08,497788,-0.038024,0.484507,-0,0.485997,-3764.14,-28285.3,-0,28534.7,497788
step02_gravity_refstate-crust.xmf,698,1.00524e-05,-1.27312e-05,0,6.28943e-06,-7.93534e+08,-7.95097e+08,-7.94224e+08,431455,-0.0316513,0.50124,-0,0.502238,-2859.2,-28910.4,-0,29051.4,431455
step02_gravity_refstate-crust.xmf,699,1.69837e-05,-2.3344e-05,0,4.89583e-06,-8.94646e+08,-8.97412e+08,-8.95811e+08,335854,-0.0194759,0.581312,-0,0.581638,-1121.55,-32603,-0,32622.3,335854
step02_gravity_refstate-crust.xmf,700,1.39245e-05,-1.86507e-05,0,5.56015e-06,-8.56099e+08,-8.58333e+08,-8.57054e+08,381426,-0.0243424,0.54744,-0,0.547981,-1676.43,-31194.6,-0,31239.6,381426
step02_gravity_refstate-crust.xmf,701,2.30263e-05,-3.33094e-05,0,4.99757e-06,-9.52093e+08,-9.55957e+08,-9.53672e+08,342833,-0.0162087,0.642946,-0,0.643151,-695.519,-34703.5,-0,34710.4,342833
step02_gravity_refstate-crust.xmf,702,2.529e-05,-3.63859e-05,0,5.27436e-07,-9.64617e+08,-9.68848e+08,-9.66352e+08,36182.1,-0.00202508,0.661679,-0,0.661682,-80.276,-35163.8,-0,35163.9,36182.1
step02_gravity_refstate-crust.xmf,703,2.64558e-05,-3.8464e-05,0,-4.78432e-06,-9.75084e+08,-9.79538e+08,-9.76899e+08,-328204,0.0137455,0.674364,0,0.674504,514.884,-35546.4,0,35550.1,328204
step02_gravity_refstate-crust.xmf,704,2.59616e-05,-3.86739e-05,0,-1.22627e-05,-9.86375e+08,-9.90809e+08,-9.88156e+08,-841219,0.0350916,0.680781,0,0.681685,1263.07,-35955.1,0,35977.3,841219
step02_gravity_refstate-crust.xmf,705,3.53916e-05,-5.66167e-05,0,-2.74491e-05,-1.04884e+09,-1.05515e+09,-1.05127e+09,-1.88301e+06,0.057306,0.785499,0,0.787587,1370.19,-38239.6,0,38264.1,1.88301e+06
step02_gravity_refstate-crust.xmf,706,2.6615e-06,-1.87277e-06,0,5.35056e-06,-5.21825e+08,-5.22136e+08,-5.22008e+08,367048,-0.0356179,0.388311,-0,0.389942,-8594.54,-19005.4,-0,20858.4,367048
step02_gravity_refstate-crust.xmf,707,2.56694e-06,-1.66938e-06,0,4.74237e-06,-4.76419e+08,-4.7671e+08,-4.76595e+08,325327,-0.0320375,0.386214,-0,0.38754,-8491.83,-17352.3,-0,19318.7,325327
step02_gravity_refstate-crust.xmf,708,2.46612e-06,-1.46342e-06,0,4.22525e-06,-4.32054e+08,-4.32324e+08,-4.32223e+08,289852,-0.0291676,0.384247,-0,0.385353,-8416.55,-15737.1,-0,17846.4,289852
step02_gravity_refstate-crust.xmf,709,1.48984e-06,-2.18062e-07,0,2.34066e-06,-1.55619e+08,-1.55737e+08,-1.55722e+08,160569,-0.0362554,0.347093,-0,0.348981,-13145.9,-5671.17,-0,14317,160569
step02_gravity_refstate-crust.xmf,710,1.79756e-06,-5.28159e-07,0,1.03979e-06,-5.7769e+07,-5.79286e+07,-5.78924e+07,71329.7,-0.0475267,0.342288,-0,0.345572,-13701.5,-2109.59,-0,13862.9,71329.7
step02_gravity_refstate-crust.xmf,711,1.75351e-06,-6.62494e-07,0,2.55856e-08,166694,956.192,46403.3,1755.17,-0.0601112,0.334486,-0,0.339845,-14769.1,0,-0,14769.1,1755.17
step02_gravity_refstate-crust.xmf,712,1.54893e-06,-2.87346e-07,0,3.64701e-06,-3.00649e+08,-3.00775e+08,-3.00755e+08,250185,-0.0303313,0.359596,-0,0.360873,-11437.7,-10951.2,-0,15835.1,250185
step02_gravity_refstate-crust.xmf,713,2.35329e-06,-1.25332e-06,0,3.86684e-06,-3.9374e+08,-3.93987e+08,-3.93901e+08,265265,-0.0274608,0.381895,-0,0.382881,-8486.92,-14342.1,-0,16665,265265
step02_gravity_refstate-crust.xmf,714,1.98221e-06,-7.14712e-07,0,3.5333e-06,-3.25935e+08,-3.2612e+08,-3.26071e+08,242384,-0.0275968,0.372186,-0,0.373208,-9622.19,-11872.9,-0,15282.4,242384
step02_gravity_refstate-crust.xmf,715,3.43822e-06,-2.88581e-06,0,5.15128e-06,-5.50191e+08,-5.50624e+08,-5.50426e+08,353378,-0.0335792,0.40262,-0,0.404017,-7166.58,-20039.7,-0,21282.6,353378
step02_gravity_refstate-crust.xmf,716,4.90623e-06,-5.07697e-06,0,5.72652e-06,-6.37767e+08,-6.38452e+08,-6.38103e+08,392840,-0.0350997,0.42784,-0,0.429277,-5647.59,-23230.5,-0,23907.2,392840
step02_gravity_refstate-crust.xmf,717,4.55708e-06,-4.49547e-06,0,5.10335e-06,-6.02083e+08,-6.02704e+08,-6.02396e+08,350089,-0.0319075,0.421616,-0,0.422822,-5651.93,-21930.9,-0,22647.5,350089
step02_gravity_refstate-crust.xmf,718,4.82679e-05,-8.08335e-05,0,-5.19462e-05,-1.09679e+09,-1.10565e+09,-1.10011e+09,-3.56351e+06,0.0824642,0.894462,0,0.898255,1499.28,-40000,0,40028.1,3.56351e+06
step02_gravity_refstate-crust.xmf,719,3.04753e-05,-5.14711e-05,0,-3.67619e-05,-1.05985e+09,-1.06547e+09,-1.06194e+09,-2.52187e+06,0.0764018,0.785206,0,0.788914,1792.79,-38628.5,0,38670.1,2.52187e+06
step02_gravity_refstate-crust.xmf,720,5.86022e-06,-6.33917e-06,0,5.18286e-06,-6.5816e+08,-6.58997e+08,-6.58562e+08,355544,-0.0310183,0.441428,-0,0.442517,-4533.26,-23974.9,-0,24399.7,355544
step02_gravity_refstate-crust.xmf,721,8.0211e-06,-9.65619e-06,0,6.16643e-06,-7.45139e+08,-7.46352e+08,-7.45689e+08,423017,-0.0335838,0.473915,-0,0.475103,-3665.08,-27145,-0,27391.3,423017
step02_gravity_refstate-crust.xmf,722,7.40613e-06,-8.68941e-06,0,5.26275e-06,-7.12348e+08,-7.13452e+08,-7.12856e+08,361024,-0.0295211,0.4639,-0,0.464838,-3559.35,-25950.2,-0,26193.2,361024
step02_gravity_refstate-crust.xmf,723,2.07562e-05,-2.95327e-05,0,3.42096e-06,-9.3089e+08,-9.3434e+08,-9.32314e+08,234678,-0.0119518,0.619589,-0,0.619705,-572.243,-33928.2,-0,33933.1,234678
step02_gravity_refstate-crust.xmf,724,1.14717e-05,-1.47435e-05,0,5.05129e-06,-8.10352e+08,-8.1215e+08,-8.11139e+08,346518,-0.0244497,0.516919,-0,0.517497,-2028.02,-29525.3,-0,29594.8,346518
step02_gravity_refstate-crust.xmf,725,1.8702e-05,-2.61664e-05,0,2.3587e-06,-9.08831e+08,-9.11909e+08,-9.10114e+08,161807,-0.00882018,0.597772,-0,0.597837,-470.218,-33122.1,-0,33125.4,161807
step02_gravity_refstate-crust.xmf,726,1.54996e-05,-2.09271e-05,0,3.79246e-06,-8.71691e+08,-8.7419e+08,-8.72754e+08,260162,-0.0159548,0.563472,-0,0.563698,-1014.04,-31765.1,-0,31781.3,260162
step02_gravity_refstate-crust.xmf,727,1.29917e-05,-1.71417e-05,0,3.38862e-06,-8.29695e+08,-8.31763e+08,-8.30587e+08,232460,-0.0155533,0.533643,-0,0.53387,-1176.88,-30231.9,-0,30254.8,232460
step02_gravity_refstate-crust.xmf,728,3.11587e-05,-4.97522e-05,0,-2.39802e-05,-1.03287e+09,-1.03842e+09,-1.03501e+09,-1.64504e+06,0.0557315,0.748545,0,0.750616,1515.82,-37651.8,0,37682.3,1.64504e+06
step02_gravity_refstate-crust.xmf,729,2.75924e-05,-4.33293e-05,0,-2.09474e-05,-1.01589e+09,-1.02076e+09,-1.01779e+09,-1.43699e+06,0.0538081,0.71491,0,0.716932,1659.9,-37029.2,0,37066.4,1.43699e+06
step02_gravity_refstate-crust.xmf,730,2.4723e-05,-3.81771e-05,0,-1.83578e-05,-9.98514e+08,-1.00283e+09,-1.00021e+09,-1.25935e+06,0.0515026,0.685419,0,0.687352,1786.42,-36392.8,0,36436.6,1.25935e+06
step02_gravity_refstate-crust.xmf,731,1.79112e-06,-4.29515e-07,0,1.68239e-06,-1.04908e+08,-1.0506e+08,-1.0503e+08,115412,-0.0400337,0.348474,-0,0.350766,-12834.7,-3825.85,-0,13392.8,115412
step02_gravity_refstate-crust.xmf,732,1.62894e-06,-3.0141e-07,0,3.10453e-06,-2.43413e+08,-2.43546e+08,-2.43525e+08,212971,-0.0303381,0.358768,-0,0.360049,-11471.9,-8867.83,-0,14499.7,212971
step02_gravity_refstate-crust.xmf,733,1.80668e-06,-3.8893e-07,0,2.51207e-06,-1.85449e+08,-1.856e+08,-1.85573e+08,172328,-0.0317106,0.358663,-0,0.360062,-11375.3,-6758.18,-0,13231.4,172328
step02_gravity_refstate-crust.xmf,734,2.4171e-06,-1.21517e-06,0,3.32268e-06,-3.54113e+08,-3.54362e+08,-3.54279e+08,227936,-0.0246163,0.383651,-0,0.38444,-7912.87,-12899.7,-0,15133.3,227936
step02_gravity_refstate-crust.xmf,735,4.15316e-06,-3.85419e-06,0,4.59648e-06,-5.63046e+08,-5.63595e+08,-5.6333e+08,315319,-0.029269,0.414906,-0,0.415937,-5760.9,-20509.1,-0,21302.8,315319
step02_gravity_refstate-crust.xmf,736,3.57774e-05,-5.9947e-05,0,-5.41787e-05,-1.08814e+09,-1.09471e+09,-1.09059e+09,-3.71666e+06,0.0896525,0.847866,0,0.852593,1730.92,-39666.7,0,39704.5,3.71666e+06
step02_gravity_refstate-crust.xmf,737,2.40098e-05,-4.34734e-05,0,-4.3616e-05,-1.07038e+09,-1.07501e+09,-1.07203e+09,-2.99206e+06,0.092857,0.776517,0,0.782049,2194.49,-38998.1,0,39059.8,2.99206e+06
step02_gravity_refstate-crust.xmf,738,6.82027e-06,-7.72651e-06,0,4.47737e-06,-6.78436e+08,-6.79434e+08,-6.78903e+08,307147,-0.025909,0.454586,-0,0.455323,-3454.76,-24714.8,-0,24955,307147
step02_gravity_refstate-crust.xmf,739,9.26273e-06,-1.14019e-05,0,5.26322e-06,-7.63497e+08,-7.64915e+08,-7.64133e+08,361057,-0.0276439,0.488909,-0,0.48969,-2759.1,-27815.7,-0,27952.2,361057
step02_gravity_refstate-crust.xmf,740,1.04946e-05,-1.31505e-05,0,4.05534e-06,-7.81394e+08,-7.83016e+08,-7.82114e+08,278197,-0.0205686,0.50316,-0,0.50358,-1887.76,-28469.5,-0,28532,278197
step02_gravity_refstate-crust.xmf,741,1.68839e-05,-2.30018e-05,0,1.43431e-06,-8.85776e+08,-8.88512e+08,-8.86934e+08,98393.3,-0.00592199,0.577508,-0,0.577538,-350.865,-32280.2,-0,32282.1,98393.3
step02_gravity_refstate-crust.xmf,742,1.43794e-05,-1.92452e-05,0,2.86411e-06,-8.51735e+08,-8.54042e+08,-8.52722e+08,196478,-0.0125223,0.549647,-0,0.549789,-862.85,-31036.7,-0,31048.6,196478
step02_gravity_refstate-crust.xmf,743,2.24934e-05,-3.22976e-05,0,-3.69517e-07,-9.43761e+08,-9.4752e+08,-9.45304e+08,-25348.9,0.00121287,0.635574,0,0.635575,54.1122,-34399.6,0,34399.6,25348.9
step02_gravity_refstate-crust.xmf,744,2.35523e-05,-3.38305e-05,0,-5.13234e-06,-9.56334e+08,-9.6027e+08,-9.57949e+08,-352079,0.0160967,0.648317,0,0.648517,674.544,-34859.2,0,34865.7,352079
step02_gravity_refstate-crust.xmf,745,2.35591e-05,-3.44034e-05,0,-1.01764e-05,-9.67593e+08,-9.71569e+08,-9.69209e+08,-698101,0.0313775,0.655723,0,0.656473,1258.88,-35268.2,0,35290.7,698101
step02_gravity_refstate-crust.xmf,746,2.22714e-05,-3.35682e-05,0,-1.62044e-05,-9.80828e+08,-9.84659e+08,-9.82356e+08,-1.11162e+06,0.049185,0.65922,0,0.661052,1903.97,-35746.2,0,35796.8,1.11162e+06
step02_gravity_refstate-crust.xmf,747,2.71287e-05,-4.50864e-05,0,-3.18337e-05,-1.04445e+09,-1.0494e+09,-1.04631e+09,-2.18379e+06,0.0737264,0.748559,0,0.752181,1963.14,-38064,0,38114.6,2.18379e+06
step02_gravity_refstate-crust.xmf,748,3.20162e-06,-2.50039e-06,0,4.49691e-06,-5.01899e+08,-5.0229e+08,-5.02118e+08,308488,-0.029693,0.398579,-0,0.399684,-7076.85,-18281.2,-0,19603.2,308488
step02_gravity_refstate-crust.xmf,749,2.79405e-06,-1.75646e-06,0,3.4542e-06,-4.03836e+08,-4.04148e+08,-4.04028e+08,236958,-0.0239942,0.391764,-0,0.392498,-6968.04,-14710.6,-0,16277.5,236958
step02_gravity_refstate-crust.xmf,750,3.00173e-06,-2.14446e-06,0,3.94766e-06,-4.55953e+08,-4.56306e+08,-4.56159e+08,270809,-0.0265793,0.395342,-0,0.396235,-6984.44,-16608.3,-0,18017.1,270809
step02_gravity_refstate-crust.xmf,751,2.09114e-06,-5.47314e-07,0,1.86479e-06,-1.28358e+08,-1.28539e+08,-1.28501e+08,127925,-0.0347445,0.358734,-0,0.360413,-11203.5,-4680.61,-0,12142,127925
step02_gravity_refstate-crust.xmf,752,2.54112e-06,-8.11622e-07,0,1.02683e-06,-6.29346e+07,-6.31646e+07,-6.31089e+07,70440.6,-0.0411612,0.357657,-0,0.360018,-11111.6,-2300.22,-0,11347.2,70440.6
step02_gravity_refstate-crust.xmf,753,2.7376e-06,-1.03175e-06,0,3.10192e-08,260353,1774.75,72553.1,2127.92,-0.0544993,0.349187,-0,0.353414,-12254.7,0,-0,12254.7,2127.92
step02_gravity_refstate-crust.xmf,754,1.99315e-06,-6.34865e-07,0,3.07346e-06,-2.72921e+08,-2.73102e+08,-2.73058e+08,210840,-0.026935,0.370686,-0,0.371663,-9655.54,-9943.05,-0,13859.8,210840
step02_gravity_refstate-crust.xmf,755,2.35261e-06,-1.00095e-06,0,2.88961e-06,-2.99297e+08,-2.99527e+08,-2.99459e+08,198227,-0.0234791,0.381212,-0,0.381935,-7953.45,-10904.2,-0,13496.6,198227
step02_gravity_refstate-crust.xmf,756,3.88429e-06,-3.36415e-06,0,4.05313e-06,-5.24911e+08,-5.25408e+08,-5.25178e+08,278045,-0.0263297,0.410385,-0,0.411229,-5689.79,-19120.4,-0,19949,278045
step02_gravity_refstate-crust.xmf,757,5.38866e-06,-5.63036e-06,0,4.56305e-06,-6.22551e+08,-6.23307e+08,-6.2292e+08,313025,-0.0278348,0.433979,-0,0.43487,-4494.2,-22677.7,-0,23118.7,313025
step02_gravity_refstate-crust.xmf,758,4.93752e-06,-4.91538e-06,0,4.03009e-06,-5.85591e+08,-5.86267e+08,-5.8593e+08,276464,-0.0250941,0.426996,-0,0.427733,-4483.62,-21331.4,-0,21797.5,276464
step02_gravity_refstate-crust.xmf,759,2.38397e-05,-4.44139e-05,0,-5.01962e-05,-1.08483e+09,-1.08951e+09,-1.08647e+09,-3.44346e+06,0.101093,0.798637,0,0.80501,2203.37,-39522.1,0,39583.4,3.44346e+06
step02_gravity_refstate-crust.xmf,760,2.18565e-05,-3.91205e-05,0,-3.83939e-05,-1.05664e+09,-1.06082e+09,-1.05814e+09,-2.63382e+06,0.0896622,0.743879,0,0.749264,2370.32,-38495.7,0,38568.7,2.63382e+06
step02_gravity_refstate-crust.xmf,761,6.26636e-06,-6.77806e-06,0,3.80676e-06,-6.43625e+08,-6.4452e+08,-6.44055e+08,261144,-0.0227804,0.446009,-0,0.446591,-3360.49,-23446.7,-0,23686.3,261144
step02_gravity_refstate-crust.xmf,762,8.50653e-06,-1.01593e-05,0,4.34015e-06,-7.31669e+08,-7.3295e+08,-7.32253e+08,297735,-0.0237253,0.477407,-0,0.477997,-2621.33,-26655.8,-0,26784.4,297735
step02_gravity_refstate-crust.xmf,763,7.77127e-06,-9.06251e-06,0,3.57971e-06,-6.98557e+08,-6.99712e+08,-6.9909e+08,245568,-0.0201174,0.466793,-0,0.467226,-2462.44,-25449.1,-0,25567.9,245568
step02_gravity_refstate-crust.xmf,764,2.01086e-05,-2.84212e-05,0,-9.92493e-07,-9.22362e+08,-9.25691e+08,-9.23742e+08,-68085,0.00354493,0.611923,0,0.611934,176.591,-33616.9,0,33617.3,68085
step02_gravity_refstate-crust.xmf,765,1.16614e-05,-1.48349e-05,0,2.5167e-06,-7.98976e+08,-8.00794e+08,-7.99776e+08,172646,-0.0123774,0.516394,-0,0.516543,-1050.37,-29111.7,-0,29130.7,172646
step02_gravity_refstate-crust.xmf,766,1.80294e-05,-2.50621e-05,0,-1.38512e-06,-9.00161e+08,-9.03117e+08,-9.01398e+08,-95018.9,0.005319,0.590206,0,0.59023,295.031,-32805.4,0,32806.7,95018.9
step02_gravity_refstate-crust.xmf,767,1.53406e-05,-2.05578e-05,0,7.32642e-07,-8.63337e+08,-8.658e+08,-8.64389e+08,50259.3,-0.00328762,0.559889,-0,0.559899,-214.589,-31460.9,-0,31461.6,50259.3
step02_gravity_refstate-crust.xmf,768,1.39305e-05,-1.85001e-05,0,4.76837e-07,-8.40028e+08,-8.42252e+08,-8.40983e+08,32711,-0.0021527,0.543394,-0,0.543399,-154.662,-30609.8,-0,30610.2,32711
step02_gravity_refstate-crust.xmf,769,2.44024e-05,-4.01047e-05,0,-2.77512e-05,-1.02788e+09,-1.03231e+09,-1.02956e+09,-1.90374e+06,0.0707209,0.71479,0,0.71828,2133.83,-37457.7,0,37518.5,1.90374e+06
step02_gravity_refstate-crust.xmf,770,2.21168e-05,-3.55625e-05,0,-2.41626e-05,-1.01047e+09,-1.01443e+09,-1.01199e+09,-1.65756e+06,0.0672796,0.684764,0,0.688061,2285.56,-36821.6,0,36892.5,1.65756e+06
step02_gravity_refstate-crust.xmf,771,2.01476e-05,-3.17256e-05,0,-2.12582e-05,-9.9289e+08,-9.96449e+08,-9.94272e+08,-1.45831e+06,0.0640659,0.658175,0,0.661286,2431.14,-36179.5,0,36261.1,1.45831e+06
step02_gravity_refstate-crust.xmf,772,2.10786e-06,-6.18425e-07,0,2.55389e-06,-2.164e+08,-2.16587e+08,-2.16545e+08,175197,-0.027228,0.369881,-0,0.370882,-9575.94,-7885.83,-0,12405,175197
step02_gravity_refstate-crust.xmf,773,2.33637e-06,-6.83676e-07,0,1.99576e-06,-1.59209e+08,-1.59416e+08,-1.59369e+08,136909,-0.0289092,0.369248,-0,0.370378,-9448,-5804.56,-0,11088.6,136909
step02_gravity_refstate-crust.xmf,774,2.80264e-06,-1.649e-06,0,2.86207e-06,-3.62955e+08,-3.6326e+08,-3.63147e+08,196338,-0.0207259,0.392673,-0,0.39322,-6320.56,-13222.5,-0,14655.5,196338
step02_gravity_refstate-crust.xmf,775,2.67837e-06,-1.37439e-06,0,2.60313e-06,-3.2114e+08,-3.21418e+08,-3.21323e+08,178575,-0.0200824,0.389723,-0,0.39024,-6456.73,-11700.1,-0,13363.5,178575
step02_gravity_refstate-crust.xmf,776,4.54013e-06,-4.27911e-06,0,3.49972e-06,-5.46573e+08,-5.47178e+08,-5.46884e+08,240081,-0.0221972,0.421061,-0,0.421645,-4387.76,-19910.3,-0,20388,240081
step02_gravity_refstate-crust.xmf,777,1.82943e-05,-3.622e-05,0,-4.67791e-05,-1.07742e+09,-1.08116e+09,-1.07868e+09,-3.20904e+06,0.103682,0.760674,0,0.767708,2533.93,-39242.6,0,39324.4,3.20904e+06
step02_gravity_refstate-crust.xmf,778,1.73794e-05,-3.37695e-05,0,-4.25645e-05,-1.06727e+09,-1.07078e+09,-1.06846e+09,-2.91992e+06,0.100578,0.738716,0,0.745532,2654.62,-38873,0,38963.6,2.91992e+06
step02_gravity_refstate-crust.xmf,779,7.09051e-06,-7.99347e-06,0,2.93352e-06,-6.64483e+08,-6.65518e+08,-6.64969e+08,201239,-0.0170074,0.457035,-0,0.457351,-2306.82,-24207.5,-0,24317.1,201239
step02_gravity_refstate-crust.xmf,780,9.56936e-06,-1.16731e-05,0,3.21214e-06,-7.50964e+08,-7.52421e+08,-7.5162e+08,220353,-0.0170134,0.490256,-0,0.490552,-1730.01,-27360.2,-0,27414.9,220353
step02_gravity_refstate-crust.xmf,781,1.25802e-05,-1.63814e-05,0,5.33085e-07,-8.14374e+08,-8.16361e+08,-8.15237e+08,36569.6,-0.0024749,0.527171,-0,0.527177,-197.087,-29673.7,-0,29674.3,36569.6
step02_gravity_refstate-crust.xmf,782,1.05732e-05,-1.31288e-05,0,1.82152e-06,-7.70079e+08,-7.71705e+08,-7.70804e+08,124956,-0.00940041,0.502202,-0,0.50229,-884.097,-28057.9,-0,28071.9,124956
step02_gravity_refstate-crust.xmf,783,1.62695e-05,-2.20606e-05,0,-1.72475e-06,-8.78096e+08,-8.80725e+08,-8.79212e+08,-118318,0.00695754,0.57099,0,0.571032,426.689,-31999.6,0,32002.5,118318
step02_gravity_refstate-crust.xmf,784,2.09765e-05,-3.00458e-05,0,-5.04979e-06,-9.35858e+08,-9.39358e+08,-9.37297e+08,-346416,0.0173561,0.623403,0,0.623645,814.018,-34109.2,0,34118.9,346416
step02_gravity_refstate-crust.xmf,785,2.09558e-05,-3.02167e-05,0,-9.56086e-06,-9.48338e+08,-9.51848e+08,-9.49776e+08,-655875,0.0318972,0.630356,0,0.631162,1430.66,-34563.2,0,34592.8,655875
step02_gravity_refstate-crust.xmf,786,2.00236e-05,-2.96284e-05,0,-1.43274e-05,-9.61334e+08,-9.64741e+08,-9.62708e+08,-982857,0.0470088,0.633564,0,0.635305,2036.97,-35033.5,0,35092.6,982857
step02_gravity_refstate-crust.xmf,787,1.82431e-05,-2.79918e-05,0,-1.88103e-05,-9.74351e+08,-9.77522e+08,-9.75602e+08,-1.29039e+06,0.061195,0.633058,0,0.636009,2590.84,-35502.7,0,35597.1,1.29039e+06
step02_gravity_refstate-crust.xmf,788,1.96384e-05,-3.45316e-05,0,-3.35827e-05,-1.04062e+09,-1.04433e+09,-1.04197e+09,-2.30377e+06,0.0865496,0.709111,0,0.714373,2595.87,-37910.7,0,37999.5,2.30377e+06
step02_gravity_refstate-crust.xmf,789,3.60376e-06,-2.93438e-06,0,3.5326e-06,-4.82038e+08,-4.82486e+08,-4.82285e+08,242337,-0.0232497,0.406375,-0,0.40704,-5540.28,-17559.1,-0,18412.4,242337
step02_gravity_refstate-crust.xmf,790,3.34452e-06,-2.49078e-06,0,3.06387e-06,-4.36591e+08,-4.36992e+08,-4.36821e+08,210181,-0.0206337,0.402595,-0,0.403123,-5412.39,-15904.2,-0,16799.9,210181
step02_gravity_refstate-crust.xmf,791,2.70854e-06,-8.44285e-07,0,1.38921e-06,-1.02943e+08,-1.03186e+08,-1.03128e+08,95300.1,-0.0320894,0.368706,-0,0.370099,-9253.58,-3757.38,-0,9987.32,95300.1
step02_gravity_refstate-crust.xmf,792,3.62851e-06,-1.37719e-06,0,2.49854e-08,344669,1277.88,95753.1,1714,-0.0466348,0.362121,-0,0.365111,-9771.03,0,-0,9771.03,1714
step02_gravity_refstate-crust.xmf,793,2.40114e-06,-9.03959e-07,0,2.43966e-06,-2.45882e+08,-2.46109e+08,-2.46047e+08,167361,-0.0228949,0.380092,-0,0.38078,-7814.66,-8959.89,-0,11889,167361
step02_gravity_refstate-crust.xmf,794,3.14078e-06,-2.11174e-06,0,2.63262e-06,-3.90664e+08,-3.91024e+08,-3.9088e+08,180598,-0.0183509,0.399622,-0,0.400043,-5231.65,-14232,-0,15163.1,180598
step02_gravity_refstate-crust.xmf,795,3.00065e-06,-1.7986e-06,0,2.22646e-06,-3.44652e+08,-3.44981e+08,-3.44857e+08,152735,-0.0163676,0.397419,-0,0.397756,-4978.54,-12556.7,-0,13507.7,152735
step02_gravity_refstate-crust.xmf,796,2.67188e-06,-1.20086e-06,0,2.20559e-06,-2.7328e+08,-2.73546e+08,-2.73463e+08,151303,-0.018896,0.388493,-0,0.388952,-6230.11,-9957.98,-0,11746.3,151303
step02_gravity_refstate-crust.xmf,797,4.19706e-06,-3.68325e-06,0,2.96642e-06,-5.05738e+08,-5.06279e+08,-5.06026e+08,203496,-0.0192663,0.416071,-0,0.416516,-4206.35,-18423.2,-0,18897.3,203496
step02_gravity_refstate-crust.xmf,798,5.70957e-06,-5.97205e-06,0,3.29468e-06,-6.07416e+08,-6.08218e+08,-6.07808e+08,226015,-0.0200734,0.438056,-0,0.438516,-3280.92,-22127.5,-0,22369.4,226015
step02_gravity_refstate-crust.xmf,799,5.19907e-06,-5.18205e-06,0,2.83799e-06,-5.69626e+08,-5.70338e+08,-5.69983e+08,194686,-0.0176505,0.430814,-0,0.431175,-3199.6,-20750.8,-0,20996,194686
step02_gravity_refstate-crust.xmf,800,1.25299e-05,-2.93186e-05,0,-5.04454e-05,-1.0869e+09,-1.08977e+09,-1.08776e+09,-3.46056e+06,0.112672,0.749809,0,0.758228,2798.04,-39575.1,0,39673.9,3.46056e+06
step02_gravity_refstate-crust.xmf,801,1.36993e-05,-2.77128e-05,0,-3.91525e-05,-1.05684e+09,-1.05968e+09,-1.05778e+09,-2.68586e+06,0.101402,0.700869,0,0.708167,3036.26,-38487.7,0,38607.3,2.68586e+06
step02_gravity_refstate-crust.xmf,802,1.13991e-05,-2.59554e-05,0,-4.4259e-05,-1.07411e+09,-1.07668e+09,-1.0749e+09,-3.03617e+06,0.109507,0.716385,0,0.724706,3054.29,-39110.1,0,39229.2,3.03617e+06
step02_gravity_refstate-crust.xmf,803,6.4495e-06,-6.9359e-06,0,2.40268e-06,-6.29038e+08,-6.29956e+08,-6.2948e+08,164824,-0.0144554,0.447957,-0,0.448191,-2175.99,-22916.1,-0,23019.2,164824
step02_gravity_refstate-crust.xmf,804,8.70164e-06,-1.03041e-05,0,2.47842e-06,-7.18774e+08,-7.20078e+08,-7.19371e+08,170019,-0.0136947,0.478158,-0,0.478354,-1546.09,-26186.9,-0,26232.5,170019
step02_gravity_refstate-crust.xmf,805,7.88444e-06,-9.12957e-06,0,1.8468e-06,-6.85291e+08,-6.86458e+08,-6.85832e+08,126690,-0.010424,0.467124,-0,0.46724,-1306.76,-24966.5,-0,25000.6,126690
step02_gravity_refstate-crust.xmf,806,1.87212e-05,-2.63756e-05,0,-4.81292e-06,-9.13962e+08,-9.17055e+08,-9.15246e+08,-330166,0.0178126,0.600151,0,0.600416,933.806,-33308.6,0,33321.7,330166
step02_gravity_refstate-crust.xmf,807,1.14088e-05,-1.43877e-05,0,9.19535e-08,-7.87778e+08,-7.89547e+08,-7.8856e+08,6308.01,-0.000606045,0.512382,-0,0.512382,-53.2349,-28703.7,-0,28703.8,6308.01
step02_gravity_refstate-crust.xmf,808,1.68267e-05,-2.32897e-05,0,-4.57829e-06,-8.91971e+08,-8.94723e+08,-8.93125e+08,-314071,0.0181108,0.579516,0,0.579799,1054.18,-32505.1,0,32522.2,314071
step02_gravity_refstate-crust.xmf,809,1.46534e-05,-1.96219e-05,0,-2.34182e-06,-8.54678e+08,-8.57029e+08,-8.55683e+08,-160649,0.00995264,0.552454,0,0.552544,676.36,-31144.3,0,31151.6,160649
step02_gravity_refstate-crust.xmf,810,1.32003e-05,-1.73824e-05,0,-1.9449e-06,-8.29177e+08,-8.31275e+08,-8.30082e+08,-133420,0.00883837,0.535383,0,0.535456,665.473,-30213.5,0,30220.8,133420
step02_gravity_refstate-crust.xmf,811,1.82957e-05,-3.13208e-05,0,-2.93517e-05,-1.02303e+09,-1.02643e+09,-1.02428e+09,-2.01353e+06,0.082079,0.679247,0,0.684188,2769.9,-37269.8,0,37372.6,2.01353e+06
step02_gravity_refstate-crust.xmf,812,1.71356e-05,-2.84243e-05,0,-2.56794e-05,-1.00506e+09,-1.00818e+09,-1.00623e+09,-1.76161e+06,0.0775015,0.653346,0,0.657927,2917.25,-36615.4,0,36731.5,1.76161e+06
step02_gravity_refstate-crust.xmf,813,1.59285e-05,-2.57121e-05,0,-2.2668e-05,-9.8678e+08,-9.89636e+08,-9.87872e+08,-1.55503e+06,0.0734958,0.629387,0,0.633664,3074.63,-35949.3,0,36080.6,1.55503e+06
step02_gravity_refstate-crust.xmf,814,3.39999e-06,-1.17952e-06,0,6.78664e-07,-4.88251e+07,-4.91392e+07,-4.90583e+07,46556.4,-0.034988,0.370511,-0,0.372159,-8459.14,-1789.46,-0,8646.34,46556.4
step02_gravity_refstate-crust.xmf,815,2.55961e-06,-8.69239e-07,0,1.96508e-06,-1.89623e+08,-1.89858e+08,-1.89798e+08,134804,-0.0234112,0.378989,-0,0.379711,-7672.02,-6912.42,-0,10326.7,134804
step02_gravity_refstate-crust.xmf,816,2.86026e-06,-9.37282e-07,0,1.46506e-06,-1.33237e+08,-1.33497e+08,-1.33433e+08,100503,-0.0252274,0.377831,-0,0.378673,-7523.53,-4860.74,-0,8957.14,100503
step02_gravity_refstate-crust.xmf,817,2.91668e-06,-1.51942e-06,0,1.89833e-06,-2.99426e+08,-2.99731e+08,-2.99626e+08,130225,-0.0151629,0.395308,-0,0.395598,-4813.49,-10910.4,-0,11925,130225
step02_gravity_refstate-crust.xmf,818,4.75798e-06,-4.48885e-06,0,2.33519e-06,-5.29984e+08,-5.30619e+08,-5.30311e+08,160194,-0.0148005,0.424786,-0,0.425044,-2970.83,-19306.9,-0,19534.1,160194
step02_gravity_refstate-crust.xmf,819,7.12786e-06,-7.97299e-06,0,1.39117e-06,-6.50985e+08,-6.52021e+08,-6.51474e+08,95434.1,-0.0081111,0.456952,-0,0.457024,-1129.31,-23716.2,-0,23743.1,95434.1
step02_gravity_refstate-crust.xmf,820,9.58601e-06,-1.16119e-05,0,1.22488e-06,-7.40388e+08,-7.41842e+08,-7.41046e+08,84026.6,-0.00654763,0.489272,-0,0.489315,-681.681,-26975.4,-0,26984,84026.6
step02_gravity_refstate-crust.xmf,821,1.19911e-05,-1.54811e-05,0,-1.9309e-06,-8.04402e+08,-8.06287e+08,-8.05225e+08,-132460,0.0092251,0.520349,0,0.520431,764.786,-29309.6,0,29319.6,132460
step02_gravity_refstate-crust.xmf,822,1.03236e-05,-1.27253e-05,0,-2.28109e-07,-7.60005e+08,-7.61586e+08,-7.60713e+08,-15648.2,0.00108409,0.498633,0,0.498634,105.323,-27690.8,0,27691,15648.2
step02_gravity_refstate-crust.xmf,823,1.5489e-05,-2.10631e-05,0,-4.20619e-06,-8.73313e+08,-8.7582e+08,-8.74375e+08,-288545,0.0175562,0.564115,0,0.564388,1110.36,-31823.9,0,31843.2,288545
step02_gravity_refstate-crust.xmf,824,1.87464e-05,-2.68732e-05,0,-8.75912e-06,-9.27558e+08,-9.30688e+08,-9.28844e+08,-600876,0.0315199,0.606691,0,0.607509,1578.65,-33802.9,0,33839.8,600876
step02_gravity_refstate-crust.xmf,825,1.64156e-05,-2.46736e-05,0,-1.68607e-05,-9.54546e+08,-9.57365e+08,-9.55672e+08,-1.15665e+06,0.0589452,0.608486,0,0.611334,2790.02,-34779.4,0,34891.1,1.15665e+06
step02_gravity_refstate-crust.xmf,826,1.79393e-05,-2.61091e-05,0,-1.2888e-05,-9.41068e+08,-9.44089e+08,-9.42298e+08,-884116,0.0455299,0.609418,0,0.611116,2204.19,-34292.7,0,34363.4,884116
step02_gravity_refstate-crust.xmf,827,1.46463e-05,-2.29254e-05,0,-2.02036e-05,-9.68302e+08,-9.70879e+08,-9.69306e+08,-1.38597e+06,0.0701889,0.606988,0,0.611033,3253.32,-35275.7,0,35425.4,1.38597e+06
step02_gravity_refstate-crust.xmf,828,1.31622e-05,-2.53024e-05,0,-3.35767e-05,-1.0371e+09,-1.03973e+09,-1.038e+09,-2.30336e+06,0.0957743,0.668242,0,0.67507,3261.86,-37770.6,0,37911.2,2.30336e+06
step02_gravity_refstate-crust.xmf,829,3.85819e-06,-3.17692e-06,0,2.51904e-06,-4.62516e+08,-4.62999e+08,-4.62781e+08,172806,-0.0165903,0.411598,-0,0.411932,-3996.3,-16849.1,-0,17316.5,172806
step02_gravity_refstate-crust.xmf,830,3.56348e-06,-2.6811e-06,0,2.11375e-06,-4.17197e+08,-4.17625e+08,-4.17441e+08,145004,-0.0143153,0.407591,-0,0.407842,-3785.11,-15198.7,-0,15663,145004
step02_gravity_refstate-crust.xmf,831,3.29291e-06,-1.10747e-06,0,9.76563e-07,-8.52565e+07,-8.55583e+07,-8.54824e+07,66992.3,-0.0274107,0.37731,-0,0.378304,-7227.21,-3115.46,-0,7870.11,66992.3
step02_gravity_refstate-crust.xmf,832,4.37229e-06,-1.65992e-06,0,2.31856e-08,415301,1492.31,115363,1590.53,-0.0368176,0.372781,-0,0.374595,-7310.9,0,-0,7310.9,1590.53
step02_gravity_refstate-crust.xmf,833,2.75881e-06,-1.09255e-06,0,1.78963e-06,-2.19719e+08,-2.19984e+08,-2.19909e+08,122769,-0.0182902,0.387385,-0,0.387816,-5955.51,-8008.57,-0,9980.24,122769
step02_gravity_refstate-crust.xmf,834,3.31501e-06,-2.22898e-06,0,1.77998e-06,-3.69889e+08,-3.70269e+08,-3.70116e+08,122107,-0.0125886,0.403953,-0,0.404149,-3614.81,-13476.1,-0,13952.5,122107
step02_gravity_refstate-crust.xmf,835,3.15181e-06,-1.87078e-06,0,1.49209e-06,-3.23996e+08,-3.24341e+08,-3.24213e+08,102358,-0.011266,0.40108,-0,0.401238,-3432.37,-11805.3,-0,12294.1,102358
step02_gravity_refstate-crust.xmf,836,2.93524e-06,-1.33585e-06,0,1.52226e-06,-2.51695e+08,-2.51988e+08,-2.51896e+08,104427,-0.0138004,0.394073,-0,0.394314,-4433.2,-9173.01,-0,10188.1,104427
step02_gravity_refstate-crust.xmf,837,4.36772e-06,-3.82901e-06,0,1.83577e-06,-4.88371e+08,-4.88933e+08,-4.88671e+08,125934,-0.0119796,0.419513,-0,0.419684,-2659.51,-17791.4,-0,17989.1,125934
step02_gravity_refstate-crust.xmf,838,5.83395e-06,-6.06339e-06,0,1.99711e-06,-5.91991e+08,-5.92807e+08,-5.92391e+08,137002,-0.0121943,0.439669,-0,0.439838,-2039.73,-21566.2,-0,21662.5,137002
step02_gravity_refstate-crust.xmf,839,5.29279e-06,-5.23597e-06,0,1.58717e-06,-5.53701e+08,-5.54424e+08,-5.54065e+08,108880,-0.00988971,0.4324,-0,0.432513,-1836.1,-20171.4,-0,20254.8,108880
step02_gravity_refstate-crust.xmf,840,5.78039e-06,-1.90487e-05,0,-4.65805e-05,-1.08545e+09,-1.08716e+09,-1.08585e+09,-3.19542e+06,0.116548,0.704853,0,0.714423,3314.91,-39510.9,0,39649.7,3.19542e+06
step02_gravity_refstate-crust.xmf,841,7.19348e-06,-1.9435e-05,0,-4.11573e-05,-1.06841e+09,-1.07024e+09,-1.06891e+09,-2.82339e+06,0.111167,0.678464,0,0.687511,3504.9,-38895.6,0,39053.2,2.82339e+06
step02_gravity_refstate-crust.xmf,842,6.42248e-06,-6.83386e-06,0,1.01935e-06,-6.14484e+08,-6.15393e+08,-6.14924e+08,69927.7,-0.0062292,0.447444,-0,0.447488,-966.369,-22386.3,-0,22407.1,69927.7
step02_gravity_refstate-crust.xmf,843,8.68902e-06,-1.03187e-05,0,3.18191e-07,-7.09061e+08,-7.10365e+08,-7.09657e+08,21827.9,-0.00184935,0.47734,-0,0.477344,-213.293,-25833.3,-0,25834.1,21827.9
step02_gravity_refstate-crust.xmf,844,7.7157e-06,-8.84565e-06,0,1.39722e-07,-6.72157e+08,-6.73293e+08,-6.72686e+08,9584.93,-0.0007917,0.464613,-0,0.464614,-102.687,-24488.1,-0,24488.3,9584.93
step02_gravity_refstate-crust.xmf,845,1.68276e-05,-2.36753e-05,0,-7.87286e-06,-9.05271e+08,-9.0805e+08,-9.06425e+08,-540078,0.0303625,0.58483,0,0.585617,1695.45,-32988.7,0,33032.3,540078
step02_gravity_refstate-crust.xmf,846,1.08257e-05,-1.35524e-05,0,-2.06104e-06,-7.77772e+08,-7.79445e+08,-7.78515e+08,-141388,0.0102268,0.505797,0,0.5059,936.443,-28338.4,0,28353.9,141388
step02_gravity_refstate-crust.xmf,847,1.52108e-05,-2.09571e-05,0,-6.95516e-06,-8.82043e+08,-8.84525e+08,-8.83087e+08,-477124,0.0286076,0.565166,0,0.565889,1774.16,-32140.8,0,32189.7,477124
step02_gravity_refstate-crust.xmf,848,1.41564e-05,-1.90818e-05,0,-5.54536e-06,-8.59799e+08,-8.62079e+08,-8.6077e+08,-380412,0.0239219,0.550452,0,0.550972,1620.43,-31329.6,0,31371.5,380412
step02_gravity_refstate-crust.xmf,849,1.34004e-05,-1.77188e-05,0,-4.23284e-06,-8.41209e+08,-8.43344e+08,-8.42128e+08,-290373,0.0188315,0.539861,0,0.540189,1366.29,-30651.8,0,30682.3,290373
step02_gravity_refstate-crust.xmf,850,1.22842e-05,-1.60844e-05,0,-4.22172e-06,-8.20703e+08,-8.2265e+08,-8.21546e+08,-289610,0.0196918,0.526064,0,0.526432,1553.83,-29903.3,0,29943.7,289610
step02_gravity_refstate-crust.xmf,851,1.31455e-05,-2.37417e-05,0,-2.94007e-05,-1.01777e+09,-1.0203e+09,-1.01867e+09,-2.01689e+06,0.0899044,0.643267,0,0.649519,3412.34,-37069.2,0,37225.9,2.01689e+06
step02_gravity_refstate-crust.xmf,852,1.28607e-05,-2.218e-05,0,-2.59309e-05,-9.99055e+08,-1.00146e+09,-9.99937e+08,-1.77886e+06,0.0846756,0.621456,0,0.627199,3550.99,-36389.3,0,36562.1,1.77886e+06
step02_gravity_refstate-crust.xmf,853,1.23171e-05,-2.04864e-05,0,-2.31455e-05,-9.81025e+08,-9.83276e+08,-9.8187e+08,-1.58778e+06,0.0803682,0.601446,0,0.606792,3704.26,-35733.3,0,35924.8,1.58778e+06
step02_gravity_refstate-crust.xmf,854,6.86491e-06,-1.71055e-05,0,-3.66184e-05,-1.05329e+09,-1.05494e+09,-1.05376e+09,-2.51202e+06,0.107588,0.648635,0,0.657497,3799.95,-38347.4,0,38535.2,2.51202e+06
step02_gravity_refstate-crust.xmf,855,3.95869e-06,-1.40603e-06,0,4.84205e-07,-4.58403e+07,-4.62083e+07,-4.61119e+07,33216.4,-0.0265512,0.379764,-0,0.380691,-6088.99,-1682.7,-0,6317.22,33216.4
step02_gravity_refstate-crust.xmf,856,2.985e-06,-1.0643e-06,0,1.37138e-06,-1.62467e+08,-1.62745e+08,-1.62672e+08,94076.3,-0.0188685,0.385898,-0,0.386359,-5758.5,-5925.21,-0,8262.47,94076.3
step02_gravity_refstate-crust.xmf,857,3.39422e-06,-1.16551e-06,0,9.37057e-07,-1.03546e+08,-1.03859e+08,-1.03779e+08,64282.1,-0.0210365,0.383818,-0,0.384394,-5678.84,-3781.63,-0,6822.75,64282.1
step02_gravity_refstate-crust.xmf,858,3.06524e-06,-1.59341e-06,0,1.28925e-06,-2.81797e+08,-2.82117e+08,-2.82008e+08,88442.4,-0.0106435,0.398649,-0,0.398791,-3349.97,-10269,-0,10801.6,88442.4
step02_gravity_refstate-crust.xmf,859,4.82333e-06,-4.50936e-06,0,1.17046e-06,-5.15103e+08,-5.15743e+08,-5.15434e+08,80293.8,-0.00740061,0.426259,-0,0.426323,-1518.25,-18765.4,-0,18826.7,80293.8
step02_gravity_refstate-crust.xmf,860,6.92077e-06,-7.64145e-06,0,-9.36172e-08,-6.36829e+08,-6.37828e+08,-6.37304e+08,-6422.14,0.000545836,0.454102,0,0.454103,79.0089,-23200.6,0,23200.7,6422.14
step02_gravity_refstate-crust.xmf,861,9.496e-06,-1.15241e-05,0,-4.34714e-07,-7.35733e+08,-7.37175e+08,-7.36385e+08,-29821.4,0.00233622,0.487857,0,0.487863,247.015,-26805.7,0,26806.8,29821.4
step02_gravity_refstate-crust.xmf,862,1.10672e-05,-1.41842e-05,0,-4.09168e-06,-7.94963e+08,-7.96695e+08,-7.95722e+08,-280689,0.02005,0.510759,0,0.511152,1747.84,-28964.2,0,29016.9,280689
step02_gravity_refstate-crust.xmf,863,9.77719e-06,-1.19531e-05,0,-1.9709e-06,-7.49457e+08,-7.50947e+08,-7.50127e+08,-135204,0.0102503,0.49232,0,0.492427,1037.73,-27305.8,0,27325.5,135204
step02_gravity_refstate-crust.xmf,864,1.61712e-05,-2.32616e-05,0,-1.15099e-05,-9.19186e+08,-9.21891e+08,-9.20295e+08,-789576,0.0435862,0.586938,0,0.588554,2355.47,-33493.3,0,33576,789576
step02_gravity_refstate-crust.xmf,865,1.26168e-05,-1.95049e-05,0,-1.84622e-05,-9.48006e+08,-9.5021e+08,-9.48872e+08,-1.2665e+06,0.0693334,0.579675,0,0.583807,3633.77,-34534,0,34724.6,1.2665e+06
step02_gravity_refstate-crust.xmf,866,1.4773e-05,-2.17726e-05,0,-1.50898e-05,-9.33501e+08,-9.36008e+08,-9.34514e+08,-1.03516e+06,0.0566528,0.585597,0,0.588331,2993.13,-34011.1,0,34142.5,1.03516e+06
step02_gravity_refstate-crust.xmf,867,1.17306e-05,-1.89199e-05,0,-2.10661e-05,-9.65267e+08,-9.67369e+08,-9.66072e+08,-1.44513e+06,0.0771376,0.584828,0,0.589893,3854.62,-35159.7,0,35370.3,1.44513e+06
step02_gravity_refstate-crust.xmf,868,8.26413e-06,-1.78381e-05,0,-3.19376e-05,-1.03123e+09,-1.03302e+09,-1.03179e+09,-2.19092e+06,0.10059,0.626634,0,0.634656,3935.08,-37548.7,0,37754.3,2.19092e+06
step02_gravity_refstate-crust.xmf,869,3.98365e-06,-3.26501e-06,0,1.45867e-06,-4.44118e+08,-4.44616e+08,-4.44392e+08,100065,-0.0096541,0.414583,-0,0.414695,-2367.85,-16179.6,-0,16352,100065
step02_gravity_refstate-crust.xmf,870,3.64962e-06,-2.70994e-06,0,1.17329e-06,-3.97885e+08,-3.98321e+08,-3.98135e+08,80487.6,-0.00803834,0.410044,-0,0.410123,-2163.46,-14496,-0,14656.5,80487.6
step02_gravity_refstate-crust.xmf,871,4.93157e-06,-1.86449e-06,0,3.18815e-08,468755,2544.96,130449,2187.07,-0.0254444,0.380736,-0,0.381585,-4867.07,0,-0,4867.07,2187.07
step02_gravity_refstate-crust.xmf,872,3.06347e-06,-1.21965e-06,0,1.15339e-06,-1.95745e+08,-1.96039e+08,-1.95955e+08,79122.6,-0.0129861,0.3926,-0,0.392815,-4041.9,-7136.81,-0,8201.89,79122.6
step02_gravity_refstate-crust.xmf,873,3.3795e-06,-2.20972e-06,0,9.49543e-07,-3.48047e+08,-3.4843e+08,-3.48279e+08,65138.7,-0.00687596,0.405916,-0,0.405975,-2005.98,-12681.3,-0,12838.9,65138.7
step02_gravity_refstate-crust.xmf,874,3.21321e-06,-1.8136e-06,0,7.68462e-07,-2.97647e+08,-2.97991e+08,-2.97867e+08,52716.5,-0.00610309,0.40247,-0,0.402516,-1877.83,-10846.3,-0,11007.7,52716.5
step02_gravity_refstate-crust.xmf,875,3.12736e-06,-1.45747e-06,0,7.92491e-07,-2.3788e+08,-2.38195e+08,-2.38095e+08,54364.9,-0.00746541,0.398267,-0,0.398337,-2345.04,-8670.66,-0,8982.18,54364.9
step02_gravity_refstate-crust.xmf,876,4.40165e-06,-3.85932e-06,0,5.92694e-07,-4.7296e+08,-4.73527e+08,-4.73262e+08,40658.8,-0.00392022,0.420738,-0,0.420757,-890.015,-17230.4,-0,17253.4,40658.8
step02_gravity_refstate-crust.xmf,877,5.78119e-06,-5.93485e-06,0,7.15315e-07,-5.76928e+08,-5.77731e+08,-5.77324e+08,49070.6,-0.00439384,0.439013,-0,0.439035,-758.651,-21017.8,-0,21031.5,49070.6
step02_gravity_refstate-crust.xmf,878,5.23183e-06,-5.10933e-06,0,4.0408e-07,-5.3952e+08,-5.4023e+08,-5.39879e+08,27719.9,-0.00252997,0.431781,-0,0.431789,-483.674,-19655,-0,19661,27719.9
step02_gravity_refstate-crust.xmf,879,9.93623e-07,-1.12225e-05,0,-4.25537e-05,-1.08446e+09,-1.08529e+09,-1.08452e+09,-2.91918e+06,0.117916,0.662559,0,0.67297,3836.93,-39467.4,0,39653.4,2.91918e+06
step02_gravity_refstate-crust.xmf,880,2.54083e-06,-1.21837e-05,0,-3.92716e-05,-1.07118e+09,-1.07219e+09,-1.07136e+09,-2.69403e+06,0.114406,0.646299,0,0.656347,3979.52,-38988.9,0,39191.5,2.69403e+06
step02_gravity_refstate-crust.xmf,881,6.22561e-06,-6.5196e-06,0,-2.74964e-07,-6.00601e+08,-6.01475e+08,-6.01028e+08,-18862.5,0.00151325,0.444756,0,0.444759,243.814,-21880.6,0,21881.9,18862.5
step02_gravity_refstate-crust.xmf,882,8.88061e-06,-1.06446e-05,0,-1.6299e-06,-7.19764e+08,-7.21104e+08,-7.20374e+08,-111811,0.00882685,0.480277,0,0.480358,986.998,-26223.2,0,26241.8,111811
step02_gravity_refstate-crust.xmf,883,7.29277e-06,-8.22862e-06,0,-1.37808e-06,-6.58413e+08,-6.59478e+08,-6.58913e+08,-94536.2,0.00799537,0.459214,0,0.459284,1087.77,-23987,0,24011.6,94536.2
step02_gravity_refstate-crust.xmf,884,8.1044e-06,-9.46116e-06,0,-1.40578e-06,-6.91372e+08,-6.92577e+08,-6.91928e+08,-96436.6,0.00787051,0.470006,0,0.470072,964.593,-25188.2,0,25206.7,96436.6
step02_gravity_refstate-crust.xmf,885,1.46372e-05,-2.05807e-05,0,-1.0083e-05,-8.95277e+08,-8.97693e+08,-8.96281e+08,-691694,0.0408004,0.566252,0,0.56772,2459.91,-32620.8,0,32713.4,691694
step02_gravity_refstate-crust.xmf,886,9.97181e-06,-1.23656e-05,0,-3.81672e-06,-7.66996e+08,-7.68528e+08,-7.6768e+08,-261827,0.0195235,0.496471,0,0.496855,1884.46,-27944.4,0,28007.9,261827
step02_gravity_refstate-crust.xmf,887,1.34596e-05,-1.84695e-05,0,-8.59233e-06,-8.70389e+08,-8.7258e+08,-8.71313e+08,-589434,0.036802,0.548686,0,0.549918,2458.52,-31713.2,0,31808.4,589434
step02_gravity_refstate-crust.xmf,888,1.24077e-05,-1.66054e-05,0,-6.88995e-06,-8.41728e+08,-8.43718e+08,-8.42579e+08,-472651,0.0311393,0.53218,0,0.53309,2315.38,-30668.4,0,30755.7,472651
step02_gravity_refstate-crust.xmf,889,1.10126e-05,-1.43616e-05,0,-6.33271e-06,-8.1302e+08,-8.1476e+08,-8.13775e+08,-434424,0.0304627,0.513878,0,0.51478,2540.64,-29621.1,0,29729.9,434424
step02_gravity_refstate-crust.xmf,890,8.9394e-06,-1.7393e-05,0,-2.84782e-05,-1.01197e+09,-1.01378e+09,-1.01258e+09,-1.95361e+06,0.0949121,0.60751,0,0.614879,4069.83,-36851,0,37075,1.95361e+06
step02_gravity_refstate-crust.xmf,891,9.26871e-06,-1.68112e-05,0,-2.5404e-05,-9.92661e+08,-9.9445e+08,-9.93297e+08,-1.74271e+06,0.0895305,0.58984,0,0.596596,4197.1,-36150.3,0,36393.1,1.74271e+06
step02_gravity_refstate-crust.xmf,892,9.31908e-06,-1.59942e-05,0,-2.28329e-05,-9.74134e+08,-9.7587e+08,-9.74773e+08,-1.56634e+06,0.0848198,0.573698,0,0.579934,4326.24,-35477.3,0,35740.1,1.56634e+06
step02_gravity_refstate-crust.xmf,893,3.24867e-06,-1.10123e-05,0,-3.30957e-05,-1.04499e+09,-1.04597e+09,-1.04521e+09,-2.27036e+06,0.108139,0.603966,0,0.613571,4466.15,-38039.9,0,38301.2,2.27036e+06
step02_gravity_refstate-crust.xmf,894,4.12603e-06,-1.45975e-06,0,4.3915e-07,-6.15665e+07,-6.19497e+07,-6.18496e+07,30125.7,-0.0157641,0.387287,-0,0.387607,-3693.14,-2255.82,-0,4327.59,30125.7
step02_gravity_refstate-crust.xmf,895,3.39141e-06,-1.21686e-06,0,8.12799e-07,-1.337e+08,-1.34016e+08,-1.33933e+08,55758,-0.0135573,0.39041,-0,0.390645,-3835.6,-4879.33,-0,6206.42,55758
step02_gravity_refstate-crust.xmf,896,4.81026e-06,-4.46708e-06,0,1.78958e-07,-5.06817e+08,-5.07454e+08,-5.07147e+08,12276.5,-0.00113822,0.426231,-0,0.426233,-236.514,-18463.7,-0,18465.2,12276.5
step02_gravity_refstate-crust.xmf,897,9.83676e-07,-8.83528e-06,0,-3.59003e-05,-1.06358e+09,-1.06426e+09,-1.06365e+09,-2.46276e+06,0.113058,0.614115,0,0.624435,4411.91,-38711.1,0,38961.7,2.46276e+06
step02_gravity_refstate-crust.xmf,898,6.5401e-06,-7.09443e-06,0,-1.48014e-06,-6.24342e+08,-6.25278e+08,-6.24791e+08,-101538,0.00887437,0.449227,0,0.449314,1340.83,-22745.3,0,22784.8,101538
step02_gravity_refstate-crust.xmf,899,9.90225e-06,-1.25736e-05,0,-5.82462e-06,-7.85274e+08,-7.86816e+08,-7.85954e+08,-399569,0.0294203,0.498691,0,0.499558,2723.15,-28609.3,0,28738.6,399569
step02_gravity_refstate-crust.xmf,900,9.02217e-06,-1.08965e-05,0,-3.47032e-06,-7.3784e+08,-7.39206e+08,-7.38459e+08,-238064,0.0185032,0.48361,0,0.483964,1975.32,-26881.4,0,26953.9,238064
step02_gravity_refstate-crust.xmf,901,1.3486e-05,-1.95021e-05,0,-1.33881e-05,-9.10559e+08,-9.12822e+08,-9.11484e+08,-918421,0.0535534,0.564888,0,0.567421,3151.84,-33174.2,0,33323.6,918421
step02_gravity_refstate-crust.xmf,902,9.64179e-06,-1.56419e-05,0,-2.04488e-05,-9.54877e+08,-9.56612e+08,-9.55539e+08,-1.40279e+06,0.0793396,0.561571,0,0.567148,4355.48,-34778.1,0,35049.7,1.40279e+06
step02_gravity_refstate-crust.xmf,903,1.16456e-05,-1.74165e-05,0,-1.63654e-05,-9.25145e+08,-9.27138e+08,-9.25944e+08,-1.12266e+06,0.0654861,0.559124,0,0.562945,3822.52,-33701,0,33917.1,1.12266e+06
step02_gravity_refstate-crust.xmf,904,4.60291e-06,-1.20061e-05,0,-2.98509e-05,-1.0254e+09,-1.02654e+09,-1.02571e+09,-2.04777e+06,0.102886,0.588245,0,0.597174,4602.79,-37330.6,0,37613.3,2.04777e+06
step02_gravity_refstate-crust.xmf,905,3.93254e-06,-3.1313e-06,0,4.35073e-07,-4.23056e+08,-4.23541e+08,-4.23326e+08,29846,-0.00291843,0.414589,-0,0.414599,-740.998,-15412.9,-0,15430.7,29846
step02_gravity_refstate-crust.xmf,906,3.60379e-06,-2.57283e-06,0,2.70613e-07,-3.76339e+08,-3.76763e+08,-3.76586e+08,18564,-0.00189447,0.40992,-0,0.409925,-525.37,-13711.6,-0,13721.6,18564
step02_gravity_refstate-crust.xmf,907,5.29718e-06,-2.01104e-06,0,1.60722e-08,503152,1808.34,139766,1102.55,-0.0130189,0.385651,-0,0.38587,-2432.35,0,-0,2432.35,1102.55
step02_gravity_refstate-crust.xmf,908,3.31601e-06,-1.29376e-06,0,5.49234e-07,-1.70872e+08,-1.71188e+08,-1.711e+08,37677.4,-0.0070144,0.395369,-0,0.395431,-2086.53,-6232.19,-0,6572.2,37677.4
step02_gravity_refstate-crust.xmf,909,3.34645e-06,-2.0706e-06,0,1.69511e-07,-3.24082e+08,-3.24453e+08,-3.24311e+08,11628.5,-0.00127665,0.405619,-0,0.405621,-381.043,-11808.8,-0,11815,11628.5
step02_gravity_refstate-crust.xmf,910,3.20732e-06,-1.65442e-06,0,1.3433e-07,-2.65196e+08,-2.65529e+08,-2.65416e+08,9215.06,-0.001147,0.401701,-0,0.401703,-357.164,-9665.13,-0,9671.72,9215.06
step02_gravity_refstate-crust.xmf,911,4.51638e-06,-4.04206e-06,0,-6.22613e-07,-4.83998e+08,-4.84585e+08,-4.84308e+08,-42711.3,0.00400406,0.422318,0,0.422337,885.383,-17632.5,0,17654.7,42711.3
step02_gravity_refstate-crust.xmf,912,4.98818e-06,-4.75629e-06,0,-6.75958e-07,-5.23174e+08,-5.23843e+08,-5.23517e+08,-46370.7,0.00426879,0.428559,0,0.42858,854.149,-19059.5,0,19078.6,46370.7
step02_gravity_refstate-crust.xmf,913,5.55697e-06,-5.60814e-06,0,-5.64765e-07,-5.62066e+08,-5.62832e+08,-5.62447e+08,-38742.9,0.0035003,0.436037,0,0.436051,630.013,-20476.4,0,20486.1,38742.9
step02_gravity_refstate-crust.xmf,914,-2.63628e-06,-4.84452e-06,0,-3.81131e-05,-1.08248e+09,-1.08263e+09,-1.08229e+09,-2.61456e+06,0.116987,0.617216,0,0.628205,4437.34,-39390.4,0,39639.6,2.61456e+06
step02_gravity_refstate-crust.xmf,915,5.78877e-06,-5.96797e-06,0,-1.85936e-06,-5.8674e+08,-5.87547e+08,-5.87137e+08,-127552,0.0112712,0.4389,0,0.439045,1910.6,-21375,0,21460.3,127552
step02_gravity_refstate-crust.xmf,916,8.22899e-06,-9.73939e-06,0,-3.09059e-06,-7.08843e+08,-7.10076e+08,-7.09408e+08,-212014,0.0170881,0.472591,0,0.4729,2006.85,-25824.4,0,25902.2,212014
step02_gravity_refstate-crust.xmf,917,6.7473e-06,-7.47406e-06,0,-2.65917e-06,-6.46346e+08,-6.47322e+08,-6.46809e+08,-182419,0.015647,0.452241,0,0.452512,2239.49,-23546.6,0,23652.9,182419
step02_gravity_refstate-crust.xmf,918,7.46128e-06,-8.56173e-06,0,-2.83661e-06,-6.7825e+08,-6.79349e+08,-6.78762e+08,-194591,0.0162025,0.462063,0,0.462347,2099.11,-24709.3,0,24798.3,194591
step02_gravity_refstate-crust.xmf,919,1.24001e-05,-1.74486e-05,0,-1.16933e-05,-8.85751e+08,-8.87799e+08,-8.86602e+08,-802163,0.0496856,0.546415,0,0.54867,3249.58,-32269.8,0,32433,802163
step02_gravity_refstate-crust.xmf,920,8.93056e-06,-1.09563e-05,0,-5.34628e-06,-7.567e+08,-7.58064e+08,-7.57312e+08,-366755,0.0281629,0.485108,0,0.485925,2886.3,-27567.6,0,27718.3,366755
step02_gravity_refstate-crust.xmf,921,1.14113e-05,-1.56134e-05,0,-1.01601e-05,-8.59326e+08,-8.61179e+08,-8.60108e+08,-696983,0.0456868,0.529461,0,0.531428,3318.02,-31306.6,0,31481.9,696983
step02_gravity_refstate-crust.xmf,922,1.05077e-05,-1.39785e-05,0,-8.79765e-06,-8.31628e+08,-8.33308e+08,-8.32349e+08,-603519,0.0417037,0.514041,0,0.51573,3358.23,-30297.1,0,30482.7,603519
step02_gravity_refstate-crust.xmf,923,9.53463e-06,-1.23178e-05,0,-7.84768e-06,-8.03385e+08,-8.04884e+08,-8.04039e+08,-538351,0.0391396,0.498784,0,0.500317,3501.78,-29267.5,0,29476.3,538351
step02_gravity_refstate-crust.xmf,924,-1.15097e-06,-4.8524e-06,0,-3.25613e-05,-1.05731e+09,-1.05756e+09,-1.05723e+09,-2.2337e+06,0.111598,0.577724,0,0.588404,4969.94,-38480.3,0,38799.9,2.2337e+06
step02_gravity_refstate-crust.xmf,925,9.79413e-06,-1.52118e-05,0,-1.8321e-05,-9.35607e+08,-9.37322e+08,-9.36279e+08,-1.25682e+06,0.074053,0.550439,0,0.555398,4364.66,-34077.8,0,34356.1,1.25682e+06
step02_gravity_refstate-crust.xmf,926,5.59248e-06,-1.21857e-05,0,-2.70168e-05,-1.00581e+09,-1.00703e+09,-1.00619e+09,-1.85335e+06,0.0976926,0.57306,0,0.581327,4738.2,-36621.3,0,36926.5,1.85335e+06
step02_gravity_refstate-crust.xmf,927,6.23387e-06,-1.21571e-05,0,-2.4382e-05,-9.85992e+08,-9.87254e+08,-9.8642e+08,-1.67261e+06,0.0926324,0.558399,0,0.566031,4873.82,-35902.4,0,36231.7,1.67261e+06
step02_gravity_refstate-crust.xmf,928,6.76992e-06,-1.20535e-05,0,-2.19318e-05,-9.65148e+08,-9.66439e+08,-9.65612e+08,-1.50452e+06,0.0873752,0.54509,0,0.552049,4980.62,-35145.9,0,35497.1,1.50452e+06
step02_gravity_refstate-crust.xmf,929,4.47516e-07,-6.18738e-06,0,-3.01041e-05,-1.03894e+09,-1.0394e+09,-1.03897e+09,-2.06514e+06,0.107762,0.564893,0,0.57508,5128.67,-37816,0,38162.2,2.06514e+06
step02_gravity_refstate-crust.xmf,930,3.74534e-06,-1.336e-06,0,3.52075e-07,-1.09125e+08,-1.09474e+08,-1.09382e+08,24152.3,-0.00702228,0.392752,-0,0.392815,-1854.77,-3985.9,-0,4396.31,24152.3
step02_gravity_refstate-crust.xmf,931,4.48272e-06,-1.60807e-06,0,1.41158e-07,-5.09938e+07,-5.14116e+07,-5.13013e+07,9683.41,-0.00545254,0.39027,-0,0.390308,-1216.17,-1872.13,-0,2232.47,9683.41
step02_gravity_refstate-crust.xmf,932,3.2502e-06,-1.39837e-06,0,9.37555e-08,-2.05682e+08,-2.06e+08,-2.05905e+08,6431.62,-0.000973597,0.398465,-0,0.398466,-299.173,-7499.03,-0,7504.99,6431.62
step02_gravity_refstate-crust.xmf,933,4.11715e-06,-3.42498e-06,0,-3.66203e-07,-4.43477e+08,-4.43994e+08,-4.43759e+08,-25121.5,0.00240749,0.417102,0,0.417109,584.181,-16156.6,0,16167.1,25121.5
step02_gravity_refstate-crust.xmf,934,-2.75724e-06,-3.34914e-06,0,-3.43589e-05,-1.07158e+09,-1.07162e+09,-1.07139e+09,-2.35702e+06,0.114184,0.586221,0,0.597238,4868.4,-38995.4,0,39298.2,2.35702e+06
step02_gravity_refstate-crust.xmf,935,6.13324e-06,-6.53689e-06,0,-2.65805e-06,-6.1726e+08,-6.18129e+08,-6.17681e+08,-182342,0.0160484,0.443763,0,0.444053,2514.17,-22486.7,0,22626.8,182342
step02_gravity_refstate-crust.xmf,936,8.64043e-06,-1.08254e-05,0,-7.06449e-06,-7.74452e+08,-7.75788e+08,-7.75045e+08,-484624,0.036889,0.484861,0,0.486262,3660.61,-28212.9,0,28449.4,484624
step02_gravity_refstate-crust.xmf,937,8.12872e-06,-9.67861e-06,0,-4.81639e-06,-7.27319e+08,-7.28541e+08,-7.27877e+08,-330404,0.0263355,0.47335,0,0.474082,2978.27,-26496.7,0,26663.5,330404
step02_gravity_refstate-crust.xmf,938,1.08349e-05,-1.57757e-05,0,-1.45828e-05,-9.01988e+08,-9.03813e+08,-9.02731e+08,-1.00038e+06,0.0617726,0.541073,0,0.544588,3991.17,-32857.2,0,33098.7,1.00038e+06
step02_gravity_refstate-crust.xmf,939,7.52895e-06,-1.23175e-05,0,-1.95379e-05,-9.4235e+08,-9.43712e+08,-9.42867e+08,-1.3403e+06,0.081048,0.535434,0,0.541533,4965.97,-34318.6,0,34676,1.3403e+06
step02_gravity_refstate-crust.xmf,940,8.62563e-06,-1.31667e-05,0,-1.7244e-05,-9.19571e+08,-9.21066e+08,-9.20163e+08,-1.18294e+06,0.0733373,0.531454,0,0.53649,4741.73,-33492.4,0,33826.4,1.18294e+06
step02_gravity_refstate-crust.xmf,941,1.83497e-06,-7.3926e-06,0,-2.75957e-05,-1.01936e+09,-1.01999e+09,-1.01949e+09,-1.89307e+06,0.103379,0.552316,0,0.561907,5278.83,-37106.8,0,37480.4,1.89307e+06
step02_gravity_refstate-crust.xmf,942,3.77135e-06,-2.87154e-06,0,-5.1833e-07,-4.03138e+08,-4.03593e+08,-4.03396e+08,-35557.4,0.00351232,0.412289,0,0.412304,928.753,-14687.4,0,14716.8,35557.4
step02_gravity_refstate-crust.xmf,943,3.456e-06,-2.31876e-06,0,-5.54529e-07,-3.53697e+08,-3.54093e+08,-3.53934e+08,-38040.7,0.00397851,0.407488,0,0.407508,1145.87,-12887.1,0,12937.9,38040.7
step02_gravity_refstate-crust.xmf,944,5.40675e-06,-2.05127e-06,0,1.52601e-08,513619,1998.18,142715,1046.84,1.05007e-06,0.387315,0,0.387315,7.08969e-08,0,0,7.08969e-08,1046.84
step02_gravity_refstate-crust.xmf,945,3.5202e-06,-1.31778e-06,0,2.85096e-08,-1.44688e+08,-1.4502e+08,-1.4493e+08,1955.76,-0.000389858,0.395535,-0,0.395535,-110.265,-5279.73,-0,5280.88,1955.76
step02_gravity_refstate-crust.xmf,946,3.24063e-06,-1.84878e-06,0,-5.36364e-07,-2.98735e+08,-2.99084e+08,-2.98958e+08,-36794.6,0.00423962,0.403235,0,0.403257,1300.02,-10886,0,10963.4,36794.6
step02_gravity_refstate-crust.xmf,947,3.17326e-06,-1.50654e-06,0,-4.9744e-07,-2.40868e+08,-2.41189e+08,-2.41086e+08,-34124.4,0.00463637,0.399612,0,0.399638,1449.57,-8779.56,0,8898.42,34124.4
step02_gravity_refstate-crust.xmf,948,4.19863e-06,-3.60306e-06,0,-1.47534e-06,-4.6615e+08,-4.66685e+08,-4.66438e+08,-101208,0.00961648,0.417607,0,0.417718,2240.54,-16982.1,0,17129.2,101208
step02_gravity_refstate-crust.xmf,949,4.61716e-06,-4.24496e-06,0,-1.66438e-06,-5.0613e+08,-5.06738e+08,-5.06447e+08,-114176,0.0106454,0.423234,0,0.423368,2250.13,-18438.3,0,18575.1,114176
step02_gravity_refstate-crust.xmf,950,5.1464e-06,-5.03674e-06,0,-1.69294e-06,-5.45812e+08,-5.4651e+08,-5.46165e+08,-116135,0.0106,0.430487,0,0.430617,2014.08,-19883.8,0,19985.6,116135
step02_gravity_refstate-crust.xmf,951,-5.87282e-06,1.29771e-06,0,-3.36503e-05,-1.08498e+09,-1.08448e+09,-1.08457e+09,-2.30841e+06,0.114318,0.570263,0,0.581609,5119.55,-39477.9,0,39808.5,2.30841e+06
step02_gravity_refstate-crust.xmf,952,5.41307e-06,-5.5611e-06,0,-3.44453e-06,-5.95509e+08,-5.96262e+08,-5.9588e+08,-236295,0.021232,0.433858,0,0.434377,3614.04,-21693.4,0,21992.4,236295
step02_gravity_refstate-crust.xmf,953,6.0369e-06,-6.51452e-06,0,-3.79441e-06,-6.33376e+08,-6.34237e+08,-6.3379e+08,-260296,0.0227463,0.442923,0,0.443507,3465.9,-23073,0,23331.9,260296
step02_gravity_refstate-crust.xmf,954,7.39694e-06,-8.60558e-06,0,-4.41024e-06,-6.97759e+08,-6.98857e+08,-6.98267e+08,-302542,0.024942,0.462642,0,0.463314,3106.63,-25419.2,0,25608.4,302542
step02_gravity_refstate-crust.xmf,955,6.698e-06,-7.52626e-06,0,-4.07313e-06,-6.66447e+08,-6.67422e+08,-6.66906e+08,-279417,0.0237473,0.45249,0,0.453113,3267.02,-24278.1,0,24496.9,279417
step02_gravity_refstate-crust.xmf,956,1.01383e-05,-1.42747e-05,0,-1.28087e-05,-8.76436e+08,-8.7811e+08,-8.77131e+08,-878676,0.0573322,0.524909,0,0.528031,4097.41,-31926.4,0,32188.3,878676
step02_gravity_refstate-crust.xmf,957,7.8071e-06,-9.4318e-06,0,-6.46843e-06,-7.45534e+08,-7.46717e+08,-7.4607e+08,-443734,0.0351584,0.472178,0,0.473485,3859.11,-27158.9,0,27431.7,443734
step02_gravity_refstate-crust.xmf,958,9.46935e-06,-1.28979e-05,0,-1.12383e-05,-8.49438e+08,-8.50972e+08,-8.50087e+08,-770949,0.0529688,0.509964,0,0.512708,4186.55,-30943,0,31224.9,770949
step02_gravity_refstate-crust.xmf,959,8.78711e-06,-1.15823e-05,0,-9.9283e-06,-8.21814e+08,-8.23212e+08,-8.22417e+08,-681082,0.0491156,0.496049,0,0.498475,4288.69,-29936.6,0,30242.2,681082
step02_gravity_refstate-crust.xmf,960,8.06855e-06,-1.02774e-05,0,-8.81959e-06,-7.92477e+08,-7.93736e+08,-7.93031e+08,-605024,0.0457088,0.482471,0,0.484632,4424.95,-28867.7,0,29204.8,605024
step02_gravity_refstate-crust.xmf,961,-4.59695e-06,3.06986e-07,0,-3.12914e-05,-1.06948e+09,-1.06915e+09,-1.06917e+09,-2.14659e+06,0.111973,0.552637,0,0.563866,5403.24,-38917.5,0,39290.8,2.14659e+06
step02_gravity_refstate-crust.xmf,962,-3.14988e-06,-9.81942e-07,0,-2.92572e-05,-1.05223e+09,-1.05208e+09,-1.05202e+09,-2.00705e+06,0.109375,0.539467,0,0.550443,5625.71,-38293.3,0,38704.3,2.00705e+06
step02_gravity_refstate-crust.xmf,963,2.95729e-06,-7.92658e-06,0,-2.52842e-05,-9.99365e+08,-1.00011e+09,-9.99568e+08,-1.7345e+06,0.0987821,0.540157,0,0.549115,5421.56,-36382.6,0,36784.3,1.7345e+06
step02_gravity_refstate-crust.xmf,964,3.87268e-06,-8.38588e-06,0,-2.30076e-05,-9.78226e+08,-9.79067e+08,-9.78491e+08,-1.57832e+06,0.0938976,0.528399,0,0.536677,5552.99,-35616,0,36046.3,1.57832e+06
step02_gravity_refstate-crust.xmf,965,4.78409e-06,-8.89466e-06,0,-2.08441e-05,-9.55658e+08,-9.56597e+08,-9.55986e+08,-1.42991e+06,0.0885024,0.518809,0,0.526304,5619.25,-34797.3,0,35248.1,1.42991e+06
step02_gravity_refstate-crust.xmf,966,-1.66218e-06,-2.31981e-06,0,-2.72591e-05,-1.0331e+09,-1.03314e+09,-1.03298e+09,-1.86997e+06,0.106197,0.528072,0,0.538644,5818.34,-37600.7,0,38048.2,1.86997e+06
step02_gravity_refstate-crust.xmf,967,3.95171e-06,-1.39828e-06,0,-6.50675e-09,-9.38251e+07,-9.41921e+07,-9.40962e+07,-446.363,4.07829e-06,0.393043,0,0.393043,1.27546,-3429.62,0,3429.62,446.363
step02_gravity_refstate-crust.xmf,968,4.47447e-06,-1.59467e-06,0,-8.33364e-08,-5.16488e+07,-5.20652e+07,-5.19558e+07,-5716.88,0.00500969,0.390378,0,0.39041,1119.03,-1895.96,0,2201.57,5716.88
step02_gravity_refstate-crust.xmf,969,3.30183e-06,-1.31285e-06,0,-4.51079e-07,-1.78682e+08,-1.78999e+08,-1.78909e+08,-30944,0.0056197,0.396231,0,0.396271,1684.96,-6516.43,0,6730.74,30944
step02_gravity_refstate-crust.xmf,970,3.83361e-06,-3.02666e-06,0,-1.32973e-06,-4.24696e+08,-4.25166e+08,-4.24959e+08,-91219.4,0.00890478,0.412586,0,0.412682,2275.04,-15472.3,0,15638.7,91219.4
step02_gravity_refstate-crust.xmf,971,5.1348e-06,-5.03721e-06,0,-2.72935e-06,-5.63251e+08,-5.63949e+08,-5.63604e+08,-187233,0.0169411,0.429973,0,0.430307,3119.74,-20518.7,0,20754.5,187233
step02_gravity_refstate-crust.xmf,972,7.40395e-06,-9.10017e-06,0,-7.88602e-06,-7.62716e+08,-7.63848e+08,-7.63224e+08,-540981,0.0426182,0.470254,0,0.472181,4562.75,-27783.3,0,28155.5,540981
step02_gravity_refstate-crust.xmf,973,7.14235e-06,-8.34977e-06,0,-5.95131e-06,-7.17693e+08,-7.18756e+08,-7.18183e+08,-408260,0.0333702,0.461658,0,0.462863,4017.32,-26144.3,0,26451.2,408260
step02_gravity_refstate-crust.xmf,974,8.37194e-06,-1.22652e-05,0,-1.51437e-05,-8.93412e+08,-8.94828e+08,-8.93986e+08,-1.03886e+06,0.0679961,0.516595,0,0.521051,4848.79,-32540.4,0,32899.7,1.03886e+06
step02_gravity_refstate-crust.xmf,975,5.67061e-06,-9.42609e-06,0,-1.86783e-05,-9.30705e+08,-9.3174e+08,-9.31094e+08,-1.28133e+06,0.0823227,0.510555,0,0.517149,5615.89,-33891.6,0,34353.7,1.28133e+06
step02_gravity_refstate-crust.xmf,976,-2.68523e-07,-3.68946e-06,0,-2.52893e-05,-1.01296e+09,-1.01319e+09,-1.01294e+09,-1.73485e+06,0.102519,0.518163,0,0.528208,5978.76,-36870.9,0,37352.5,1.73485e+06
step02_gravity_refstate-crust.xmf,977,3.50543e-06,-2.49703e-06,0,-1.37603e-06,-3.83302e+08,-3.83714e+08,-3.83543e+08,-94395.4,0.00955523,0.407644,0,0.407756,2652.71,-13964.8,0,14214.5,94395.4
step02_gravity_refstate-crust.xmf,978,3.23578e-06,-1.99543e-06,0,-1.27745e-06,-3.31595e+08,-3.31954e+08,-3.31817e+08,-87633,0.00950463,0.403025,0,0.403137,2853.12,-12082,0,12414.3,87633
step02_gravity_refstate-crust.xmf,979,5.28056e-06,-2.00408e-06,0,9.71152e-09,501601,1875.25,139355,666.211,0.0130137,0.385651,0,0.38587,2432.35,0,0,2432.35,666.211
step02_gravity_refstate-crust.xmf,980,3.73125e-06,-1.30922e-06,0,-4.21426e-07,-1.12655e+08,-1.13001e+08,-1.12911e+08,-28909.8,0.0077598,0.392664,0,0.392741,2068.55,-4114.38,0,4605.11,28909.8
step02_gravity_refstate-crust.xmf,981,3.08364e-06,-1.59867e-06,0,-1.15806e-06,-2.76209e+08,-2.7653e+08,-2.7642e+08,-79443.1,0.00969546,0.399025,0,0.399143,3049.87,-10065.7,0,10517.6,79443.1
step02_gravity_refstate-crust.xmf,982,3.07891e-06,-1.33151e-06,0,-1.02914e-06,-2.18929e+08,-2.19231e+08,-2.1914e+08,-70599.2,0.0104722,0.395491,0,0.395629,3291.17,-7980.71,0,8632.7,70599.2
step02_gravity_refstate-crust.xmf,983,3.78437e-06,-3.05538e-06,0,-2.32153e-06,-4.48705e+08,-4.49175e+08,-4.48965e+08,-159257,0.0153882,0.410758,0,0.411046,3810.51,-16346.2,0,16784.4,159257
step02_gravity_refstate-crust.xmf,984,4.17719e-06,-3.66066e-06,0,-2.50008e-06,-4.89902e+08,-4.90439e+08,-4.90188e+08,-171505,0.0162065,0.41639,0,0.416705,3637.99,-17846.6,0,18213.6,171505
step02_gravity_refstate-crust.xmf,985,4.64091e-06,-4.35921e-06,0,-2.67361e-06,-5.29794e+08,-5.30412e+08,-5.30113e+08,-183409,0.0169856,0.422951,0,0.423292,3438.19,-19299.7,0,19603.6,183409
step02_gravity_refstate-crust.xmf,986,-7.46131e-06,4.99943e-06,0,-2.9636e-05,-1.08393e+09,-1.08307e+09,-1.08342e+09,-2.03303e+06,0.109919,0.528463,0,0.539773,5779.66,-39439,0,39860.3,2.03303e+06
step02_gravity_refstate-crust.xmf,987,4.57801e-06,-4.37019e-06,0,-3.81723e-06,-5.58404e+08,-5.59018e+08,-5.58718e+08,-261862,0.0240201,0.421543,0,0.422227,4631.85,-20341,0,20861.7,261862
step02_gravity_refstate-crust.xmf,988,5.24675e-06,-5.45643e-06,0,-4.69001e-06,-6.20018e+08,-6.20752e+08,-6.20378e+08,-321735,0.0287187,0.432028,0,0.432982,4698.06,-22585.1,0,23068.6,321735
step02_gravity_refstate-crust.xmf,989,5.81559e-06,-6.34156e-06,0,-5.11128e-06,-6.54696e+08,-6.5553e+08,-6.55095e+08,-350634,0.0305026,0.440912,0,0.441965,4497.36,-23848.6,0,24268.9,350634
step02_gravity_refstate-crust.xmf,990,6.46177e-06,-7.35351e-06,0,-5.55423e-06,-6.88015e+08,-6.88962e+08,-6.88458e+08,-381020,0.0321591,0.450978,0,0.452123,4271.21,-25062.6,0,25424,381020
step02_gravity_refstate-crust.xmf,991,8.01364e-06,-1.12688e-05,0,-1.34215e-05,-8.67219e+08,-8.68542e+08,-8.67769e+08,-920713,0.0633141,0.502671,0,0.506643,4970.39,-31586.9,0,31975.6,920713
step02_gravity_refstate-crust.xmf,992,6.82154e-06,-8.08058e-06,0,-7.09409e-06,-7.33592e+08,-7.34614e+08,-7.3406e+08,-486654,0.0397809,0.459812,0,0.461529,4680.65,-26722.2,0,27129.1,486654
step02_gravity_refstate-crust.xmf,993,7.59966e-06,-1.02673e-05,0,-1.19019e-05,-8.39697e+08,-8.40923e+08,-8.40219e+08,-816468,0.0588505,0.48953,0,0.493055,5091.07,-30584.9,0,31005.7,816468
step02_gravity_refstate-crust.xmf,994,7.17132e-06,-9.31406e-06,0,-1.05591e-05,-8.1089e+08,-8.12021e+08,-8.11382e+08,-724355,0.0545397,0.477401,0,0.480506,5199.85,-29535.8,0,29990.1,724355
step02_gravity_refstate-crust.xmf,995,6.67108e-06,-8.31972e-06,0,-9.40897e-06,-7.80628e+08,-7.81656e+08,-7.81085e+08,-645455,0.0507063,0.465445,0,0.468199,5347.4,-28433.6,0,28932.1,645455
step02_gravity_refstate-crust.xmf,996,-6.12561e-06,3.69033e-06,0,-2.7738e-05,-1.06648e+09,-1.06581e+09,-1.06606e+09,-1.90283e+06,0.10816,0.513203,0,0.524477,6088.73,-38807.2,0,39282,1.90283e+06
step02_gravity_refstate-crust.xmf,997,6.30204e-06,-9.77544e-06,0,-1.69565e-05,-9.0938e+08,-9.10483e+08,-9.09812e+08,-1.16321e+06,0.0768934,0.504798,0,0.510621,5556.91,-33117.2,0,33580.2,1.16321e+06
step02_gravity_refstate-crust.xmf,998,-4.6822e-06,2.23054e-06,0,-2.61094e-05,-1.04749e+09,-1.04702e+09,-1.04717e+09,-1.79111e+06,0.106147,0.502021,0,0.51312,6336.52,-38119.5,0,38642.5,1.79111e+06
step02_gravity_refstate-crust.xmf,999,9.50134e-07,-4.51456e-06,0,-2.33998e-05,-9.91968e+08,-9.92342e+08,-9.92033e+08,-1.60522e+06,0.0984235,0.508774,0,0.518207,6122.8,-36110.4,0,36625.8,1.60522e+06
step02_gravity_refstate-crust.xmf,1000,2.00005e-06,-5.29754e-06,0,-2.15359e-05,-9.70121e+08,-9.70622e+08,-9.70258e+08,-1.47736e+06,0.0939924,0.500045,0,0.508802,6244.6,-35318.1,0,35865.9,1.47736e+06
step02_gravity_refstate-crust.xmf,1001,2.86986e-06,-5.87075e-06,0,-1.97004e-05,-9.47017e+08,-9.47616e+08,-9.47214e+08,-1.35145e+06,0.0892427,0.491488,0,0.499525,6352.79,-34479.6,0,35060,1.35145e+06
step02_gravity_refstate-crust.xmf,1002,-3.20535e-06,7.29817e-07,0,-2.45779e-05,-1.02712e+09,-1.02685e+09,-1.0269e+09,-1.68604e+06,0.103645,0.493449,0,0.504216,6533.8,-37381.3,0,37948,1.68604e+06
step02_gravity_refstate-crust.xmf,1003,4.24585e-06,-1.50364e-06,0,-3.47464e-07,-5.46718e+07,-5.50662e+07,-5.49631e+07,-23836,0.0156996,0.387123,0,0.387441,3596.08,-2005.23,0,4117.38,23836
step02_gravity_refstate-crust.xmf,1004,3.25669e-06,-1.21032e-06,0,-8.84292e-07,-1.59447e+08,-1.59753e+08,-1.5967e+08,-60662.4,0.0124338,0.3919,0,0.392097,3680.65,-5816.11,0,6882.9,60662.4
step02_gravity_refstate-crust.xmf,1005,3.44514e-06,-2.51708e-06,0,-2.18661e-06,-4.06229e+08,-4.06638e+08,-4.06465e+08,-150002,0.0149512,0.405611,0,0.405887,4055.96,-14799.2,0,15344.9,150002
step02_gravity_refstate-crust.xmf,1006,4.76891e-06,-4.71964e-06,0,-4.47948e-06,-5.90974e+08,-5.91625e+08,-5.91301e+08,-307292,0.028016,0.424508,0,0.425431,5007.61,-21527,0,22101.8,307292
step02_gravity_refstate-crust.xmf,1007,6.27975e-06,-7.51853e-06,0,-8.33574e-06,-7.49229e+08,-7.50175e+08,-7.49659e+08,-571832,0.0465575,0.455605,0,0.457977,5407.68,-27290.2,0,27820.8,571832
step02_gravity_refstate-crust.xmf,1008,6.02644e-06,-6.94954e-06,0,-7.16074e-06,-7.13882e+08,-7.14773e+08,-7.14296e+08,-491226,0.041113,0.448127,0,0.450009,5257.42,-26003.2,0,26529.4,491226
step02_gravity_refstate-crust.xmf,1009,6.20566e-06,-9.13018e-06,0,-1.5192e-05,-8.84223e+08,-8.85275e+08,-8.84649e+08,-1.04217e+06,0.0722926,0.491811,0,0.497096,5724.28,-32202,0,32706.8,1.04217e+06
step02_gravity_refstate-crust.xmf,1010,3.68148e-06,-6.46144e-06,0,-1.81363e-05,-9.2521e+08,-9.25906e+08,-9.25462e+08,-1.24415e+06,0.0845335,0.486088,0,0.493383,6367.53,-33688.1,0,34284.6,1.24415e+06
step02_gravity_refstate-crust.xmf,1011,-1.84111e-06,-7.42732e-07,0,-2.30555e-05,-1.00628e+09,-1.00621e+09,-1.00615e+09,-1.58161e+06,0.100644,0.486086,0,0.496396,6698.84,-36626.1,0,37233.6,1.58161e+06
step02_gravity_refstate-crust.xmf,1012,3.16478e-06,-2.04489e-06,0,-2.06608e-06,-3.61669e+08,-3.62026e+08,-3.61886e+08,-141733,0.0147969,0.400921,0,0.401194,4349.92,-13176.6,0,13876,141733
step02_gravity_refstate-crust.xmf,1013,2.96479e-06,-1.63963e-06,0,-1.88418e-06,-3.1084e+08,-3.11156e+08,-3.11043e+08,-129255,0.0146371,0.39674,0,0.39701,4588.47,-11325.9,0,12220.1,129255
step02_gravity_refstate-crust.xmf,1014,4.9219e-06,-1.87042e-06,0,7.65261e-09,467428,1475.38,129786,524.969,0.0254564,0.380737,0,0.381587,4867.07,0,0,4867.07,524.969
step02_gravity_refstate-crust.xmf,1015,2.87772e-06,-1.33311e-06,0,-1.67281e-06,-2.56279e+08,-2.56568e+08,-2.56477e+08,-114755,0.0149186,0.393071,0,0.393354,4816.86,-9339.69,0,10508.7,114755
step02_gravity_refstate-crust.xmf,1016,3.50816e-06,-1.20796e-06,0,-8.31203e-07,-1.08137e+08,-1.08461e+08,-1.08378e+08,-57020.6,0.017285,0.387145,0,0.387531,4659.33,-3949.17,0,6107.81,57020.6
step02_gravity_refstate-crust.xmf,1017,2.93438e-06,-1.15057e-06,0,-1.43501e-06,-1.99807e+08,-2.00087e+08,-2.00008e+08,-98441.5,0.0160164,0.389735,0,0.390064,5069.11,-7284.27,0,8874.48,98441.5
step02_gravity_refstate-crust.xmf,1018,3.29622e-06,-2.43367e-06,0,-3.05199e-06,-4.31461e+08,-4.31854e+08,-4.31687e+08,-209367,0.0206321,0.401818,0,0.402347,5477.38,-15717.3,0,16644.4,209367
step02_gravity_refstate-crust.xmf,1019,3.65353e-06,-2.98549e-06,0,-3.25261e-06,-4.73645e+08,-4.741e+08,-4.73895e+08,-223129,0.0214231,0.407547,0,0.40811,5154.54,-17253.7,0,18007.2,223129
step02_gravity_refstate-crust.xmf,1020,4.06056e-06,-3.60914e-06,0,-3.52677e-06,-5.15886e+08,-5.16412e+08,-5.16164e+08,-241936,0.0227496,0.413775,0,0.4144,4924.01,-18792.2,0,19426.6,241936
step02_gravity_refstate-crust.xmf,1021,-8.46927e-06,7.8042e-06,0,-2.59457e-05,-1.08296e+09,-1.08184e+09,-1.08238e+09,-1.77987e+06,0.104469,0.488563,0,0.499607,6473,-39404.1,0,39932.2,1.77987e+06
step02_gravity_refstate-crust.xmf,1022,4.10927e-06,-3.84182e-06,0,-4.94897e-06,-5.74861e+08,-5.75406e+08,-5.75143e+08,-339499,0.0314464,0.414302,0,0.415494,6065.94,-20939.1,0,21800,339499
step02_gravity_refstate-crust.xmf,1023,4.44153e-06,-4.38022e-06,0,-5.40632e-06,-6.08094e+08,-6.08699e+08,-6.08398e+08,-370874,0.0338173,0.420079,0,0.421438,5960.82,-22149.4,0,22937.5,370874
step02_gravity_refstate-crust.xmf,1024,4.87599e-06,-5.07852e-06,0,-5.88349e-06,-6.41947e+08,-6.4263e+08,-6.42281e+08,-403608,0.0360096,0.427682,0,0.429195,5751.25,-23382.6,0,24079.5,403608
step02_gravity_refstate-crust.xmf,1025,5.39055e-06,-5.91768e-06,0,-6.46708e-06,-6.77416e+08,-6.78192e+08,-6.77786e+08,-443641,0.038512,0.436838,0,0.438533,5527.6,-24674.6,0,25286.2,443641
step02_gravity_refstate-crust.xmf,1026,6.0739e-06,-8.48601e-06,0,-1.35954e-05,-8.5741e+08,-8.58409e+08,-8.57827e+08,-932643,0.0676421,0.479807,0,0.484552,5873.13,-31226.3,0,31773.8,932643
step02_gravity_refstate-crust.xmf,1027,5.85451e-06,-7.78467e-06,0,-1.21659e-05,-8.29089e+08,-8.30024e+08,-8.2949e+08,-834582,0.0631813,0.468203,0,0.472447,6031.73,-30195.4,0,30792,834582
step02_gravity_refstate-crust.xmf,1028,5.33038e-06,-6.43738e-06,0,-9.74815e-06,-7.68419e+08,-7.69227e+08,-7.68785e+08,-668723,0.0546298,0.447688,0,0.451009,6316.25,-27986.7,0,28690.6,668723
step02_gravity_refstate-crust.xmf,1029,5.60559e-06,-7.10302e-06,0,-1.08921e-05,-7.99537e+08,-8.00409e+08,-7.99922e+08,-747197,0.0588528,0.457553,0,0.461323,6178.61,-29119.6,0,29767.9,747197
step02_gravity_refstate-crust.xmf,1030,-7.14395e-06,6.31868e-06,0,-2.44016e-05,-1.0633e+09,-1.06238e+09,-1.06281e+09,-1.67395e+06,0.103323,0.47485,0,0.485961,6826.99,-38691.5,0,39289.2,1.67395e+06
step02_gravity_refstate-crust.xmf,1031,4.11754e-06,-6.54238e-06,0,-1.64645e-05,-9.00696e+08,-9.01427e+08,-9.00978e+08,-1.12946e+06,0.0797119,0.477116,0,0.483728,6477.1,-32797.2,0,33430.7,1.12946e+06
step02_gravity_refstate-crust.xmf,1032,-5.78815e-06,4.80064e-06,0,-2.31996e-05,-1.04308e+09,-1.04235e+09,-1.04268e+09,-1.59149e+06,0.102086,0.466443,0,0.477483,7083.63,-37958.3,0,38613.6,1.59149e+06
step02_gravity_refstate-crust.xmf,1033,-5.97065e-07,-1.76644e-06,0,-2.15617e-05,-9.84457e+08,-9.84537e+08,-9.84416e+08,-1.47913e+06,0.0971357,0.479455,0,0.489196,6837.35,-35835,0,36481.4,1.47913e+06
step02_gravity_refstate-crust.xmf,1034,1.19201e-06,-3.19134e-06,0,-1.86167e-05,-9.40788e+08,-9.41089e+08,-9.4087e+08,-1.27711e+06,0.0894973,0.465651,0,0.474174,7110.56,-34250.2,0,34980.5,1.27711e+06
step02_gravity_refstate-crust.xmf,1035,3.60926e-07,-2.5573e-06,0,-2.00804e-05,-9.63134e+08,-9.63334e+08,-9.63159e+08,-1.37751e+06,0.0934605,0.47242,0,0.481576,6980.7,-35061.4,0,35749.5,1.37751e+06
step02_gravity_refstate-crust.xmf,1036,-4.32909e-06,3.15903e-06,0,-2.20734e-05,-1.02111e+09,-1.02059e+09,-1.02081e+09,-1.51424e+06,0.100324,0.460662,0,0.47146,7282.39,-37161.8,0,37868.6,1.51424e+06
step02_gravity_refstate-crust.xmf,1037,3.70848e-06,-1.28588e-06,0,-6.42389e-07,-5.87656e+07,-5.91082e+07,-5.902e+07,-44067.9,0.0265286,0.379424,0,0.38035,6370.33,-2152.43,0,6724.14,44067.9
step02_gravity_refstate-crust.xmf,1038,3.11152e-06,-1.10361e-06,0,-1.20632e-06,-1.51081e+08,-1.51371e+08,-1.51295e+08,-82753.7,0.0179364,0.386879,0,0.387295,5339.96,-5511.15,0,7673.85,82753.7
step02_gravity_refstate-crust.xmf,1039,3.00959e-06,-1.96918e-06,0,-2.83868e-06,-3.87544e+08,-3.87886e+08,-3.87751e+08,-194733,0.0199025,0.396934,0,0.397433,5770.17,-14118.1,0,15251.7,194733
step02_gravity_refstate-crust.xmf,1040,3.77686e-06,-3.32548e-06,0,-4.53012e-06,-5.39369e+08,-5.39856e+08,-5.39628e+08,-310766,0.0292421,0.408772,0,0.409817,6192.85,-19646.4,0,20599.3,310766
step02_gravity_refstate-crust.xmf,1041,5.05939e-06,-5.82593e-06,0,-8.70404e-06,-7.35455e+08,-7.36201e+08,-7.35802e+08,-597097,0.0503722,0.438875,0,0.441756,6419.81,-26786.4,0,27545,597097
step02_gravity_refstate-crust.xmf,1042,4.29432e-06,-6.31652e-06,0,-1.48947e-05,-8.74824e+08,-8.75552e+08,-8.75118e+08,-1.02177e+06,0.0751023,0.466895,0,0.472896,6638.99,-31856.4,0,32540.9,1.02177e+06
step02_gravity_refstate-crust.xmf,1043,1.89771e-06,-3.68026e-06,0,-1.71832e-05,-9.17265e+08,-9.17647e+08,-9.17395e+08,-1.17877e+06,0.0852815,0.45911,0,0.466964,7226.5,-33395.9,0,34168.8,1.17877e+06
step02_gravity_refstate-crust.xmf,1044,-3.05705e-06,1.66952e-06,0,-2.09481e-05,-9.99925e+08,-9.996e+08,-9.99715e+08,-1.43704e+06,0.0980464,0.455732,0,0.466159,7447.03,-36393.5,0,37147.6,1.43704e+06
step02_gravity_refstate-crust.xmf,1045,4.36473e-06,-1.66885e-06,0,-5.78232e-09,414081,178.113,114661,-396.667,0.0368068,0.372782,0,0.374595,7310.9,0,0,7310.9,396.667
step02_gravity_refstate-crust.xmf,1046,2.79027e-06,-1.58144e-06,0,-2.62248e-06,-3.41479e+08,-3.41779e+08,-3.4167e+08,-179902,0.0194663,0.392593,0,0.393075,6072.63,-12440.7,0,13843.7,179902
step02_gravity_refstate-crust.xmf,1047,2.65627e-06,-1.27072e-06,0,-2.35608e-06,-2.90134e+08,-2.90403e+08,-2.90316e+08,-161627,0.0193042,0.388798,0,0.389277,6333.74,-10571.4,0,12323.6,161627
step02_gravity_refstate-crust.xmf,1048,2.63776e-06,-1.06003e-06,0,-2.04422e-06,-2.34881e+08,-2.35134e+08,-2.35062e+08,-140234,0.0197957,0.385508,0,0.386016,6561.85,-8560.09,0,10785.8,140234
step02_gravity_refstate-crust.xmf,1049,3.07608e-06,-1.03668e-06,0,-1.25109e-06,-1.23131e+08,-1.23413e+08,-1.23342e+08,-85824.7,0.0233229,0.380868,0,0.381581,6705.61,-4493.56,0,8072,85824.7
step02_gravity_refstate-crust.xmf,1050,2.75689e-06,-9.73388e-07,0,-1.69722e-06,-1.79945e+08,-1.80201e+08,-1.80134e+08,-116430,0.0211963,0.382757,0,0.383344,6742.19,-6560.72,0,9407.45,116430
step02_gravity_refstate-crust.xmf,1051,2.77486e-06,-1.78843e-06,0,-3.61673e-06,-4.14558e+08,-4.14871e+08,-4.14748e+08,-248107,0.0249986,0.391324,0,0.392122,7160.96,-15100.8,0,16712.7,248107
step02_gravity_refstate-crust.xmf,1052,3.05704e-06,-2.23683e-06,0,-3.94012e-06,-4.59754e+08,-4.60117e+08,-4.59964e+08,-270292,0.0264427,0.396367,0,0.397248,6869.79,-16746.7,0,18101,270292
step02_gravity_refstate-crust.xmf,1053,3.4034e-06,-2.76878e-06,0,-4.23357e-06,-5.01556e+08,-5.0198e+08,-5.0179e+08,-290423,0.0277946,0.402465,0,0.403423,6508.42,-18269.1,0,19393.8,290423
step02_gravity_refstate-crust.xmf,1054,-8.97203e-06,9.76548e-06,0,-2.26441e-05,-1.08116e+09,-1.07988e+09,-1.08055e+09,-1.55338e+06,0.0983475,0.450799,0,0.461402,7203.53,-39339.7,0,39993.8,1.55338e+06
step02_gravity_refstate-crust.xmf,1055,3.35737e-06,-2.84594e-06,0,-5.40064e-06,-5.58878e+08,-5.59304e+08,-5.59108e+08,-370484,0.0350645,0.401658,0,0.403186,7392.33,-20355.7,0,21656.4,370484
step02_gravity_refstate-crust.xmf,1056,3.63711e-06,-3.30525e-06,0,-5.86605e-06,-5.93452e+08,-5.93928e+08,-5.93702e+08,-402411,0.0375099,0.407105,0,0.408829,7210.18,-21614.8,0,22785.7,402411
step02_gravity_refstate-crust.xmf,1057,3.94829e-06,-3.82904e-06,0,-6.40783e-06,-6.28558e+08,-6.29091e+08,-6.28829e+08,-439577,0.0402419,0.413447,0,0.4154,7019.54,-22893.3,0,23945.3,439577
step02_gravity_refstate-crust.xmf,1058,4.3073e-06,-4.44775e-06,0,-7.06352e-06,-6.65165e+08,-6.65766e+08,-6.65461e+08,-484557,0.0433528,0.421105,0,0.423331,6810.13,-24226.6,0,25165.5,484557
step02_gravity_refstate-crust.xmf,1059,4.70734e-06,-5.15226e-06,0,-7.80383e-06,-7.00799e+08,-7.01475e+08,-7.01122e+08,-535343,0.0465742,0.429959,0,0.432474,6578.22,-25524.3,0,26358.4,535343
step02_gravity_refstate-crust.xmf,1060,4.30383e-06,-5.91696e-06,0,-1.34534e-05,-8.47296e+08,-8.47997e+08,-8.47591e+08,-922900,0.0706452,0.456269,0,0.461706,6834.79,-30854.9,0,31602.8,922900
step02_gravity_refstate-crust.xmf,1061,4.24161e-06,-5.46708e-06,0,-1.21635e-05,-8.18693e+08,-8.19359e+08,-8.18984e+08,-834417,0.0663528,0.446257,0,0.451163,7033.66,-29814,0,30632.5,834417
step02_gravity_refstate-crust.xmf,1062,4.01335e-06,-4.58052e-06,0,-9.90656e-06,-7.5654e+08,-7.5713e+08,-7.56816e+08,-679590,0.0578348,0.428656,0,0.43254,7391.3,-27551.8,0,28526,679590
step02_gravity_refstate-crust.xmf,1063,4.15697e-06,-5.03968e-06,0,-1.09792e-05,-7.88461e+08,-7.89092e+08,-7.88747e+08,-753174,0.0620309,0.43726,0,0.441638,7208.41,-28713.7,0,29604.7,753174
step02_gravity_refstate-crust.xmf,1064,-7.95656e-06,8.71341e-06,0,-2.11388e-05,-1.06226e+09,-1.06111e+09,-1.06171e+09,-1.45012e+06,0.0971712,0.435684,0,0.446389,7652.04,-38653.8,0,39403.9,1.45012e+06
step02_gravity_refstate-crust.xmf,1065,2.40225e-06,-3.9238e-06,0,-1.5742e-05,-8.92034e+08,-8.92468e+08,-8.92199e+08,-1.0799e+06,0.0808909,0.451463,0,0.458652,7375.03,-32479,0,33305.8,1.0799e+06
step02_gravity_refstate-crust.xmf,1066,-6.38764e-06,6.61543e-06,0,-2.05266e-05,-1.03712e+09,-1.03623e+09,-1.03668e+09,-1.40813e+06,0.0973785,0.433,0,0.443815,7870.02,-37741.7,0,38553.5,1.40813e+06
step02_gravity_refstate-crust.xmf,1067,-2.69219e-07,-7.54748e-07,0,-1.73281e-05,-9.33742e+08,-9.33776e+08,-9.33724e+08,-1.18871e+06,0.0886828,0.438576,0,0.447452,7959.62,-33991.6,0,34911.1,1.18871e+06
step02_gravity_refstate-crust.xmf,1068,-2.01474e-06,7.85495e-07,0,-1.97568e-05,-9.78728e+08,-9.78536e+08,-9.7859e+08,-1.35532e+06,0.0952674,0.449829,0,0.459806,7627.7,-35624.6,0,36432.1,1.35532e+06
step02_gravity_refstate-crust.xmf,1069,-1.09056e-06,-6.01414e-08,0,-1.85679e-05,-9.57039e+08,-9.56968e+08,-9.56964e+08,-1.27376e+06,0.0921792,0.444318,0,0.453779,7792.53,-34837.4,0,35698.3,1.27376e+06
step02_gravity_refstate-crust.xmf,1070,-5.10631e-06,5.05175e-06,0,-1.97509e-05,-1.01487e+09,-1.01417e+09,-1.01452e+09,-1.35491e+06,0.0963804,0.429652,0,0.440329,8066.29,-36934.4,0,37804.9,1.35491e+06
step02_gravity_refstate-crust.xmf,1071,3.44888e-06,-1.21805e-06,0,-5.91501e-07,-4.07482e+07,-4.10683e+07,-4.09847e+07,-40576.9,0.0362205,0.369788,0,0.371557,8540.96,-1495.54,0,8670.91,40576.9
step02_gravity_refstate-crust.xmf,1072,2.54759e-06,-1.41352e-06,0,-3.332e-06,-3.68813e+08,-3.69084e+08,-3.68987e+08,-228575,0.0240786,0.386709,0,0.387458,7503.03,-13435.1,0,15388.2,228575
step02_gravity_refstate-crust.xmf,1073,3.59379e-06,-1.3733e-06,0,-8.72221e-09,340976,233.555,94441.9,-598.343,0.0466369,0.362118,0,0.365109,9771.03,0,0,9771.03,598.343
step02_gravity_refstate-crust.xmf,1074,3.10832e-06,-2.43616e-06,0,-5.03236e-06,-5.2737e+08,-5.27751e+08,-5.27583e+08,-345220,0.0331614,0.397004,0,0.398387,7591.02,-19208.2,0,20653.8,345220
step02_gravity_refstate-crust.xmf,1075,3.82243e-06,-4.10478e-06,0,-8.95231e-06,-7.23204e+08,-7.23748e+08,-7.23466e+08,-614129,0.0538302,0.420541,0,0.423972,7583.85,-26338.1,0,27408.2,614129
step02_gravity_refstate-crust.xmf,1076,2.70757e-06,-3.94959e-06,0,-1.43902e-05,-8.65567e+08,-8.66024e+08,-8.65753e+08,-987169,0.0765133,0.443296,0,0.44985,7548.94,-31516.7,0,32408.1,987169
step02_gravity_refstate-crust.xmf,1077,4.7592e-07,-1.38636e-06,0,-1.61329e-05,-9.09383e+08,-9.09511e+08,-9.09416e+08,-1.10671e+06,0.0849228,0.433583,0,0.441821,8096.31,-33106.8,0,34082.4,1.10671e+06
step02_gravity_refstate-crust.xmf,1078,-4.00059e-06,3.68173e-06,0,-1.89547e-05,-9.94108e+08,-9.93581e+08,-9.93834e+08,-1.30029e+06,0.0948112,0.426548,0,0.436958,8234.87,-36181,0,37106.3,1.30029e+06
step02_gravity_refstate-crust.xmf,1079,2.90319e-06,-9.31608e-07,0,-1.23212e-06,-9.48574e+07,-9.51205e+07,-9.50566e+07,-84523.3,0.0308131,0.371795,0,0.373069,8565.32,-3463.68,0,9239.14,84523.3
step02_gravity_refstate-crust.xmf,1080,2.39081e-06,-1.11871e-06,0,-3.03385e-06,-3.20745e+08,-3.20986e+08,-3.20909e+08,-208122,0.0235545,0.382714,0,0.383438,7828.58,-11685,0,14065.1,208122
step02_gravity_refstate-crust.xmf,1081,2.32271e-06,-9.09423e-07,0,-2.68952e-06,-2.68663e+08,-2.68884e+08,-2.68822e+08,-184501,0.0235696,0.379338,0,0.38007,8106.22,-9788.92,0,12709.6,184501
step02_gravity_refstate-crust.xmf,1082,2.36819e-06,-8.00316e-07,0,-2.28788e-06,-2.1334e+08,-2.13557e+08,-2.13502e+08,-156949,0.0244683,0.376555,0,0.37735,8318.93,-7775.19,0,11386.8,156949
step02_gravity_refstate-crust.xmf,1083,2.55198e-06,-8.04682e-07,0,-1.81246e-06,-1.55192e+08,-1.55422e+08,-1.55367e+08,-124335,0.0267626,0.374028,0,0.374984,8493.23,-5659,0,10205.8,124335
step02_gravity_refstate-crust.xmf,1084,2.59733e-06,-8.46743e-07,0,-9.94538e-07,-6.17904e+07,-6.20267e+07,-6.19686e+07,-68225.3,0.0404866,0.359357,0,0.36163,10795.4,-2258.74,0,11029.1,68225.3
step02_gravity_refstate-crust.xmf,1085,2.23341e-06,-1.13906e-06,0,-4.02244e-06,-3.96764e+08,-3.96995e+08,-3.96917e+08,-275939,0.0285681,0.3792,0,0.380275,8911.92,-14451.8,0,16978.8,275939
step02_gravity_refstate-crust.xmf,1086,2.43159e-06,-1.45808e-06,0,-4.40099e-06,-4.42942e+08,-4.43208e+08,-4.43108e+08,-301908,0.0302057,0.383579,0,0.384767,8592.19,-16133.3,0,18278.7,301908
step02_gravity_refstate-crust.xmf,1087,2.68117e-06,-1.84897e-06,0,-4.91551e-06,-4.9441e+08,-4.94721e+08,-4.94594e+08,-337204,0.0328634,0.388576,0,0.389964,8334.5,-18007.5,0,19842.7,337204
step02_gravity_refstate-crust.xmf,1088,-9.38956e-06,1.14008e-05,0,-2.0144e-05,-1.08382e+09,-1.08239e+09,-1.08317e+09,-1.38188e+06,0.0923532,0.420991,0,0.431002,7802.38,-39437.1,0,40201.5,1.38188e+06
step02_gravity_refstate-crust.xmf,1089,2.63498e-06,-1.884e-06,0,-5.66555e-06,-5.40945e+08,-5.41255e+08,-5.41126e+08,-388657,0.0376447,0.388106,0,0.389928,8767.23,-19701.4,0,21564.1,388657
step02_gravity_refstate-crust.xmf,1090,2.84835e-06,-2.25277e-06,0,-6.15977e-06,-5.77915e+08,-5.78265e+08,-5.7811e+08,-422560,0.0403066,0.393108,0,0.395169,8528.32,-21047.6,0,22709.8,422560
step02_gravity_refstate-crust.xmf,1091,3.06883e-06,-2.64443e-06,0,-6.73043e-06,-6.15097e+08,-6.15489e+08,-6.15307e+08,-461708,0.0433583,0.398601,0,0.400952,8310.73,-22401.5,0,23893.4,461708
step02_gravity_refstate-crust.xmf,1092,3.31182e-06,-3.09105e-06,0,-7.38434e-06,-6.52296e+08,-6.52735e+08,-6.52523e+08,-506566,0.0466762,0.405079,0,0.407759,8073.66,-23756.1,0,25090.6,506566
step02_gravity_refstate-crust.xmf,1093,3.57038e-06,-3.58644e-06,0,-8.12353e-06,-6.88603e+08,-6.89093e+08,-6.88847e+08,-557274,0.0501817,0.412487,0,0.415529,7824.92,-25078.2,0,26270.6,557274
step02_gravity_refstate-crust.xmf,1094,2.67081e-06,-3.50924e-06,0,-1.30986e-05,-8.37856e+08,-8.3828e+08,-8.38039e+08,-898567,0.072623,0.431768,0,0.437833,7892.12,-30508.3,0,31512.6,898567
step02_gravity_refstate-crust.xmf,1095,2.77813e-06,-3.32728e-06,0,-1.19254e-05,-8.08392e+08,-8.0881e+08,-8.08582e+08,-818080,0.0683628,0.423757,0,0.429236,8104.48,-29436.4,0,30531.7,818080
step02_gravity_refstate-crust.xmf,1096,2.83484e-06,-2.89535e-06,0,-9.85064e-06,-7.44467e+08,-7.4486e+08,-7.44661e+08,-675754,0.0598646,0.409521,0,0.413873,8502.06,-27110,0,28412,675754
step02_gravity_refstate-crust.xmf,1097,2.83668e-06,-3.13041e-06,0,-1.08442e-05,-7.77319e+08,-7.77728e+08,-7.77513e+08,-743913,0.0640938,0.416437,0,0.42134,8303.02,-28305.7,0,29498.4,743913
step02_gravity_refstate-crust.xmf,1098,-7.83157e-06,9.497e-06,0,-1.85349e-05,-1.05268e+09,-1.05149e+09,-1.05214e+09,-1.27149e+06,0.091836,0.403563,0,0.41388,8472.68,-38307,0,39232.8,1.27149e+06
step02_gravity_refstate-crust.xmf,1099,9.96597e-07,-1.77223e-06,0,-1.4918e-05,-8.83078e+08,-8.83268e+08,-8.83147e+08,-1.02337e+06,0.0808663,0.427214,0,0.4348,8278.06,-32150.6,0,33199.2,1.02337e+06
step02_gravity_refstate-crust.xmf,1100,-6.66094e-06,7.83906e-06,0,-1.8194e-05,-1.02997e+09,-1.02897e+09,-1.02951e+09,-1.24811e+06,0.0925256,0.403002,0,0.413487,8666.12,-37482.1,0,38470.9,1.24811e+06
step02_gravity_refstate-crust.xmf,1101,-1.38121e-06,1.21332e-06,0,-1.59878e-05,-9.25881e+08,-9.25703e+08,-9.25786e+08,-1.09677e+06,0.0868912,0.412844,0,0.421889,8831.64,-33703.9,0,34841.8,1.09677e+06
step02_gravity_refstate-crust.xmf,1102,-2.29985e-06,2.14112e-06,0,-1.69544e-05,-9.50807e+08,-9.50503e+08,-9.5065e+08,-1.16307e+06,0.0899006,0.415647,0,0.425258,8690.04,-34609.1,0,35683.4,1.16307e+06
step02_gravity_refstate-crust.xmf,1103,-3.16124e-06,2.9494e-06,0,-1.7971e-05,-9.7368e+08,-9.73261e+08,-9.73463e+08,-1.23281e+06,0.092556,0.420614,0,0.430677,8473.73,-35439.6,0,36438.5,1.23281e+06
step02_gravity_refstate-crust.xmf,1104,-5.57068e-06,6.42555e-06,0,-1.7684e-05,-1.00795e+09,-1.00713e+09,-1.00757e+09,-1.21312e+06,0.0921313,0.401509,0,0.411943,8858.52,-36683,0,37737.5,1.21312e+06
step02_gravity_refstate-crust.xmf,1105,2.07702e-06,-8.76459e-07,0,-3.6716e-06,-3.49608e+08,-3.49811e+08,-3.49751e+08,-251872,0.027532,0.37513,0,0.376139,9270.78,-12734.9,0,15752,251872
step02_gravity_refstate-crust.xmf,1106,2.71042e-06,-1.03449e-06,0,-1.86982e-08,257215,314.928,71280.7,-1282.7,0.0544999,0.349186,0,0.353413,12254.7,0,0,12254.7,1282.7
step02_gravity_refstate-crust.xmf,1107,-8.96102e-06,1.13729e-05,0,-1.84468e-05,-1.07497e+09,-1.07358e+09,-1.07436e+09,-1.26545e+06,0.0892456,0.400501,0,0.410324,8344.98,-39116.7,0,39997,1.26545e+06
step02_gravity_refstate-crust.xmf,1108,2.75601e-06,-2.60223e-06,0,-8.98236e-06,-7.11151e+08,-7.11518e+08,-7.1134e+08,-616190,0.0559554,0.402802,0,0.40667,8727.44,-25897.3,0,27328.3,616190
step02_gravity_refstate-crust.xmf,1109,9.04204e-07,-1.22262e-06,0,-1.36497e-05,-8.58386e+08,-8.58532e+08,-8.58448e+08,-936369,0.0775353,0.413339,0,0.420548,8795.89,-31252.2,0,32466.4,936369
step02_gravity_refstate-crust.xmf,1110,-6.34098e-07,4.4597e-07,0,-1.51567e-05,-9.03329e+08,-9.03255e+08,-9.03285e+08,-1.03975e+06,0.0839746,0.411224,0,0.419711,8912.57,-32884.7,0,34071.1,1.03975e+06
step02_gravity_refstate-crust.xmf,1111,-4.65677e-06,5.25006e-06,0,-1.72374e-05,-9.88926e+08,-9.88246e+08,-9.88606e+08,-1.18248e+06,0.0913244,0.400854,0,0.411126,8992.04,-35992.1,0,37098.4,1.18248e+06
step02_gravity_refstate-crust.xmf,1112,2.23499e-06,-6.18151e-07,0,-1.81536e-06,-1.29849e+08,-1.30044e+08,-1.30002e+08,-124534,0.033066,0.362885,0,0.364388,10483.8,-4735.35,0,11503.7,124534
step02_gravity_refstate-crust.xmf,1113,1.97871e-06,-6.80897e-07,0,-3.3083e-06,-2.9994e+08,-3.00122e+08,-3.00076e+08,-226949,0.0271388,0.371439,0,0.372429,9636.59,-10926.6,0,14568.9,226949
step02_gravity_refstate-crust.xmf,1114,1.96559e-06,-5.70701e-07,0,-2.89213e-06,-2.46625e+08,-2.46799e+08,-2.4676e+08,-198400,0.0275563,0.368383,0,0.369412,9944.53,-8985.69,0,13402.8,198400
step02_gravity_refstate-crust.xmf,1115,2.04989e-06,-5.48823e-07,0,-2.40288e-06,-1.89699e+08,-1.89877e+08,-1.89839e+08,-164838,0.0293187,0.365621,0,0.366795,10223.1,-6913.62,0,12341.4,164838
step02_gravity_refstate-crust.xmf,1116,1.89977e-06,-5.76812e-07,0,-1.00084e-06,-5.56294e+07,-5.57993e+07,-5.57597e+07,-68657.7,0.0473277,0.343978,0,0.347219,13420.1,-2032.04,0,13573.1,68657.7
step02_gravity_refstate-crust.xmf,1117,1.71916e-06,-5.49318e-07,0,-4.25986e-06,-3.7869e+08,-3.78845e+08,-3.78808e+08,-292227,0.031216,0.366325,0,0.367652,10651.2,-13792.7,0,17426.6,292227
step02_gravity_refstate-crust.xmf,1118,1.8414e-06,-7.43164e-07,0,-4.66221e-06,-4.24515e+08,-4.24692e+08,-4.24641e+08,-319828,0.0328364,0.369917,0,0.371372,10315.7,-15461.2,0,18586.6,319828
step02_gravity_refstate-crust.xmf,1119,1.96619e-06,-9.50753e-07,0,-5.12616e-06,-4.70587e+08,-4.70787e+08,-4.70721e+08,-351655,0.0352176,0.373284,0,0.374941,10071.6,-17138.7,0,19878.9,351655
step02_gravity_refstate-crust.xmf,1120,2.06411e-06,-1.13543e-06,0,-5.69753e-06,-5.184e+08,-5.18619e+08,-5.18541e+08,-390851,0.0385321,0.376166,0,0.378134,9947.71,-18879.4,0,21339.9,390851
step02_gravity_refstate-crust.xmf,1121,2.12672e-06,-1.29001e-06,0,-6.29522e-06,-5.61879e+08,-5.62114e+08,-5.62025e+08,-431852,0.0421299,0.378828,0,0.381164,9869.16,-20462.4,0,22718,431852
step02_gravity_refstate-crust.xmf,1122,2.25173e-06,-1.54171e-06,0,-6.87614e-06,-6.0097e+08,-6.0123e+08,-6.01125e+08,-471703,0.0454238,0.383215,0,0.385898,9641.33,-21885.6,0,23915.2,471703
step02_gravity_refstate-crust.xmf,1123,2.40234e-06,-1.84856e-06,0,-7.51426e-06,-6.392e+08,-6.39491e+08,-6.39364e+08,-515478,0.048861,0.388724,0,0.391782,9363.57,-23277.6,0,25090.3,515478
step02_gravity_refstate-crust.xmf,1124,2.59332e-06,-2.23269e-06,0,-8.20618e-06,-6.75942e+08,-6.76273e+08,-6.7612e+08,-562944,0.0523028,0.395635,0,0.399077,9026.37,-24615.4,0,26218.2,562944
step02_gravity_refstate-crust.xmf,1125,1.26778e-06,-1.38128e-06,0,-1.25366e-05,-8.28757e+08,-8.28939e+08,-8.28844e+08,-860008,0.0733382,0.407399,0,0.413947,9001.07,-30174.7,0,31488.6,860008
step02_gravity_refstate-crust.xmf,1126,1.54519e-06,-1.48136e-06,0,-1.14896e-05,-7.97773e+08,-7.97981e+08,-7.97879e+08,-788186,0.0690964,0.401757,0,0.407656,9201.37,-29047.7,0,30470.2,788186
step02_gravity_refstate-crust.xmf,1127,1.83098e-06,-1.43439e-06,0,-9.62094e-06,-7.31821e+08,-7.32045e+08,-7.31947e+08,-659997,0.0607401,0.390912,0,0.395603,9623.24,-26647.9,0,28332.2,659997
step02_gravity_refstate-crust.xmf,1128,1.72968e-06,-1.49362e-06,0,-1.05066e-05,-7.65101e+08,-7.65323e+08,-7.6522e+08,-720756,0.0648356,0.39619,0,0.40146,9410.31,-27859,0,29405.4,720756
step02_gravity_refstate-crust.xmf,1129,-8.64555e-06,1.16447e-05,0,-1.6485e-05,-1.06705e+09,-1.06566e+09,-1.06646e+09,-1.13087e+06,0.084711,0.375336,0,0.384776,9045.29,-38830,0,39869.6,1.13087e+06
step02_gravity_refstate-crust.xmf,1130,-7.74341e-06,1.01977e-05,0,-1.63201e-05,-1.04528e+09,-1.04405e+09,-1.04475e+09,-1.11956e+06,0.0864595,0.374671,0,0.384517,9290.3,-38039,0,39157.1,1.11956e+06
step02_gravity_refstate-crust.xmf,1131,-8.7368e-07,1.18827e-06,0,-1.39618e-05,-8.8394e+08,-8.83799e+08,-8.8388e+08,-957781,0.0810396,0.394657,0,0.402892,9580.58,-32179,0,33574.9,957781
step02_gravity_refstate-crust.xmf,1132,-6.75671e-06,8.73996e-06,0,-1.61028e-05,-1.0223e+09,-1.02123e+09,-1.02183e+09,-1.10465e+06,0.0874714,0.37493,0,0.384998,9502.94,-37203.9,0,38398.4,1.10465e+06
step02_gravity_refstate-crust.xmf,1133,-2.10828e-06,2.66228e-06,0,-1.46328e-05,-9.15299e+08,-9.14972e+08,-9.15154e+08,-1.00381e+06,0.0842326,0.389263,0,0.398273,9710.11,-33318,0,34704.1,1.00381e+06
step02_gravity_refstate-crust.xmf,1134,-3.08722e-06,3.76889e-06,0,-1.5383e-05,-9.42789e+08,-9.42318e+08,-9.42577e+08,-1.05527e+06,0.0867751,0.389288,0,0.398842,9597.35,-34316.5,0,35633.3,1.05527e+06
step02_gravity_refstate-crust.xmf,1135,-4.2726e-06,5.18533e-06,0,-1.60512e-05,-9.7157e+08,-9.70921e+08,-9.71277e+08,-1.10111e+06,0.0887377,0.388685,0,0.398686,9466.07,-35361.7,0,36606.8,1.10111e+06
step02_gravity_refstate-crust.xmf,1136,-5.68679e-06,7.24907e-06,0,-1.58295e-05,-9.97553e+08,-9.96666e+08,-9.97163e+08,-1.0859e+06,0.0877921,0.376393,0,0.386496,9670.82,-36305.1,0,37571.1,1.0859e+06
step02_gravity_refstate-crust.xmf,1137,1.81811e-06,-4.37118e-07,0,-1.76937e-06,-1.12e+08,-1.12155e+08,-1.12125e+08,-121379,0.0388003,0.350378,0,0.35252,12544.9,-4084.17,0,13193,121379
step02_gravity_refstate-crust.xmf,1138,1.61581e-06,-3.87649e-07,0,-3.87323e-06,-3.30926e+08,-3.31064e+08,-3.31037e+08,-265703,0.0303208,0.362542,0,0.363808,11067.4,-12053.6,0,16363.9,265703
step02_gravity_refstate-crust.xmf,1139,1.72137e-06,-6.60995e-07,0,-2.018e-08,163186,-244.499,45099.8,-1384.35,0.0601124,0.334484,0,0.339843,14769.1,0,0,14769.1,1384.35
step02_gravity_refstate-crust.xmf,1140,-9.31556e-06,1.29057e-05,0,-1.64146e-05,-1.08463e+09,-1.0831e+09,-1.08399e+09,-1.12604e+06,0.0820827,0.374192,0,0.383089,8876.65,-39469.3,0,40455.2,1.12604e+06
step02_gravity_refstate-crust.xmf,1141,1.81702e-06,-1.26463e-06,0,-8.83959e-06,-6.98279e+08,-6.9849e+08,-6.98403e+08,-606396,0.0569868,0.385089,0,0.389283,9902.67,-25426.9,0,27287.2,606396
step02_gravity_refstate-crust.xmf,1142,-3.07875e-07,7.34934e-07,0,-1.27885e-05,-8.50494e+08,-8.50422e+08,-8.50473e+08,-877290,0.0767594,0.388363,0,0.395876,9896.65,-30963,0,32506.1,877290
step02_gravity_refstate-crust.xmf,1143,1.30039e-06,-2.17144e-07,0,-1.76005e-06,-1.04509e+08,-1.04614e+08,-1.04599e+08,-120739,0.0428383,0.337082,0,0.339793,14615,-3809.7,0,15103.4,120739
step02_gravity_refstate-crust.xmf,1144,1.66755e-06,-3.09374e-07,0,-2.41176e-06,-1.6809e+08,-1.68225e+08,-1.68204e+08,-165447,0.0339682,0.35338,0,0.355009,12185.5,-6125.74,0,13638.6,165447
step02_gravity_refstate-crust.xmf,1145,1.56114e-06,-2.85693e-07,0,-3.45435e-06,-2.79646e+08,-2.79773e+08,-2.79753e+08,-236969,0.0302399,0.358987,0,0.360258,11495.8,-10186.7,0,15359.7,236969
step02_gravity_refstate-crust.xmf,1146,1.57223e-06,-2.57822e-07,0,-2.97099e-06,-2.24215e+08,-2.24341e+08,-2.24323e+08,-203810,0.0313834,0.355658,0,0.35704,11918.8,-8168.74,0,14449.5,203810
step02_gravity_refstate-crust.xmf,1147,1.23796e-06,-2.96889e-08,0,-4.35849e-06,-3.60714e+08,-3.60801e+08,-3.60799e+08,-298992,0.0331179,0.352882,0,0.354433,12401.9,-13137.1,0,18066.3,298992
step02_gravity_refstate-crust.xmf,1148,1.09139e-06,-2.57125e-07,0,-1.05038e-06,-5.55638e+07,-5.56563e+07,-5.56387e+07,-72056.1,0.0509809,0.328668,0,0.332599,15838.5,-2026.87,0,15967.7,72056.1
step02_gravity_refstate-crust.xmf,1149,1.32018e-06,-1.38021e-07,0,-4.77531e-06,-4.07287e+08,-4.07387e+08,-4.07377e+08,-327586,0.034549,0.35638,0,0.358051,11977.6,-14832.8,0,19065,327586
step02_gravity_refstate-crust.xmf,1150,1.38648e-06,-2.4177e-07,0,-5.22626e-06,-4.53004e+08,-4.53116e+08,-4.53099e+08,-358521,0.036748,0.359168,0,0.361043,11682,-16497.3,0,20214.6,358521
step02_gravity_refstate-crust.xmf,1151,1.44027e-06,-3.42505e-07,0,-5.73807e-06,-4.99446e+08,-4.99568e+08,-4.99545e+08,-393631,0.0396551,0.361781,0,0.363948,11445.6,-18188.1,0,21489.8,393631
step02_gravity_refstate-crust.xmf,1152,1.4901e-06,-4.50503e-07,0,-6.28594e-06,-5.43922e+08,-5.44056e+08,-5.44025e+08,-431216,0.0429412,0.364665,0,0.367184,11214.9,-19807.4,0,22761.9,431216
step02_gravity_refstate-crust.xmf,1153,1.51243e-06,-5.4162e-07,0,-6.87357e-06,-5.86113e+08,-5.86254e+08,-5.86216e+08,-471527,0.0465177,0.367534,0,0.370466,11015.5,-21343.3,0,24018.3,471527
step02_gravity_refstate-crust.xmf,1154,1.55414e-06,-6.85996e-07,0,-7.51325e-06,-6.26966e+08,-6.27119e+08,-6.27072e+08,-515409,0.050237,0.371594,0,0.374974,10742.2,-22830.5,0,25231.5,515409
step02_gravity_refstate-crust.xmf,1155,1.6594e-06,-9.42265e-07,0,-8.16861e-06,-6.64281e+08,-6.6446e+08,-6.64395e+08,-560366,0.0537099,0.377711,0,0.38151,10343,-24189.1,0,26307.6,560366
step02_gravity_refstate-crust.xmf,1156,1.89786e-07,3.1576e-07,0,-1.18346e-05,-8.18907e+08,-8.18899e+08,-8.1892e+08,-811855,0.0727575,0.384776,0,0.391594,10092.5,-29814.4,0,31476.3,811855
step02_gravity_refstate-crust.xmf,1157,1.00988e-06,-2.1384e-07,0,-9.26471e-06,-7.18006e+08,-7.1809e+08,-7.18076e+08,-635559,0.0605779,0.373312,0,0.378195,10737.8,-26143.5,0,28262.7,635559
step02_gravity_refstate-crust.xmf,1158,5.43418e-07,6.2366e-08,0,-1.09165e-05,-7.86359e+08,-7.86392e+08,-7.86396e+08,-748870,0.0686974,0.380652,0,0.386802,10316.6,-28630.5,0,30432.5,748870
step02_gravity_refstate-crust.xmf,1159,8.11241e-07,-1.05228e-07,0,-1.00558e-05,-7.52599e+08,-7.52662e+08,-7.52655e+08,-689829,0.0646107,0.376757,0,0.382257,10536,-27402.3,0,29358,689829
step02_gravity_refstate-crust.xmf,1160,-9.01939e-06,1.3288e-05,0,-1.4517e-05,-1.08178e+09,-1.08025e+09,-1.08116e+09,-995865,0.0764266,0.34859,0,0.356869,9577.03,-39367.4,0,40515.6,995865
step02_gravity_refstate-crust.xmf,1161,-8.36701e-06,1.20645e-05,0,-1.44138e-05,-1.06131e+09,-1.05991e+09,-1.06074e+09,-988789,0.0788267,0.347158,0,0.355995,9878.98,-38623,0,39866.4,988789
step02_gravity_refstate-crust.xmf,1162,-7.5869e-06,1.07431e-05,0,-1.43248e-05,-1.03848e+09,-1.03722e+09,-1.03796e+09,-982683,0.0808457,0.347188,0,0.356477,10155,-37792.7,0,39133.3,982683
step02_gravity_refstate-crust.xmf,1163,-1.82686e-06,2.89532e-06,0,-1.26444e-05,-8.73037e+08,-8.72713e+08,-8.72911e+08,-867403,0.0782484,0.366904,0,0.375155,10786.4,-31780.9,0,33561.4,867403
step02_gravity_refstate-crust.xmf,1164,-6.69515e-06,9.32926e-06,0,-1.42972e-05,-1.01381e+09,-1.01271e+09,-1.01335e+09,-980787,0.0825349,0.349773,0,0.359379,10351.8,-36896.2,0,38320.9,980787
step02_gravity_refstate-crust.xmf,1165,-2.65154e-06,3.83237e-06,0,-1.33381e-05,-9.0401e+08,-9.03566e+08,-9.03829e+08,-914992,0.0810784,0.366609,0,0.375467,10642.9,-32906.6,0,34584.9,914992
step02_gravity_refstate-crust.xmf,1166,-3.58607e-06,4.95202e-06,0,-1.39044e-05,-9.33168e+08,-9.32582e+08,-9.32922e+08,-953840,0.0831404,0.365097,0,0.374443,10524.3,-33966.1,0,35559.2,953840
step02_gravity_refstate-crust.xmf,1167,-4.56326e-06,6.19683e-06,0,-1.43231e-05,-9.60428e+08,-9.5969e+08,-9.60115e+08,-982567,0.0843443,0.362802,0,0.372477,10410.8,-34956.5,0,36473.8,982567
step02_gravity_refstate-crust.xmf,1168,-5.68122e-06,7.81521e-06,0,-1.42743e-05,-9.8723e+08,-9.86304e+08,-9.8684e+08,-979214,0.083681,0.354623,0,0.364363,10460.8,-35930.2,0,37422,979214
step02_gravity_refstate-crust.xmf,1169,1.34902e-06,-1.603e-07,0,-2.28982e-06,-1.47363e+08,-1.47466e+08,-1.47455e+08,-157082,0.037814,0.342556,0,0.344637,13827.7,-5370.09,0,14833.9,157082
step02_gravity_refstate-crust.xmf,1170,1.15285e-06,6.28957e-08,0,-3.95814e-06,-3.13616e+08,-3.13691e+08,-3.13695e+08,-271528,0.0325746,0.348729,0,0.350247,12954.2,-11422.3,0,17270.8,271528
step02_gravity_refstate-crust.xmf,1171,6.83104e-07,-2.71453e-07,0,-3.03888e-08,64369.2,-1113.37,17508.3,-2084.67,0.0632208,0.318595,0,0.324807,17321.5,0,0,17321.5,2084.67
step02_gravity_refstate-crust.xmf,1172,7.78304e-07,1.7131e-08,0,-1.78715e-06,-1.05013e+08,-1.05065e+08,-1.05066e+08,-122599,0.0446826,0.324849,0,0.327908,16444.3,-3826.26,0,16883.6,122599
step02_gravity_refstate-crust.xmf,1173,1.08553e-06,-1.9911e-07,0,-8.64455e-06,-6.88468e+08,-6.88556e+08,-6.88543e+08,-593016,0.0573473,0.369833,0,0.374253,10958.3,-25068.5,0,27358.9,593016
step02_gravity_refstate-crust.xmf,1174,-1.16691e-06,2.20388e-06,0,-1.18389e-05,-8.40571e+08,-8.4034e+08,-8.40491e+08,-812152,0.0748147,0.365304,0,0.372887,10994.1,-30600.5,0,32515.6,812152
step02_gravity_refstate-crust.xmf,1175,8.84604e-07,7.77113e-08,0,-2.39442e-06,-1.50724e+08,-1.50779e+08,-1.50784e+08,-164257,0.0395347,0.330538,0,0.332894,15600.3,-5490.94,0,16538.4,164257
step02_gravity_refstate-crust.xmf,1176,1.09329e-06,4.13248e-08,0,-2.93541e-06,-2.0149e+08,-2.01562e+08,-2.01565e+08,-201369,0.0351359,0.340168,0,0.341978,14192.9,-7339.92,0,15978.6,201369
step02_gravity_refstate-crust.xmf,1177,1.12346e-06,7.03163e-08,0,-3.48745e-06,-2.59742e+08,-2.59814e+08,-2.59819e+08,-239239,0.0329311,0.345106,0,0.346674,13471.2,-9460.83,0,16461.5,239239
step02_gravity_refstate-crust.xmf,1178,8.15185e-07,3.94877e-07,0,-4.33639e-06,-3.43072e+08,-3.43101e+08,-3.43128e+08,-297476,0.0343109,0.339765,0,0.341493,14084.7,-12493.8,0,18827.4,297476
step02_gravity_refstate-crust.xmf,1179,8.3812e-07,3.92069e-07,0,-4.76961e-06,-3.8979e+08,-3.89821e+08,-3.89848e+08,-327195,0.0355822,0.342301,0,0.344145,13690.6,-14194.7,0,19721.1,327195
step02_gravity_refstate-crust.xmf,1180,2.43965e-07,1.29701e-07,0,-1.30135e-06,-7.1775e+07,-7.17828e+07,-7.17917e+07,-89272.8,0.0501504,0.31174,0,0.315748,18398.2,-2614.23,0,18583,89272.8
step02_gravity_refstate-crust.xmf,1181,8.6344e-07,3.74589e-07,0,-5.21118e-06,-4.3563e+08,-4.35664e+08,-4.3569e+08,-357487,0.0375492,0.344747,0,0.346786,13330.5,-15863.6,0,20720.9,357487
step02_gravity_refstate-crust.xmf,1182,8.6972e-07,3.67569e-07,0,-5.69785e-06,-4.82542e+08,-4.82576e+08,-4.82601e+08,-390872,0.0402461,0.346851,0,0.349178,13030.5,-17571.5,0,21875.8,390872
step02_gravity_refstate-crust.xmf,1183,8.73768e-07,3.49775e-07,0,-6.21117e-06,-5.27762e+08,-5.27798e+08,-5.27822e+08,-426086,0.0433608,0.34927,0,0.351952,12723.7,-19217.8,0,23048.1,426086
step02_gravity_refstate-crust.xmf,1184,8.54769e-07,3.44769e-07,0,-6.75734e-06,-5.71066e+08,-5.71101e+08,-5.71124e+08,-463553,0.0467936,0.351696,0,0.354796,12443.4,-20794.2,0,24233,463553
step02_gravity_refstate-crust.xmf,1185,7.99601e-07,3.65179e-07,0,-7.36262e-06,-6.13997e+08,-6.14027e+08,-6.14052e+08,-505076,0.050589,0.354247,0,0.357841,12174.4,-22357,0,25456.8,505076
step02_gravity_refstate-crust.xmf,1186,7.28967e-07,3.83108e-07,0,-8.11482e-06,-6.6049e+08,-6.60514e+08,-6.6054e+08,-556677,0.0550389,0.358186,0,0.36239,11814.6,-24049.4,0,26794.7,556677
step02_gravity_refstate-crust.xmf,1187,-6.62217e-07,1.71133e-06,0,-1.10446e-05,-8.08037e+08,-8.07874e+08,-8.07992e+08,-757659,0.0711985,0.362997,0,0.369914,11222.7,-29417.4,0,31485.4,757659
step02_gravity_refstate-crust.xmf,1188,3.12913e-07,8.48648e-07,0,-8.79537e-06,-7.01888e+08,-7.01851e+08,-7.01909e+08,-603362,0.0595248,0.355647,0,0.360594,11933.9,-25555.5,0,28204.6,603362
step02_gravity_refstate-crust.xmf,1189,4.84616e-08,1.07679e-06,0,-9.51046e-06,-7.38843e+08,-7.38772e+08,-7.38846e+08,-652418,0.0634972,0.3577,0,0.363292,11717.5,-26900.2,0,29341.4,652418
step02_gravity_refstate-crust.xmf,1190,-2.79078e-07,1.36759e-06,0,-1.02632e-05,-7.74486e+08,-7.74373e+08,-7.74467e+08,-704058,0.0674325,0.360117,0,0.366377,11480.5,-28196.9,0,30444.5,704058
step02_gravity_refstate-crust.xmf,1191,-2.40647e-06,4.03835e-06,0,-1.15094e-05,-8.62157e+08,-8.61715e+08,-8.61992e+08,-789544,0.0750639,0.344215,0,0.352304,11881.6,-31384.2,0,33558,789544
step02_gravity_refstate-crust.xmf,1192,-8.60973e-06,1.35509e-05,0,-1.25176e-05,-1.07889e+09,-1.07737e+09,-1.0783e+09,-858707,0.0696578,0.320086,0,0.327578,10435.7,-39264.2,0,40627.3,858707
step02_gravity_refstate-crust.xmf,1193,-8.0379e-06,1.23686e-05,0,-1.25146e-05,-1.05637e+09,-1.05497e+09,-1.05581e+09,-858501,0.072602,0.319885,0,0.32802,10770.5,-38444.7,0,39924.9,858501
step02_gravity_refstate-crust.xmf,1194,-7.35373e-06,1.11066e-05,0,-1.2561e-05,-1.03178e+09,-1.03051e+09,-1.03127e+09,-861683,0.0752091,0.321648,0,0.330324,11054.2,-37550.3,0,39143.6,861683
step02_gravity_refstate-crust.xmf,1195,-3.14105e-06,4.90895e-06,0,-1.20814e-05,-8.94153e+08,-8.936e+08,-8.93937e+08,-828785,0.0775078,0.34369,0,0.352321,11672.4,-32547.4,0,34577.1,828785
step02_gravity_refstate-crust.xmf,1196,-6.57232e-06,9.78572e-06,0,-1.26377e-05,-1.00559e+09,-1.00447e+09,-1.00514e+09,-866944,0.077356,0.32548,0,0.334546,11261.9,-36598.2,0,38291.7,866944
step02_gravity_refstate-crust.xmf,1197,-3.93633e-06,5.90688e-06,0,-1.25066e-05,-9.23272e+08,-9.22597e+08,-9.23002e+08,-857955,0.0790963,0.341795,0,0.350828,11513.9,-33605.9,0,35523.6,857955
step02_gravity_refstate-crust.xmf,1198,-4.79644e-06,7.04671e-06,0,-1.28094e-05,-9.5159e+08,-9.50778e+08,-9.51261e+08,-878728,0.0798967,0.338965,0,0.348254,11365.4,-34635.1,0,36452.2,878728
step02_gravity_refstate-crust.xmf,1199,-5.71323e-06,8.42429e-06,0,-1.27332e-05,-9.78612e+08,-9.77642e+08,-9.7822e+08,-873497,0.0789648,0.331443,0,0.34072,11365.8,-35617.3,0,37386.8,873497
step02_gravity_refstate-crust.xmf,1200,3.34819e-07,3.29473e-07,0,-2.31008e-06,-1.4359e+08,-1.4359e+08,-1.43613e+08,-158471,0.0414475,0.315508,0,0.318218,17757.9,-5229.39,0,18511.9,158471
step02_gravity_refstate-crust.xmf,1201,8.19767e-07,3.60794e-07,0,-3.89201e-06,-2.95571e+08,-2.95602e+08,-2.95627e+08,-266992,0.033819,0.337821,0,0.33951,14418,-10764.4,0,17993.1,266992
step02_gravity_refstate-crust.xmf,1202,-3.54308e-07,1.26358e-07,0,-3.08523e-08,-34000.7,-1026.99,-9695.17,-2116.47,0.0636965,0.302153,0,0.308794,19919.3,0,0,19919.3,2116.47
step02_gravity_refstate-crust.xmf,1203,-1.81097e-06,3.36738e-06,0,-1.08837e-05,-8.30039e+08,-8.29684e+08,-8.29915e+08,-746625,0.0721683,0.343617,0,0.351114,12120.6,-30216.3,0,32556.6,746625
step02_gravity_refstate-crust.xmf,1204,4.80124e-07,4.12148e-07,0,-2.97482e-06,-1.98779e+08,-1.98783e+08,-1.98811e+08,-204072,0.0372532,0.322125,0,0.324272,16723.4,-7239.31,0,18223,204072
step02_gravity_refstate-crust.xmf,1205,5.91353e-07,4.8363e-07,0,-3.59274e-06,-2.59479e+08,-2.59486e+08,-2.5952e+08,-246462,0.0348436,0.328728,0,0.330569,15692.2,-9449.74,0,18317.8,246462
step02_gravity_refstate-crust.xmf,1206,4.51931e-07,7.08589e-07,0,-4.16564e-06,-3.19205e+08,-3.19187e+08,-3.19236e+08,-285763,0.0348876,0.327105,0,0.32896,15734.6,-11623.9,0,19562.5,285763
step02_gravity_refstate-crust.xmf,1207,4.02097e-07,8.34118e-07,0,-4.65217e-06,-3.71332e+08,-3.71303e+08,-3.7136e+08,-319139,0.0359717,0.327984,0,0.329951,15447.6,-13521.6,0,20529.5,319139
step02_gravity_refstate-crust.xmf,1208,3.87414e-07,9.06353e-07,0,-5.10144e-06,-4.18905e+08,-4.18869e+08,-4.18932e+08,-349959,0.037741,0.329907,0,0.332058,15049.1,-15253.6,0,21427.8,349959
step02_gravity_refstate-crust.xmf,1209,-6.72948e-07,4.74318e-07,0,-1.14687e-06,-6.59879e+07,-6.59092e+07,-6.59417e+07,-78675,0.0504194,0.292432,0,0.296746,21324.3,-2400.37,0,21458.9,78675
step02_gravity_refstate-crust.xmf,1210,-2.92604e-07,5.80402e-07,0,-2.1022e-06,-1.32313e+08,-1.32253e+08,-1.32293e+08,-144211,0.0425633,0.298791,0,0.301807,20181.5,-4816.7,0,20748.4,144211
step02_gravity_refstate-crust.xmf,1211,3.59367e-07,9.82116e-07,0,-5.56533e-06,-4.66401e+08,-4.66358e+08,-4.66426e+08,-381782,0.0401993,0.33162,0,0.334047,14682.6,-16982.8,0,22449.8,381782
step02_gravity_refstate-crust.xmf,1212,3.3083e-07,1.04296e-06,0,-6.04792e-06,-5.12373e+08,-5.12324e+08,-5.12396e+08,-414887,0.0431241,0.333743,0,0.336518,14291.2,-18656.4,0,23501.1,414887
step02_gravity_refstate-crust.xmf,1213,2.71716e-07,1.12495e-06,0,-6.54728e-06,-5.56161e+08,-5.56102e+08,-5.56179e+08,-449144,0.0463656,0.33554,0,0.338729,13955.1,-20250.4,0,24593.2,449144
step02_gravity_refstate-crust.xmf,1214,1.73491e-07,1.23921e-06,0,-7.08147e-06,-5.98915e+08,-5.98842e+08,-5.98927e+08,-485789,0.0498966,0.337177,0,0.340849,13648.2,-21806.7,0,25725.6,485789
step02_gravity_refstate-crust.xmf,1215,6.70927e-09,1.42679e-06,0,-7.67658e-06,-6.42566e+08,-6.42469e+08,-6.42566e+08,-526614,0.0538138,0.338429,0,0.342681,13375.2,-23395.5,0,26948.9,526614
step02_gravity_refstate-crust.xmf,1216,-1.34559e-06,2.87195e-06,0,-1.02331e-05,-7.97509e+08,-7.97219e+08,-7.97416e+08,-701988,0.0689738,0.341993,0,0.348879,12401.2,-29033.1,0,31570.7,701988
step02_gravity_refstate-crust.xmf,1217,-2.61339e-07,1.72971e-06,0,-8.29573e-06,-6.85267e+08,-6.8513e+08,-6.85249e+08,-569087,0.0578595,0.33868,0,0.343587,13175.6,-24949.5,0,28214.7,569087
step02_gravity_refstate-crust.xmf,1218,-6.07458e-07,2.113e-06,0,-8.92344e-06,-7.25758e+08,-7.25571e+08,-7.25716e+08,-612148,0.0617948,0.338695,0,0.344286,12983.5,-26422.8,0,29440.3,612148
step02_gravity_refstate-crust.xmf,1219,-9.60549e-07,2.48027e-06,0,-9.56832e-06,-7.62874e+08,-7.62638e+08,-7.62808e+08,-656386,0.0654836,0.339942,0,0.346192,12712.5,-27773.1,0,30544.3,656386
step02_gravity_refstate-crust.xmf,1220,-2.8159e-06,4.92043e-06,0,-1.047e-05,-8.51731e+08,-8.512e+08,-8.51538e+08,-718241,0.0715834,0.32351,0,0.331335,12981.2,-31004.3,0,33612.2,718241
step02_gravity_refstate-crust.xmf,1221,-3.44679e-06,5.71042e-06,0,-1.09005e-05,-8.83115e+08,-8.82487e+08,-8.82879e+08,-747775,0.0735566,0.322343,0,0.330629,12743.1,-32145.6,0,34579.3,747775
step02_gravity_refstate-crust.xmf,1222,-8.12737e-06,1.36658e-05,0,-1.06726e-05,-1.07641e+09,-1.07492e+09,-1.07585e+09,-732140,0.0625432,0.292193,0,0.298812,11369.5,-39176.1,0,40792.6,732140
step02_gravity_refstate-crust.xmf,1223,-7.64267e-06,1.25134e-05,0,-1.08099e-05,-1.05141e+09,-1.05003e+09,-1.05089e+09,-741561,0.066306,0.294051,0,0.301434,11717.3,-38266.1,0,40019.9,741561
step02_gravity_refstate-crust.xmf,1224,-7.058e-06,1.13134e-05,0,-1.09877e-05,-1.02491e+09,-1.02365e+09,-1.02442e+09,-753759,0.0695726,0.297751,0,0.305771,11998.8,-37301.7,0,39184,753759
step02_gravity_refstate-crust.xmf,1225,-4.14527e-06,6.62925e-06,0,-1.12197e-05,-9.1309e+08,-9.12351e+08,-9.12806e+08,-769673,0.074795,0.319928,0,0.328555,12547.7,-33235.5,0,35525.2,769673
step02_gravity_refstate-crust.xmf,1226,-6.37532e-06,1.00749e-05,0,-1.11542e-05,-9.97036e+08,-9.95907e+08,-9.96598e+08,-765177,0.0721639,0.302812,0,0.311292,12216.4,-36287.9,0,38289,765177
step02_gravity_refstate-crust.xmf,1227,-4.88188e-06,7.66558e-06,0,-1.1384e-05,-9.41462e+08,-9.40602e+08,-9.41128e+08,-780945,0.0750955,0.315972,0,0.324773,12402.3,-34267,0,36442.3,780945
step02_gravity_refstate-crust.xmf,1228,-5.64502e-06,8.84019e-06,0,-1.13365e-05,-9.693e+08,-9.68306e+08,-9.68913e+08,-777687,0.0741679,0.309734,0,0.31849,12317.6,-35279.2,0,37367.7,777687
step02_gravity_refstate-crust.xmf,1229,-1.21023e-07,7.82711e-07,0,-2.96624e-06,-2.03704e+08,-2.03642e+08,-2.03696e+08,-203484,0.0374615,0.303955,0,0.306255,19199.6,-7416.77,0,20582.4,203484
step02_gravity_refstate-crust.xmf,1230,-1.35188e-06,5.0564e-07,0,-3.02688e-08,-128732,-1305.52,-35992.4,-2076.44,0.0614798,0.2858,0,0.292338,22569.7,0,0,22569.7,2076.44
step02_gravity_refstate-crust.xmf,1231,-2.28267e-06,4.27317e-06,0,-9.99297e-06,-8.20217e+08,-8.19768e+08,-8.20061e+08,-685518,0.0691629,0.323776,0,0.331081,13242.8,-29858.2,0,32663.2,685518
step02_gravity_refstate-crust.xmf,1232,1.46797e-07,7.69408e-07,0,-3.44709e-06,-2.46032e+08,-2.45989e+08,-2.46042e+08,-236470,0.0358484,0.313889,0,0.31593,17697.9,-8958.83,0,19836.2,236470
step02_gravity_refstate-crust.xmf,1233,8.7056e-08,9.71243e-07,0,-3.93095e-06,-2.96465e+08,-2.96404e+08,-2.96471e+08,-269663,0.0352182,0.3137,0,0.315671,17515.6,-10795,0,20574.9,269663
step02_gravity_refstate-crust.xmf,1234,4.15515e-09,1.19149e-06,0,-4.43699e-06,-3.51779e+08,-3.51697e+08,-3.51779e+08,-304378,0.0358071,0.313493,0,0.315531,17271.7,-12808.7,0,21502.9,304378
step02_gravity_refstate-crust.xmf,1235,-5.98401e-08,1.37634e-06,0,-4.91838e-06,-4.04761e+08,-4.04663e+08,-4.04757e+08,-337401,0.0374208,0.314249,0,0.31647,16891.4,-14737.6,0,22416.9,337401
step02_gravity_refstate-crust.xmf,1236,-9.85018e-08,1.50117e-06,0,-5.34503e-06,-4.50195e+08,-4.50085e+08,-4.50188e+08,-366669,0.0395079,0.315987,0,0.318448,16432.9,-16391.7,0,23210.5,366669
step02_gravity_refstate-crust.xmf,1237,-1.44604e-06,7.76638e-07,0,-1.0356e-06,-6.5622e+07,-6.54695e+07,-6.55228e+07,-71042,0.047672,0.275769,0,0.279859,23980.1,-2384.39,0,24098.3,71042
step02_gravity_refstate-crust.xmf,1238,-6.51463e-07,1.02896e-06,0,-2.69768e-06,-1.93238e+08,-1.93123e+08,-1.93193e+08,-185061,0.0371082,0.286906,0,0.289296,21635.6,-7033.98,0,22750.3,185061
step02_gravity_refstate-crust.xmf,1239,-9.30507e-07,8.59971e-07,0,-1.9407e-06,-1.3123e+08,-1.31107e+08,-1.31166e+08,-133132,0.0411212,0.281724,0,0.284709,22721.3,-4775.13,0,23217.6,133132
step02_gravity_refstate-crust.xmf,1240,-2.27023e-06,8.54672e-07,0,-2.84747e-08,-215945,-1576.15,-60206.7,-1953.36,0.0566094,0.270207,0,0.276073,25280.2,0,0,25280.2,1953.36
step02_gravity_refstate-crust.xmf,1241,-1.29529e-07,1.61775e-06,0,-5.80694e-06,-4.97554e+08,-4.97434e+08,-4.97545e+08,-398356,0.0422784,0.318543,0,0.321336,15883.7,-18115.9,0,24093.1,398356
step02_gravity_refstate-crust.xmf,1242,-2.09579e-07,1.76223e-06,0,-6.26245e-06,-5.41274e+08,-5.41139e+08,-5.4126e+08,-429604,0.0452754,0.320004,0,0.323191,15478.3,-19707.5,0,25059.2,429604
step02_gravity_refstate-crust.xmf,1243,-3.43483e-07,1.95893e-06,0,-6.73723e-06,-5.84518e+08,-5.8436e+08,-5.84495e+08,-462174,0.0485739,0.320717,0,0.324375,15147.1,-21281.6,0,26121.7,462174
step02_gravity_refstate-crust.xmf,1244,-5.32127e-07,2.21266e-06,0,-7.23521e-06,-6.27276e+08,-6.27087e+08,-6.27239e+08,-496335,0.0520869,0.321009,0,0.325208,14848.9,-22837.9,0,27240.8,496335
step02_gravity_refstate-crust.xmf,1245,-7.95628e-07,2.55054e-06,0,-7.75815e-06,-6.70065e+08,-6.69835e+08,-6.7001e+08,-532209,0.0557575,0.32074,0,0.32555,14581.6,-24395.1,0,28420.9,532209
step02_gravity_refstate-crust.xmf,1246,-1.90966e-06,3.85814e-06,0,-9.42136e-06,-7.8845e+08,-7.88054e+08,-7.88319e+08,-646306,0.0662155,0.32127,0,0.328023,13650.9,-28702.6,0,31783.4,646306
step02_gravity_refstate-crust.xmf,1247,-1.13272e-06,2.97026e-06,0,-8.29103e-06,-7.11769e+08,-7.11487e+08,-7.11691e+08,-568765,0.0593936,0.320113,0,0.325577,14326.7,-25912.7,0,29609.5,568765
step02_gravity_refstate-crust.xmf,1248,-1.53069e-06,3.4456e-06,0,-8.84557e-06,-7.52364e+08,-7.52023e+08,-7.52259e+08,-606806,0.0629466,0.319812,0,0.325947,14033.7,-27389.7,0,30775.6,606806
step02_gravity_refstate-crust.xmf,1249,-3.06981e-06,5.55837e-06,0,-9.52111e-06,-8.40655e+08,-8.40063e+08,-8.40445e+08,-653148,0.0679002,0.304896,0,0.312365,14079.6,-30601.1,0,33684.7,653148
step02_gravity_refstate-crust.xmf,1250,-3.64984e-06,6.34368e-06,0,-9.81161e-06,-8.72665e+08,-8.71979e+08,-8.72414e+08,-673077,0.0693917,0.302204,0,0.310069,13856.5,-31765.3,0,34656,673077
step02_gravity_refstate-crust.xmf,1251,-4.2717e-06,7.20753e-06,0,-1.00386e-05,-9.03765e+08,-9.02977e+08,-9.03472e+08,-688649,0.0703022,0.299165,0,0.307314,13627.1,-32896.3,0,35607.1,688649
step02_gravity_refstate-crust.xmf,1252,-7.59016e-06,1.36108e-05,0,-9.05089e-06,-1.07346e+09,-1.07201e+09,-1.07294e+09,-620891,0.055648,0.266274,0,0.272027,12354.6,-39070.9,0,40977.6,620891
step02_gravity_refstate-crust.xmf,1253,-7.19814e-06,1.25096e-05,0,-9.3002e-06,-1.04596e+09,-1.04461e+09,-1.04547e+09,-637994,0.0601156,0.269882,0,0.276496,12721.8,-38069.5,0,40138.9,637994
step02_gravity_refstate-crust.xmf,1254,-6.67911e-06,1.13163e-05,0,-9.60954e-06,-1.01623e+09,-1.01499e+09,-1.01577e+09,-659214,0.0642081,0.275878,0,0.283252,12999.8,-36987.2,0,39205.2,659214
step02_gravity_refstate-crust.xmf,1255,-4.87494e-06,8.0841e-06,0,-1.01709e-05,-9.32065e+08,-9.31176e+08,-9.3173e+08,-697725,0.0704804,0.295744,0,0.304027,13417.9,-33925.5,0,36482.6,697725
step02_gravity_refstate-crust.xmf,1256,-6.10161e-06,1.01868e-05,0,-9.83506e-06,-9.87122e+08,-9.86004e+08,-9.86703e+08,-674685,0.0670755,0.281866,0,0.289737,13226.2,-35928.2,0,38285.4,674685
step02_gravity_refstate-crust.xmf,1257,-5.48956e-06,9.06519e-06,0,-1.01187e-05,-9.59005e+08,-9.58007e+08,-9.58629e+08,-694140,0.0695274,0.290204,0,0.298417,13290,-34905.4,0,37349.8,694140
step02_gravity_refstate-crust.xmf,1258,-2.72085e-07,1.15361e-06,0,-3.61488e-06,-2.71732e+08,-2.71635e+08,-2.71714e+08,-247981,0.0352499,0.300377,0,0.302438,19358.6,-9893.38,0,21740.2,247981
step02_gravity_refstate-crust.xmf,1259,-5.56203e-07,1.22151e-06,0,-3.2382e-06,-2.43934e+08,-2.43812e+08,-2.43896e+08,-222140,0.0352389,0.289581,0,0.291717,20967.1,-8880.29,0,22770.1,222140
step02_gravity_refstate-crust.xmf,1260,-2.13797e-06,1.04525e-06,0,-8.98243e-07,-6.55356e+07,-6.53172e+07,-6.53889e+07,-61619.5,0.0428843,0.260457,0,0.263964,26663.7,-2378.86,0,26769.6,61619.5
step02_gravity_refstate-crust.xmf,1261,-3.07783e-06,1.16218e-06,0,-2.52866e-08,-292616,-1751.41,-81476.6,-1734.66,0.0492127,0.256041,0,0.260728,28058.3,0,0,28058.3,1734.66
step02_gravity_refstate-crust.xmf,1262,-2.59768e-06,4.9125e-06,0,-9.25384e-06,-8.12128e+08,-8.11613e+08,-8.1195e+08,-634813,0.0662917,0.307501,0,0.314566,14237.6,-29563.4,0,32813.2,634813
step02_gravity_refstate-crust.xmf,1263,-4.33967e-07,1.9687e-06,0,-5.53368e-06,-4.81499e+08,-4.81334e+08,-4.81469e+08,-379611,0.0409659,0.306731,0,0.309455,17206.3,-17530.7,0,24563.9,379611
step02_gravity_refstate-crust.xmf,1264,-3.69476e-07,1.47265e-06,0,-4.12886e-06,-3.31094e+08,-3.30967e+08,-3.31068e+08,-283239,0.0351328,0.298656,0,0.300715,19216.5,-12054.6,0,22684.5,283239
step02_gravity_refstate-crust.xmf,1265,-4.60936e-07,1.76356e-06,0,-4.62814e-06,-3.8905e+08,-3.88897e+08,-3.89018e+08,-317490,0.0363844,0.298415,0,0.300625,18832.3,-14164.6,0,23564.6,317490
step02_gravity_refstate-crust.xmf,1266,-5.60539e-07,2.05555e-06,0,-5.13577e-06,-4.47303e+08,-4.47124e+08,-4.47265e+08,-352314,0.0387455,0.298919,0,0.301419,18314.6,-16285.4,0,24507.9,352314
step02_gravity_refstate-crust.xmf,1267,-9.12797e-07,1.49926e-06,0,-3.1385e-06,-2.54058e+08,-2.53892e+08,-2.53995e+08,-215301,0.0336565,0.276469,0,0.27851,22726,-9247.85,0,24535.6,215301
step02_gravity_refstate-crust.xmf,1268,-1.52313e-06,1.11468e-06,0,-1.72151e-06,-1.30649e+08,-1.30468e+08,-1.30544e+08,-118096,0.0379923,0.265478,0,0.268183,25321.2,-4751.97,0,25763.3,118096
step02_gravity_refstate-crust.xmf,1269,-1.13499e-06,1.28997e-06,0,-2.48774e-06,-1.95302e+08,-1.95135e+08,-1.95224e+08,-170659,0.034879,0.270866,0,0.273102,23998.5,-7107.56,0,25028.9,170659
step02_gravity_refstate-crust.xmf,1270,-2.73971e-06,1.27912e-06,0,-7.34778e-07,-6.54361e+07,-6.51604e+07,-6.52481e+07,-50405.8,0.0362958,0.247095,0,0.249747,29379.7,-2373.16,0,29475.4,50405.8
step02_gravity_refstate-crust.xmf,1271,-3.74127e-06,1.40974e-06,0,-3.00945e-08,-355816,-2456.77,-99164.8,-2064.48,0.0394932,0.243964,0,0.24714,30911.6,0,0,30911.6,2064.48
step02_gravity_refstate-crust.xmf,1272,-5.78838e-07,2.2366e-06,0,-5.91121e-06,-5.24071e+08,-5.23878e+08,-5.24031e+08,-405509,0.0435409,0.305719,0,0.308804,16979.4,-19080.5,0,25541.4,405509
step02_gravity_refstate-crust.xmf,1273,-7.51589e-07,2.52292e-06,0,-6.3392e-06,-5.69325e+08,-5.691e+08,-5.69273e+08,-434869,0.0466461,0.305149,0,0.308693,16662.2,-20727.7,0,26594.5,434869
step02_gravity_refstate-crust.xmf,1274,-9.51181e-07,2.82786e-06,0,-6.76723e-06,-6.12217e+08,-6.11957e+08,-6.12151e+08,-464232,0.0498463,0.304688,0,0.308739,16333.5,-22288.9,0,27632.9,464232
step02_gravity_refstate-crust.xmf,1275,-1.21758e-06,3.212e-06,0,-7.20612e-06,-6.55546e+08,-6.55242e+08,-6.55462e+08,-494340,0.0531886,0.303582,0,0.308206,16033.1,-23865.8,0,28751.3,494340
step02_gravity_refstate-crust.xmf,1276,-1.54222e-06,3.66118e-06,0,-7.64876e-06,-6.97961e+08,-6.97604e+08,-6.97855e+08,-524705,0.0564976,0.302252,0,0.307487,15730.2,-25409.4,0,29884.3,524705
step02_gravity_refstate-crust.xmf,1277,-2.45778e-06,4.8943e-06,0,-8.57297e-06,-7.85326e+08,-7.84821e+08,-7.85157e+08,-588105,0.0629566,0.298773,0,0.305334,15054.5,-28588.2,0,32309.8,588105
step02_gravity_refstate-crust.xmf,1278,-1.94626e-06,4.20927e-06,0,-8.08788e-06,-7.40194e+08,-7.39772e+08,-7.40061e+08,-554829,0.0596877,0.300416,0,0.306288,15433.2,-26946.2,0,31052.8,554829
step02_gravity_refstate-crust.xmf,1279,-3.15612e-06,5.92629e-06,0,-8.66827e-06,-8.25981e+08,-8.25358e+08,-8.25764e+08,-594644,0.0641325,0.289134,0,0.296161,15160.2,-30067.1,0,33672.8,594644
step02_gravity_refstate-crust.xmf,1280,-3.72851e-06,6.7713e-06,0,-8.82278e-06,-8.61042e+08,-8.60322e+08,-8.60786e+08,-605243,0.0651159,0.283905,0,0.291276,14997.2,-31342.5,0,34745.8,605243
step02_gravity_refstate-crust.xmf,1281,-4.31015e-06,7.64555e-06,0,-8.93778e-06,-8.94535e+08,-8.93715e+08,-8.9424e+08,-613132,0.0655819,0.279279,0,0.286876,14771.9,-32560.8,0,35755,613132
step02_gravity_refstate-crust.xmf,1282,-4.87343e-06,8.50531e-06,0,-9.02267e-06,-9.25674e+08,-9.24756e+08,-9.2534e+08,-618955,0.0655573,0.275518,0,0.28321,14493.9,-33693.5,0,36678.7,618955
step02_gravity_refstate-crust.xmf,1283,-6.95164e-06,1.33417e-05,0,-7.49202e-06,-1.06908e+09,-1.06769e+09,-1.0686e+09,-513953,0.0482835,0.239356,0,0.244177,13540.8,-38913.4,0,41202,513953
step02_gravity_refstate-crust.xmf,1284,-6.68864e-06,1.22428e-05,0,-8.09836e-06,-1.03665e+09,-1.03535e+09,-1.03619e+09,-555547,0.0551271,0.249791,0,0.255802,13745.7,-37732.2,0,40158,555547
step02_gravity_refstate-crust.xmf,1285,-6.24951e-06,1.11679e-05,0,-8.40528e-06,-1.0052e+09,-1.004e+09,-1.00477e+09,-576602,0.0592096,0.256078,0,0.262834,14067.1,-36587.3,0,39198.4,576602
step02_gravity_refstate-crust.xmf,1286,-5.31034e-06,9.11151e-06,0,-9.20825e-06,-9.49373e+08,-9.48384e+08,-9.49009e+08,-631686,0.0656782,0.274953,0,0.282688,14146.3,-34555.5,0,37339,631686
step02_gravity_refstate-crust.xmf,1287,-5.76477e-06,1.01002e-05,0,-8.74917e-06,-9.74448e+08,-9.73359e+08,-9.74052e+08,-600193,0.0626098,0.264215,0,0.271532,14242.2,-35468.1,0,38220.7,600193
step02_gravity_refstate-crust.xmf,1288,-7.23739e-07,1.64325e-06,0,-3.69787e-06,-3.04079e+08,-3.03917e+08,-3.0403e+08,-253674,0.0339314,0.28374,0,0.285762,21332,-11069.9,0,24033.2,253674
step02_gravity_refstate-crust.xmf,1289,-8.43589e-07,2.52932e-06,0,-5.52015e-06,-5.02839e+08,-5.02608e+08,-5.02781e+08,-378682,0.041304,0.293104,0,0.296,18443.7,-18306.9,0,25986.7,378682
step02_gravity_refstate-crust.xmf,1290,-2.0352e-06,1.33471e-06,0,-1.46771e-06,-1.31547e+08,-1.31316e+08,-1.31408e+08,-100685,0.033167,0.250641,0,0.252826,27985.5,-4782.95,0,28391.3,100685
step02_gravity_refstate-crust.xmf,1291,-3.10089e-06,1.49158e-06,0,-6.29375e-07,-7.79378e+07,-7.76228e+07,-7.77251e+07,-43175.1,0.0264173,0.234772,0,0.236253,32351.6,-2827.17,0,32474.9,43175.1
step02_gravity_refstate-crust.xmf,1292,-8.01106e-07,2.02564e-06,0,-4.23847e-06,-3.69769e+08,-3.69575e+08,-3.69714e+08,-290759,0.0346786,0.283137,0,0.285253,20845.9,-13461.7,0,24814.7,290759
step02_gravity_refstate-crust.xmf,1293,-9.1741e-07,2.39118e-06,0,-4.68422e-06,-4.26863e+08,-4.26636e+08,-4.268e+08,-321338,0.036424,0.282122,0,0.284464,20414.6,-15540.4,0,25656.5,321338
step02_gravity_refstate-crust.xmf,1294,-1.08885e-06,2.79224e-06,0,-5.06616e-06,-4.80522e+08,-4.80255e+08,-4.80447e+08,-347538,0.0386561,0.279672,0,0.28233,20118.6,-17493.8,0,26660.7,347538
step02_gravity_refstate-crust.xmf,1295,-1.08354e-06,1.91e-06,0,-3.39067e-06,-3.02034e+08,-3.01829e+08,-3.0196e+08,-232600,0.0320746,0.268733,0,0.27064,23401.9,-10994.4,0,25855.9,232600
step02_gravity_refstate-crust.xmf,1296,-1.32311e-06,1.8276e-06,0,-2.868e-06,-2.63789e+08,-2.63572e+08,-2.63698e+08,-196745,0.0306544,0.2594,0,0.261205,25169.9,-9600.96,0,26938.9,196745
step02_gravity_refstate-crust.xmf,1297,-1.61037e-06,1.52483e-06,0,-2.16263e-06,-1.9471e+08,-1.94495e+08,-1.94599e+08,-148356,0.0313803,0.254999,0,0.256922,26582.9,-7084.44,0,27510.7,148356
step02_gravity_refstate-crust.xmf,1298,-2.44325e-06,1.50037e-06,0,-1.1629e-06,-1.28506e+08,-1.28236e+08,-1.28339e+08,-79775.2,0.0280951,0.239639,0,0.241281,30358,-4670.84,0,30715.2,79775.2
step02_gravity_refstate-crust.xmf,1299,-4.25532e-06,1.61159e-06,0,-2.00029e-08,-404358,-1888.28,-112443,-1372.2,0.0277891,0.234617,0,0.236257,33847.7,0,0,33847.7,1372.2
step02_gravity_refstate-crust.xmf,1300,-1.06088e-06,2.93605e-06,0,-5.89766e-06,-5.51934e+08,-5.5166e+08,-5.51862e+08,-404580,0.0441788,0.290632,0,0.293971,18202.6,-20094,0,27112.7,404580
step02_gravity_refstate-crust.xmf,1301,-1.85062e-06,4.2026e-06,0,-7.0018e-06,-6.84144e+08,-6.83728e+08,-6.84017e+08,-480323,0.0531576,0.285047,0,0.289961,17206.7,-24906,0,30271.7,480323
step02_gravity_refstate-crust.xmf,1302,-1.28429e-06,3.316e-06,0,-6.27126e-06,-5.97238e+08,-5.96922e+08,-5.9715e+08,-430208,0.0471527,0.288893,0,0.292716,17882.9,-21743,0,28152.3,430208
step02_gravity_refstate-crust.xmf,1303,-1.54247e-06,3.72989e-06,0,-6.64087e-06,-6.41124e+08,-6.40762e+08,-6.41018e+08,-455564,0.0501812,0.28713,0,0.291482,17544.2,-23340.3,0,29198.8,455564
step02_gravity_refstate-crust.xmf,1304,-2.21571e-06,4.74645e-06,0,-7.34574e-06,-7.26375e+08,-7.25898e+08,-7.26223e+08,-503918,0.0559564,0.282544,0,0.288031,16873.2,-26442.8,0,31367.6,503918
step02_gravity_refstate-crust.xmf,1305,-2.6447e-06,5.37871e-06,0,-7.66814e-06,-7.68311e+08,-7.67761e+08,-7.6813e+08,-526034,0.0584826,0.279597,0,0.285648,16533.8,-27968.8,0,32490.3,526034
step02_gravity_refstate-crust.xmf,1306,-3.16238e-06,6.16212e-06,0,-7.86051e-06,-8.09249e+08,-8.0861e+08,-8.09032e+08,-539231,0.0601311,0.274166,0,0.280682,16325,-29458.3,0,33679.3,539231
step02_gravity_refstate-crust.xmf,1307,-3.71663e-06,7.03445e-06,0,-7.932e-06,-8.48216e+08,-8.47479e+08,-8.47961e+08,-544135,0.0608192,0.267337,0,0.274168,16168.6,-30876,0,34853.3,544135
step02_gravity_refstate-crust.xmf,1308,-4.23895e-06,7.88957e-06,0,-7.94615e-06,-8.83684e+08,-8.82852e+08,-8.83393e+08,-545106,0.0608446,0.261174,0,0.268167,15962.7,-32166.5,0,35909.5,545106
step02_gravity_refstate-crust.xmf,1309,-5.33179e-06,9.7824e-06,0,-7.87875e-06,-9.55078e+08,-9.54041e+08,-9.54712e+08,-540482,0.0591005,0.250662,0,0.257535,15278.2,-34764.2,0,37973.3,540482
step02_gravity_refstate-crust.xmf,1310,-4.77691e-06,8.81739e-06,0,-7.88534e-06,-9.19249e+08,-9.18316e+08,-9.18921e+08,-540934,0.0600749,0.254709,0,0.261698,15716,-33460.5,0,36967.5,540934
step02_gravity_refstate-crust.xmf,1311,-6.36653e-06,1.26825e-05,0,-6.65006e-06,-1.05126e+09,-1.04995e+09,-1.05082e+09,-456194,0.0458702,0.224364,0,0.229005,14624.9,-38266,0,40965.6,456194
step02_gravity_refstate-crust.xmf,1312,-6.1272e-06,1.18641e-05,0,-6.95618e-06,-1.02409e+09,-1.02285e+09,-1.02367e+09,-477194,0.0501162,0.229889,0,0.235288,14952.9,-37276.5,0,40163.7,477194
step02_gravity_refstate-crust.xmf,1313,-5.79243e-06,1.09288e-05,0,-7.31272e-06,-9.92641e+08,-9.91494e+08,-9.92244e+08,-501653,0.0542691,0.237384,0,0.243508,15235.7,-36131.6,0,39212.5,501653
step02_gravity_refstate-crust.xmf,1314,-1.30469e-06,3.2188e-06,0,-5.42835e-06,-5.32776e+08,-5.32465e+08,-5.32686e+08,-372385,0.0412755,0.276667,0,0.279729,19828.4,-19395.9,0,27737.5,372385
step02_gravity_refstate-crust.xmf,1315,-1.10399e-06,2.21994e-06,0,-3.82796e-06,-3.54109e+08,-3.53881e+08,-3.54033e+08,-262598,0.0325867,0.268829,0,0.270796,22850.9,-12890.7,0,26236.1,262598
step02_gravity_refstate-crust.xmf,1316,-2.03979e-06,1.8154e-06,0,-1.78979e-06,-2.07345e+08,-2.07081e+08,-2.07205e+08,-122779,0.0250629,0.237747,0,0.239064,29723.5,-7543.17,0,30665.7,122779
step02_gravity_refstate-crust.xmf,1317,-2.5172e-06,1.70863e-06,0,-1.12015e-06,-1.60284e+08,-1.59994e+08,-1.60111e+08,-76842.2,0.0212815,0.230005,0,0.230988,32349.8,-5827.74,0,32870.5,76842.2
step02_gravity_refstate-crust.xmf,1318,-3.56495e-06,1.60647e-06,0,-3.44571e-07,-6.61504e+07,-6.57956e+07,-6.59058e+07,-23637.6,0.0170502,0.227177,0,0.227816,35386.6,-2396.34,0,35467.6,23637.6
step02_gravity_refstate-crust.xmf,1319,-4.56565e-06,1.73099e-06,0,-9.25205e-09,-433767,-1817.51,-120564,-634.691,0.0144469,0.228608,0,0.229064,36874.5,0,0,36874.5,634.691
step02_gravity_refstate-crust.xmf,1320,-6.386e-06,1.34347e-05,0,-6.0616e-06,-1.07825e+09,-1.07689e+09,-1.07781e+09,-415826,0.039108,0.213866,0,0.217413,14511.7,-39249.6,0,41846.4,415826
step02_gravity_refstate-crust.xmf,1321,-1.19103e-06,2.60237e-06,0,-4.22959e-06,-4.08872e+08,-4.08612e+08,-4.0879e+08,-290150,0.0338741,0.267575,0,0.269711,22388.8,-14884.6,0,26885.1,290150
step02_gravity_refstate-crust.xmf,1322,-1.33652e-06,3.02786e-06,0,-4.59385e-06,-4.63602e+08,-4.63303e+08,-4.6351e+08,-315138,0.0357821,0.265215,0,0.267618,21990.4,-16877.2,0,27720.3,315138
step02_gravity_refstate-crust.xmf,1323,-1.50885e-06,3.45948e-06,0,-4.92654e-06,-5.1525e+08,-5.14909e+08,-5.15146e+08,-337960,0.0381142,0.262808,0,0.265558,21563.5,-18757.4,0,28580.2,337960
step02_gravity_refstate-crust.xmf,1324,-1.36349e-06,2.32189e-06,0,-3.33952e-06,-3.34137e+08,-3.33885e+08,-3.34044e+08,-229091,0.0299874,0.255683,0,0.257435,24930.8,-12162.7,0,27739.4,229091
step02_gravity_refstate-crust.xmf,1325,-1.67165e-06,1.94525e-06,0,-2.39139e-06,-2.51103e+08,-2.50855e+08,-2.50989e+08,-164049,0.0274536,0.245931,0,0.247458,27550.6,-9137.91,0,29026.5,164049
step02_gravity_refstate-crust.xmf,1326,-2.93703e-06,1.67274e-06,0,-6.93893e-07,-1.25357e+08,-1.25041e+08,-1.25156e+08,-47601.1,0.0174376,0.226014,0,0.226686,34366.2,-4554.46,0,34666.7,47601.1
step02_gravity_refstate-crust.xmf,1327,-3.77582e-06,1.67559e-06,0,-1.37006e-07,-6.10171e+07,-6.06431e+07,-6.07581e+07,-9398.58,0.00841779,0.2238,0,0.223958,37791.1,-2208.71,0,37855.6,9398.58
step02_gravity_refstate-crust.xmf,1328,-4.59738e-06,1.73681e-06,0,1.62276e-08,-437046,-2520.81,-121666,1113.22,6.23384e-19,0.226485,0,0.226485,40000,0,0,40000,1113.22
step02_gravity_refstate-crust.xmf,1329,-1.53286e-06,3.67146e-06,0,-5.75213e-06,-5.81048e+08,-5.80691e+08,-5.80943e+08,-394596,0.0440214,0.273938,0,0.277452,19493.9,-21153.1,0,28765.7,394596
step02_gravity_refstate-crust.xmf,1330,-2.39644e-06,5.14304e-06,0,-6.64137e-06,-7.13221e+08,-7.12704e+08,-7.13056e+08,-455598,0.0520026,0.265815,0,0.270854,18356.4,-25963.8,0,31797.4,455598
step02_gravity_refstate-crust.xmf,1331,-2.06327e-06,4.5955e-06,0,-6.38008e-06,-6.70548e+08,-6.70091e+08,-6.70406e+08,-437673,0.0495715,0.269185,0,0.273711,18703.2,-24410.7,0,30752.2,437673
step02_gravity_refstate-crust.xmf,1332,-1.79078e-06,4.13365e-06,0,-6.06759e-06,-6.27255e+08,-6.26849e+08,-6.27132e+08,-416237,0.0468146,0.271247,0,0.275258,19129.1,-22835,0,29788.6,416237
step02_gravity_refstate-crust.xmf,1333,-2.76432e-06,5.73414e-06,0,-6.88222e-06,-7.54427e+08,-7.53844e+08,-7.54238e+08,-472120,0.0541683,0.262483,0,0.268014,17981.3,-27463.4,0,32826.3,472120
step02_gravity_refstate-crust.xmf,1334,-3.17459e-06,6.39352e-06,0,-7.06657e-06,-7.94305e+08,-7.93649e+08,-7.94087e+08,-484766,0.0558178,0.25845,0,0.264409,17633.3,-28914.5,0,33867.1,484766
step02_gravity_refstate-crust.xmf,1335,-3.63128e-06,7.15987e-06,0,-7.11874e-06,-8.33343e+08,-8.32603e+08,-8.33094e+08,-488346,0.0564802,0.252225,0,0.258471,17399.7,-30335.1,0,34970.9,488346
step02_gravity_refstate-crust.xmf,1336,-4.09596e-06,7.98341e-06,0,-7.06678e-06,-8.71175e+08,-8.70346e+08,-8.70894e+08,-484781,0.0562214,0.244974,0,0.251343,17192,-31711.8,0,36072.2,484781
step02_gravity_refstate-crust.xmf,1337,-4.54412e-06,8.83144e-06,0,-6.94156e-06,-9.07634e+08,-9.06716e+08,-9.07322e+08,-476191,0.0551537,0.237612,0,0.243929,16953.1,-33038.6,0,37134.3,476191
step02_gravity_refstate-crust.xmf,1338,-4.97209e-06,9.71937e-06,0,-6.73835e-06,-9.43819e+08,-9.42811e+08,-9.43478e+08,-462251,0.0531549,0.229997,0,0.236059,16673.9,-34355.6,0,38188,462251
step02_gravity_refstate-crust.xmf,1339,-5.85558e-06,1.3046e-05,0,-5.18506e-06,-1.07323e+09,-1.07193e+09,-1.07283e+09,-355695,0.0345287,0.197148,0,0.200149,15499.3,-39068.4,0,42030.6,355695
step02_gravity_refstate-crust.xmf,1340,-5.77825e-06,1.23143e-05,0,-5.56573e-06,-1.04467e+09,-1.04343e+09,-1.04427e+09,-381809,0.0400968,0.204033,0,0.207935,15845.5,-38027.8,0,41197.1,381809
step02_gravity_refstate-crust.xmf,1341,-5.60107e-06,1.15212e-05,0,-5.94113e-06,-1.01404e+09,-1.01287e+09,-1.01366e+09,-407562,0.0449527,0.211282,0,0.216011,16185,-36912.5,0,40304.9,407562
step02_gravity_refstate-crust.xmf,1342,-5.33996e-06,1.06452e-05,0,-6.37631e-06,-9.79988e+08,-9.78891e+08,-9.79622e+08,-437415,0.0496166,0.220699,0,0.226208,16432.8,-35672.3,0,39275.3,437415
step02_gravity_refstate-crust.xmf,1343,-1.72465e-06,3.91098e-06,0,-5.23304e-06,-5.65098e+08,-5.64711e+08,-5.64979e+08,-358987,0.0406086,0.259731,0,0.262886,21169.7,-20572,0,29518.9,358987
step02_gravity_refstate-crust.xmf,1344,-1.43324e-06,2.74301e-06,0,-3.74292e-06,-3.92269e+08,-3.91982e+08,-3.9217e+08,-256765,0.0309136,0.253717,0,0.255593,24444.7,-14279.4,0,28309.8,256765
step02_gravity_refstate-crust.xmf,1345,-1.60247e-06,2.3423e-06,0,-2.81946e-06,-3.11561e+08,-3.11291e+08,-3.11451e+08,-193415,0.0270119,0.244117,0,0.245607,27049.8,-11339.8,0,29330.6,193415
step02_gravity_refstate-crust.xmf,1346,-1.83669e-06,2.31195e-06,0,-2.2936e-06,-2.88506e+08,-2.88222e+08,-2.8838e+08,-157341,0.0236648,0.234224,0,0.235416,29198.4,-10499.5,0,31028.8,157341
step02_gravity_refstate-crust.xmf,1347,-2.25266e-06,2.09857e-06,0,-1.3982e-06,-2.32435e+08,-2.32136e+08,-2.3228e+08,-95916.8,0.0179662,0.22398,0,0.224699,32639.9,-8456.15,0,33717.5,95916.8
step02_gravity_refstate-crust.xmf,1348,-2.56352e-06,1.94442e-06,0,-8.95323e-07,-1.91832e+08,-1.91522e+08,-1.91656e+08,-61419.2,0.0141286,0.220769,0,0.221221,34706.7,-6976.46,0,35401,61419.2
step02_gravity_refstate-crust.xmf,1349,-3.06453e-06,1.74942e-06,0,-3.75655e-07,-1.3138e+08,-1.3105e+08,-1.3117e+08,-25769.9,0.00903485,0.220233,0,0.220419,37094.8,-4773.34,0,37400.6,25769.9
step02_gravity_refstate-crust.xmf,1350,-3.50965e-06,1.68558e-06,0,8.95265e-09,-8.76868e+07,-8.73304e+07,-8.74461e+07,614.152,6.48153e-19,0.221036,0,0.221036,40000,-3180.74,0,40126.3,614.152
step02_gravity_refstate-crust.xmf,1351,-1.85436e-06,4.08534e-06,0,-4.7084e-06,-5.50072e+08,-5.49664e+08,-5.49944e+08,-322996,0.0370896,0.246765,0,0.249537,22853.5,-20024.7,0,30385.4,322996
step02_gravity_refstate-crust.xmf,1352,-1.55715e-06,3.22065e-06,0,-4.09441e-06,-4.50484e+08,-4.50156e+08,-4.50377e+08,-280877,0.0325613,0.250831,0,0.252936,23980.7,-16399,0,29051.7,280877
step02_gravity_refstate-crust.xmf,1353,-1.68834e-06,3.62791e-06,0,-4.40725e-06,-4.99676e+08,-4.99311e+08,-4.9956e+08,-302337,0.03462,0.248929,0,0.251325,23441.4,-18190,0,29671.1,302337
step02_gravity_refstate-crust.xmf,1354,-1.64054e-06,2.83333e-06,0,-3.20739e-06,-3.75867e+08,-3.75561e+08,-3.75755e+08,-220027,0.0274839,0.240838,0,0.242401,26600.5,-13681.6,0,29912.7,220027
step02_gravity_refstate-crust.xmf,1355,-2.0421e-06,2.31398e-06,0,-1.83769e-06,-2.73215e+08,-2.72916e+08,-2.73075e+08,-126065,0.0201578,0.226396,0,0.227292,31163.7,-9942,0,32711.1,126065
step02_gravity_refstate-crust.xmf,1356,-1.96632e-06,4.42105e-06,0,-5.48364e-06,-6.12865e+08,-6.12427e+08,-6.1273e+08,-376178,0.0430722,0.256058,0,0.259656,20803.1,-22310.9,0,30504.8,376178
step02_gravity_refstate-crust.xmf,1357,-2.81612e-06,5.97167e-06,0,-6.16754e-06,-7.41547e+08,-7.40944e+08,-7.41353e+08,-423093,0.0498405,0.246831,0,0.251812,19447.5,-26994.6,0,33270.3,423093
step02_gravity_refstate-crust.xmf,1358,-2.49782e-06,5.40648e-06,0,-5.98789e-06,-7.00194e+08,-6.99652e+08,-7.00023e+08,-410769,0.0479516,0.250637,0,0.255182,19853.2,-25489.5,0,32308.9,410769
step02_gravity_refstate-crust.xmf,1359,-2.22365e-06,4.91171e-06,0,-5.72985e-06,-6.57319e+08,-6.56829e+08,-6.57166e+08,-393068,0.0454925,0.252936,0,0.256994,20375.7,-23929,0,31428.7,393068
step02_gravity_refstate-crust.xmf,1360,-3.15953e-06,6.57627e-06,0,-6.30081e-06,-7.81046e+08,-7.80378e+08,-7.80829e+08,-432235,0.0512673,0.242648,0,0.248005,19057.8,-28432.2,0,34228.5,432235
step02_gravity_refstate-crust.xmf,1361,-3.53128e-06,7.25073e-06,0,-6.33982e-06,-8.19789e+08,-8.19049e+08,-8.19547e+08,-434912,0.0519177,0.237038,0,0.242657,18742,-29842.2,0,35239.5,434912
step02_gravity_refstate-crust.xmf,1362,-3.91187e-06,7.98245e-06,0,-6.27333e-06,-8.57769e+08,-8.56953e+08,-8.57501e+08,-430351,0.0516402,0.230052,0,0.235776,18484.1,-31224.5,0,36285.4,430351
step02_gravity_refstate-crust.xmf,1363,-4.28186e-06,8.74986e-06,0,-6.12236e-06,-8.95026e+08,-8.94132e+08,-8.94732e+08,-419994,0.0504871,0.222413,0,0.228071,18224.3,-32580.5,0,37331.2,419994
step02_gravity_refstate-crust.xmf,1364,-4.62218e-06,9.55257e-06,0,-5.86841e-06,-9.32169e+08,-9.31197e+08,-9.31852e+08,-402573,0.0482395,0.213834,0,0.219207,17966.9,-33932.6,0,38395.8,402573
step02_gravity_refstate-crust.xmf,1365,-4.90523e-06,1.03606e-05,0,-5.52352e-06,-9.68776e+08,-9.67729e+08,-9.6844e+08,-378913,0.0448431,0.204659,0,0.209514,17696.2,-35265.5,0,39456.4,378913
step02_gravity_refstate-crust.xmf,1366,-5.24415e-06,1.26169e-05,0,-4.2432e-06,-1.07017e+09,-1.06894e+09,-1.06981e+09,-291084,0.0288175,0.178231,0,0.180546,16681.4,-38958.8,0,42380,291084
step02_gravity_refstate-crust.xmf,1367,-5.19335e-06,1.19053e-05,0,-4.6076e-06,-1.0385e+09,-1.03733e+09,-1.03814e+09,-316081,0.0345139,0.18519,0,0.188378,17131,-37805,0,41505.3,316081
step02_gravity_refstate-crust.xmf,1368,-5.09186e-06,1.11471e-05,0,-5.06904e-06,-1.00419e+09,-1.00308e+09,-1.00384e+09,-347736,0.0400626,0.194446,0,0.19853,17459.6,-36555.3,0,40510.8,347736
step02_gravity_refstate-crust.xmf,1369,-2.09069e-06,4.59657e-06,0,-4.92553e-06,-5.99425e+08,-5.98966e+08,-5.99281e+08,-337892,0.039191,0.242037,0,0.245189,22507.8,-21821.3,0,31349.2,337892
step02_gravity_refstate-crust.xmf,1370,-1.74408e-06,3.33634e-06,0,-3.54766e-06,-4.36677e+08,-4.36328e+08,-4.36557e+08,-243370,0.028806,0.237184,0,0.238926,26115.8,-15895.8,0,30573.1,243370
step02_gravity_refstate-crust.xmf,1371,-1.8178e-06,2.82848e-06,0,-2.6447e-06,-3.55762e+08,-3.55443e+08,-3.55637e+08,-181426,0.0236889,0.230042,0,0.231259,28797,-12948.9,0,31574.4,181426
step02_gravity_refstate-crust.xmf,1372,-1.979e-06,2.73668e-06,0,-2.09954e-06,-3.31401e+08,-3.31078e+08,-3.31266e+08,-144029,0.019838,0.222149,0,0.223033,30909,-12061.2,0,33178.9,144029
step02_gravity_refstate-crust.xmf,1373,-2.13115e-06,2.58963e-06,0,-1.57201e-06,-3.02266e+08,-3.01942e+08,-3.02119e+08,-107840,0.0160343,0.217047,0,0.217639,32919.9,-10999.7,0,34709,107840
step02_gravity_refstate-crust.xmf,1374,-2.32139e-06,2.36553e-06,0,-1.02205e-06,-2.62417e+08,-2.62096e+08,-2.62258e+08,-70112.6,0.0118426,0.214368,0,0.214695,35055.6,-9547.83,0,36332.6,70112.6
step02_gravity_refstate-crust.xmf,1375,-2.57129e-06,2.11939e-06,0,-4.75339e-07,-2.1562e+08,-2.15298e+08,-2.15443e+08,-32608.3,0.0067243,0.213876,0,0.213982,37412.8,-7842.72,0,38225.9,32608.3
step02_gravity_refstate-crust.xmf,1376,-2.82836e-06,1.92088e-06,0,3.31792e-09,-1.72017e+08,-1.71691e+08,-1.71823e+08,227.609,4.7801e-19,0.215489,0,0.215489,40000,-6253.97,0,40485.9,227.609
step02_gravity_refstate-crust.xmf,1377,-3.1128e-06,6.69038e-06,0,-5.61759e-06,-7.70025e+08,-7.69353e+08,-7.69812e+08,-385367,0.0468538,0.228165,0,0.232926,20481.1,-28031.3,0,34716.4,385367
step02_gravity_refstate-crust.xmf,1378,-2.13065e-06,4.66504e-06,0,-4.39743e-06,-5.83265e+08,-5.82799e+08,-5.83119e+08,-301664,0.0354205,0.230891,0,0.233592,24112.1,-21233,0,32128.4,301664
step02_gravity_refstate-crust.xmf,1379,-1.93159e-06,4.1462e-06,0,-4.2693e-06,-5.3559e+08,-5.35173e+08,-5.35458e+08,-292874,0.0339686,0.236985,0,0.239407,24301.8,-19497.3,0,31156.4,292874
step02_gravity_refstate-crust.xmf,1380,-1.89668e-06,3.9372e-06,0,-3.86991e-06,-5.01805e+08,-5.01405e+08,-5.01675e+08,-265476,0.0309669,0.23286,0,0.23491,25503.2,-18267.1,0,31370.4,265476
step02_gravity_refstate-crust.xmf,1381,-1.87465e-06,3.35821e-06,0,-2.95119e-06,-4.1875e+08,-4.18391e+08,-4.18622e+08,-202452,0.0246438,0.225587,0,0.226929,28326.6,-15242.6,0,32167.2,202452
step02_gravity_refstate-crust.xmf,1382,-2.327e-06,5.14207e-06,0,-5.09458e-06,-6.46232e+08,-6.4572e+08,-6.46072e+08,-349488,0.0412269,0.237394,0,0.240947,22118.5,-23525.3,0,32290.4,349488
step02_gravity_refstate-crust.xmf,1383,-2.83355e-06,6.1395e-06,0,-5.51599e-06,-7.31239e+08,-7.30623e+08,-7.31044e+08,-378397,0.0455534,0.232176,0,0.236602,20930.3,-26619.5,0,33862.6,378397
step02_gravity_refstate-crust.xmf,1384,-2.59102e-06,5.689e-06,0,-5.26142e-06,-6.91862e+08,-6.91294e+08,-6.91684e+08,-360933,0.0432095,0.233033,0,0.237005,21652.6,-25186.2,0,33214.2,360933
step02_gravity_refstate-crust.xmf,1385,-3.41282e-06,7.29375e-06,0,-5.62588e-06,-8.0792e+08,-8.07185e+08,-8.07686e+08,-385935,0.0473645,0.22263,0,0.227612,20133.3,-29410.6,0,35641.8,385935
step02_gravity_refstate-crust.xmf,1386,-3.71589e-06,7.9351e-06,0,-5.55743e-06,-8.45198e+08,-8.44399e+08,-8.44943e+08,-381239,0.0471286,0.216148,0,0.221227,19821.1,-30767.5,0,36599.4,381239
step02_gravity_refstate-crust.xmf,1387,-4.00692e-06,8.60944e-06,0,-5.39901e-06,-8.82072e+08,-8.81206e+08,-8.81797e+08,-370372,0.0459962,0.20863,0,0.21364,19540.7,-32109.8,0,37588.3,370372
step02_gravity_refstate-crust.xmf,1388,-4.27285e-06,9.33027e-06,0,-5.1302e-06,-9.19978e+08,-9.19045e+08,-9.19685e+08,-351931,0.0437135,0.199698,0,0.204426,19279.1,-33489.9,0,38642.7,351931
step02_gravity_refstate-crust.xmf,1389,-4.48677e-06,1.00451e-05,0,-4.79707e-06,-9.57071e+08,-9.56075e+08,-9.56764e+08,-329079,0.0404692,0.190547,0,0.194798,18986.8,-34840.5,0,39678.2,329079
step02_gravity_refstate-crust.xmf,1390,-4.62455e-06,1.07103e-05,0,-4.41914e-06,-9.92014e+08,-9.90962e+08,-9.91697e+08,-303153,0.0363406,0.181483,0,0.185085,18683.9,-36113.2,0,40660.1,303153
step02_gravity_refstate-crust.xmf,1391,-4.59742e-06,1.21246e-05,0,-3.37e-06,-1.06761e+09,-1.06647e+09,-1.0673e+09,-231182,0.0230185,0.159596,0,0.161247,17996.8,-38867.7,0,42832.1,231182
step02_gravity_refstate-crust.xmf,1392,-4.56455e-06,1.1386e-05,0,-3.74324e-06,-1.03011e+09,-1.02902e+09,-1.0298e+09,-256786,0.0291706,0.167138,0,0.169665,18613,-37501.4,0,41866.4,256786
step02_gravity_refstate-crust.xmf,1393,-2.36925e-06,5.22108e-06,0,-4.51822e-06,-6.33213e+08,-6.32692e+08,-6.3305e+08,-309950,0.0369605,0.224241,0,0.227267,23836.4,-23051.2,0,33159.2,309950
step02_gravity_refstate-crust.xmf,1394,-2.14068e-06,4.62442e-06,0,-3.91085e-06,-5.63746e+08,-5.63282e+08,-5.63599e+08,-268284,0.0317269,0.221997,0,0.224253,25674.7,-20522.2,0,32868.7,268284
step02_gravity_refstate-crust.xmf,1395,-1.9979e-06,3.91912e-06,0,-3.21865e-06,-4.81045e+08,-4.80639e+08,-4.80908e+08,-220799,0.0261066,0.220182,0,0.221724,27848.5,-17510.9,0,32896.3,220799
step02_gravity_refstate-crust.xmf,1396,-1.9837e-06,3.28491e-06,0,-2.35248e-06,-3.96805e+08,-3.96443e+08,-3.96669e+08,-161380,0.0202797,0.216609,0,0.217556,30554.3,-14443.1,0,33796,161380
step02_gravity_refstate-crust.xmf,1397,-2.09155e-06,3.14815e-06,0,-1.75708e-06,-3.71855e+08,-3.71495e+08,-3.71711e+08,-120536,0.0157117,0.210132,0,0.210718,32820.9,-13534.2,0,35501.9,120536
step02_gravity_refstate-crust.xmf,1398,-2.1965e-06,2.92384e-06,0,-1.15067e-06,-3.37815e+08,-3.37464e+08,-3.37664e+08,-78936.1,0.0109421,0.206928,0,0.207217,35129.5,-12294.1,0,37218.6,78936.1
step02_gravity_refstate-crust.xmf,1399,-2.32231e-06,2.638e-06,0,-5.48639e-07,-2.95632e+08,-2.95292e+08,-2.95473e+08,-37636.6,0.00577991,0.206799,0,0.206879,37529.4,-10757.5,0,39040.7,37636.6
step02_gravity_refstate-crust.xmf,1400,-2.45402e-06,2.36318e-06,0,3.00581e-09,-2.53648e+08,-2.53317e+08,-2.53479e+08,206.199,4.06816e-19,0.209117,0,0.209117,40000,-9228.03,0,41050.7,206.199
step02_gravity_refstate-crust.xmf,1401,-3.07282e-06,6.75728e-06,0,-5.06831e-06,-7.63037e+08,-7.62363e+08,-7.62826e+08,-347686,0.0429949,0.215892,0,0.220131,21756.1,-27777.2,0,35283.1,347686
step02_gravity_refstate-crust.xmf,1402,-3.28079e-06,7.28916e-06,0,-4.99345e-06,-7.97524e+08,-7.96799e+08,-7.97299e+08,-342551,0.0430275,0.209651,0,0.214021,21515.6,-29032.7,0,36136.1,342551
step02_gravity_refstate-crust.xmf,1403,-2.34374e-06,5.22289e-06,0,-3.96981e-06,-6.17544e+08,-6.17025e+08,-6.17383e+08,-272329,0.032855,0.213714,0,0.216225,25498.5,-22480.9,0,33993.6,272329
step02_gravity_refstate-crust.xmf,1404,-2.05077e-06,3.86653e-06,0,-2.59913e-06,-4.61782e+08,-4.61376e+08,-4.61641e+08,-178300,0.0215094,0.210642,0,0.211737,30047.2,-16809.3,0,34429.4,178300
step02_gravity_refstate-crust.xmf,1405,-2.59353e-06,5.81516e-06,0,-4.59944e-06,-6.81595e+08,-6.81018e+08,-6.81417e+08,-315521,0.0384826,0.218069,0,0.221439,23437,-24812.7,0,34131.6,315521
step02_gravity_refstate-crust.xmf,1406,-2.8694e-06,6.46915e-06,0,-4.68482e-06,-7.33529e+08,-7.32888e+08,-7.33332e+08,-321379,0.0400219,0.211828,0,0.215575,22866.6,-26703.3,0,35156,321379
step02_gravity_refstate-crust.xmf,1407,-3.5169e-06,7.85743e-06,0,-4.91802e-06,-8.34361e+08,-8.33581e+08,-8.3412e+08,-337376,0.0427752,0.203332,0,0.207783,21169.6,-30373.7,0,37023.1,337376
step02_gravity_refstate-crust.xmf,1408,-3.74071e-06,8.44905e-06,0,-4.75936e-06,-8.70401e+08,-8.69564e+08,-8.70144e+08,-326492,0.0416717,0.195984,0,0.200366,20877.2,-31685.8,0,37945.3,326492
step02_gravity_refstate-crust.xmf,1409,-3.93007e-06,9.07476e-06,0,-4.48572e-06,-9.07593e+08,-9.06701e+08,-9.07323e+08,-307720,0.0394351,0.186998,0,0.191111,20632.4,-33040,0,38953,307720
step02_gravity_refstate-crust.xmf,1410,-4.08024e-06,9.71389e-06,0,-4.15326e-06,-9.45343e+08,-9.44396e+08,-9.45063e+08,-284913,0.0362777,0.177615,0,0.181282,20337.2,-34414.7,0,39974.6,284913
step02_gravity_refstate-crust.xmf,1411,-4.18693e-06,1.03142e-05,0,-3.82571e-06,-9.8052e+08,-9.79526e+08,-9.80233e+08,-262444,0.0326473,0.169306,0,0.172425,19965.1,-35695.9,0,40899.9,262444
step02_gravity_refstate-crust.xmf,1412,-4.25971e-06,1.07973e-05,0,-3.58094e-06,-1.00778e+09,-1.00675e+09,-1.00749e+09,-245653,0.0294563,0.163593,0,0.166223,19579.6,-36688.8,0,41586.4,245653
step02_gravity_refstate-crust.xmf,1413,-3.96282e-06,1.16132e-05,0,-2.62394e-06,-1.06592e+09,-1.06485e+09,-1.06565e+09,-180002,0.0176178,0.142614,0,0.143698,19356.1,-38807.8,0,43367.1,180002
step02_gravity_refstate-crust.xmf,1414,-2.55448e-06,5.78965e-06,0,-4.01227e-06,-6.6801e+08,-6.67437e+08,-6.67834e+08,-275242,0.0338587,0.205798,0,0.208565,25219.3,-24318.2,0,35034.1,275242
step02_gravity_refstate-crust.xmf,1415,-2.14539e-06,4.54729e-06,0,-3.36772e-06,-5.43082e+08,-5.42622e+08,-5.42934e+08,-231025,0.0275137,0.212759,0,0.214531,27510.4,-19769.8,0,33877.2,231025
step02_gravity_refstate-crust.xmf,1416,-2.3147e-06,5.16058e-06,0,-3.43345e-06,-6.01084e+08,-6.00572e+08,-6.00926e+08,-235535,0.0285991,0.204142,0,0.206135,27266.4,-21881.7,0,34960.9,235535
step02_gravity_refstate-crust.xmf,1417,-2.16942e-06,4.45753e-06,0,-2.78114e-06,-5.24404e+08,-5.23949e+08,-5.24255e+08,-190786,0.0228319,0.203442,0,0.204719,29609.7,-19089.6,0,35229.9,190786
step02_gravity_refstate-crust.xmf,1418,-2.10584e-06,3.74966e-06,0,-1.96128e-06,-4.40228e+08,-4.39827e+08,-4.40084e+08,-134544,0.0165478,0.203137,0,0.20381,32397.6,-16024.2,0,36143.9,134544
step02_gravity_refstate-crust.xmf,1419,-2.1731e-06,3.61723e-06,0,-1.25016e-06,-4.19113e+08,-4.18716e+08,-4.18964e+08,-85761.1,0.010746,0.197303,0,0.197596,35110.1,-15255,0,38281,85761.1
step02_gravity_refstate-crust.xmf,1420,-2.22306e-06,3.23343e-06,0,-5.96348e-07,-3.71507e+08,-3.71132e+08,-3.71354e+08,-40909.5,0.00540647,0.198624,0,0.198698,37578.6,-13521.1,0,39937.1,40909.5
step02_gravity_refstate-crust.xmf,1421,-2.27662e-06,2.93132e-06,0,1.81707e-09,-3.32796e+08,-3.32438e+08,-3.32639e+08,124.651,3.77505e-19,0.201486,0,0.201486,40000,-12111.1,0,41793.3,124.651
step02_gravity_refstate-crust.xmf,1422,-3.12617e-06,7.16182e-06,0,-4.43864e-06,-7.83289e+08,-7.82584e+08,-7.83075e+08,-304491,0.0387966,0.198473,0,0.202229,22974,-28514.9,0,36618.3,304491
step02_gravity_refstate-crust.xmf,1423,-3.89455e-06,1.10211e-05,0,-2.80914e-06,-1.03543e+09,-1.03441e+09,-1.03516e+09,-192707,0.0217055,0.146325,0,0.147926,20103.7,-37697.2,0,42722.8,192707
step02_gravity_refstate-crust.xmf,1424,-3.32362e-06,7.79019e-06,0,-4.30492e-06,-8.26507e+08,-8.25745e+08,-8.26279e+08,-295318,0.0383476,0.190614,0,0.194433,22579.7,-30088.4,0,37618.5,295318
step02_gravity_refstate-crust.xmf,1425,-2.46928e-06,5.73046e-06,0,-3.45794e-06,-6.53511e+08,-6.52949e+08,-6.53342e+08,-237214,0.0295131,0.195906,0,0.198117,26954.1,-23790.6,0,35951.6,237214
step02_gravity_refstate-crust.xmf,1426,-2.16584e-06,4.34403e-06,0,-2.17045e-06,-5.04791e+08,-5.04345e+08,-5.04643e+08,-148893,0.0180308,0.196127,0,0.196954,31785.7,-18375.4,0,36714.9,148893
step02_gravity_refstate-crust.xmf,1427,-2.73628e-06,6.39376e-06,0,-4.00271e-06,-7.17377e+08,-7.16751e+08,-7.17189e+08,-274586,0.0347147,0.198158,0,0.201176,24815.5,-26115.7,0,36025.5,274586
step02_gravity_refstate-crust.xmf,1428,-2.92688e-06,7.01476e-06,0,-3.90618e-06,-7.67171e+08,-7.66489e+08,-7.66971e+08,-267964,0.0347288,0.188904,0,0.19207,24477,-27928.7,0,37136.7,267964
step02_gravity_refstate-crust.xmf,1429,-3.50849e-06,8.25581e-06,0,-4.28082e-06,-8.59655e+08,-8.58848e+08,-8.59414e+08,-293664,0.0381454,0.186271,0,0.190137,22059.4,-31295.2,0,38288.5,293664
step02_gravity_refstate-crust.xmf,1430,-3.59624e-06,8.78556e-06,0,-3.91836e-06,-8.94763e+08,-8.93914e+08,-8.94516e+08,-268800,0.035348,0.1755,0,0.179025,22048.4,-32573.8,0,39334.3,268800
step02_gravity_refstate-crust.xmf,1431,-3.68004e-06,9.36831e-06,0,-3.56746e-06,-9.34179e+08,-9.33284e+08,-9.33926e+08,-244728,0.032117,0.165355,0,0.168446,21775.1,-34009.3,0,40383,244728
step02_gravity_refstate-crust.xmf,1432,-3.78146e-06,1.04772e-05,0,-2.94292e-06,-1.00653e+09,-1.00555e+09,-1.00627e+09,-201884,0.0246471,0.149413,0,0.151432,20832.2,-36644.5,0,42152.1,201884
step02_gravity_refstate-crust.xmf,1433,-3.73107e-06,9.94209e-06,0,-3.2105e-06,-9.72702e+08,-9.71764e+08,-9.72446e+08,-220241,0.0282693,0.155979,0,0.15852,21384.7,-35412.5,0,41368.5,220241
step02_gravity_refstate-crust.xmf,1434,-3.34801e-06,1.11043e-05,0,-1.98447e-06,-1.06569e+09,-1.0647e+09,-1.06546e+09,-136135,0.0125898,0.127107,0,0.127729,20743.3,-38801.2,0,43997.9,136135
step02_gravity_refstate-crust.xmf,1435,-2.63117e-06,6.27561e-06,0,-3.45618e-06,-7.0373e+08,-7.03119e+08,-7.0355e+08,-237094,0.0301439,0.187573,0,0.18998,26583.7,-25619.1,0,36919.3,237094
step02_gravity_refstate-crust.xmf,1436,-2.3959e-06,5.63267e-06,0,-2.91605e-06,-6.39575e+08,-6.39024e+08,-6.39411e+08,-200041,0.025028,0.186843,0,0.188512,28810.4,-23283.4,0,37042.6,200041
step02_gravity_refstate-crust.xmf,1437,-2.2811e-06,5.06801e-06,0,-2.87767e-06,-5.84627e+08,-5.84123e+08,-5.84471e+08,-197408,0.0240922,0.195316,0,0.196796,29191.7,-21282.6,0,36126.2,197408
step02_gravity_refstate-crust.xmf,1438,-2.25891e-06,4.93263e-06,0,-2.31684e-06,-5.66865e+08,-5.66371e+08,-5.6671e+08,-158935,0.0193849,0.188011,0,0.189007,31251.4,-20635.8,0,37449.7,158935
step02_gravity_refstate-crust.xmf,1439,-2.17821e-06,4.21159e-06,0,-1.55477e-06,-4.86097e+08,-4.85659e+08,-4.85948e+08,-106657,0.0130154,0.190652,0,0.191096,34075.4,-17694.6,0,38395.7,106657
step02_gravity_refstate-crust.xmf,1440,-2.20298e-06,3.87905e-06,0,-5.7928e-07,-4.45755e+08,-4.45338e+08,-4.45604e+08,-39738.6,0.00493261,0.188786,0,0.188851,37763.4,-16225.3,0,41101.5,39738.6
step02_gravity_refstate-crust.xmf,1441,-2.21422e-06,3.56847e-06,0,5.44779e-10,-4.09673e+08,-4.09277e+08,-4.09522e+08,37.3719,3.42819e-19,0.192388,0,0.192388,40000,-14911.1,0,42688.9,37.3719
step02_gravity_refstate-crust.xmf,1442,-3.11913e-06,7.63467e-06,0,-3.75031e-06,-8.16965e+08,-8.16227e+08,-8.16751e+08,-257272,0.0338799,0.178745,0,0.181928,24122.5,-29741.6,0,38294.4,257272
step02_gravity_refstate-crust.xmf,1443,-3.32078e-06,1.05906e-05,0,-2.17227e-06,-1.03629e+09,-1.03534e+09,-1.03607e+09,-149018,0.0164785,0.130996,0,0.132028,21500,-37730.3,0,43426.1,149018
step02_gravity_refstate-crust.xmf,1444,-3.27216e-06,8.34112e-06,0,-3.536e-06,-8.68781e+08,-8.67984e+08,-8.68557e+08,-242570,0.032583,0.169326,0,0.172432,23500.9,-31628.5,0,39403.8,242570
step02_gravity_refstate-crust.xmf,1445,-2.49443e-06,6.16623e-06,0,-2.9057e-06,-6.91013e+08,-6.90418e+08,-6.90841e+08,-199331,0.0256387,0.178239,0,0.180074,28409.3,-25156.5,0,37946.5,199331
step02_gravity_refstate-crust.xmf,1446,-2.22082e-06,4.79613e-06,0,-1.72579e-06,-5.4928e+08,-5.48799e+08,-5.49128e+08,-118389,0.0145348,0.182451,0,0.183029,33415.3,-19995.5,0,38941,118389
step02_gravity_refstate-crust.xmf,1447,-2.198e-06,4.1789e-06,0,-1.02763e-06,-4.80179e+08,-4.79741e+08,-4.80028e+08,-70495.5,0.00863999,0.18644,0,0.18664,36075.2,-17479,0,40086.5,70495.5
step02_gravity_refstate-crust.xmf,1448,-2.74291e-06,6.84423e-06,0,-3.35935e-06,-7.52524e+08,-7.51866e+08,-7.52335e+08,-230451,0.0302057,0.178641,0,0.181177,26215.3,-27395.9,0,37918,230451
step02_gravity_refstate-crust.xmf,1449,-2.85048e-06,7.41707e-06,0,-3.20379e-06,-8.02407e+08,-8.01703e+08,-8.02211e+08,-219780,0.0295256,0.168693,0,0.171257,25822.6,-29212.4,0,38989.4,219780
step02_gravity_refstate-crust.xmf,1450,-3.29949e-06,8.96399e-06,0,-3.08946e-06,-9.1876e+08,-9.17919e+08,-9.18534e+08,-211937,0.0285815,0.155442,0,0.158048,23302.3,-33448.9,0,40765.5,211937
step02_gravity_refstate-crust.xmf,1451,-3.27431e-06,9.50209e-06,0,-2.68749e-06,-9.62275e+08,-9.61399e+08,-9.62051e+08,-184362,0.024347,0.144157,0,0.146198,22942.6,-35034.1,0,41877.8,184362
step02_gravity_refstate-crust.xmf,1452,-3.1947e-06,1.00381e-05,0,-2.24958e-06,-1.00643e+09,-1.00552e+09,-1.00621e+09,-154321,0.0189818,0.132945,0,0.134293,22460,-36642.6,0,42978.3,154321
step02_gravity_refstate-crust.xmf,1453,-2.76352e-06,1.06147e-05,0,-1.45116e-06,-1.0674e+09,-1.06648e+09,-1.06721e+09,-99549.9,0.00800511,0.113168,0,0.113451,22113.9,-38865.1,0,44716,99549.9
step02_gravity_refstate-crust.xmf,1454,-2.59266e-06,6.66475e-06,0,-2.86817e-06,-7.39817e+08,-7.39182e+08,-7.39639e+08,-196757,0.0258725,0.16962,0,0.171582,27968.4,-26933.6,0,38828.5,196757
step02_gravity_refstate-crust.xmf,1455,-2.38368e-06,6.04524e-06,0,-2.37295e-06,-6.80209e+08,-6.79631e+08,-6.80046e+08,-162784,0.0210619,0.169783,0,0.171085,30341,-24763.4,0,39163.8,162784
step02_gravity_refstate-crust.xmf,1456,-2.32443e-06,5.5093e-06,0,-2.37305e-06,-6.25375e+08,-6.24838e+08,-6.25216e+08,-162791,0.0204317,0.179127,0,0.180289,30778.4,-22766.5,0,38283.4,162791
step02_gravity_refstate-crust.xmf,1457,-2.27574e-06,5.35416e-06,0,-1.83178e-06,-6.09446e+08,-6.08922e+08,-6.09289e+08,-125660,0.0157026,0.173314,0,0.174023,32865.2,-22186.6,0,39653.1,125660
step02_gravity_refstate-crust.xmf,1458,-2.20862e-06,4.67921e-06,0,-1.13506e-06,-5.35176e+08,-5.34703e+08,-5.35024e+08,-77865.2,0.00958821,0.178495,0,0.178752,35648.8,-19481.9,0,40624.9,77865.2
step02_gravity_refstate-crust.xmf,1459,-2.20827e-06,4.50381e-06,0,-5.69699e-07,-5.15218e+08,-5.14758e+08,-5.15067e+08,-39081.3,0.0047909,0.178113,0,0.178178,37825.5,-18755.1,0,42219.9,39081.3
step02_gravity_refstate-crust.xmf,1460,-2.20485e-06,4.23053e-06,0,-1.34333e-10,-4.84493e+08,-4.84051e+08,-4.84341e+08,-9.21527,3.32416e-19,0.181763,0,0.181763,40000,-17636.1,0,43715.3,9.21527
step02_gravity_refstate-crust.xmf,1461,-2.9459e-06,7.97832e-06,0,-2.99332e-06,-8.52512e+08,-8.51763e+08,-8.5231e+08,-205342,0.0279341,0.158031,0,0.160481,25389.5,-31037,0,40098.9,205342
step02_gravity_refstate-crust.xmf,1462,-2.85735e-06,1.02512e-05,0,-1.70202e-06,-1.03972e+09,-1.03882e+09,-1.03952e+09,-116758,0.0122648,0.118996,0,0.119626,22641.7,-37856.3,0,44110.6,116758
step02_gravity_refstate-crust.xmf,1463,-2.41888e-06,6.51754e-06,0,-2.35749e-06,-7.29446e+08,-7.28833e+08,-7.2928e+08,-161724,0.021508,0.161286,0,0.162713,29813.4,-26556.5,0,39926,161724
step02_gravity_refstate-crust.xmf,1464,-2.21825e-06,5.19075e-06,0,-1.27055e-06,-5.92e+08,-5.91492e+08,-5.91848e+08,-87159.9,0.0109163,0.169813,0,0.170164,35023.3,-21551.4,0,41122.9,87159.9
step02_gravity_refstate-crust.xmf,1465,-2.62761e-06,7.1738e-06,0,-2.72732e-06,-7.87771e+08,-7.87099e+08,-7.87591e+08,-187094,0.0253672,0.160121,0,0.162118,27571.7,-28680.1,0,39783.7,187094
step02_gravity_refstate-crust.xmf,1466,-2.6411e-06,7.68189e-06,0,-2.52372e-06,-8.37677e+08,-8.36969e+08,-8.37496e+08,-173128,0.024004,0.149457,0,0.151373,27147.9,-30497.7,0,40830.3,173128
step02_gravity_refstate-crust.xmf,1467,-2.93597e-06,8.54795e-06,0,-2.66152e-06,-9.01804e+08,-9.01016e+08,-9.01603e+08,-182581,0.0251893,0.146689,0,0.148836,24950.2,-32832.4,0,41236.9,182581
step02_gravity_refstate-crust.xmf,1468,-2.8636e-06,9.04667e-06,0,-2.2708e-06,-9.48871e+08,-9.48054e+08,-9.48675e+08,-155777,0.0211312,0.134667,0,0.136315,24569.8,-34547,0,42393.1,155777
step02_gravity_refstate-crust.xmf,1469,-2.72428e-06,9.47877e-06,0,-1.86334e-06,-9.91962e+08,-9.91125e+08,-9.91775e+08,-127825,0.0162814,0.123307,0,0.124377,24172.9,-36117,0,43459.9,127825
step02_gravity_refstate-crust.xmf,1470,-2.52625e-06,9.82823e-06,0,-1.46622e-06,-1.02987e+09,-1.02902e+09,-1.02969e+09,-100583,0.0109493,0.112821,0,0.113351,23814.8,-37498.4,0,44421.5,100583
step02_gravity_refstate-crust.xmf,1471,-2.2653e-06,1.0125e-05,0,-1.07145e-06,-1.06566e+09,-1.06481e+09,-1.0655e+09,-73501.7,0.00494792,0.10248,0,0.1026,23474.5,-38802.8,0,45350.9,73501.7
step02_gravity_refstate-crust.xmf,1472,-2.45441e-06,6.94578e-06,0,-2.3106e-06,-7.74769e+08,-7.74124e+08,-7.746e+08,-158507,0.0214982,0.153024,0,0.154526,29292.4,-28207,0,40665.5,158507
step02_gravity_refstate-crust.xmf,1473,-2.26254e-06,6.41164e-06,0,-1.78783e-06,-7.26915e+08,-7.2632e+08,-7.2676e+08,-122645,0.016501,0.151637,0,0.152532,31976.5,-26464.9,0,41507.6,122645
step02_gravity_refstate-crust.xmf,1474,-2.28339e-06,5.89425e-06,0,-1.85362e-06,-6.67807e+08,-6.67246e+08,-6.6765e+08,-127159,0.0164742,0.163294,0,0.164123,32366.3,-24312.1,0,40480.3,127159
step02_gravity_refstate-crust.xmf,1475,-2.22468e-06,5.71793e-06,0,-1.3598e-06,-6.51691e+08,-6.51146e+08,-6.51538e+08,-93282,0.0119854,0.159607,0,0.160056,34425.1,-23725.3,0,41808.8,93282
step02_gravity_refstate-crust.xmf,1476,-2.19734e-06,5.15438e-06,0,-6.39116e-07,-5.88277e+08,-5.87773e+08,-5.88126e+08,-43843.4,0.00551044,0.165696,0,0.165787,37478.4,-21415.9,0,43165.6,43843.4
step02_gravity_refstate-crust.xmf,1477,-2.19552e-06,4.87993e-06,0,-1.54075e-09,-5.57462e+08,-5.56977e+08,-5.57312e+08,-105.696,3.81883e-19,0.169655,0,0.169655,40000,-20293.6,0,44853.5,105.696
step02_gravity_refstate-crust.xmf,1478,-2.62049e-06,8.15965e-06,0,-2.26372e-06,-8.87313e+08,-8.86573e+08,-8.87133e+08,-155291,0.0216311,0.138135,0,0.139818,26706,-32305.5,0,41914.9,155291
step02_gravity_refstate-crust.xmf,1479,-2.29773e-06,6.7634e-06,0,-1.93586e-06,-7.63955e+08,-7.63333e+08,-7.63797e+08,-132800,0.0180598,0.147532,0,0.148633,30892.8,-27813.7,0,41568.8,132800
step02_gravity_refstate-crust.xmf,1480,-2.18554e-06,5.53005e-06,0,-9.27545e-07,-6.32047e+08,-6.31518e+08,-6.31897e+08,-63629.6,0.00811675,0.159224,0,0.159431,36235.3,-23010,0,42923.8,63629.6
step02_gravity_refstate-crust.xmf,1481,-2.4046e-06,7.38671e-06,0,-2.12846e-06,-8.22634e+08,-8.21962e+08,-8.22469e+08,-146013,0.0203812,0.142649,0,0.144098,28915.9,-29950.5,0,41631.2,146013
step02_gravity_refstate-crust.xmf,1482,-2.31876e-06,7.8179e-06,0,-1.89554e-06,-8.72385e+08,-8.7169e+08,-8.72226e+08,-130034,0.0184356,0.131406,0,0.132693,28473.1,-31762.8,0,42656.7,130034
step02_gravity_refstate-crust.xmf,1483,-2.49523e-06,8.61279e-06,0,-1.91742e-06,-9.34963e+08,-9.34201e+08,-9.34792e+08,-131535,0.0182351,0.126653,0,0.127959,26256.1,-34041.5,0,42990.8,131535
step02_gravity_refstate-crust.xmf,1484,-2.30839e-06,8.99973e-06,0,-1.52993e-06,-9.80907e+08,-9.80131e+08,-9.80748e+08,-104953,0.0136601,0.114714,0,0.115525,25846.5,-35715.5,0,44086.7,104953
step02_gravity_refstate-crust.xmf,1485,-2.06483e-06,9.32813e-06,0,-1.13829e-06,-1.02327e+09,-1.02249e+09,-1.02313e+09,-78086.9,0.00837545,0.103442,0,0.103781,25421.6,-37259.2,0,45105.5,78086.9
step02_gravity_refstate-crust.xmf,1486,-1.78326e-06,9.60985e-06,0,-7.64362e-07,-1.06213e+09,-1.06135e+09,-1.06201e+09,-52435.3,0.00258118,0.0929946,0,0.0930305,24977.3,-38675.5,0,46039.8,52435.3
step02_gravity_refstate-crust.xmf,1487,-2.23872e-06,7.11227e-06,0,-1.80106e-06,-8.06139e+08,-8.05497e+08,-8.05985e+08,-123553,0.0171909,0.138144,0,0.13921,30622.2,-29350.2,0,42416.5,123553
step02_gravity_refstate-crust.xmf,1488,-2.12507e-06,6.81285e-06,0,-1.50555e-06,-7.81268e+08,-7.80655e+08,-7.81122e+08,-103281,0.0142988,0.136999,0,0.137743,32363,-28444.8,0,43086.8,103281
step02_gravity_refstate-crust.xmf,1489,-2.16126e-06,6.19964e-06,0,-1.32595e-06,-7.09458e+08,-7.08885e+08,-7.0931e+08,-90959.9,0.0121847,0.148137,0,0.148637,34066.1,-25829.4,0,42751.1,90959.9
step02_gravity_refstate-crust.xmf,1490,-2.1195e-06,6.00818e-06,0,-8.9522e-07,-6.9094e+08,-6.90382e+08,-6.90794e+08,-61412.1,0.00811005,0.147172,0,0.147395,36072.9,-25155.1,0,43977.7,61412.1
step02_gravity_refstate-crust.xmf,1491,-2.13345e-06,5.71577e-06,0,-4.89354e-07,-6.56008e+08,-6.55469e+08,-6.55862e+08,-33569.7,0.00437906,0.151753,0,0.151817,37929.5,-23882.8,0,44822.3,33569.7
step02_gravity_refstate-crust.xmf,1492,-2.14774e-06,5.48712e-06,0,-1.70952e-09,-6.28783e+08,-6.28259e+08,-6.28635e+08,-117.273,3.03377e-19,0.15619,0,0.15619,40000,-22891.3,0,46087,117.273
step02_gravity_refstate-crust.xmf,1493,-2.18589e-06,8.20926e-06,0,-1.61258e-06,-9.21904e+08,-9.2119e+08,-9.21754e+08,-110623,0.0154583,0.119609,0,0.120604,28011.5,-33566.7,0,43719.2,110623
step02_gravity_refstate-crust.xmf,1494,-2.0566e-06,6.55814e-06,0,-1.22288e-06,-7.57424e+08,-7.56833e+08,-7.57283e+08,-83889.5,0.0115595,0.137286,0,0.137772,33968.9,-27576.6,0,43753.4,83889.5
step02_gravity_refstate-crust.xmf,1495,-2.09684e-06,7.49128e-06,0,-1.58859e-06,-8.55901e+08,-8.55243e+08,-8.55757e+08,-108978,0.0155336,0.126599,0,0.127548,30265.6,-31163,0,43441.2,108978
step02_gravity_refstate-crust.xmf,1496,-1.90094e-06,7.85037e-06,0,-1.3318e-06,-9.0758e+08,-9.06911e+08,-9.0745e+08,-91361.5,0.0130136,0.114329,0,0.115067,29810.1,-33045.8,0,44504.7,91361.5
step02_gravity_refstate-crust.xmf,1497,-1.95271e-06,8.56346e-06,0,-1.26326e-06,-9.69592e+08,-9.6887e+08,-9.69458e+08,-86659.9,0.0114913,0.107807,0,0.108418,27530.4,-35304.3,0,44769.6,86659.9
step02_gravity_refstate-crust.xmf,1498,-1.64179e-06,8.84261e-06,0,-8.73846e-07,-1.01599e+09,-1.01528e+09,-1.01588e+09,-59945.8,0.00628504,0.0953298,0,0.0955368,27136.6,-36995.3,0,45880.8,59945.8
step02_gravity_refstate-crust.xmf,1499,-1.29728e-06,9.08771e-06,0,-4.99014e-07,-1.05944e+09,-1.05872e+09,-1.05935e+09,-34232.4,0.000462399,0.0838257,0,0.083827,26652.4,-38578.6,0,46889.9,34232.4
step02_gravity_refstate-crust.xmf,1500,-1.96568e-06,7.17881e-06,0,-1.32356e-06,-8.34328e+08,-8.337e+08,-8.34193e+08,-90796.5,0.0128748,0.124422,0,0.125087,32116.5,-30377.7,0,44207.2,90796.5
step02_gravity_refstate-crust.xmf,1501,-1.84975e-06,6.87906e-06,0,-1.00542e-06,-8.08802e+08,-8.08204e+08,-8.08675e+08,-68972,0.00984587,0.124055,0,0.124445,34193.2,-29448.4,0,45126.3,68972
step02_gravity_refstate-crust.xmf,1502,-1.95665e-06,6.50058e-06,0,-8.3804e-07,-7.58127e+08,-7.57547e+08,-7.57993e+08,-57489.5,0.00798607,0.132544,0,0.132784,35747.5,-27602.5,0,45164,57489.5
step02_gravity_refstate-crust.xmf,1503,-1.96874e-06,6.25235e-06,0,-4.24676e-07,-7.29561e+08,-7.28997e+08,-7.29426e+08,-29132.7,0.00399564,0.135698,0,0.135756,37948.7,-26562.1,0,46321.2,29132.7
step02_gravity_refstate-crust.xmf,1504,-2.02597e-06,6.02388e-06,0,-3.95652e-09,-6.98634e+08,-6.98082e+08,-6.98495e+08,-271.417,2.77844e-19,0.141542,0,0.141542,40000,-25435.6,0,47402.2,271.417
step02_gravity_refstate-crust.xmf,1505,-1.66093e-06,8.1558e-06,0,-1.04684e-06,-9.57304e+08,-9.5663e+08,-9.5719e+08,-71813.1,0.00959673,0.102201,0,0.10265,29312.8,-34857.5,0,45544.3,71813.1
step02_gravity_refstate-crust.xmf,1506,-1.69957e-06,7.52837e-06,0,-1.09193e-06,-8.92114e+08,-8.91481e+08,-8.91997e+08,-74906.6,0.0107511,0.110699,0,0.111219,31657.2,-32483.1,0,45357.8,74906.6
step02_gravity_refstate-crust.xmf,1507,-1.41868e-06,7.79247e-06,0,-8.58371e-07,-9.42058e+08,-9.41426e+08,-9.4196e+08,-58884.3,0.00809193,0.0986464,0,0.0989777,31166.2,-34302.9,0,46346.7,58884.3
step02_gravity_refstate-crust.xmf,1508,-1.30356e-06,8.39932e-06,0,-6.92251e-07,-1.00635e+09,-1.00569e+09,-1.00626e+09,-47488.4,0.00497697,0.0894887,0,0.089627,28869.1,-36645,0,46650.6,47488.4
step02_gravity_refstate-crust.xmf,1509,-8.57753e-07,8.58282e-06,0,-3.06294e-07,-1.05555e+09,-1.0549e+09,-1.05549e+09,-21011.8,-0.000911218,0.0760761,-0,0.0760815,28470.5,-38438.2,0,47833.7,21011.8
step02_gravity_refstate-crust.xmf,1510,-1.59991e-06,7.24071e-06,0,-8.7891e-07,-8.7196e+08,-8.71353e+08,-8.7185e+08,-60293.3,0.00866859,0.109615,0,0.109957,33568.4,-31749.3,0,46204.5,60293.3
step02_gravity_refstate-crust.xmf,1511,-1.66975e-06,6.81027e-06,0,-6.14746e-07,-8.18234e+08,-8.17652e+08,-8.18119e+08,-42171.6,0.00600617,0.116999,0,0.117153,36243.8,-29792.4,0,46916.9,42171.6
step02_gravity_refstate-crust.xmf,1512,-1.71851e-06,6.64921e-06,0,-3.52542e-07,-7.95431e+08,-7.94857e+08,-7.95313e+08,-24184.4,0.00345374,0.120211,0,0.120261,37956.7,-28961.8,0,47744.1,24184.4
step02_gravity_refstate-crust.xmf,1513,-1.80624e-06,6.46986e-06,0,-4.50996e-09,-7.67219e+08,-7.66652e+08,-7.67095e+08,-309.383,2.40195e-19,0.125931,0,0.125931,40000,-27934.1,0,48788.5,309.383
step02_gravity_refstate-crust.xmf,1514,-1.08536e-06,8.01287e-06,0,-5.90738e-07,-9.91146e+08,-9.90522e+08,-9.91072e+08,-40524.7,0.00450665,0.0865527,0,0.08667,30633.9,-36091.7,0,47339.7,40524.7
step02_gravity_refstate-crust.xmf,1515,-1.44304e-06,7.0566e-06,0,-5.99733e-07,-8.64275e+08,-8.63692e+08,-8.64176e+08,-41141.7,0.00596991,0.106706,0,0.106873,35537.7,-31469.9,0,47468.8,41141.7
step02_gravity_refstate-crust.xmf,1516,-1.25395e-06,7.49363e-06,0,-6.85572e-07,-9.27084e+08,-9.26484e+08,-9.26998e+08,-47030.2,0.00658428,0.09632,0,0.0965448,33062.3,-33758,0,47251.6,47030.2
step02_gravity_refstate-crust.xmf,1517,-9.15182e-07,7.68693e-06,0,-4.91766e-07,-9.75784e+08,-9.75194e+08,-9.75722e+08,-33735.1,0.00401657,0.084713,0,0.0848082,32445.7,-35532.6,0,48117.4,33735.1
step02_gravity_refstate-crust.xmf,1518,-5.12409e-07,8.10981e-06,0,-1.98809e-07,-1.04577e+09,-1.04518e+09,-1.04574e+09,-13638.3,-0.00107253,0.0710122,-0,0.0710203,30494.2,-38082.9,0,48787.4,13638.3
step02_gravity_refstate-crust.xmf,1519,-1.14757e-06,7.27593e-06,0,-5.1743e-07,-9.15863e+08,-9.15285e+08,-9.15784e+08,-35495.7,0.00496695,0.0945929,0,0.0947232,34893.4,-33349.5,0,48267.4,35495.7
step02_gravity_refstate-crust.xmf,1520,-1.32555e-06,6.96247e-06,0,-2.81862e-07,-8.64528e+08,-8.63959e+08,-8.64437e+08,-19335.7,0.00286777,0.103252,0,0.103291,37783.7,-31479.4,0,49178.9,19335.7
step02_gravity_refstate-crust.xmf,1521,-1.46846e-06,6.80775e-06,0,-6.81449e-09,-8.34743e+08,-8.34175e+08,-8.34642e+08,-467.474,2.01018e-19,0.109592,0,0.109592,40000,-30394.3,0,50237.5,467.474
step02_gravity_refstate-crust.xmf,1522,-6.05355e-07,7.83494e-06,0,-3.03655e-07,-1.01589e+09,-1.01531e+09,-1.01585e+09,-20830.7,0.001177,0.0752049,0,0.0752141,31850,-36994.2,0,48815.9,20830.7
step02_gravity_refstate-crust.xmf,1523,-1.08007e-06,7.13452e-06,0,-3.61767e-07,-9.06574e+08,-9.06011e+08,-9.065e+08,-24817.2,0.00350774,0.0940566,0,0.094122,36506.7,-33011.4,0,49218.9,24817.2
step02_gravity_refstate-crust.xmf,1524,-7.56431e-07,7.43086e-06,0,-3.69585e-07,-9.66053e+08,-9.65492e+08,-9.66001e+08,-25353.5,0.00308182,0.0824027,0,0.0824603,34325.6,-35178.6,0,49150.6,25353.5
step02_gravity_refstate-crust.xmf,1525,-3.86639e-07,7.56669e-06,0,-2.1456e-07,-1.01187e+09,-1.01133e+09,-1.01185e+09,-14718.8,0.000661405,0.0717007,0,0.0717038,33542.6,-36848.4,0,49828.9,14718.8
step02_gravity_refstate-crust.xmf,1526,-4.77014e-08,7.70998e-06,0,-4.31202e-08,-1.0539e+09,-1.05337e+09,-1.0539e+09,-2958.04,-0.0024709,0.06244,-0,0.0624889,32559.4,-38380,0,50330.3,2958.04
step02_gravity_refstate-crust.xmf,1527,-6.95226e-07,7.24725e-06,0,-2.59743e-07,-9.54811e+08,-9.54266e+08,-9.54763e+08,-17818.4,0.00222917,0.0818371,0,0.0818675,36224.1,-34769.3,0,50210.4,17818.4
step02_gravity_refstate-crust.xmf,1528,-7.77712e-07,7.12262e-06,0,-1.51049e-07,-9.33394e+08,-9.32852e+08,-9.3334e+08,-10362,0.00142949,0.0852992,0,0.0853112,38094.7,-33989,0,51053.5,10362
step02_gravity_refstate-crust.xmf,1529,-1.00995e-06,7.03039e-06,0,-5.54857e-09,-9.0141e+08,-9.00858e+08,-9.0134e+08,-380.632,1.04334e-19,0.0927842,0,0.0927842,40000,-32823.5,0,51743.4,380.632
step02_gravity_refstate-crust.xmf,1530,-2.21194e-07,7.33342e-06,0,-1.38793e-07,-1.00621e+09,-1.00569e+09,-1.00619e+09,-9521.23,0.000398626,0.0692662,0,0.0692673,35527.5,-36642.5,0,51037.9,9521.23
step02_gravity_refstate-crust.xmf,1531,2.15516e-07,7.41453e-06,0,4.54228e-09,-1.05341e+09,-1.05292e+09,-1.05342e+09,311.6,-0.00226612,0.0582606,-0,0.0583047,34547.6,-38362.8,0,51625.9,311.6
step02_gravity_refstate-crust.xmf,1532,-1.31001e-07,7.17824e-06,0,-6.10261e-08,-9.99729e+08,-9.99228e+08,-9.9972e+08,-4186.39,0.000217985,0.0681522,0,0.0681526,37908.3,-36406.7,0,52559.4,4186.39
step02_gravity_refstate-crust.xmf,1533,-4.20347e-07,7.12538e-06,0,-8.46213e-09,-9.67422e+08,-9.66904e+08,-9.67393e+08,-580.502,2.23663e-20,0.0757516,0,0.0757516,40000,-35229.3,0,53302,580.502
step02_gravity_refstate-crust.xmf,1534,3.81188e-07,7.20742e-06,0,1.57885e-08,-1.05132e+09,-1.05086e+09,-1.05135e+09,1083.09,-0.0015433,0.0558531,-0,0.0558744,36600.2,-38287.2,0,52966.8,1083.09
step02_gravity_refstate-crust.xmf,1535,2.79133e-07,7.10675e-06,0,-2.03878e-09,-1.03299e+09,-1.03252e+09,-1.033e+09,-139.86,-5.89471e-20,0.0587467,-0,0.0587467,40000,-37619,0,54910.7,139.86
step02_gravity_refstate-crust.xmf,1536,5.07688e-07,7.0964e-06,0,1.18769e-08,-1.05505e+09,-1.05459e+09,-1.05508e+09,814.753,-0.000839963,0.0534422,-0,0.0534488,38420.4,-38423.1,0,54336.5,814.753
