Block Name,Point ID,cauchy_strain_0,cauchy_strain_1,cauchy_strain_2,cauchy_strain_3,cauchy_stress_0,cauchy_stress_1,cauchy_stress_2,cauchy_stress_3,displacement_0,displacement_1,displacement_2,displacement_Magnitude,Points_0,Points_1,Points_2,Points_Magnitude,stress_xy
step02_gravity_refstate-mantle.xmf,0,7.32823e-07,2.14353e-06,0,3.92219e-08,-1.09838e+09,-1.0982e+09,-1.09848e+09,5242.01,0.00172088,0.0508259,0,0.050855,-37663.8,-40000,-0,54941.4,5242.01
step02_gravity_refstate-mantle.xmf,1,7.39018e-07,2.1352e-06,0,6.89513e-10,-1.09838e+09,-1.0982e+09,-1.09848e+09,92.1534,-1.99382e-20,0.0505524,-0,0.0505524,-40000,-40000,-0,56568.5,92.1534
step02_gravity_refstate-mantle.xmf,2,8.22854e-07,2.18351e-06,0,1.89028e-08,-1.14038e+09,-1.1402e+09,-1.14049e+09,2526.36,0.0010448,0.047828,0,0.0478394,-38731.6,-41298,-0,56618.6,2526.36
step02_gravity_refstate-mantle.xmf,3,8.96336e-07,2.21962e-06,0,1.05877e-09,-1.17593e+09,-1.17576e+09,-1.17605e+09,141.505,-3.27571e-20,0.0453331,-0,0.0453331,-40000,-42396.8,-0,58288,141.505
step02_gravity_refstate-mantle.xmf,4,8.39137e-07,2.20637e-06,0,4.24344e-08,-1.15131e+09,-1.15113e+09,-1.15142e+09,5671.36,0.0023695,0.0473867,0,0.0474459,-37191.2,-41635.8,-0,55827.6,5671.36
step02_gravity_refstate-mantle.xmf,5,7.1516e-07,2.16954e-06,0,7.96163e-08,-1.09839e+09,-1.09819e+09,-1.09848e+09,10640.7,0.00333165,0.0516023,0,0.0517097,-35440.8,-40000,-0,53442,10640.7
step02_gravity_refstate-mantle.xmf,6,9.56062e-07,2.26204e-06,0,2.85283e-08,-1.2081e+09,-1.20792e+09,-1.20823e+09,3812.81,0.00198122,0.0432989,0,0.0433442,-37929.1,-43390.9,-0,57631.5,3812.81
step02_gravity_refstate-mantle.xmf,7,8.93413e-07,2.26185e-06,0,6.45709e-08,-1.18361e+09,-1.18342e+09,-1.18373e+09,8629.91,0.00398148,0.0456963,0,0.0458694,-35598.5,-42633.9,-0,55541.9,8629.91
step02_gravity_refstate-mantle.xmf,8,6.90256e-07,2.20844e-06,0,1.213e-07,-1.09839e+09,-1.09818e+09,-1.09848e+09,16211.8,0.0048184,0.0528282,0,0.0530475,-33325.6,-40000,-0,52063.3,16211.8
step02_gravity_refstate-mantle.xmf,9,8.08779e-07,2.25145e-06,0,9.42672e-08,-1.14979e+09,-1.1496e+09,-1.1499e+09,12598.8,0.00495666,0.0488275,0,0.0490784,-34039.6,-41588.7,-0,53743,12598.8
step02_gravity_refstate-mantle.xmf,10,6.58293e-07,2.25935e-06,0,1.66164e-07,-1.09839e+09,-1.09818e+09,-1.09848e+09,22207.9,0.00617359,0.0544657,0,0.0548145,-31312.8,-40000,-0,50798.5,22207.9
step02_gravity_refstate-mantle.xmf,11,7.9594e-07,2.29504e-06,0,1.29936e-07,-1.15283e+09,-1.15263e+09,-1.15293e+09,17365.9,0.00639617,0.0497953,0,0.0502044,-32296.2,-41682.5,-0,52730.2,17365.9
step02_gravity_refstate-mantle.xmf,12,6.19507e-07,2.31812e-06,0,2.14096e-07,-1.09839e+09,-1.09817e+09,-1.09848e+09,28614,0.00739689,0.0564867,0,0.0569689,-29397.5,-40000,-0,49640.9,28614
step02_gravity_refstate-mantle.xmf,13,7.58019e-07,2.3499e-06,0,1.77528e-07,-1.14952e+09,-1.14931e+09,-1.14962e+09,23726.6,0.00786662,0.0517852,0,0.0523793,-30322.1,-41580.4,-0,51462.2,23726.6
step02_gravity_refstate-mantle.xmf,14,1.04496e-06,2.30542e-06,0,1.03994e-09,-1.25397e+09,-1.2538e+09,-1.25411e+09,138.988,-3.82181e-20,0.0398764,-0,0.0398764,-40000,-44808.6,-0,60065.1,138.988
step02_gravity_refstate-mantle.xmf,15,7.11366e-07,2.40974e-06,0,2.30353e-07,-1.14455e+09,-1.14432e+09,-1.14464e+09,30786.7,0.00913932,0.0542846,0,0.0550486,-28436.8,-41426.5,-0,50247.4,30786.7
step02_gravity_refstate-mantle.xmf,16,5.80808e-07,2.38518e-06,0,2.69068e-07,-1.0984e+09,-1.09816e+09,-1.09847e+09,35961,0.00849151,0.0588705,0,0.0594798,-27575,-40000,-0,48583.7,35961
step02_gravity_refstate-mantle.xmf,17,1.10861e-06,2.35797e-06,0,2.61201e-08,-1.29248e+09,-1.29231e+09,-1.29263e+09,3490.95,0.00229786,0.0372745,0,0.0373453,-37928.1,-45998.7,-0,59619,3490.95
step02_gravity_refstate-mantle.xmf,18,9.38993e-07,2.33883e-06,0,9.69717e-08,-1.21574e+09,-1.21555e+09,-1.21586e+09,12960.3,0.00620652,0.0444447,0,0.044876,-33536.9,-43627,-0,55027.6,12960.3
step02_gravity_refstate-mantle.xmf,19,1.03451e-06,2.3416e-06,0,5.54257e-08,-1.25645e+09,-1.25628e+09,-1.25659e+09,7407.65,0.00433325,0.0404211,0,0.0406527,-35844.1,-44885.3,-0,57441.2,7407.65
step02_gravity_refstate-mantle.xmf,20,8.88163e-07,2.39108e-06,0,1.48148e-07,-1.20501e+09,-1.20481e+09,-1.20513e+09,19800,0.00818446,0.0469096,0,0.0476183,-31194.1,-43295.5,-0,53362.6,19800
step02_gravity_refstate-mantle.xmf,21,8.31147e-07,2.44684e-06,0,2.04039e-07,-1.1926e+09,-1.19239e+09,-1.19271e+09,27269.9,0.00967433,0.0497998,0,0.0507308,-29178.2,-42911.8,-0,51892.2,27269.9
step02_gravity_refstate-mantle.xmf,22,6.80738e-07,2.49368e-06,0,2.97561e-07,-1.14654e+09,-1.1463e+09,-1.14664e+09,39769,0.0105122,0.0567769,0,0.0577418,-26540.8,-41488.2,-0,49251.3,39769
step02_gravity_refstate-mantle.xmf,23,5.44009e-07,2.4618e-06,0,3.34737e-07,-1.0984e+09,-1.09814e+09,-1.09847e+09,44737.6,0.00946624,0.0616026,0,0.0623257,-25840.6,-40000,-0,47620.8,44737.6
step02_gravity_refstate-mantle.xmf,24,1.17751e-06,2.39688e-06,0,1.24525e-09,-1.33274e+09,-1.33258e+09,-1.3329e+09,166.428,-4.08771e-20,0.0341528,-0,0.0341528,-40000,-47243,-0,61902.3,166.428
step02_gravity_refstate-mantle.xmf,25,5.09691e-07,2.53905e-06,0,4.04918e-07,-1.0984e+09,-1.09813e+09,-1.09847e+09,54117.2,0.0103306,0.064671,0,0.0654909,-24190.1,-40000,-0,46745.7,54117.2
step02_gravity_refstate-mantle.xmf,26,6.08973e-07,2.54458e-06,0,3.63569e-07,-1.13033e+09,-1.13007e+09,-1.13041e+09,48591,0.0109954,0.0605967,0,0.0615862,-25010.1,-40986.9,-0,48014.9,48591
step02_gravity_refstate-mantle.xmf,27,7.78854e-07,2.49806e-06,0,2.57057e-07,-1.18163e+09,-1.1814e+09,-1.18173e+09,34355.6,0.0106892,0.0525577,0,0.0536337,-27597.7,-42572.6,-0,50735.2,34355.6
step02_gravity_refstate-mantle.xmf,28,4.76687e-07,2.62235e-06,0,4.86812e-07,-1.0984e+09,-1.09811e+09,-1.09846e+09,65062.4,0.0110987,0.0680676,0,0.0689665,-22619.3,-40000,-0,45952.5,65062.4
step02_gravity_refstate-mantle.xmf,29,6.19698e-07,2.64843e-06,0,4.43285e-07,-1.14489e+09,-1.14462e+09,-1.14497e+09,59245.1,0.0124521,0.0624206,0,0.0636505,-23465.9,-41437.1,-0,47620.2,59245.1
step02_gravity_refstate-mantle.xmf,30,1.23013e-06,2.45405e-06,0,2.47229e-08,-1.37116e+09,-1.37099e+09,-1.37132e+09,3304.21,0.00256785,0.0314269,0,0.0315316,-37913.7,-48430,-0,61505.4,3304.21
step02_gravity_refstate-mantle.xmf,31,1.2895e-06,2.49674e-06,0,1.40044e-09,-1.41247e+09,-1.41231e+09,-1.41264e+09,187.168,-4.25095e-20,0.0281247,-0,0.0281247,-40000,-49706.7,-0,63802.5,187.168
step02_gravity_refstate-mantle.xmf,32,4.46095e-07,2.70676e-06,0,5.75856e-07,-1.0984e+09,-1.0981e+09,-1.09846e+09,76963.2,0.0117824,0.0717853,0,0.0727459,-21124.3,-40000,-0,45235.3,76963.2
step02_gravity_refstate-mantle.xmf,33,5.64554e-07,2.71605e-06,0,5.27521e-07,-1.13454e+09,-1.13425e+09,-1.13461e+09,70503.2,0.0128883,0.0664227,0,0.0676616,-22051,-41117.1,-0,46656.9,70503.2
step02_gravity_refstate-mantle.xmf,34,1.16166e-06,2.43357e-06,0,5.18712e-08,-1.33259e+09,-1.33242e+09,-1.33274e+09,6932.59,0.00480861,0.0347884,0,0.0351192,-35889.7,-47238.1,-0,59325.4,6932.59
step02_gravity_refstate-mantle.xmf,35,1.08682e-06,2.43182e-06,0,8.56179e-08,-1.29679e+09,-1.29661e+09,-1.29693e+09,11442.8,0.00677442,0.0382837,0,0.0388784,-33876.9,-46131.8,-0,57234.6,11442.8
step02_gravity_refstate-mantle.xmf,36,1.01167e-06,2.45143e-06,0,1.28365e-07,-1.26658e+09,-1.26639e+09,-1.26672e+09,17155.9,0.00853373,0.041792,0,0.0426544,-31845,-45198.2,-0,55290,17155.9
step02_gravity_refstate-mantle.xmf,37,9.45743e-07,2.50552e-06,0,1.85778e-07,-1.248e+09,-1.24779e+09,-1.24813e+09,24829.2,0.0103354,0.0450318,0,0.0462026,-29686.9,-44624,-0,53596.8,24829.2
step02_gravity_refstate-mantle.xmf,38,8.74489e-07,2.55568e-06,0,2.47664e-07,-1.22691e+09,-1.22668e+09,-1.22703e+09,33100.3,0.0115835,0.0487214,0,0.0500794,-27831.8,-43972.1,-0,52040,33100.3
step02_gravity_refstate-mantle.xmf,39,7.94547e-07,2.58532e-06,0,3.06124e-07,-1.19986e+09,-1.19962e+09,-1.19996e+09,40913.5,0.0121517,0.0528909,0,0.0542689,-26342.9,-43136,-0,50543.7,40913.5
step02_gravity_refstate-mantle.xmf,40,7.15138e-07,2.61666e-06,0,3.68515e-07,-1.17454e+09,-1.17429e+09,-1.17464e+09,49252,0.0124666,0.057178,0,0.0585213,-24949.3,-42353.6,-0,49155.8,49252
step02_gravity_refstate-mantle.xmf,41,1.32715e-06,2.55582e-06,0,2.27827e-08,-1.44851e+09,-1.44834e+09,-1.44868e+09,3044.9,0.00280169,0.0254422,0,0.025596,-37890.8,-50820.3,-0,63391,3044.9
step02_gravity_refstate-mantle.xmf,42,1.37836e-06,2.60577e-06,0,1.50895e-09,-1.49337e+09,-1.49321e+09,-1.49356e+09,201.671,-4.36607e-20,0.0217473,-0,0.0217473,-40000,-52206.7,-0,65768.8,201.671
step02_gravity_refstate-mantle.xmf,43,5.93287e-07,2.82286e-06,0,6.14057e-07,-1.15271e+09,-1.15241e+09,-1.15279e+09,82068.7,0.0142799,0.0676005,0,0.0690923,-20950,-41679,-0,46648.1,82068.7
step02_gravity_refstate-mantle.xmf,44,4.262e-07,2.79948e-06,0,6.83868e-07,-1.0984e+09,-1.09808e+09,-1.09845e+09,91399,0.012397,0.0758188,0,0.0768257,-19701.4,-40000,-0,44588.6,91399
step02_gravity_refstate-mantle.xmf,45,5.21332e-07,2.83615e-06,0,6.70171e-07,-1.13012e+09,-1.12981e+09,-1.13019e+09,89568.4,0.0137791,0.0720203,0,0.0733265,-20053.1,-40980.7,-0,45624,89568.4
step02_gravity_refstate-mantle.xmf,46,6.69901e-07,2.79943e-06,0,5.40926e-07,-1.17829e+09,-1.178e+09,-1.17837e+09,72294.8,0.0145665,0.0625901,0,0.0642628,-22095.7,-42469.4,-0,47873.5,72294.8
step02_gravity_refstate-mantle.xmf,47,1.26497e-06,2.53264e-06,0,4.87717e-08,-1.40759e+09,-1.40742e+09,-1.40776e+09,6518.34,0.00527314,0.0290403,0,0.0295151,-35864,-49555.9,-0,61172,6518.34
step02_gravity_refstate-mantle.xmf,48,1.40148e-06,2.66549e-06,0,1.93624e-08,-1.52664e+09,-1.52647e+09,-1.52683e+09,2587.79,0.00299271,0.0191414,0,0.019374,-37867.5,-53234.7,-0,65329,2587.79
step02_gravity_refstate-mantle.xmf,49,4.11902e-07,2.89415e-06,0,8.03502e-07,-1.09839e+09,-1.09806e+09,-1.09845e+09,107388,0.0129552,0.0801634,0,0.0812035,-18347,-40000,-0,44007,107388
step02_gravity_refstate-mantle.xmf,50,5.22805e-07,2.93096e-06,0,7.79887e-07,-1.13391e+09,-1.13359e+09,-1.13398e+09,104232,0.01454,0.0750279,0,0.0764238,-18938.3,-41097.9,-0,45251.5,104232
step02_gravity_refstate-mantle.xmf,51,1.19668e-06,2.5308e-06,0,8.0683e-08,-1.3708e+09,-1.37062e+09,-1.37096e+09,10783.3,0.00742383,0.0325927,0,0.0334275,-33911.1,-48418.9,-0,59113,10783.3
step02_gravity_refstate-mantle.xmf,52,1.12448e-06,2.54974e-06,0,1.21882e-07,-1.33823e+09,-1.33804e+09,-1.33838e+09,16289.5,0.00937505,0.0361907,0,0.0373852,-31940.1,-47412.5,-0,57167.5,16289.5
step02_gravity_refstate-mantle.xmf,53,1.0536e-06,2.59504e-06,0,1.75712e-07,-1.31299e+09,-1.31279e+09,-1.31313e+09,23483.9,0.0112154,0.0396914,0,0.0412455,-29925,-46632.6,-0,55408.5,23483.9
step02_gravity_refstate-mantle.xmf,54,7.39737e-07,2.75166e-06,0,4.55376e-07,-1.20001e+09,-1.19974e+09,-1.2001e+09,60861,0.0143489,0.0577957,0,0.0595503,-23478.3,-43140.7,-0,49115.7,60861
step02_gravity_refstate-mantle.xmf,55,9.75781e-07,2.63822e-06,0,2.3767e-07,-1.28457e+09,-1.28434e+09,-1.2847e+09,31764.6,0.0125719,0.0437931,0,0.0455619,-28088.4,-45754.1,-0,53687.9,31764.6
step02_gravity_refstate-mantle.xmf,56,8.95423e-07,2.68246e-06,0,3.08944e-07,-1.25583e+09,-1.25559e+09,-1.25595e+09,41290.4,0.013559,0.0483074,0,0.0501742,-26361.9,-44865.8,-0,52037.4,41290.4
step02_gravity_refstate-mantle.xmf,57,8.14093e-07,2.71502e-06,0,3.80449e-07,-1.22567e+09,-1.22542e+09,-1.22578e+09,50847.1,0.0140553,0.0531156,0,0.0549437,-24861.3,-43933.9,-0,50480.4,50847.1
step02_gravity_refstate-mantle.xmf,58,1.34694e-06,2.63927e-06,0,4.29917e-08,-1.48334e+09,-1.48317e+09,-1.48352e+09,5745.84,0.0056329,0.0229892,0,0.0236692,-35855.9,-51896.6,-0,63078.5,5745.84
step02_gravity_refstate-mantle.xmf,59,1.44279e-06,2.72369e-06,0,1.5758e-09,-1.5757e+09,-1.57553e+09,-1.57589e+09,210.606,-4.52276e-20,0.0149698,-0,0.0149698,-40000,-54750.5,-0,67805.7,210.606
step02_gravity_refstate-mantle.xmf,60,3.91713e-07,3.22318e-06,0,1.26042e-06,-1.09837e+09,-1.09799e+09,-1.09842e+09,168455,0.0144089,0.095023,0,0.0961092,-14661.8,-40000,-0,42602.4,168455
step02_gravity_refstate-mantle.xmf,61,3.96986e-07,3.10763e-06,0,1.09437e-06,-1.09838e+09,-1.09801e+09,-1.09843e+09,146263,0.0139519,0.0897694,0,0.0908471,-15830.4,-40000,-0,43018.6,146263
step02_gravity_refstate-mantle.xmf,62,4.56097e-07,3.24453e-06,0,1.22317e-06,-1.12104e+09,-1.12067e+09,-1.1211e+09,163476,0.0156259,0.0901322,0,0.0914767,-15234.5,-40700.8,-0,43458.6,163476
step02_gravity_refstate-mantle.xmf,63,4.04325e-07,2.99463e-06,0,9.39281e-07,-1.09838e+09,-1.09804e+09,-1.09844e+09,125535,0.0134695,0.0848147,0,0.0858776,-17057.8,-40000,-0,43485.3,125535
step02_gravity_refstate-mantle.xmf,64,5.09263e-07,3.03319e-06,0,9.13033e-07,-1.13278e+09,-1.13244e+09,-1.13285e+09,122027,0.0151268,0.0793544,0,0.0807833,-17671.5,-41063.3,-0,44704.3,122027
step02_gravity_refstate-mantle.xmf,65,5.0433e-07,3.17513e-06,0,1.09571e-06,-1.13528e+09,-1.13492e+09,-1.13534e+09,146442,0.0159507,0.0842959,0,0.0857918,-16288.8,-41140.7,-0,44247.9,146442
step02_gravity_refstate-mantle.xmf,66,6.19134e-07,2.97999e-06,0,7.51249e-07,-1.17318e+09,-1.17287e+09,-1.17326e+09,100404,0.0159809,0.0695389,0,0.0713516,-19568.6,-42311.9,-0,46617.9,100404
step02_gravity_refstate-mantle.xmf,67,6.88226e-07,2.95054e-06,0,6.53589e-07,-1.20118e+09,-1.20088e+09,-1.20127e+09,87352.1,0.01628,0.0636049,0,0.0656553,-20821,-43177.1,-0,47935.1,87352.1
step02_gravity_refstate-mantle.xmf,68,7.51477e-07,2.90895e-06,0,5.59882e-07,-1.22498e+09,-1.2247e+09,-1.22508e+09,74828.2,0.0162025,0.0584963,0,0.0606988,-22084.1,-43912.8,-0,49153.2,74828.2
step02_gravity_refstate-mantle.xmf,69,1.28098e-06,2.636e-06,0,7.48702e-08,-1.44261e+09,-1.44243e+09,-1.44278e+09,10006.4,0.00802947,0.0268789,0,0.0280525,-33863.6,-50638,-0,60917.6,10006.4
step02_gravity_refstate-mantle.xmf,70,1.45213e-06,2.78126e-06,0,1.45674e-08,-1.60483e+09,-1.60465e+09,-1.60503e+09,1946.93,0.00320281,0.012567,0,0.0129687,-37798.7,-55650.6,-0,67273.6,1946.93
step02_gravity_refstate-mantle.xmf,71,1.40648e-06,2.75264e-06,0,3.45105e-08,-1.55932e+09,-1.55914e+09,-1.55951e+09,4612.33,0.00595428,0.0166678,0,0.0176994,-35811,-54244.5,-0,64999.2,4612.33
step02_gravity_refstate-mantle.xmf,72,1.48181e-06,2.84996e-06,0,1.1293e-09,-1.6597e+09,-1.65951e+09,-1.65989e+09,150.93,-4.50901e-20,0.00773946,-0,0.00773946,-40000,-57345.7,-0,69918,150.93
step02_gravity_refstate-mantle.xmf,73,4.75968e-07,3.42082e-06,0,1.44054e-06,-1.12889e+09,-1.12849e+09,-1.12895e+09,192528,0.0166304,0.0945679,0,0.096019,-14103.2,-40943.8,-0,43304.7,192528
step02_gravity_refstate-mantle.xmf,74,3.95553e-07,3.36078e-06,0,1.45824e-06,-1.09836e+09,-1.09796e+09,-1.09841e+09,194893,0.0148489,0.100571,0,0.101662,-13548.9,-40000,-0,42232.4,194893
step02_gravity_refstate-mantle.xmf,75,5.76638e-07,3.06999e-06,0,8.75386e-07,-1.16447e+09,-1.16413e+09,-1.16454e+09,116995,0.0163384,0.0741749,0,0.075953,-18318.8,-42042.6,-0,45860.2,116995
step02_gravity_refstate-mantle.xmf,76,1.21101e-06,2.65253e-06,0,1.14212e-07,-1.40693e+09,-1.40673e+09,-1.40709e+09,15264.4,0.0100735,0.0306433,0,0.0322566,-31983.5,-49535.4,-0,58963.5,15264.4
step02_gravity_refstate-mantle.xmf,77,1.13705e-06,2.68889e-06,0,1.64858e-07,-1.3753e+09,-1.3751e+09,-1.37546e+09,22033.2,0.0119209,0.0344639,0,0.0364674,-30099.4,-48558.1,-0,57130.3,22033.2
step02_gravity_refstate-mantle.xmf,78,1.05963e-06,2.73878e-06,0,2.28603e-07,-1.34564e+09,-1.34541e+09,-1.34578e+09,30552.8,0.0135207,0.0385591,0,0.0408609,-28240.7,-47641.4,-0,55382.7,30552.8
step02_gravity_refstate-mantle.xmf,79,8.20248e-07,2.86996e-06,0,4.71276e-07,-1.25167e+09,-1.2514e+09,-1.25178e+09,62986,0.0159745,0.0534314,0,0.0557682,-23413.5,-44737.4,-0,50493.9,62986
step02_gravity_refstate-mantle.xmf,80,9.78983e-07,2.7864e-06,0,3.0245e-07,-1.31417e+09,-1.31393e+09,-1.3143e+09,40422.4,0.014703,0.0431795,0,0.0456141,-26511.3,-46668.9,-0,53673.4,40422.4
step02_gravity_refstate-mantle.xmf,81,8.98306e-07,2.83454e-06,0,3.86886e-07,-1.2831e+09,-1.28284e+09,-1.28322e+09,51707.3,0.0155574,0.0481874,0,0.0506365,-24863.3,-45708.8,-0,52033.4,51707.3
step02_gravity_refstate-mantle.xmf,82,1.34614e-06,2.74821e-06,0,6.37351e-08,-1.51601e+09,-1.51583e+09,-1.51619e+09,8518.19,0.00848331,0.0207775,0,0.0224427,-33848.8,-52906.2,-0,62807.7,8518.19
step02_gravity_refstate-mantle.xmf,83,1.4792e-06,2.89703e-06,0,6.5239e-09,-1.68083e+09,-1.68064e+09,-1.68102e+09,871.92,0.00326546,0.00590051,0,0.00674383,-37798.8,-57998.5,-0,69228.4,871.92
step02_gravity_refstate-mantle.xmf,84,1.49727e-06,2.9747e-06,0,6.69402e-10,-1.74561e+09,-1.74541e+09,-1.74581e+09,89.4656,2.25403e-19,-7.698e-20,0,2.38186e-19,-40000,-60000,-0,72111,89.4656
step02_gravity_refstate-mantle.xmf,85,5.15783e-07,3.379e-06,0,1.30461e-06,-1.15132e+09,-1.15094e+09,-1.15139e+09,174361,0.0174162,0.0875171,0,0.0892332,-15123.8,-41636.8,-0,44298.5,174361
step02_gravity_refstate-mantle.xmf,86,4.48965e-07,3.55024e-06,0,1.63971e-06,-1.12035e+09,-1.11994e+09,-1.12041e+09,219147,0.016587,0.10104,0,0.102393,-13019,-40680.4,-0,42712.9,219147
step02_gravity_refstate-mantle.xmf,87,4.12898e-07,3.52376e-06,0,1.68576e-06,-1.09834e+09,-1.09792e+09,-1.09839e+09,225302,0.0152733,0.106409,0,0.1075,-12489.1,-40000,-0,41904.4,225302
step02_gravity_refstate-mantle.xmf,88,4.05618e-07,3.70483e-06,0,1.92873e-06,-1.09833e+09,-1.09788e+09,-1.09838e+09,257775,0.015683,0.112531,0,0.113618,-11479.4,-40000,-0,41614.6,257775
step02_gravity_refstate-mantle.xmf,89,4.55024e-07,3.75747e-06,0,1.87325e-06,-1.12775e+09,-1.12731e+09,-1.12781e+09,250360,0.0174664,0.10519,0,0.106631,-12128.4,-40909.4,-0,42669.4,250360
step02_gravity_refstate-mantle.xmf,90,5.82982e-07,3.23194e-06,0,1.03974e-06,-1.17642e+09,-1.17606e+09,-1.17649e+09,138961,0.0175782,0.0770714,0,0.0790505,-17124.2,-42412.2,-0,45738.8,138961
step02_gravity_refstate-mantle.xmf,91,7.42767e-07,3.08867e-06,0,6.82191e-07,-1.24726e+09,-1.24695e+09,-1.24736e+09,91174.9,0.0179235,0.0594998,0,0.0621408,-20741.2,-44601.3,-0,49188.1,91174.9
step02_gravity_refstate-mantle.xmf,92,6.88913e-07,3.14021e-06,0,7.90159e-07,-1.22556e+09,-1.22523e+09,-1.22565e+09,105605,0.0180396,0.0646341,0,0.0671044,-19551.2,-43930.7,-0,48084.9,105605
step02_gravity_refstate-mantle.xmf,93,6.36729e-07,3.19529e-06,0,9.09916e-07,-1.20412e+09,-1.20378e+09,-1.20421e+09,121610,0.0180199,0.0702199,0,0.0724952,-18355.3,-43268.4,-0,47000.7,121610
step02_gravity_refstate-mantle.xmf,94,8.00758e-07,3.04147e-06,0,5.81417e-07,-1.2714e+09,-1.2711e+09,-1.27151e+09,77706.4,0.0177097,0.0544889,0,0.0572946,-21961.2,-45347.3,-0,50385.2,77706.4
step02_gravity_refstate-mantle.xmf,95,1.27702e-06,2.7643e-06,0,1.02152e-07,-1.47638e+09,-1.47618e+09,-1.47655e+09,13652.6,0.010692,0.0248366,0,0.0270403,-31971.9,-51681.5,-0,60771.5,13652.6
step02_gravity_refstate-mantle.xmf,96,1.39169e-06,2.86981e-06,0,4.73574e-08,-1.59207e+09,-1.59187e+09,-1.59225e+09,6329.31,0.00887688,0.0141907,0,0.0167384,-33794.3,-55256.1,-0,64771,6329.31
step02_gravity_refstate-mantle.xmf,97,1.44386e-06,2.86706e-06,0,2.40385e-08,-1.63306e+09,-1.63287e+09,-1.63325e+09,3212.75,0.00627957,0.0102791,0,0.0120455,-35700.5,-56522.7,-0,66853.2,3212.75
step02_gravity_refstate-mantle.xmf,98,1.48476e-06,3.00019e-06,0,2.27506e-10,-1.74561e+09,-1.74541e+09,-1.74581e+09,30.4062,0.00386091,-6.22554e-20,0,0.00386091,-37408.2,-60000,-0,70706.3,30.4062
step02_gravity_refstate-mantle.xmf,99,5.50181e-07,3.35574e-06,0,1.20644e-06,-1.17077e+09,-1.1704e+09,-1.17085e+09,161241,0.0179772,0.0821058,0,0.0840508,-15938.5,-42238,-0,45145.1,161241
step02_gravity_refstate-mantle.xmf,100,5.08352e-07,3.61263e-06,0,1.52687e-06,-1.16698e+09,-1.16656e+09,-1.16704e+09,204067,0.0187565,0.0904666,0,0.0923906,-14095,-42121.1,-0,44416.8,204067
step02_gravity_refstate-mantle.xmf,101,4.79861e-07,3.68571e-06,0,1.69052e-06,-1.14895e+09,-1.14853e+09,-1.14902e+09,225938,0.0182687,0.0972223,0,0.0989239,-13136.2,-41564.4,-0,43590.8,225938
step02_gravity_refstate-mantle.xmf,102,4.21231e-07,3.97806e-06,0,2.14737e-06,-1.12435e+09,-1.12387e+09,-1.1244e+09,286997,0.0177121,0.112138,0,0.113529,-11056.5,-40804.6,-0,42276,286997
step02_gravity_refstate-mantle.xmf,103,1.20178e-06,2.79945e-06,0,1.52043e-07,-1.44039e+09,-1.44018e+09,-1.44055e+09,20320.5,0.0126498,0.0289249,0,0.0315701,-30128,-50569.4,-0,58863.9,20320.5
step02_gravity_refstate-mantle.xmf,104,1.12308e-06,2.84776e-06,0,2.14092e-07,-1.40693e+09,-1.4067e+09,-1.40708e+09,28613.3,0.0143184,0.0331707,0,0.0361291,-28347,-49535.4,-0,57072.8,28613.3
step02_gravity_refstate-mantle.xmf,105,1.04209e-06,2.90621e-06,0,2.90507e-07,-1.3751e+09,-1.37485e+09,-1.37524e+09,38826.2,0.0157227,0.0377074,0,0.040854,-26606.5,-48551.9,-0,55364.2,38826.2
step02_gravity_refstate-mantle.xmf,106,8.73312e-07,3.03339e-06,0,4.96085e-07,-1.30862e+09,-1.30833e+09,-1.30874e+09,66301.7,0.0176644,0.0486705,0,0.051777,-23174.7,-46497.4,-0,51952.6,66301.7
step02_gravity_refstate-mantle.xmf,107,9.58091e-07,2.9633e-06,0,3.82833e-07,-1.34079e+09,-1.34052e+09,-1.34092e+09,51165.7,0.0167905,0.0429549,0,0.0461199,-24906.8,-47491.6,-0,53626.5,51165.7
step02_gravity_refstate-mantle.xmf,108,1.32473e-06,2.88278e-06,0,8.30685e-08,-1.54737e+09,-1.54716e+09,-1.54755e+09,11102.1,0.0111933,0.0186547,0,0.0217552,-31943.3,-53875,-0,62633,11102.1
step02_gravity_refstate-mantle.xmf,109,1.46117e-06,2.959e-06,0,7.82759e-09,-1.69615e+09,-1.69595e+09,-1.69635e+09,1046.16,0.00608845,0.00458472,0,0.00762161,-35885.3,-58472,-0,68605.7,1046.16
step02_gravity_refstate-mantle.xmf,110,-2.14369e-08,6.0036e-06,0,4.01137e-06,-1.09823e+09,-1.09742e+09,-1.09822e+09,536120,0.0172157,0.154414,0,0.155371,-6341.87,-40000,-0,40499.6,536120
step02_gravity_refstate-mantle.xmf,111,1.57436e-07,5.41116e-06,0,3.60889e-06,-1.09824e+09,-1.09754e+09,-1.09826e+09,482328,0.0171691,0.146934,0,0.147934,-7100.11,-40000,-0,40625.3,482328
step02_gravity_refstate-mantle.xmf,112,-9.62176e-08,6.00996e-06,0,3.87339e-06,-1.11721e+09,-1.11639e+09,-1.11719e+09,517678,0.0183667,0.147755,0,0.148892,-6661.68,-40585.8,-0,41128.9,517678
step02_gravity_refstate-mantle.xmf,113,5.37849e-07,3.55397e-06,0,1.37672e-06,-1.18651e+09,-1.18611e+09,-1.18658e+09,183999,0.0191881,0.0840096,0,0.0861731,-15062.3,-42724.6,-0,45301.9,183999
step02_gravity_refstate-mantle.xmf,114,2.79421e-07,4.92446e-06,0,3.22359e-06,-1.09825e+09,-1.09763e+09,-1.09829e+09,430833,0.017003,0.139613,0,0.140645,-7894.42,-40000,-0,40771.6,430833
step02_gravity_refstate-mantle.xmf,115,9.26633e-08,5.44125e-06,0,3.49101e-06,-1.11804e+09,-1.11732e+09,-1.11805e+09,466573,0.0184116,0.140352,0,0.141555,-7454.9,-40611.2,-0,41289.8,466573
step02_gravity_refstate-mantle.xmf,116,3.51123e-07,4.52609e-06,0,2.85618e-06,-1.09827e+09,-1.09771e+09,-1.09832e+09,381729,0.0167489,0.132488,0,0.133542,-8727.16,-40000,-0,40941,381729
step02_gravity_refstate-mantle.xmf,117,2.09461e-07,5.00483e-06,0,3.12702e-06,-1.12346e+09,-1.12282e+09,-1.12349e+09,417927,0.0185979,0.132275,0,0.133576,-8301.5,-40778.4,-0,41614.8,417927
step02_gravity_refstate-mantle.xmf,118,3.93541e-07,4.20207e-06,0,2.52362e-06,-1.09829e+09,-1.09778e+09,-1.09834e+09,337282,0.0164325,0.125585,0,0.126656,-9600.66,-40000,-0,41136,337282
step02_gravity_refstate-mantle.xmf,119,3.30941e-07,4.53841e-06,0,2.76157e-06,-1.11689e+09,-1.11633e+09,-1.11693e+09,369084,0.0179464,0.126456,0,0.127723,-9157.62,-40575.1,-0,41595.7,369084
step02_gravity_refstate-mantle.xmf,120,4.15982e-07,3.93021e-06,0,2.21444e-06,-1.0983e+09,-1.09783e+09,-1.09836e+09,295959,0.0160719,0.118927,0,0.120008,-10517.3,-40000,-0,41359.6,295959
step02_gravity_refstate-mantle.xmf,121,3.74915e-07,4.31109e-06,0,2.49658e-06,-1.12581e+09,-1.12528e+09,-1.12586e+09,333668,0.0182354,0.11918,0,0.120567,-9981.23,-40850.3,-0,42052.1,333668
step02_gravity_refstate-mantle.xmf,122,4.1932e-07,4.03011e-06,0,2.08654e-06,-1.14682e+09,-1.14634e+09,-1.14688e+09,278865,0.0188779,0.106507,0,0.108167,-11516.1,-41499,-0,43067.3,278865
step02_gravity_refstate-mantle.xmf,123,7.63207e-07,3.23437e-06,0,7.06443e-07,-1.28864e+09,-1.28831e+09,-1.28874e+09,94416.2,0.0192559,0.055804,0,0.0590329,-20593,-45880,-0,50289.6,94416.2
step02_gravity_refstate-mantle.xmf,124,5.72926e-07,3.48237e-06,0,1.2251e-06,-1.20435e+09,-1.20396e+09,-1.20442e+09,163734,0.0193898,0.077958,0,0.0803332,-16093.6,-43275.5,-0,46171.1,163734
step02_gravity_refstate-mantle.xmf,125,6.14762e-07,3.41112e-06,0,1.07804e-06,-1.22354e+09,-1.22317e+09,-1.22362e+09,144080,0.0194941,0.0719939,0,0.0745865,-17193.7,-43868.6,-0,47117.6,144080
step02_gravity_refstate-mantle.xmf,126,7.11015e-07,3.29989e-06,0,8.19252e-07,-1.26924e+09,-1.26889e+09,-1.26933e+09,109493,0.0195338,0.0605365,0,0.06361,-19458.2,-45280.4,-0,49284.3,109493
step02_gravity_refstate-mantle.xmf,127,6.60211e-07,3.35688e-06,0,9.4505e-07,-1.24633e+09,-1.24597e+09,-1.24642e+09,126306,0.0195946,0.0660958,0,0.0689391,-18306.4,-44572.7,-0,48185.5,126306
step02_gravity_refstate-mantle.xmf,128,8.09206e-07,3.19347e-06,0,6.21458e-07,-1.30891e+09,-1.30859e+09,-1.30902e+09,83057.9,0.0190417,0.051743,0,0.0551355,-21539,-46506.4,-0,51252.1,83057.9
step02_gravity_refstate-mantle.xmf,129,1.24856e-06,2.91483e-06,0,1.31489e-07,-1.50574e+09,-1.50551e+09,-1.5059e+09,17573.5,0.0132376,0.0231512,0,0.0266686,-30136.5,-52588.5,-0,60611.5,17573.5
step02_gravity_refstate-mantle.xmf,130,1.35267e-06,3.01064e-06,0,5.73812e-08,-1.62001e+09,-1.61979e+09,-1.62019e+09,7669,0.0117097,0.0120817,0,0.0168251,-31799.3,-56119.5,-0,64502.7,7669
step02_gravity_refstate-mantle.xmf,131,1.41931e-06,3.00617e-06,0,2.16725e-08,-1.67729e+09,-1.67708e+09,-1.67748e+09,2896.52,0.00921799,0.00646557,0,0.0112594,-33697.6,-57889.2,-0,66982.8,2896.52
step02_gravity_refstate-mantle.xmf,132,1.45091e-06,3.06636e-06,0,6.01428e-10,-1.74561e+09,-1.7454e+09,-1.74581e+09,80.3808,0.0075091,-8.61546e-20,0,0.0075091,-34922.2,-60000,-0,69423.1,80.3808
step02_gravity_refstate-mantle.xmf,133,-2.77218e-07,6.72437e-06,0,4.41896e-06,-1.09822e+09,-1.09729e+09,-1.09819e+09,590593,0.0171052,0.162005,0,0.162905,-5617.28,-40000,-0,40392.5,590593
step02_gravity_refstate-mantle.xmf,134,-3.71496e-07,6.69801e-06,0,4.2349e-06,-1.11762e+09,-1.11668e+09,-1.11757e+09,565994,0.0182175,0.154751,0,0.155819,-5930.27,-40598.6,-0,41029.4,565994
step02_gravity_refstate-mantle.xmf,135,-1.11611e-06,8.66054e-06,0,5.14546e-06,-1.09824e+09,-1.09694e+09,-1.09809e+09,687691,0.0162124,0.177252,0,0.177991,-4258.41,-40000,-0,40226,687691
step02_gravity_refstate-mantle.xmf,136,-6.31365e-07,7.60025e-06,0,4.80876e-06,-1.09823e+09,-1.09713e+09,-1.09814e+09,642691,0.0167895,0.169645,0,0.170474,-4923.76,-40000,-0,40301.9,642691
step02_gravity_refstate-mantle.xmf,137,-1.23291e-06,8.54827e-06,0,4.87649e-06,-1.11729e+09,-1.11598e+09,-1.11712e+09,651743,0.0171152,0.169497,0,0.170359,-4502.54,-40587.2,-0,40836.2,651743
step02_gravity_refstate-mantle.xmf,138,-7.60549e-07,7.56286e-06,0,4.58418e-06,-1.11822e+09,-1.11711e+09,-1.11812e+09,612675,0.0178304,0.162035,0,0.163013,-5196.24,-40616.6,-0,40947.7,612675
step02_gravity_refstate-mantle.xmf,139,4.87633e-07,3.82812e-06,0,1.59443e-06,-1.20347e+09,-1.20302e+09,-1.20353e+09,213095,0.0204335,0.0865047,0,0.0888853,-14044.2,-43248.7,-0,45471.8,213095
step02_gravity_refstate-mantle.xmf,140,4.60638e-07,3.90479e-06,0,1.76933e-06,-1.18396e+09,-1.1835e+09,-1.18402e+09,236471,0.0200418,0.0932672,0,0.0953963,-13106.7,-42646.1,-0,44614.8,236471
step02_gravity_refstate-mantle.xmf,141,4.40465e-07,3.95849e-06,0,1.92794e-06,-1.16325e+09,-1.16278e+09,-1.16331e+09,257669,0.0194284,0.100162,0,0.102028,-12269.6,-42006.3,-0,43761.5,257669
step02_gravity_refstate-mantle.xmf,142,3.74372e-07,4.27922e-06,0,2.3309e-06,-1.14987e+09,-1.14935e+09,-1.14992e+09,311525,0.0193591,0.111027,0,0.112702,-10721.1,-41593.4,-0,42952.9,311525
step02_gravity_refstate-mantle.xmf,143,1.16446e-06,2.97008e-06,0,1.95964e-07,-1.46817e+09,-1.46793e+09,-1.46833e+09,26190.6,0.0151037,0.0277037,0,0.0315534,-28299.8,-51427.7,-0,58699.9,26190.6
step02_gravity_refstate-mantle.xmf,144,1.0829e-06,3.03255e-06,0,2.70109e-07,-1.43507e+09,-1.43481e+09,-1.43521e+09,36100.1,0.0165721,0.03217,0,0.0361876,-26640.7,-50404.8,-0,57012,36100.1
step02_gravity_refstate-mantle.xmf,145,9.9959e-07,3.10488e-06,0,3.60065e-07,-1.40363e+09,-1.40334e+09,-1.40376e+09,48122.7,0.0178091,0.0369257,0,0.0409959,-25011.8,-49433.1,-0,55400.6,48122.7
step02_gravity_refstate-mantle.xmf,146,9.17946e-07,3.17706e-06,0,4.65228e-07,-1.37215e+09,-1.37185e+09,-1.37228e+09,62177.8,0.018758,0.0421183,0,0.0461065,-23452.3,-48460.6,-0,53837.1,62177.8
step02_gravity_refstate-mantle.xmf,147,8.48422e-07,3.24054e-06,0,5.70157e-07,-1.34461e+09,-1.3443e+09,-1.34473e+09,76201.4,0.0193832,0.0470768,0,0.050911,-22117.3,-47609.6,-0,52496.2,76201.4
step02_gravity_refstate-mantle.xmf,148,1.27762e-06,3.03323e-06,0,1.04641e-07,-1.57e+09,-1.56977e+09,-1.57017e+09,13985.2,0.013754,0.0172751,0,0.0220817,-30072.2,-54574.2,-0,62311.1,13985.2
step02_gravity_refstate-mantle.xmf,149,-1.6503e-07,6.02e-06,0,3.73599e-06,-1.13463e+09,-1.13381e+09,-1.13461e+09,499316,0.0192275,0.141763,0,0.143061,-6963.96,-41123.6,-0,41709.1,499316
step02_gravity_refstate-mantle.xmf,150,-1.75291e-06,9.93044e-06,0,5.37137e-06,-1.09828e+09,-1.09672e+09,-1.09804e+09,717883,0.0153048,0.184713,0,0.185346,-3617.79,-40000,-0,40163.3,717883
step02_gravity_refstate-mantle.xmf,151,-1.83016e-06,9.66788e-06,0,5.05041e-06,-1.11634e+09,-1.1148e+09,-1.11609e+09,674987,0.0161164,0.176608,0,0.177342,-3856.3,-40556.7,-0,40739.7,674987
step02_gravity_refstate-mantle.xmf,152,-4.43515e-07,6.62925e-06,0,4.01822e-06,-1.13702e+09,-1.13608e+09,-1.13696e+09,537035,0.0191155,0.147362,0,0.148597,-6287.85,-41197.1,-0,41674.2,537035
step02_gravity_refstate-mantle.xmf,153,5.21898e-07,3.74241e-06,0,1.41829e-06,-1.2228e+09,-1.22237e+09,-1.22287e+09,189555,0.0206713,0.0799219,0,0.0825518,-15061.7,-43845.8,-0,46360.6,189555
step02_gravity_refstate-mantle.xmf,154,-7.13924e-08,5.69653e-06,0,3.47739e-06,-1.14235e+09,-1.14158e+09,-1.14234e+09,464754,0.0196169,0.13545,0,0.136864,-7539.06,-41361.9,-0,42043.3,464754
step02_gravity_refstate-mantle.xmf,155,2.2986e-07,4.8242e-06,0,2.86109e-06,-1.14204e+09,-1.14142e+09,-1.14207e+09,382385,0.0194485,0.123348,0,0.124872,-9087.54,-41351.9,-0,42338.7,382385
step02_gravity_refstate-mantle.xmf,156,3.73969e-07,4.23449e-06,0,2.16849e-06,-1.17051e+09,-1.16999e+09,-1.17056e+09,289819,0.0201275,0.104086,0,0.106014,-11414,-42230.8,-0,43746.1,289819
step02_gravity_refstate-mantle.xmf,157,7.68892e-07,3.37808e-06,0,7.06732e-07,-1.33076e+09,-1.33041e+09,-1.33086e+09,94454.8,0.0203185,0.0515415,0,0.0554019,-20574.4,-47181.5,-0,51472.3,94454.8
step02_gravity_refstate-mantle.xmf,158,7.05051e-07,3.46737e-06,0,8.36097e-07,-1.31045e+09,-1.31009e+09,-1.31055e+09,111744,0.0207452,0.0565418,0,0.0602274,-19334.1,-46554.1,-0,50409.2,111744
step02_gravity_refstate-mantle.xmf,159,5.60791e-07,3.66405e-06,0,1.25459e-06,-1.24301e+09,-1.2426e+09,-1.24309e+09,167676,0.0208213,0.0736497,0,0.0765363,-16104.3,-44470.3,-0,47296.5,167676
step02_gravity_refstate-mantle.xmf,160,6.00309e-07,3.61062e-06,0,1.1118e-06,-1.26637e+09,-1.26597e+09,-1.26645e+09,148592,0.0209814,0.0676187,0,0.070799,-17111.1,-45192,-0,48322.9,148592
step02_gravity_refstate-mantle.xmf,161,6.48831e-07,3.54774e-06,0,9.73364e-07,-1.28929e+09,-1.2889e+09,-1.28938e+09,130090,0.0209755,0.0618933,0,0.065351,-18174.9,-45900.2,-0,49367.5,130090
step02_gravity_refstate-mantle.xmf,162,1.19464e-06,3.08419e-06,0,1.654e-07,-1.52827e+09,-1.52802e+09,-1.52843e+09,22105.7,0.0156095,0.022055,0,0.02702,-28340.5,-53284.8,-0,60352.7,22105.7
step02_gravity_refstate-mantle.xmf,163,1.28755e-06,3.15859e-06,0,7.309e-08,-1.63243e+09,-1.63218e+09,-1.6326e+09,9768.48,0.014353,0.0113825,0,0.0183186,-29829.9,-56502.9,-0,63893.7,9768.48
step02_gravity_refstate-mantle.xmf,164,1.35093e-06,3.15006e-06,0,3.06593e-08,-1.68587e+09,-1.68563e+09,-1.68605e+09,4097.61,0.0126262,0.00590825,0,0.0139402,-31246.3,-58154,-0,66016.8,4097.61
step02_gravity_refstate-mantle.xmf,165,1.39605e-06,3.16978e-06,0,2.50705e-10,-1.74562e+09,-1.74538e+09,-1.7458e+09,33.5067,0.0109057,-8.26319e-20,0,0.0109057,-32535.6,-60000,-0,68253.7,33.5067
step02_gravity_refstate-mantle.xmf,166,-2.5601e-06,1.14117e-05,0,5.39981e-06,-1.09833e+09,-1.09646e+09,-1.09799e+09,721685,0.0139854,0.191867,0,0.192376,-2997.53,-40000,-0,40112.2,721685
step02_gravity_refstate-mantle.xmf,167,-2.51869e-06,1.09086e-05,0,5.06398e-06,-1.11561e+09,-1.11382e+09,-1.11528e+09,676801,0.0147833,0.183279,0,0.183874,-3242.05,-40532.9,-0,40662.4,676801
step02_gravity_refstate-mantle.xmf,168,-8.42416e-07,7.45436e-06,0,4.3206e-06,-1.1386e+09,-1.13749e+09,-1.13848e+09,577448,0.0186731,0.154114,0,0.155241,-5521.75,-41245.2,-0,41613.2,577448
step02_gravity_refstate-mantle.xmf,169,-1.83933e-06,9.40497e-06,0,4.75683e-06,-1.13276e+09,-1.13126e+09,-1.13252e+09,635751,0.0167338,0.169319,0,0.170144,-4098.54,-41063.3,-0,41267.3,635751
step02_gravity_refstate-mantle.xmf,170,-1.43051e-06,8.59731e-06,0,4.59499e-06,-1.13973e+09,-1.13839e+09,-1.13954e+09,614120,0.0177407,0.161814,0,0.162784,-4677.96,-41279.3,-0,41543.5,614120
step02_gravity_refstate-mantle.xmf,171,-3.99785e-07,6.41241e-06,0,3.77668e-06,-1.15405e+09,-1.15314e+09,-1.154e+09,504753,0.0198516,0.139477,0,0.140882,-6797.09,-41723,-0,42273,504753
step02_gravity_refstate-mantle.xmf,172,5.53619e-09,5.39954e-06,0,3.18842e-06,-1.15532e+09,-1.1546e+09,-1.15532e+09,426132,0.0201609,0.127508,0,0.129092,-8257.02,-41762.3,-0,42570.7,426132
step02_gravity_refstate-mantle.xmf,173,2.53038e-07,4.67164e-06,0,2.62556e-06,-1.15901e+09,-1.15842e+09,-1.15905e+09,350906,0.0200916,0.115533,0,0.117267,-9841.81,-41876.1,-0,43017.1,350906
step02_gravity_refstate-mantle.xmf,174,4.29822e-07,4.04992e-06,0,1.62297e-06,-1.24002e+09,-1.23953e+09,-1.24007e+09,216910,0.0217454,0.082111,0,0.0849416,-14031.8,-44377.9,-0,46543.4,216910
step02_gravity_refstate-mantle.xmf,175,3.91516e-07,4.15934e-06,0,1.8208e-06,-1.22069e+09,-1.22018e+09,-1.22074e+09,243350,0.0215079,0.088957,0,0.0915202,-13052.3,-43780.8,-0,45685,243350
step02_gravity_refstate-mantle.xmf,176,3.57661e-07,4.27868e-06,0,2.0487e-06,-1.19917e+09,-1.19865e+09,-1.19922e+09,273808,0.0211065,0.0968577,0,0.0991307,-12035.1,-43116.4,-0,44764.6,273808
step02_gravity_refstate-mantle.xmf,177,2.7409e-07,4.57431e-06,0,2.43141e-06,-1.17762e+09,-1.17704e+09,-1.17765e+09,324958,0.0207138,0.108279,0,0.110243,-10554.2,-42450.6,-0,43743,324958
step02_gravity_refstate-mantle.xmf,178,1.10702e-06,3.15964e-06,0,2.3937e-07,-1.49377e+09,-1.4935e+09,-1.49392e+09,31991.9,0.0172499,0.0265529,0,0.0316641,-26641.9,-52218.7,-0,58622.3,31991.9
step02_gravity_refstate-mantle.xmf,179,1.01609e-06,3.24895e-06,0,3.29607e-07,-1.4621e+09,-1.4618e+09,-1.46224e+09,44051.9,0.0186444,0.0312095,0,0.0363544,-24991.1,-51239.9,-0,57009.5,44051.9
step02_gravity_refstate-mantle.xmf,180,9.2907e-07,3.33736e-06,0,4.3204e-07,-1.43203e+09,-1.43171e+09,-1.43215e+09,57742.2,0.0197123,0.0360554,0,0.0410922,-23478.3,-50310.6,-0,55519.3,57742.2
step02_gravity_refstate-mantle.xmf,181,8.4356e-07,3.43e-06,0,5.50642e-07,-1.40294e+09,-1.40259e+09,-1.40305e+09,73593.3,0.0205587,0.041244,0,0.0460839,-22014.4,-49411.7,-0,54093.9,73593.3
step02_gravity_refstate-mantle.xmf,182,7.60032e-07,3.53413e-06,0,6.8253e-07,-1.37745e+09,-1.37708e+09,-1.37755e+09,91220.2,0.0212423,0.0464911,0,0.0511142,-20606.6,-48624,-0,52810.3,91220.2
step02_gravity_refstate-mantle.xmf,183,1.21164e-06,3.19379e-06,0,1.30086e-07,-1.58493e+09,-1.58467e+09,-1.58509e+09,17386,0.0160148,0.0165691,0,0.0230436,-28322.7,-55035.3,-0,61895.6,17386
step02_gravity_refstate-mantle.xmf,184,-4.44866e-06,1.47453e-05,0,4.42642e-06,-1.09846e+09,-1.0959e+09,-1.09787e+09,591591,0.00979396,0.204259,0,0.204494,-1793.25,-40000,-0,40040.2,591591
step02_gravity_refstate-mantle.xmf,185,-3.50039e-06,1.30488e-05,0,5.09988e-06,-1.0984e+09,-1.09618e+09,-1.09793e+09,681599,0.0121684,0.198487,0,0.19886,-2391.83,-40000,-0,40071.4,681599
step02_gravity_refstate-mantle.xmf,186,-4.14378e-06,1.36088e-05,0,4.30197e-06,-1.11489e+09,-1.11252e+09,-1.11434e+09,574958,0.0109119,0.194719,0,0.195024,-2071.88,-40506.6,-0,40559.6,574958
step02_gravity_refstate-mantle.xmf,187,-3.33801e-06,1.22862e-05,0,4.83438e-06,-1.11506e+09,-1.11297e+09,-1.11461e+09,646115,0.0130466,0.189463,0,0.189912,-2644.64,-40513.7,-0,40600,646115
step02_gravity_refstate-mantle.xmf,188,-2.59041e-06,1.06413e-05,0,4.70082e-06,-1.13591e+09,-1.13414e+09,-1.13556e+09,628264,0.0152586,0.174738,0,0.175403,-3427.48,-41158.7,-0,41301.1,628264
step02_gravity_refstate-mantle.xmf,189,-9.1836e-07,7.36815e-06,0,4.05113e-06,-1.16214e+09,-1.16103e+09,-1.16201e+09,541434,0.0194183,0.145479,0,0.14677,-5886.31,-41971.6,-0,42382.4,541434
step02_gravity_refstate-mantle.xmf,190,4.735e-07,3.94506e-06,0,1.43481e-06,-1.25969e+09,-1.25923e+09,-1.25975e+09,191762,0.0218827,0.0755701,0,0.0786746,-15054.2,-44985.6,-0,47437.7,191762
step02_gravity_refstate-mantle.xmf,191,-3.18341e-07,6.07154e-06,0,3.46589e-06,-1.16862e+09,-1.16777e+09,-1.16858e+09,463217,0.0204821,0.131315,0,0.132903,-7459.92,-42172.8,-0,42827.5,463217
step02_gravity_refstate-mantle.xmf,192,5.14904e-08,5.18503e-06,0,2.92508e-06,-1.17175e+09,-1.17106e+09,-1.17175e+09,390937,0.0207524,0.119486,0,0.121275,-8986.07,-42269.4,-0,43214.1,390937
step02_gravity_refstate-mantle.xmf,193,2.72526e-07,4.52684e-06,0,2.28271e-06,-1.19529e+09,-1.19472e+09,-1.19532e+09,305084,0.021242,0.102399,0,0.104579,-11125.6,-42996.4,-0,44412.5,305084
step02_gravity_refstate-mantle.xmf,194,6.80095e-07,3.64628e-06,0,8.27427e-07,-1.35459e+09,-1.35419e+09,-1.35468e+09,110586,0.0217717,0.0518636,0,0.056248,-19261.8,-47917.7,-0,51644.2,110586
step02_gravity_refstate-mantle.xmf,195,6.07233e-07,3.75258e-06,0,9.84483e-07,-1.33121e+09,-1.33078e+09,-1.33129e+09,131576,0.0220975,0.0576495,0,0.0617395,-17998.6,-47195.1,-0,50510.7,131576
step02_gravity_refstate-mantle.xmf,196,5.13279e-07,3.87302e-06,0,1.26619e-06,-1.28376e+09,-1.28331e+09,-1.28383e+09,169226,0.0220534,0.0690693,0,0.0725046,-16057,-45729.1,-0,48466.3,169226
step02_gravity_refstate-mantle.xmf,197,5.36991e-07,3.86863e-06,0,1.14375e-06,-1.31226e+09,-1.31182e+09,-1.31233e+09,152862,0.0223346,0.0631392,0,0.0669731,-16846.6,-46609.8,-0,49560.8,152862
step02_gravity_refstate-mantle.xmf,198,1.11956e-06,3.28308e-06,0,1.98989e-07,-1.551e+09,-1.55071e+09,-1.55115e+09,26594.9,0.0177722,0.0208714,0,0.0274129,-26621.5,-53986.9,-0,60193.8,26594.9
step02_gravity_refstate-mantle.xmf,199,1.21223e-06,3.30743e-06,0,9.22138e-08,-1.6388e+09,-1.63852e+09,-1.63896e+09,12324.4,0.016486,0.0112259,0,0.0199452,-28141,-56699.5,-0,63298.9,12324.4
step02_gravity_refstate-mantle.xmf,200,1.26252e-06,3.31228e-06,0,4.32935e-08,-1.6877e+09,-1.68743e+09,-1.68787e+09,5786.17,0.0155014,0.0060178,0,0.0166285,-29048.4,-58210.6,-0,65056,5786.17
step02_gravity_refstate-mantle.xmf,201,1.3177e-06,3.3135e-06,0,-1.28255e-10,-1.74562e+09,-1.74535e+09,-1.7458e+09,-17.1413,0.0140168,-8.57195e-20,0,0.0140168,-30242,-60000,-0,67190.6,17.1413
step02_gravity_refstate-mantle.xmf,202,-4.95298e-06,1.4944e-05,0,3.42122e-06,-1.11459e+09,-1.11193e+09,-1.11393e+09,457245,0.00818738,0.199362,0,0.19953,-1472.15,-40495.3,-0,40522.1,457245
step02_gravity_refstate-mantle.xmf,203,-3.12454e-06,1.16497e-05,0,4.65343e-06,-1.12978e+09,-1.12781e+09,-1.12936e+09,621931,0.0138157,0.18158,0,0.182105,-2908.56,-40968.4,-0,41071.5,621931
step02_gravity_refstate-mantle.xmf,204,-1.30344e-06,8.13411e-06,0,4.28226e-06,-1.15686e+09,-1.1556e+09,-1.15669e+09,572324,0.0185444,0.153081,0,0.1542,-5151.86,-41808.1,-0,42124.3,572324
step02_gravity_refstate-mantle.xmf,205,-2.21287e-06,9.75154e-06,0,4.45387e-06,-1.15117e+09,-1.14957e+09,-1.15088e+09,595260,0.0164882,0.165064,0,0.165885,-3971.32,-41630.4,-0,41819.4,595260
step02_gravity_refstate-mantle.xmf,206,-5.30352e-06,1.6053e-05,0,3.18507e-06,-1.09854e+09,-1.09568e+09,-1.09783e+09,425685,0.0068768,0.208789,0,0.208902,-1195.5,-40000,-0,40017.9,425685
step02_gravity_refstate-mantle.xmf,207,-5.84367e-06,1.6941e-05,0,1.66624e-06,-1.09858e+09,-1.09554e+09,-1.0978e+09,222693,0.00354699,0.211677,0,0.211706,-597.755,-40000,-0,40004.5,222693
step02_gravity_refstate-mantle.xmf,208,-5.56659e-06,1.58213e-05,0,2.08774e-06,-1.11595e+09,-1.11309e+09,-1.11521e+09,279026,0.00494515,0.201971,0,0.202031,-858.092,-40535.6,-0,40544.6,279026
step02_gravity_refstate-mantle.xmf,209,-6.02224e-06,1.72367e-05,0,6.60944e-10,-1.0986e+09,-1.09549e+09,-1.09779e+09,88.3351,3.23895e-06,0.212666,0,0.212666,0,-40000,0,40000,88.3351
step02_gravity_refstate-mantle.xmf,210,-5.86354e-06,1.62859e-05,0,6.37762e-07,-1.11581e+09,-1.11285e+09,-1.11503e+09,85236.8,0.00152224,0.203618,0,0.203624,-259.417,-40530.4,-0,40531.2,85236.8
step02_gravity_refstate-mantle.xmf,211,-7.23733e-07,6.84586e-06,0,3.69838e-06,-1.17987e+09,-1.17886e+09,-1.17977e+09,494288,0.0202811,0.135409,0,0.136919,-6647.95,-42519.4,-0,43035.9,494288
step02_gravity_refstate-mantle.xmf,212,-2.3022e-07,5.77658e-06,0,3.18533e-06,-1.18424e+09,-1.18344e+09,-1.18421e+09,425719,0.0210641,0.123187,0,0.124975,-8166.84,-42655,-0,43429.8,425719
step02_gravity_refstate-mantle.xmf,213,3.52347e-07,4.26046e-06,0,1.61145e-06,-1.27583e+09,-1.2753e+09,-1.27587e+09,215371,0.0227156,0.0773922,0,0.080657,-14061.5,-45484.1,-0,47608,215371
step02_gravity_refstate-mantle.xmf,214,8.49637e-08,5.02089e-06,0,2.68948e-06,-1.18917e+09,-1.18851e+09,-1.18918e+09,359449,0.0212915,0.111947,0,0.113953,-9700.83,-42807.4,-0,43892.8,359449
step02_gravity_refstate-mantle.xmf,215,2.88377e-07,4.41418e-06,0,1.82739e-06,-1.25736e+09,-1.25681e+09,-1.2574e+09,244230,0.0225941,0.0842573,0,0.0872341,-13018.2,-44913.6,-0,46762.2,244230
step02_gravity_refstate-mantle.xmf,216,2.33718e-07,4.56273e-06,0,2.04661e-06,-1.23866e+09,-1.23808e+09,-1.23869e+09,273530,0.0223565,0.0913143,0,0.0940113,-12064.9,-44335.9,-0,45948.2,273530
step02_gravity_refstate-mantle.xmf,217,1.24307e-07,4.89366e-06,0,2.48694e-06,-1.2069e+09,-1.20627e+09,-1.20692e+09,332380,0.0217634,0.104953,0,0.107186,-10396.1,-43355.1,-0,44584.1,332380
step02_gravity_refstate-mantle.xmf,218,1.74514e-07,4.73157e-06,0,2.27076e-06,-1.22239e+09,-1.22178e+09,-1.22241e+09,303486,0.022092,0.0982334,0,0.100687,-11178,-43833.3,-0,45236.1,303486
step02_gravity_refstate-mantle.xmf,219,1.02028e-06,3.38611e-06,0,2.86624e-07,-1.51803e+09,-1.51772e+09,-1.51817e+09,38307.2,0.0192741,0.0255087,0,0.0319716,-24957.6,-52968,-0,58553.3,38307.2
step02_gravity_refstate-mantle.xmf,220,6.37492e-07,3.83842e-06,0,7.9131e-07,-1.40256e+09,-1.40214e+09,-1.40265e+09,105759,0.0226344,0.0464417,0,0.0516638,-19204.7,-49399.8,-0,53001.5,105759
step02_gravity_refstate-mantle.xmf,221,9.23159e-07,3.49369e-06,0,3.86772e-07,-1.48831e+09,-1.48796e+09,-1.48843e+09,51692.1,0.0204526,0.03017,0,0.0364491,-23434.6,-52049.4,-0,57081.7,51692.1
step02_gravity_refstate-mantle.xmf,222,8.24425e-07,3.6074e-06,0,5.05451e-07,-1.45893e+09,-1.45856e+09,-1.45904e+09,67553.5,0.0214012,0.0352453,0,0.041234,-21956.3,-51141.7,-0,55655.6,67553.5
step02_gravity_refstate-mantle.xmf,223,7.29402e-07,3.72026e-06,0,6.40545e-07,-1.42994e+09,-1.42954e+09,-1.43003e+09,85608.9,0.0221096,0.0407061,0,0.046323,-20554,-50245.6,-0,54287.1,85608.9
step02_gravity_refstate-mantle.xmf,224,1.12628e-06,3.40066e-06,0,1.47589e-07,-1.60888e+09,-1.60857e+09,-1.60903e+09,19725.3,0.0181303,0.014896,0,0.0234648,-26621.9,-55775,-0,61802.7,19725.3
step02_gravity_refstate-mantle.xmf,225,-4.57669e-06,1.39696e-05,0,3.59958e-06,-1.12689e+09,-1.12442e+09,-1.12628e+09,481083,0.00947531,0.191886,0,0.192119,-1772.95,-40875.4,-0,40913.9,481083
step02_gravity_refstate-mantle.xmf,226,-3.99e-06,1.28977e-05,0,4.06472e-06,-1.13315e+09,-1.13089e+09,-1.13262e+09,543249,0.0115177,0.185669,0,0.186026,-2271.35,-41069.9,-0,41132.6,543249
step02_gravity_refstate-mantle.xmf,227,-3.46385e-06,1.18179e-05,0,4.14356e-06,-1.14686e+09,-1.14482e+09,-1.1464e+09,553786,0.0131366,0.176651,0,0.177139,-2761.52,-41494.1,-0,41585.9,553786
step02_gravity_refstate-mantle.xmf,228,-1.87292e-06,9.01905e-06,0,4.26245e-06,-1.1649e+09,-1.16345e+09,-1.16465e+09,569677,0.0175664,0.156313,0,0.157297,-4529.05,-42054.9,-0,42298.1,569677
step02_gravity_refstate-mantle.xmf,229,-1.58061e-06,8.3652e-06,0,4.02695e-06,-1.17914e+09,-1.17782e+09,-1.17893e+09,538202,0.0185599,0.1476,0,0.148763,-5129.52,-42495.2,-0,42803.6,538202
step02_gravity_refstate-mantle.xmf,230,-2.9876e-06,1.08696e-05,0,4.14341e-06,-1.15963e+09,-1.15777e+09,-1.15923e+09,553766,0.0146089,0.168153,0,0.168787,-3278.25,-41889.2,-0,42017.3,553766
step02_gravity_refstate-mantle.xmf,231,-5.83787e-06,1.69304e-05,0,-1.67457e-06,-1.09858e+09,-1.09554e+09,-1.0978e+09,-223806,-0.00354694,0.211675,-0,0.211705,597.755,-40000,0,40004.5,223806
step02_gravity_refstate-mantle.xmf,232,-5.85999e-06,1.63117e-05,0,-7.88675e-07,-1.11508e+09,-1.11211e+09,-1.11429e+09,-105406,-0.00181615,0.203917,-0,0.203925,309.494,-40507.8,0,40509,105406
step02_gravity_refstate-mantle.xmf,233,4.12408e-07,4.12607e-06,0,1.42681e-06,-1.2924e+09,-1.2919e+09,-1.29245e+09,190694,0.0227307,0.0715261,0,0.0750511,-15044.7,-45996.1,-0,48394,190694
step02_gravity_refstate-mantle.xmf,234,-5.9594e-07,6.44854e-06,0,3.38807e-06,-1.19612e+09,-1.19518e+09,-1.19604e+09,452816,0.0209601,0.126764,0,0.128485,-7358.18,-43021.3,-0,43646,452816
step02_gravity_refstate-mantle.xmf,235,-1.64747e-07,5.54621e-06,0,2.92829e-06,-1.2012e+09,-1.20044e+09,-1.20118e+09,391366,0.0215952,0.115405,0,0.117408,-8868.55,-43178.7,-0,44080.1,391366
step02_gravity_refstate-mantle.xmf,236,5.50212e-07,3.96178e-06,0,9.54211e-07,-1.37739e+09,-1.37694e+09,-1.37746e+09,127530,0.0229976,0.0523301,0,0.0571605,-17926.2,-48622,-0,51821.3,127530
step02_gravity_refstate-mantle.xmf,237,4.67673e-07,4.08862e-06,0,1.13231e-06,-1.35286e+09,-1.35237e+09,-1.35292e+09,151333,0.0232101,0.0585839,0,0.0630141,-16697.7,-47863.8,-0,50692.8,151333
step02_gravity_refstate-mantle.xmf,238,3.96788e-07,4.20289e-06,0,1.33215e-06,-1.32505e+09,-1.32454e+09,-1.3251e+09,178042,0.0232219,0.0657532,0,0.0697334,-15504.3,-47004.6,-0,49495.6,178042
step02_gravity_refstate-mantle.xmf,239,1.01912e-06,3.51838e-06,0,2.27868e-07,-1.57545e+09,-1.57511e+09,-1.57558e+09,30454.5,0.0197339,0.0193945,0,0.027669,-24945.2,-54741.9,-0,60157.6,30454.5
step02_gravity_refstate-mantle.xmf,240,1.14072e-06,3.51337e-06,0,7.31174e-08,-1.67885e+09,-1.67854e+09,-1.67901e+09,9772.15,0.0182154,0.00736814,0,0.0196492,-26773.4,-57936.9,-0,63824,9772.15
step02_gravity_refstate-mantle.xmf,241,1.21457e-06,3.49679e-06,0,-5.25068e-10,-1.74563e+09,-1.74532e+09,-1.74579e+09,-70.1753,0.0168099,-1.07559e-19,0,0.0168099,-28035.6,-60000,-0,66226.9,70.1753
step02_gravity_refstate-mantle.xmf,242,-1.25512e-06,7.69906e-06,0,3.79023e-06,-1.19172e+09,-1.19053e+09,-1.19156e+09,506565,0.0195712,0.13888,0,0.140252,-5852.26,-42884.2,-0,43281.7,506565
step02_gravity_refstate-mantle.xmf,243,-5.19951e-06,1.47789e-05,0,2.47472e-06,-1.13167e+09,-1.129e+09,-1.13098e+09,330746,0.00646296,0.193222,0,0.193331,-1169.54,-41021,-0,41037.6,330746
step02_gravity_refstate-mantle.xmf,244,-2.55787e-06,9.99902e-06,0,4.02692e-06,-1.1741e+09,-1.17243e+09,-1.17376e+09,538198,0.0159612,0.159155,0,0.159953,-3840.45,-42337.1,-0,42510.9,538198
step02_gravity_refstate-mantle.xmf,245,-5.58184e-06,1.5241e-05,0,1.01739e-06,-1.13625e+09,-1.13347e+09,-1.1355e+09,135975,0.00258919,0.193381,0,0.193399,-460.448,-41161,-0,41163.6,135975
step02_gravity_refstate-mantle.xmf,246,-5.28839e-06,1.60063e-05,0,-3.24123e-06,-1.09854e+09,-1.09569e+09,-1.09783e+09,-433190,-0.00687599,0.208788,-0,0.208901,1195.5,-40000,0,40017.9,433190
step02_gravity_refstate-mantle.xmf,247,-5.61478e-06,1.59824e-05,0,-2.05397e-06,-1.11307e+09,-1.11019e+09,-1.11232e+09,-274513,-0.00470977,0.203559,-0,0.203614,812.633,-40446.7,0,40454.9,274513
step02_gravity_refstate-mantle.xmf,248,-5.73942e-06,1.56391e-05,0,-1.97438e-07,-1.12958e+09,-1.12672e+09,-1.12881e+09,-26387.6,-0.000431676,0.196984,-0,0.196984,75.0809,-40954.8,0,40954.9,26387.6
step02_gravity_refstate-mantle.xmf,249,-1.02634e-06,7.18729e-06,0,3.52023e-06,-1.20748e+09,-1.20638e+09,-1.20734e+09,470479,0.0204017,0.130068,0,0.131658,-6562.86,-43371,-0,43864.8,470479
step02_gravity_refstate-mantle.xmf,250,-4.8305e-07,6.1361e-06,0,3.11976e-06,-1.21292e+09,-1.21204e+09,-1.21286e+09,416956,0.0215449,0.118664,0,0.120604,-8057.98,-43540.2,-0,44279.6,416956
step02_gravity_refstate-mantle.xmf,251,2.72991e-07,4.4477e-06,0,1.56294e-06,-1.31134e+09,-1.31078e+09,-1.31138e+09,208887,0.023416,0.0722529,0,0.0759525,-14156,-46581,-0,48684.5,208887
step02_gravity_refstate-mantle.xmf,252,1.76164e-07,4.64713e-06,0,1.78663e-06,-1.29371e+09,-1.29312e+09,-1.29374e+09,238784,0.0233518,0.0790923,0,0.0824676,-13036.4,-46036.4,-0,47846.6,238784
step02_gravity_refstate-mantle.xmf,253,-1.17774e-07,5.37166e-06,0,2.6971e-06,-1.21926e+09,-1.21852e+09,-1.21924e+09,360467,0.0220742,0.108066,0,0.110298,-9548.96,-43736.4,-0,44766.6,360467
step02_gravity_refstate-mantle.xmf,254,9.01391e-08,4.83948e-06,0,2.01983e-06,-1.27468e+09,-1.27405e+09,-1.27469e+09,269950,0.023149,0.086349,0,0.0893981,-12009.5,-45448.4,-0,47008.4,269950
step02_gravity_refstate-mantle.xmf,255,1.30261e-08,5.02812e-06,0,2.2521e-06,-1.25612e+09,-1.25545e+09,-1.25612e+09,300993,0.0228601,0.0935995,0,0.0963507,-11092.5,-44875,-0,46225.6,300993
step02_gravity_refstate-mantle.xmf,256,-5.63849e-08,5.21283e-06,0,2.48344e-06,-1.23773e+09,-1.23703e+09,-1.23772e+09,331911,0.0224988,0.100894,0,0.103372,-10265.2,-44307,-0,45480.6,331911
step02_gravity_refstate-mantle.xmf,257,4.79927e-07,4.1728e-06,0,8.93488e-07,-1.42523e+09,-1.42474e+09,-1.42529e+09,119415,0.0236846,0.0464818,0,0.0521682,-17855.4,-50099.8,-0,53186.5,119415
step02_gravity_refstate-mantle.xmf,258,9.0808e-07,3.64635e-06,0,3.25232e-07,-1.54434e+09,-1.54398e+09,-1.54446e+09,43467.3,0.0210277,0.0240563,0,0.031951,-23368.5,-53780.6,-0,58638.2,43467.3
step02_gravity_refstate-mantle.xmf,259,5.84979e-07,4.03148e-06,0,7.25033e-07,-1.45312e+09,-1.45266e+09,-1.4532e+09,96900.6,0.0233028,0.0403705,0,0.0466133,-19166.2,-50961.6,-0,54446.6,96900.6
step02_gravity_refstate-mantle.xmf,260,7.93835e-07,3.78322e-06,0,4.4198e-07,-1.51441e+09,-1.51401e+09,-1.51451e+09,59070.7,0.0220619,0.0290412,0,0.0364708,-21855.8,-52855.6,-0,57196.1,59070.7
step02_gravity_refstate-mantle.xmf,261,6.88902e-07,3.90378e-06,0,5.73939e-07,-1.48316e+09,-1.48273e+09,-1.48325e+09,76706.9,0.0227709,0.0345279,0,0.0413605,-20498.2,-51889.8,-0,55791.8,76706.9
step02_gravity_refstate-mantle.xmf,262,1.01618e-06,3.63967e-06,0,1.55944e-07,-1.63341e+09,-1.63306e+09,-1.63355e+09,20842,0.0200265,0.0129796,0,0.0238648,-24956.5,-56532.6,-0,61796.2,20842
step02_gravity_refstate-mantle.xmf,263,-4.69277e-06,1.37675e-05,0,3.01722e-06,-1.14327e+09,-1.1408e+09,-1.14264e+09,403252,0.00856953,0.185777,0,0.185974,-1628.32,-41380.1,-0,41412.1,403252
step02_gravity_refstate-mantle.xmf,264,-4.20046e-06,1.27647e-05,0,3.36682e-06,-1.15525e+09,-1.15299e+09,-1.15469e+09,449976,0.0105114,0.178036,0,0.178346,-2111.58,-41750.9,-0,41804.3,449976
step02_gravity_refstate-mantle.xmf,265,-3.70763e-06,1.18185e-05,0,3.54777e-06,-1.16859e+09,-1.16651e+09,-1.16809e+09,474160,0.0122237,0.169824,0,0.170263,-2609.66,-42163.6,-0,42244.3,474160
step02_gravity_refstate-mantle.xmf,266,-2.17527e-06,9.23232e-06,0,3.89623e-06,-1.18897e+09,-1.18744e+09,-1.18868e+09,520731,0.017209,0.15018,0,0.151163,-4448.27,-42796.9,-0,43027.4,520731
step02_gravity_refstate-mantle.xmf,267,-1.83342e-06,8.55291e-06,0,3.72025e-06,-1.20368e+09,-1.20229e+09,-1.20343e+09,497211,0.0183475,0.141449,0,0.142634,-5096.64,-43251.8,-0,43551,497211
step02_gravity_refstate-mantle.xmf,268,-3.24462e-06,1.09325e-05,0,3.61017e-06,-1.18288e+09,-1.18099e+09,-1.18245e+09,482499,0.0137972,0.161315,0,0.161904,-3142.88,-42606.1,-0,42721.8,482499
step02_gravity_refstate-mantle.xmf,269,-4.4549e-06,1.46731e-05,0,-4.37771e-06,-1.09847e+09,-1.09591e+09,-1.09787e+09,-585080,-0.00979266,0.204259,-0,0.204493,1793.25,-40000,0,40040.2,585080
step02_gravity_refstate-mantle.xmf,270,-4.71512e-06,1.45938e-05,0,-3.7796e-06,-1.11221e+09,-1.10963e+09,-1.11158e+09,-505144,-0.00911671,0.199143,-0,0.199352,1660.08,-40422.4,0,40456.5,505144
step02_gravity_refstate-mantle.xmf,271,-5.15536e-06,1.4986e-05,0,-2.90106e-06,-1.12134e+09,-1.11865e+09,-1.12066e+09,-387726,-0.00707352,0.19749,-0,0.197617,1264.8,-40702.7,0,40722.4,387726
step02_gravity_refstate-mantle.xmf,272,-5.52778e-06,1.5239e-05,0,-1.57082e-06,-1.13178e+09,-1.129e+09,-1.13104e+09,-209941,-0.00392367,0.194944,-0,0.194984,695.615,-41023.1,0,41029,209941
step02_gravity_refstate-mantle.xmf,273,-8.70433e-07,6.78914e-06,0,3.24434e-06,-1.22443e+09,-1.2234e+09,-1.22431e+09,433606,0.0210929,0.121717,0,0.123531,-7251.54,-43894.6,-0,44489.5,433606
step02_gravity_refstate-mantle.xmf,274,-3.99084e-07,5.89823e-06,0,2.88026e-06,-1.23005e+09,-1.22921e+09,-1.23e+09,384947,0.02204,0.111259,0,0.113421,-8719.19,-44069.3,-0,44923.6,384947
step02_gravity_refstate-mantle.xmf,275,3.77344e-07,4.3221e-06,0,1.07776e-06,-1.39879e+09,-1.39826e+09,-1.39884e+09,144043,0.0239117,0.0528993,0,0.0580526,-16592,-49282.8,-0,52000.9,144043
step02_gravity_refstate-mantle.xmf,276,2.80295e-07,4.47491e-06,0,1.27113e-06,-1.3741e+09,-1.37354e+09,-1.37414e+09,169886,0.0239972,0.0594656,0,0.0641251,-15411.7,-48519.9,-0,50908.8,169886
step02_gravity_refstate-mantle.xmf,277,8.94964e-07,3.78067e-06,0,2.46971e-07,-1.60018e+09,-1.5998e+09,-1.6003e+09,33007.6,0.0214009,0.0176607,0,0.0277471,-23352.9,-55505.9,-0,60218.5,33007.6
step02_gravity_refstate-mantle.xmf,278,9.92808e-07,3.78494e-06,0,7.90155e-08,-1.69197e+09,-1.6916e+09,-1.69211e+09,10560.4,0.02048,0.00635484,0,0.0214433,-24676.1,-58341.9,-0,63345.8,10560.4
step02_gravity_refstate-mantle.xmf,279,1.08496e-06,3.71901e-06,0,-6.5822e-10,-1.74564e+09,-1.74528e+09,-1.74578e+09,-87.9711,0.0192511,-9.63993e-20,0,0.0192511,-25910.4,-60000,-0,65355.6,87.9711
step02_gravity_refstate-mantle.xmf,280,-1.54166e-06,7.96799e-06,0,3.51473e-06,-1.21911e+09,-1.21784e+09,-1.21891e+09,469744,0.0193523,0.132832,0,0.134234,-5773.08,-43729,-0,44108.4,469744
step02_gravity_refstate-mantle.xmf,281,-5.18761e-06,1.42831e-05,0,1.82988e-06,-1.1507e+09,-1.1481e+09,-1.15001e+09,244563,0.00529267,0.185418,0,0.185493,-986.39,-41607.6,-0,41619.3,244563
step02_gravity_refstate-mantle.xmf,282,-2.79833e-06,1.00996e-05,0,3.57826e-06,-1.19822e+09,-1.19649e+09,-1.19784e+09,478235,0.0152912,0.152444,0,0.153209,-3733.18,-43080.6,-0,43242,478235
step02_gravity_refstate-mantle.xmf,283,-5.52664e-06,1.48639e-05,0,-4.47973e-07,-1.14679e+09,-1.14406e+09,-1.14605e+09,-59871.6,-0.00116473,0.188803,-0,0.188807,211.08,-41485.8,0,41486.4,59871.6
step02_gravity_refstate-mantle.xmf,284,-3.49945e-06,1.30509e-05,0,-5.10388e-06,-1.0984e+09,-1.09618e+09,-1.09793e+09,-682133,-0.0121681,0.198487,-0,0.198859,2391.83,-40000,0,40071.4,682133
step02_gravity_refstate-mantle.xmf,285,-4.08215e-06,1.35224e-05,0,-4.36733e-06,-1.11465e+09,-1.1123e+09,-1.11411e+09,-583694,-0.0111108,0.194414,-0,0.194731,2119.59,-40499.5,0,40554.9,583694
step02_gravity_refstate-mantle.xmf,286,1.71251e-07,4.66203e-06,0,1.48411e-06,-1.35187e+09,-1.35127e+09,-1.35189e+09,198351,0.0239941,0.0663387,0,0.0705446,-14216.8,-47832.8,-0,49900.8,198351
step02_gravity_refstate-mantle.xmf,287,-1.30422e-06,7.47967e-06,0,3.29023e-06,-1.23571e+09,-1.23453e+09,-1.23553e+09,439739,0.0202165,0.124369,0,0.126002,-6460.66,-44242,-0,44711.2,439739
step02_gravity_refstate-mantle.xmf,288,-7.27025e-07,6.45581e-06,0,3.00151e-06,-1.24118e+09,-1.24022e+09,-1.24109e+09,401151,0.0216957,0.11388,0,0.115928,-7947.28,-44412.3,-0,45117.8,401151
step02_gravity_refstate-mantle.xmf,289,5.41121e-08,4.87679e-06,0,1.70993e-06,-1.33175e+09,-1.33111e+09,-1.33176e+09,228533,0.0238866,0.0734178,0,0.0772059,-13056.7,-47211.3,-0,48983.5,228533
step02_gravity_refstate-mantle.xmf,290,-5.90192e-08,5.0976e-06,0,1.94571e-06,-1.31143e+09,-1.31074e+09,-1.31142e+09,260044,0.0236576,0.0808407,0,0.0842312,-11980.1,-46583.2,-0,48099,260044
step02_gravity_refstate-mantle.xmf,291,-3.49691e-07,5.73356e-06,0,2.65995e-06,-1.24963e+09,-1.24881e+09,-1.24958e+09,355502,0.022489,0.104047,0,0.10645,-9346.32,-44673.9,-0,45641.1,355502
step02_gravity_refstate-mantle.xmf,292,-1.69975e-07,5.32958e-06,0,2.19031e-06,-1.29139e+09,-1.29065e+09,-1.29136e+09,292735,0.0233329,0.0885077,0,0.0915316,-10980.3,-45963.9,-0,47257.3,292735
step02_gravity_refstate-mantle.xmf,293,-2.71404e-07,5.55655e-06,0,2.43177e-06,-1.27176e+09,-1.27098e+09,-1.27172e+09,325006,0.0229426,0.096133,0,0.0988328,-10098.3,-45357.5,-0,46468,325006
step02_gravity_refstate-mantle.xmf,294,2.83956e-07,4.54396e-06,0,9.87938e-07,-1.44593e+09,-1.44536e+09,-1.44597e+09,132038,0.0243937,0.0466348,0,0.0526294,-16512.3,-50738.8,-0,53358.1,132038
step02_gravity_refstate-mantle.xmf,295,4.03997e-07,4.3791e-06,0,8.05323e-07,-1.47406e+09,-1.47353e+09,-1.47411e+09,107631,0.024183,0.0401939,0,0.0469081,-17774.8,-51608.1,-0,54583.4,107631
step02_gravity_refstate-mantle.xmf,296,7.67211e-07,3.94154e-06,0,3.51899e-07,-1.57175e+09,-1.57133e+09,-1.57185e+09,47031.3,0.0224994,0.0222208,0,0.0316226,-21834.6,-54627.2,-0,58829.2,47031.3
step02_gravity_refstate-mantle.xmf,297,5.28458e-07,4.21799e-06,0,6.37132e-07,-1.50378e+09,-1.50328e+09,-1.50385e+09,85152.7,0.0237933,0.034009,0,0.0415059,-19110.3,-52526.5,-0,55894.9,85152.7
step02_gravity_refstate-mantle.xmf,298,6.393e-07,4.09465e-06,0,4.86295e-07,-1.53887e+09,-1.53841e+09,-1.53895e+09,64993.4,0.0233083,0.0278033,0,0.0362808,-20378.5,-53610.9,-0,57353.4,64993.4
step02_gravity_refstate-mantle.xmf,299,8.94849e-07,3.86689e-06,0,1.62199e-07,-1.64937e+09,-1.64897e+09,-1.64949e+09,21677.9,0.021495,0.0117788,0,0.0245107,-23481.8,-57025.3,-0,61670.7,21677.9
step02_gravity_refstate-mantle.xmf,300,-4.71828e-06,1.3413e-05,0,2.42994e-06,-1.16296e+09,-1.16053e+09,-1.16233e+09,324762,0.00754699,0.178276,0,0.178436,-1476.72,-41987.1,-0,42013,324762
step02_gravity_refstate-mantle.xmf,301,-4.29578e-06,1.2564e-05,0,2.76289e-06,-1.17663e+09,-1.17438e+09,-1.17606e+09,369261,0.00941271,0.170619,0,0.170878,-1943.94,-42410.2,-0,42454.7,369261
step02_gravity_refstate-mantle.xmf,302,-3.86112e-06,1.17171e-05,0,2.94496e-06,-1.19227e+09,-1.19019e+09,-1.19176e+09,393594,0.011079,0.162289,0,0.162667,-2428.74,-42894,-0,42962.7,393594
step02_gravity_refstate-mantle.xmf,303,-2.4118e-06,9.36579e-06,0,3.50909e-06,-1.21377e+09,-1.2122e+09,-1.21345e+09,468989,0.0166531,0.143676,0,0.144638,-4360.77,-43561.8,-0,43779.5,468989
step02_gravity_refstate-mantle.xmf,304,-2.07445e-06,8.73121e-06,0,3.38089e-06,-1.22971e+09,-1.22827e+09,-1.22943e+09,451856,0.017846,0.135119,0,0.136292,-5005.88,-44054.8,-0,44338.3,451856
step02_gravity_refstate-mantle.xmf,305,-3.40101e-06,1.088e-05,0,3.09122e-06,-1.20745e+09,-1.20554e+09,-1.20699e+09,413142,0.0128714,0.153859,0,0.154396,-3009.85,-43363.7,-0,43468,413142
step02_gravity_refstate-mantle.xmf,306,-5.33659e-06,1.43686e-05,0,6.273e-07,-1.15905e+09,-1.15641e+09,-1.15834e+09,83838.6,0.00179571,0.18315,0,0.183159,-335.28,-41864.6,-0,41866,83838.6
step02_gravity_refstate-mantle.xmf,307,-2.54229e-06,1.13961e-05,0,-5.40194e-06,-1.09833e+09,-1.09646e+09,-1.09799e+09,-721969,-0.0139843,0.191866,-0,0.192375,2997.53,-40000,0,40112.2,721969
step02_gravity_refstate-mantle.xmf,308,-3.28301e-06,1.22879e-05,0,-4.91855e-06,-1.11257e+09,-1.11049e+09,-1.11214e+09,-657365,-0.0130679,0.190346,-0,0.190794,2649.98,-40437.4,0,40524.2,657365
step02_gravity_refstate-mantle.xmf,309,-4.50017e-06,1.37493e-05,0,-3.6179e-06,-1.12971e+09,-1.12727e+09,-1.12911e+09,-483532,-0.00978029,0.190173,-0,0.190424,1848.24,-40962.4,0,41004,483532
step02_gravity_refstate-mantle.xmf,310,-4.93845e-06,1.41323e-05,0,-2.68872e-06,-1.14145e+09,-1.1389e+09,-1.14079e+09,-359348,-0.00739126,0.187872,-0,0.188017,1377.76,-41323.1,0,41346,359348
step02_gravity_refstate-mantle.xmf,311,-5.21588e-06,1.42636e-05,0,-1.5866e-06,-1.15399e+09,-1.15139e+09,-1.15329e+09,-212049,-0.00453308,0.184397,-0,0.184453,846.765,-41708.9,0,41717.5,212049
step02_gravity_refstate-mantle.xmf,312,-1.11293e-06,7.06833e-06,0,3.05385e-06,-1.25259e+09,-1.2515e+09,-1.25244e+09,408147,0.020964,0.116313,0,0.118187,-7153.02,-44763.7,-0,45331.6,408147
step02_gravity_refstate-mantle.xmf,313,-6.15982e-07,6.20881e-06,0,2.80254e-06,-1.25613e+09,-1.25522e+09,-1.25605e+09,374560,0.0221514,0.107411,0,0.109672,-8546.03,-44874.3,-0,45680.8,374560
step02_gravity_refstate-mantle.xmf,314,1.63947e-07,4.72115e-06,0,1.17986e-06,-1.42049e+09,-1.41988e+09,-1.42051e+09,157688,0.024465,0.0531593,0,0.0585188,-15310.1,-49952.5,-0,52246.1,157688
step02_gravity_refstate-mantle.xmf,315,4.53833e-08,4.90646e-06,0,1.38481e-06,-1.39572e+09,-1.39507e+09,-1.39572e+09,185080,0.0244035,0.0600378,0,0.064808,-14160.6,-49187.1,-0,51184.9,185080
step02_gravity_refstate-mantle.xmf,316,7.42362e-07,4.09981e-06,0,2.28146e-07,-1.63733e+09,-1.63689e+09,-1.63743e+09,30491.8,0.0228181,0.0140869,0,0.0268162,-21814.8,-56653.2,-0,60708.1,30491.8
step02_gravity_refstate-mantle.xmf,317,8.25433e-07,4.06263e-06,0,9.70106e-08,-1.69498e+09,-1.69455e+09,-1.69509e+09,12965.5,0.0222174,0.00643228,0,0.0231298,-22770.9,-58434.4,-0,62714.4,12965.5
step02_gravity_refstate-mantle.xmf,318,9.24046e-07,3.98541e-06,0,-1.17959e-09,-1.74565e+09,-1.74524e+09,-1.74577e+09,-157.652,0.0213088,-9.72894e-20,0,0.0213088,-23860.6,-60000,-0,64570.3,157.652
step02_gravity_refstate-mantle.xmf,319,-1.78783e-06,8.18521e-06,0,3.21531e-06,-1.24662e+09,-1.24528e+09,-1.24638e+09,429727,0.0188869,0.126651,0,0.128051,-5667.94,-44577.5,-0,44936.4,429727
step02_gravity_refstate-mantle.xmf,320,-5.03306e-06,1.36741e-05,0,1.37092e-06,-1.17178e+09,-1.16928e+09,-1.1711e+09,183224,0.00439286,0.176701,0,0.176756,-854.597,-42258.1,-0,42266.7,183224
step02_gravity_refstate-mantle.xmf,321,-2.96283e-06,1.01158e-05,0,3.13893e-06,-1.22301e+09,-1.22127e+09,-1.22262e+09,419518,0.0144964,0.145392,0,0.146113,-3621.81,-43845.5,-0,43994.9,419518
step02_gravity_refstate-mantle.xmf,322,-5.25538e-06,1.40712e-05,0,-5.52157e-07,-1.16692e+09,-1.16434e+09,-1.16622e+09,-73795.8,-0.00163293,0.179719,-0,0.179726,310.663,-42107.6,0,42108.7,73795.8
step02_gravity_refstate-mantle.xmf,323,-1.7275e-06,9.90181e-06,0,-5.38629e-06,-1.09827e+09,-1.09672e+09,-1.09804e+09,-719877,-0.0153066,0.184712,-0,0.185346,3617.79,-40000,0,40163.3,719877
step02_gravity_refstate-mantle.xmf,324,-2.58391e-06,1.09591e-05,0,-4.99565e-06,-1.11875e+09,-1.11694e+09,-1.11841e+09,-667669,-0.014788,0.182257,-0,0.182856,3238.8,-40629.5,0,40758.4,667669
step02_gravity_refstate-mantle.xmf,325,-3.62799e-06,1.23675e-05,0,-4.33367e-06,-1.13226e+09,-1.13013e+09,-1.13178e+09,-579195,-0.0124843,0.184009,-0,0.184432,2522.37,-41043.5,0,41121,579195
step02_gravity_refstate-mantle.xmf,326,-7.78497e-08,5.11138e-06,0,1.60109e-06,-1.37242e+09,-1.37173e+09,-1.37241e+09,213986,0.0242301,0.0671789,0,0.071415,-13047.5,-48467.3,-0,50192.8,213986
step02_gravity_refstate-mantle.xmf,327,-1.53805e-06,7.70889e-06,0,3.03134e-06,-1.26402e+09,-1.26279e+09,-1.26382e+09,405139,0.0198195,0.118368,0,0.120015,-6355.8,-45115.6,-0,45561.1,405139
step02_gravity_refstate-mantle.xmf,328,-9.21489e-07,6.67889e-06,0,2.81582e-06,-1.27122e+09,-1.27021e+09,-1.2711e+09,376334,0.0216925,0.10784,0,0.110001,-7938.42,-45339.6,-0,46029.3,376334
step02_gravity_refstate-mantle.xmf,329,-2.09632e-07,5.34277e-06,0,1.83137e-06,-1.34998e+09,-1.34924e+09,-1.34995e+09,244762,0.0239453,0.0747191,0,0.0784622,-11957.1,-47773.6,-0,49247.3,244762
step02_gravity_refstate-mantle.xmf,330,-3.52965e-07,5.60687e-06,0,2.07491e-06,-1.32827e+09,-1.32747e+09,-1.32822e+09,277312,0.0235492,0.0826695,0,0.0859582,-10893.5,-47102.7,-0,48345.9,277312
step02_gravity_refstate-mantle.xmf,331,-6.66547e-07,6.22949e-06,0,2.61259e-06,-1.28309e+09,-1.28217e+09,-1.28301e+09,349173,0.0224356,0.100348,0,0.102826,-8891.31,-45706.8,-0,46563.6,349173
step02_gravity_refstate-mantle.xmf,332,-5.10442e-07,5.91105e-06,0,2.33231e-06,-1.30716e+09,-1.3063e+09,-1.30709e+09,311714,0.0230399,0.0910426,0,0.0939126,-9859.85,-46450.4,-0,47485.4,311714
step02_gravity_refstate-mantle.xmf,333,1.91494e-07,4.75577e-06,0,8.6833e-07,-1.49451e+09,-1.4939e+09,-1.49453e+09,116052,0.0247085,0.0398304,0,0.0468719,-16428.5,-52239.2,-0,54761.6,116052
step02_gravity_refstate-mantle.xmf,334,5.41208e-08,4.9461e-06,0,1.0573e-06,-1.467e+09,-1.46635e+09,-1.46701e+09,141307,0.0247336,0.0464282,0,0.0526054,-15221.7,-51389.3,-0,53596.3,141307
step02_gravity_refstate-mantle.xmf,335,3.22643e-07,4.58411e-06,0,6.93847e-07,-1.52367e+09,-1.52311e+09,-1.52372e+09,92732.7,0.024541,0.0335581,0,0.0415741,-17638.2,-53140.7,-0,55991.4,92732.7
step02_gravity_refstate-mantle.xmf,336,5.90198e-07,4.27727e-06,0,3.62568e-07,-1.59906e+09,-1.59857e+09,-1.59914e+09,48457.2,0.0236857,0.0201113,0,0.0310721,-20288.5,-55470.5,-0,59064.4,48457.2
step02_gravity_refstate-mantle.xmf,337,4.18989e-07,4.49289e-06,0,5.17239e-07,-1.56688e+09,-1.56633e+09,-1.56693e+09,69129,0.0243403,0.0260426,0,0.0356464,-18720.2,-54475.6,-0,57602.5,69129
step02_gravity_refstate-mantle.xmf,338,-4.67914e-06,1.30281e-05,0,1.94858e-06,-1.18191e+09,-1.17954e+09,-1.18128e+09,260427,0.0066473,0.171059,0,0.171188,-1345.85,-42571.7,-0,42593,260427
step02_gravity_refstate-mantle.xmf,339,-4.38596e-06,1.24121e-05,0,2.01984e-06,-1.20101e+09,-1.19876e+09,-1.20042e+09,269951,0.00750307,0.162687,0,0.162859,-1600.48,-43162.1,-0,43191.7,269951
step02_gravity_refstate-mantle.xmf,340,-3.90533e-06,1.14967e-05,0,2.41045e-06,-1.21704e+09,-1.21498e+09,-1.21652e+09,322157,0.00996732,0.15419,0,0.154512,-2265.65,-43658.2,-0,43717,322157
step02_gravity_refstate-mantle.xmf,341,-2.60311e-06,9.4573e-06,0,3.11232e-06,-1.2396e+09,-1.23799e+09,-1.23925e+09,415962,0.0158898,0.136907,0,0.137826,-4240.3,-44358.5,-0,44560.7,415962
step02_gravity_refstate-mantle.xmf,342,-2.29021e-06,8.88067e-06,0,3.01182e-06,-1.25757e+09,-1.25608e+09,-1.25727e+09,402530,0.017077,0.128388,0,0.129519,-4862.78,-44914.3,-0,45176.8,402530
step02_gravity_refstate-mantle.xmf,343,-3.47156e-06,1.0752e-05,0,2.62863e-06,-1.2323e+09,-1.23039e+09,-1.23183e+09,351317,0.0119279,0.146215,0,0.146701,-2881.7,-44130.4,-0,44224.4,351317
step02_gravity_refstate-mantle.xmf,344,-5.10551e-06,1.36827e-05,0,3.51549e-07,-1.17956e+09,-1.17705e+09,-1.17888e+09,46984.5,0.00110497,0.174372,0,0.174376,-216.404,-42498,-0,42498.5,46984.5
step02_gravity_refstate-mantle.xmf,345,-1.71508e-06,9.48114e-06,0,-5.04367e-06,-1.11598e+09,-1.11448e+09,-1.11575e+09,-674086,-0.0162553,0.175844,-0,0.176594,3938.1,-40546,0,40736.8,674086
step02_gravity_refstate-mantle.xmf,346,-4.27715e-06,1.29829e-05,0,-3.41719e-06,-1.14864e+09,-1.14633e+09,-1.14807e+09,-456708,-0.0103284,0.181103,-0,0.181397,2041.19,-41546.6,0,41596.7,456708
step02_gravity_refstate-mantle.xmf,347,-4.69942e-06,1.33706e-05,0,-2.49393e-06,-1.16221e+09,-1.1598e+09,-1.16158e+09,-333314,-0.00769902,0.178452,-0,0.178618,1506.69,-41964.1,0,41991.1,333314
step02_gravity_refstate-mantle.xmf,348,-4.94241e-06,1.35032e-05,0,-1.53519e-06,-1.1746e+09,-1.17214e+09,-1.17394e+09,-205178,-0.00489801,0.175238,-0,0.175306,962.232,-42345.4,0,42356.4,205178
step02_gravity_refstate-mantle.xmf,349,-1.3103e-06,7.27166e-06,0,2.82605e-06,-1.28176e+09,-1.28061e+09,-1.28158e+09,377702,0.0206935,0.110175,0,0.112101,-7096.89,-45663.9,-0,46212.1,377702
step02_gravity_refstate-mantle.xmf,350,-8.05474e-08,5.14147e-06,0,1.25738e-06,-1.4403e+09,-1.4396e+09,-1.44029e+09,168049,0.0246189,0.0533583,0,0.0587639,-14075.9,-50563.9,-0,52486.6,168049
step02_gravity_refstate-mantle.xmf,351,-2.17851e-07,5.35153e-06,0,1.46765e-06,-1.41475e+09,-1.414e+09,-1.41472e+09,196151,0.0243836,0.0605893,0,0.0653118,-12970,-49774.3,-0,51436.4,196151
step02_gravity_refstate-mantle.xmf,352,5.43807e-07,4.4317e-06,0,2.38525e-07,-1.65236e+09,-1.65184e+09,-1.65243e+09,31878.9,0.0239417,0.01305,0,0.0272674,-20135.6,-57116.7,-0,60562.1,31878.9
step02_gravity_refstate-mantle.xmf,353,6.28166e-07,4.38179e-06,0,1.06649e-07,-1.70068e+09,-1.70018e+09,-1.70077e+09,14253.6,0.0235685,0.00615067,0,0.0243578,-20922.7,-58610.1,-0,62232.6,14253.6
step02_gravity_refstate-mantle.xmf,354,7.32171e-07,4.29261e-06,0,-1.11084e-09,-1.74567e+09,-1.74519e+09,-1.74576e+09,-148.463,0.0229479,-9.27164e-20,0,0.0229479,-21880.6,-60000,-0,63865.2,148.463
step02_gravity_refstate-mantle.xmf,355,-2.00002e-06,8.36091e-06,0,2.89461e-06,-1.275e+09,-1.27362e+09,-1.27473e+09,386864,0.0182086,0.120185,0,0.121556,-5529.62,-45453.3,-0,45788.4,386864
step02_gravity_refstate-mantle.xmf,356,-1.10661e-06,8.64392e-06,0,-5.14813e-06,-1.09824e+09,-1.09694e+09,-1.0981e+09,-688048,-0.0162134,0.177252,-0,0.177992,4258.41,-40000,0,40226,688048
step02_gravity_refstate-mantle.xmf,357,-4.815e-06,1.30407e-05,0,1.00982e-06,-1.19556e+09,-1.19317e+09,-1.19491e+09,134962,0.00365409,0.167123,0,0.167163,-749.128,-42992.4,-0,42998.9,134962
step02_gravity_refstate-mantle.xmf,358,-3.07033e-06,1.00834e-05,0,2.73251e-06,-1.24743e+09,-1.24567e+09,-1.24702e+09,365201,0.0136256,0.138438,0,0.139107,-3496.45,-44598.9,-0,44735.7,365201
step02_gravity_refstate-mantle.xmf,359,-4.99314e-06,1.33953e-05,0,-6.61982e-07,-1.18635e+09,-1.18389e+09,-1.18568e+09,-88473.9,-0.0021831,0.171341,-0,0.171355,435.722,-42707.8,0,42710,88473.9
step02_gravity_refstate-mantle.xmf,360,-2.21215e-06,1.0063e-05,0,-4.78581e-06,-1.13184e+09,-1.1302e+09,-1.13155e+09,-639624,-0.0159572,0.173299,-0,0.174032,3717.27,-41034.1,0,41202.1,639624
step02_gravity_refstate-mantle.xmf,361,-2.86556e-06,1.09692e-05,0,-4.49934e-06,-1.14194e+09,-1.14009e+09,-1.14156e+09,-601337,-0.014681,0.174495,-0,0.175111,3230.86,-41344,0,41470.1,601337
step02_gravity_refstate-mantle.xmf,362,-3.5619e-06,1.18051e-05,0,-3.88995e-06,-1.15594e+09,-1.15389e+09,-1.15547e+09,-519892,-0.0127565,0.17385,-0,0.174317,2694.04,-41774,0,41860.8,519892
step02_gravity_refstate-mantle.xmf,363,-3.60463e-07,5.58126e-06,0,1.68565e-06,-1.39044e+09,-1.38965e+09,-1.3904e+09,225287,0.0240387,0.0680807,0,0.0722,-11905.4,-49023.2,-0,50448.1,225287
step02_gravity_refstate-mantle.xmf,364,-1.7368e-06,7.89765e-06,0,2.76307e-06,-1.29194e+09,-1.29065e+09,-1.29171e+09,369284,0.019247,0.112352,0,0.113989,-6224.44,-45977.1,-0,46396.6,369284
step02_gravity_refstate-mantle.xmf,365,-1.10514e-06,6.88296e-06,0,2.62085e-06,-1.30028e+09,-1.29921e+09,-1.30013e+09,350277,0.0214908,0.102044,0,0.104282,-7884.55,-46236.4,-0,46903.8,350277
step02_gravity_refstate-mantle.xmf,366,-5.19379e-07,5.84818e-06,0,1.91509e-06,-1.36702e+09,-1.36617e+09,-1.36695e+09,255951,0.0235725,0.0760082,0,0.0795796,-10845.8,-48299.3,-0,49502.1,255951
step02_gravity_refstate-mantle.xmf,367,-7.0923e-07,6.17284e-06,0,2.14752e-06,-1.34554e+09,-1.34462e+09,-1.34544e+09,287016,0.0229628,0.0842232,0,0.0872974,-9783.91,-47635.2,-0,48629.6,287016
step02_gravity_refstate-mantle.xmf,368,-9.57642e-07,6.60714e-06,0,2.3869e-06,-1.32616e+09,-1.32515e+09,-1.32603e+09,319009,0.022104,0.0930109,0,0.0956014,-8646.84,-47036.2,-0,47824.4,319009
step02_gravity_refstate-mantle.xmf,369,9.79096e-08,4.96176e-06,0,7.34602e-07,-1.54213e+09,-1.54148e+09,-1.54214e+09,98179.6,0.0248943,0.0329491,0,0.0412961,-16273.3,-53710.3,-0,56121.4,98179.6
step02_gravity_refstate-mantle.xmf,370,-5.01699e-08,5.15832e-06,0,9.098e-07,-1.51444e+09,-1.51375e+09,-1.51444e+09,121595,0.0248622,0.0392459,0,0.0464582,-15114.8,-52854.5,-0,54973.2,121595
step02_gravity_refstate-mantle.xmf,371,-2.03097e-07,5.36762e-06,0,1.10479e-06,-1.48606e+09,-1.48531e+09,-1.48603e+09,147655,0.0246811,0.0462199,0,0.052397,-13957.1,-51977.2,-0,53818.5,147655
step02_gravity_refstate-mantle.xmf,372,2.20293e-07,4.80199e-06,0,5.974e-07,-1.56606e+09,-1.56545e+09,-1.56609e+09,79842.5,0.0248013,0.027934,0,0.0373552,-17269.3,-54450,-0,57122.9,79842.5
step02_gravity_refstate-mantle.xmf,373,3.96186e-07,4.6253e-06,0,3.42953e-07,-1.62828e+09,-1.62771e+09,-1.62833e+09,45835.6,0.0244727,0.0172344,0,0.0299322,-18887.1,-56372.5,-0,59452.3,45835.6
step02_gravity_refstate-mantle.xmf,374,-1.11986e-06,8.33084e-06,0,-4.82753e-06,-1.11687e+09,-1.1156e+09,-1.11672e+09,-645200,-0.0172556,0.168264,-0,0.169146,4630.01,-40574.4,0,40837.7,645200
step02_gravity_refstate-mantle.xmf,375,-4.2403e-06,1.18652e-05,0,1.60535e-06,-1.22765e+09,-1.2255e+09,-1.22708e+09,214555,0.00672406,0.153005,0,0.153153,-1511.95,-43984.6,-0,44010.6,214555
step02_gravity_refstate-mantle.xmf,376,-3.85862e-06,1.12123e-05,0,1.9871e-06,-1.24219e+09,-1.24018e+09,-1.24168e+09,265576,0.0090214,0.145858,0,0.146136,-2138.44,-44434.8,-0,44486.2,265576
step02_gravity_refstate-mantle.xmf,377,-2.79857e-06,9.54609e-06,0,2.64871e-06,-1.2688e+09,-1.26715e+09,-1.26843e+09,354000,0.0146807,0.129558,0,0.130387,-4003.44,-45259.5,-0,45436.2,354000
step02_gravity_refstate-mantle.xmf,378,-2.444e-06,8.96056e-06,0,2.65145e-06,-1.28568e+09,-1.28415e+09,-1.28535e+09,354366,0.0162265,0.121373,0,0.122452,-4720.62,-45781.7,-0,46024.4,354366
step02_gravity_refstate-mantle.xmf,379,-3.47791e-06,1.05824e-05,0,2.2467e-06,-1.25635e+09,-1.25447e+09,-1.25588e+09,300272,0.0110773,0.138761,0,0.139203,-2771.89,-44872.9,-0,44958.5,300272
step02_gravity_refstate-mantle.xmf,380,-4.91242e-06,1.31504e-05,0,2.65323e-08,-1.19702e+09,-1.19461e+09,-1.19637e+09,3546.04,0.000138593,0.167202,0,0.167202,-27.9207,-43037.4,-0,43037.4,3546.04
step02_gravity_refstate-mantle.xmf,381,-1.65724e-06,9.06591e-06,0,-4.72632e-06,-1.1336e+09,-1.13217e+09,-1.13338e+09,-631673,-0.0170916,0.167126,-0,0.167998,4299.04,-41089.6,0,41313.9,631673
step02_gravity_refstate-mantle.xmf,382,-4.13174e-06,1.239e-05,0,-3.08455e-06,-1.1705e+09,-1.16829e+09,-1.16995e+09,-412250,-0.0104165,0.171859,-0,0.172175,2156.16,-42221.4,0,42276.4,412250
step02_gravity_refstate-mantle.xmf,383,-4.48244e-06,1.27266e-05,0,-2.26239e-06,-1.18406e+09,-1.18176e+09,-1.18346e+09,-302369,-0.00780973,0.169222,-0,0.169402,1608.06,-42638.6,0,42668.9,302369
step02_gravity_refstate-mantle.xmf,384,-4.69275e-06,1.28826e-05,0,-1.48254e-06,-1.19428e+09,-1.19194e+09,-1.19366e+09,-198141,-0.00528685,0.166877,-0,0.166961,1090.34,-42953.6,0,42967.4,198141
step02_gravity_refstate-mantle.xmf,385,-1.50746e-06,7.4843e-06,0,2.59951e-06,-1.30969e+09,-1.30849e+09,-1.30949e+09,347425,0.0201746,0.104594,0,0.106522,-6943.52,-46526,-0,47041.2,347425
step02_gravity_refstate-mantle.xmf,386,-3.49587e-07,5.57568e-06,0,1.30923e-06,-1.45789e+09,-1.4571e+09,-1.45785e+09,174979,0.0243807,0.0535788,0,0.0588651,-12873.8,-51106.7,-0,52703.3,174979
step02_gravity_refstate-mantle.xmf,387,-5.03278e-07,5.80547e-06,0,1.51677e-06,-1.4318e+09,-1.43096e+09,-1.43174e+09,202716,0.0239673,0.0610731,0,0.0656075,-11822.4,-50300.4,-0,51671.1,202716
step02_gravity_refstate-mantle.xmf,388,2.13523e-07,4.87298e-06,0,4.56418e-07,-1.60847e+09,-1.60785e+09,-1.6085e+09,61000.2,0.0248529,0.0213373,0,0.0327558,-17499,-55760,-0,58441.3,61000.2
step02_gravity_refstate-mantle.xmf,389,3.82882e-07,4.74362e-06,0,1.68615e-07,-1.68896e+09,-1.68838e+09,-1.68901e+09,22535.4,0.024547,0.00840781,0,0.025947,-18961.2,-58247.2,-0,61255.7,22535.4
step02_gravity_refstate-mantle.xmf,390,5.07381e-07,4.64193e-06,0,-2.23631e-09,-1.74569e+09,-1.74513e+09,-1.74575e+09,-298.883,0.0241364,-1.27975e-19,0,0.0241364,-19964.7,-60000,-0,63234.4,298.883
step02_gravity_refstate-mantle.xmf,391,-6.32753e-07,7.59485e-06,0,-4.80501e-06,-1.09823e+09,-1.09713e+09,-1.09814e+09,-642189,-0.0167895,0.169645,-0,0.170474,4923.76,-40000,0,40301.9,642189
step02_gravity_refstate-mantle.xmf,392,-2.16694e-06,8.49168e-06,0,2.58464e-06,-1.30272e+09,-1.30129e+09,-1.30243e+09,345437,0.0174066,0.113771,0,0.115095,-5368.73,-46308.7,-0,46618.9,345437
step02_gravity_refstate-mantle.xmf,393,-4.53688e-06,1.24102e-05,0,1.11111e-06,-1.21627e+09,-1.214e+09,-1.21566e+09,148499,0.00434863,0.158632,0,0.158691,-939.193,-43632.4,-0,43642.5,148499
step02_gravity_refstate-mantle.xmf,394,-3.16195e-06,1.00707e-05,0,2.399e-06,-1.26735e+09,-1.26558e+09,-1.26693e+09,320627,0.0127006,0.133003,0,0.133609,-3327.28,-45213.6,-0,45335.9,320627
step02_gravity_refstate-mantle.xmf,395,-4.74481e-06,1.2793e-05,0,-7.7052e-07,-1.20595e+09,-1.2036e+09,-1.20531e+09,-102980,-0.00275899,0.163242,-0,0.163265,577.544,-43313.2,0,43317.1,102980
step02_gravity_refstate-mantle.xmf,396,-4.67969e-06,1.25629e-05,0,1.61809e-07,-1.21779e+09,-1.21549e+09,-1.21717e+09,21625.8,0.000714099,0.158928,0,0.158929,-153.121,-43679.1,-0,43679.3,21625.8
step02_gravity_refstate-mantle.xmf,397,-2.27076e-06,9.85467e-06,0,-4.48576e-06,-1.14918e+09,-1.14756e+09,-1.14887e+09,-599521,-0.0163182,0.166372,-0,0.167171,3891.22,-41568.6,0,41750.4,599521
step02_gravity_refstate-mantle.xmf,398,-2.89954e-06,1.06691e-05,0,-4.09679e-06,-1.1637e+09,-1.16188e+09,-1.16331e+09,-547536,-0.0148495,0.166013,-0,0.166676,3379.71,-42015.1,0,42150.8,547536
step02_gravity_refstate-mantle.xmf,399,-3.50403e-06,1.13721e-05,0,-3.49603e-06,-1.17903e+09,-1.17704e+09,-1.17856e+09,-467244,-0.0127943,0.164716,-0,0.165213,2823.37,-42486.3,0,42580,467244
step02_gravity_refstate-mantle.xmf,400,-6.71823e-07,6.06801e-06,0,1.72842e-06,-1.4072e+09,-1.4063e+09,-1.40711e+09,231004,0.0234314,0.0688365,0,0.0727151,-10784,-49540,-0,50700.2,231004
step02_gravity_refstate-mantle.xmf,401,-1.90489e-06,8.05403e-06,0,2.49843e-06,-1.31889e+09,-1.31756e+09,-1.31864e+09,333916,0.018538,0.106507,0,0.108108,-6059.08,-46809,-0,47199.5,333916
step02_gravity_refstate-mantle.xmf,402,-1.37673e-06,7.2279e-06,0,2.42102e-06,-1.33042e+09,-1.32927e+09,-1.33024e+09,323569,0.0207469,0.0972476,0,0.0994361,-7512.23,-47166.5,-0,47761,323569
step02_gravity_refstate-mantle.xmf,403,-8.63093e-07,6.3742e-06,0,1.93873e-06,-1.38433e+09,-1.38336e+09,-1.38422e+09,259112,0.0227573,0.0768198,0,0.0801198,-9755.76,-48833,-0,49798,259112
step02_gravity_refstate-mantle.xmf,404,-1.07108e-06,6.71152e-06,0,2.13011e-06,-1.36433e+09,-1.36329e+09,-1.36419e+09,284689,0.0219773,0.0845222,0,0.0873327,-8797.67,-48214.7,-0,49010.8,284689
step02_gravity_refstate-mantle.xmf,405,2.5466e-08,5.13312e-06,0,5.78469e-07,-1.59003e+09,-1.58935e+09,-1.59003e+09,77312.3,0.024981,0.0256031,0,0.035771,-16183.5,-55189.9,-0,57513.7,77312.3
step02_gravity_refstate-mantle.xmf,406,-1.49961e-07,5.36409e-06,0,7.3724e-07,-1.56407e+09,-1.56334e+09,-1.56405e+09,98532.1,0.0248871,0.031419,0,0.0400815,-14972.1,-54387.5,-0,56410.7,98532.1
step02_gravity_refstate-mantle.xmf,407,-4.77922e-07,5.79665e-06,0,1.12544e-06,-1.50349e+09,-1.50265e+09,-1.50342e+09,150415,0.0242468,0.0459074,0,0.0519172,-12733.1,-52514.9,-0,54036.5,150415
step02_gravity_refstate-mantle.xmf,408,-3.16968e-07,5.58137e-06,0,9.25261e-07,-1.53389e+09,-1.5331e+09,-1.53384e+09,123661,0.0246294,0.0384063,0,0.0456251,-13821.7,-53454.4,-0,55212.5,123661
step02_gravity_refstate-mantle.xmf,409,2.14517e-07,4.93809e-06,0,3.01216e-07,-1.65412e+09,-1.65349e+09,-1.65415e+09,40257.6,0.0248767,0.0142414,0,0.0286647,-17719.2,-57170.3,-0,59853.2,40257.6
step02_gravity_refstate-mantle.xmf,410,-6.81667e-07,7.42238e-06,0,-4.54769e-06,-1.11675e+09,-1.11567e+09,-1.11666e+09,-607799,-0.0178408,0.161484,-0,0.162467,5282.64,-40571.5,0,40914,607799
step02_gravity_refstate-mantle.xmf,411,-2.83427e-07,6.72562e-06,0,-4.41659e-06,-1.09822e+09,-1.09729e+09,-1.09819e+09,-590278,-0.0171051,0.162005,-0,0.162905,5617.28,-40000,0,40392.5,590278
step02_gravity_refstate-mantle.xmf,412,-1.11835e-06,8.05142e-06,0,-4.536e-06,-1.13456e+09,-1.13334e+09,-1.13441e+09,-606237,-0.0180691,0.160121,-0,0.161137,4992.92,-41120.3,0,41422.4,606237
step02_gravity_refstate-mantle.xmf,413,-4.40949e-06,1.20138e-05,0,7.55626e-07,-1.23689e+09,-1.23469e+09,-1.2363e+09,100989,0.0032646,0.151182,0,0.151217,-734.778,-44269.3,-0,44275.4,100989
step02_gravity_refstate-mantle.xmf,414,-4.10515e-06,1.14724e-05,0,1.26571e-06,-1.25253e+09,-1.25045e+09,-1.25198e+09,169162,0.00584449,0.144365,0,0.144483,-1378.02,-44753.2,-0,44774.4,169162
step02_gravity_refstate-mantle.xmf,415,-3.77809e-06,1.09279e-05,0,1.65454e-06,-1.26663e+09,-1.26466e+09,-1.26612e+09,221129,0.00821509,0.13784,0,0.138085,-2030.89,-45189.4,-0,45235,221129
step02_gravity_refstate-mantle.xmf,416,-2.57265e-06,9.03423e-06,0,2.29138e-06,-1.31549e+09,-1.31394e+09,-1.31515e+09,306243,0.0151359,0.114013,0,0.115013,-4508.09,-46702.1,-0,46919.1,306243
step02_gravity_refstate-mantle.xmf,417,-2.79744e-06,9.43052e-06,0,2.35205e-06,-1.2958e+09,-1.29416e+09,-1.29542e+09,314352,0.0141912,0.121602,0,0.122427,-4016,-46093.1,-0,46267.7,314352
step02_gravity_refstate-mantle.xmf,418,-3.44737e-06,1.04027e-05,0,1.94858e-06,-1.27861e+09,-1.27676e+09,-1.27815e+09,260428,0.0103764,0.131857,0,0.132265,-2686.64,-45560.3,-0,45639.4,260428
step02_gravity_refstate-mantle.xmf,419,-3.1139e-06,9.89055e-06,0,2.1785e-06,-1.28817e+09,-1.28643e+09,-1.28775e+09,291157,0.0124041,0.126454,0,0.127061,-3360.65,-45856.6,-0,45979.6,291157
step02_gravity_refstate-mantle.xmf,420,-1.655e-06,8.7736e-06,0,-4.40472e-06,-1.15365e+09,-1.15226e+09,-1.15343e+09,-588690,-0.0177527,0.158537,-0,0.159528,4629.17,-41708.2,0,41964.3,588690
step02_gravity_refstate-mantle.xmf,421,-4.028e-06,1.19034e-05,0,-2.69333e-06,-1.19478e+09,-1.19265e+09,-1.19424e+09,-359963,-0.0101738,0.162478,-0,0.162796,2210.42,-42970.8,0,43027.6,359963
step02_gravity_refstate-mantle.xmf,422,-4.37684e-06,1.22338e-05,0,-1.75666e-06,-1.21071e+09,-1.20849e+09,-1.21013e+09,-234778,-0.00672582,0.159473,-0,0.159614,1456.33,-43461.4,0,43485.8,234778
step02_gravity_refstate-mantle.xmf,423,-1.6931e-06,7.69938e-06,0,2.40208e-06,-1.33291e+09,-1.33166e+09,-1.33269e+09,321037,0.0194499,0.100333,0,0.102201,-6685.21,-47242.5,-0,47713.2,321037
step02_gravity_refstate-mantle.xmf,424,-1.29394e-06,7.0702e-06,0,2.24312e-06,-1.35382e+09,-1.3527e+09,-1.35365e+09,299792,0.0211016,0.090105,0,0.0925429,-7972.01,-47889.4,-0,48548.4,299792
step02_gravity_refstate-mantle.xmf,425,-6.35112e-07,6.01502e-06,0,1.33289e-06,-1.47346e+09,-1.47257e+09,-1.47338e+09,178141,0.0237675,0.0537977,0,0.058814,-11703.1,-51586.9,-0,52897.8,178141
step02_gravity_refstate-mantle.xmf,426,-8.08027e-07,6.26759e-06,0,1.5279e-06,-1.44777e+09,-1.44683e+09,-1.44766e+09,204204,0.0231638,0.0613862,0,0.0656112,-10694.7,-50792.8,-0,51906.5,204204
step02_gravity_refstate-mantle.xmf,427,-1.63547e-08,5.27367e-06,0,3.78184e-07,-1.64544e+09,-1.64474e+09,-1.64544e+09,50544.3,0.0250194,0.0166655,0,0.0300617,-16214.7,-56901.6,-0,59166.8,50544.3
step02_gravity_refstate-mantle.xmf,428,1.04679e-07,5.17266e-06,0,1.6785e-07,-1.69832e+09,-1.69764e+09,-1.69834e+09,22433.2,0.0250047,0.00763851,0,0.0261454,-17110.7,-58535.6,-0,60985.2,22433.2
step02_gravity_refstate-mantle.xmf,429,2.52276e-07,5.02714e-06,0,-1.40916e-09,-1.74571e+09,-1.74507e+09,-1.74574e+09,-188.335,0.0248406,-1.18551e-19,0,0.0248406,-18107.5,-60000,-0,62672.8,188.335
step02_gravity_refstate-mantle.xmf,430,-3.60606e-07,6.67581e-06,0,-4.21982e-06,-1.11757e+09,-1.11663e+09,-1.11752e+09,-563978,-0.0182249,0.154494,-0,0.155565,5957.4,-40596.8,0,41031.6,563978
step02_gravity_refstate-mantle.xmf,431,-2.30188e-06,8.59237e-06,0,2.28289e-06,-1.33024e+09,-1.32879e+09,-1.32993e+09,305108,0.0164861,0.107351,0,0.10861,-5173.78,-47158.3,-0,47441.2,305108
step02_gravity_refstate-mantle.xmf,432,-4.47843e-06,1.21793e-05,0,-8.2189e-07,-1.22891e+09,-1.22668e+09,-1.22831e+09,-109846,-0.00330816,0.154169,-0,0.154205,731.548,-44022.7,0,44028.8,109846
step02_gravity_refstate-mantle.xmf,433,-2.31357e-06,9.63031e-06,0,-4.14165e-06,-1.17032e+09,-1.16872e+09,-1.17001e+09,-553532,-0.0166148,0.158341,-0,0.159211,4091.26,-42220.9,0,42418.7,553532
step02_gravity_refstate-mantle.xmf,434,-2.90762e-06,1.03817e-05,0,-3.7092e-06,-1.18699e+09,-1.18521e+09,-1.1866e+09,-495734,-0.0149028,0.157374,-0,0.158078,3527.22,-42733.8,0,42879.1,495734
step02_gravity_refstate-mantle.xmf,435,-3.43485e-06,1.09845e-05,0,-3.12562e-06,-1.20329e+09,-1.20137e+09,-1.20283e+09,-417740,-0.0127145,0.155653,-0,0.156171,2939.09,-43235.4,0,43335.2,417740
step02_gravity_refstate-mantle.xmf,436,-1.0019e-06,6.55986e-06,0,1.71677e-06,-1.42407e+09,-1.42306e+09,-1.42394e+09,229446,0.0224166,0.0691077,0,0.0726525,-9690.62,-50060.2,-0,50989.5,229446
step02_gravity_refstate-mantle.xmf,437,-2.01227e-06,8.13309e-06,0,2.24647e-06,-1.34584e+09,-1.34448e+09,-1.34557e+09,300241,0.0178995,0.100214,0,0.1018,-5954.8,-47640.9,-0,48011.6,300241
step02_gravity_refstate-mantle.xmf,438,-1.6784e-06,7.62295e-06,0,2.20087e-06,-1.35963e+09,-1.35839e+09,-1.35941e+09,294146,0.0194944,0.0929711,0,0.0949929,-6937.24,-48067.9,-0,48565.9,294146
step02_gravity_refstate-mantle.xmf,439,-1.21745e-06,6.89168e-06,0,1.88858e-06,-1.40269e+09,-1.40161e+09,-1.40253e+09,252409,0.0215233,0.0767837,0,0.0797433,-8712.16,-49399.2,-0,50161.6,252409
step02_gravity_refstate-mantle.xmf,440,-1.44408e-06,7.2469e-06,0,2.03884e-06,-1.3828e+09,-1.38163e+09,-1.3826e+09,272491,0.0205306,0.0843791,0,0.0868408,-7798.68,-48784,-0,49403.4,272491
step02_gravity_refstate-mantle.xmf,441,-7.66907e-07,6.22935e-06,0,1.12456e-06,-1.51832e+09,-1.51739e+09,-1.51822e+09,150297,0.0234358,0.0457448,0,0.0513986,-11518,-52972.3,-0,54210.1,150297
step02_gravity_refstate-mantle.xmf,442,-2.25553e-07,5.53607e-06,0,5.43135e-07,-1.61457e+09,-1.6138e+09,-1.61454e+09,72589.9,0.0248565,0.02304,0,0.0338923,-14876.8,-55947.1,-0,57891.3,72589.9
step02_gravity_refstate-mantle.xmf,443,-4.23608e-07,5.78873e-06,0,7.18587e-07,-1.58478e+09,-1.58395e+09,-1.58472e+09,96039.2,0.0244894,0.0297452,0,0.0385293,-13648.7,-55026.4,-0,56693.8,96039.2
step02_gravity_refstate-mantle.xmf,444,-6.04449e-07,6.01871e-06,0,9.20023e-07,-1.55131e+09,-1.55042e+09,-1.55123e+09,122961,0.0239938,0.0375899,0,0.0445949,-12524.6,-53991.7,-0,55425.4,122961
step02_gravity_refstate-mantle.xmf,445,-7.02225e-07,7.2597e-06,0,-4.32903e-06,-1.13094e+09,-1.12988e+09,-1.13085e+09,-578575,-0.0185401,0.155023,-0,0.156128,5608.85,-41009.3,0,41391.1,578575
step02_gravity_refstate-mantle.xmf,446,-2.88416e-08,6.00713e-06,0,-4.01246e-06,-1.09823e+09,-1.09742e+09,-1.09822e+09,-536265,-0.0172161,0.154413,-0,0.15537,6341.87,-40000,0,40499.6,536265
step02_gravity_refstate-mantle.xmf,447,-1.06737e-06,7.69792e-06,0,-4.19146e-06,-1.15557e+09,-1.1544e+09,-1.15543e+09,-560188,-0.0189579,0.15026,-0,0.151452,5509.13,-41768.6,0,42130.4,560188
step02_gravity_refstate-mantle.xmf,448,-4.19888e-06,1.1529e-05,0,5.25644e-07,-1.26267e+09,-1.26057e+09,-1.26211e+09,70252.3,0.0025211,0.141953,0,0.141975,-598.311,-45065.8,-0,45069.8,70252.3
step02_gravity_refstate-mantle.xmf,449,-4.39875e-06,1.1928e-05,0,-7.8749e-08,-1.24538e+09,-1.24319e+09,-1.24479e+09,-10524.8,-0.000281328,0.148507,-0,0.148508,64.3117,-44531.3,0,44531.4,10524.8
step02_gravity_refstate-mantle.xmf,450,-3.95994e-06,1.11095e-05,0,9.95808e-07,-1.2774e+09,-1.27538e+09,-1.27687e+09,133090,0.00505554,0.13594,0,0.136034,-1248.78,-45521.3,-0,45538.4,133090
step02_gravity_refstate-mantle.xmf,451,-3.69963e-06,1.06901e-05,0,1.36525e-06,-1.28966e+09,-1.28774e+09,-1.28917e+09,182465,0.00735152,0.130515,0,0.130722,-1887.72,-45900.9,-0,45939.7,182465
step02_gravity_refstate-mantle.xmf,452,-2.71297e-06,9.1369e-06,0,1.95295e-06,-1.34015e+09,-1.33857e+09,-1.33979e+09,261012,0.0137592,0.108387,0,0.109257,-4155.94,-47463,-0,47644.6,261012
step02_gravity_refstate-mantle.xmf,453,-3.03267e-06,9.65182e-06,0,1.92476e-06,-1.31705e+09,-1.31536e+09,-1.31665e+09,257245,0.0121127,0.117473,0,0.118096,-3437.23,-46748.8,-0,46874.9,257245
step02_gravity_refstate-mantle.xmf,454,-3.40715e-06,1.02295e-05,0,1.66512e-06,-1.30177e+09,-1.29994e+09,-1.30131e+09,222543,0.00959593,0.124833,0,0.125201,-2571.7,-46275.5,-0,46346.9,222543
step02_gravity_refstate-mantle.xmf,455,-1.7416e-06,8.65292e-06,0,-4.06693e-06,-1.17692e+09,-1.17553e+09,-1.17669e+09,-543545,-0.0181271,0.150291,-0,0.15138,4865.26,-42426.1,0,42704.1,543545
step02_gravity_refstate-mantle.xmf,456,-3.89256e-06,1.1437e-05,0,-2.3459e-06,-1.22069e+09,-1.21864e+09,-1.22017e+09,-313529,-0.00987244,0.152927,-0,0.153246,2258.81,-43770.8,0,43829,313529
step02_gravity_refstate-mantle.xmf,457,-4.12756e-06,1.16261e-05,0,-1.57662e-06,-1.23801e+09,-1.23591e+09,-1.23746e+09,-210715,-0.00680656,0.149093,-0,0.149248,1566.56,-44304.8,0,44332.5,210715
step02_gravity_refstate-mantle.xmf,458,-9.33384e-07,6.45709e-06,0,1.31414e-06,-1.4896e+09,-1.48861e+09,-1.48948e+09,175634,0.0227888,0.0535134,0,0.0581637,-10564,-52084.6,-0,53145.1,175634
step02_gravity_refstate-mantle.xmf,459,-1.12984e-06,6.73722e-06,0,1.48634e-06,-1.46484e+09,-1.46379e+09,-1.46469e+09,198649,0.0219534,0.0610877,0,0.0649127,-9571.49,-51319.1,-0,52204.1,198649
step02_gravity_refstate-mantle.xmf,460,-2.88971e-07,5.68324e-06,0,3.54481e-07,-1.66093e+09,-1.66013e+09,-1.66089e+09,47376.4,0.0247952,0.015119,0,0.0290411,-14748.5,-57379.3,-0,59244.4,47376.4
step02_gravity_refstate-mantle.xmf,461,-1.8241e-07,5.5986e-06,0,1.61436e-07,-1.70567e+09,-1.70489e+09,-1.70564e+09,21575.9,0.0249395,0.00697983,0,0.0258978,-15425.9,-58761.6,-0,60752.7,21575.9
step02_gravity_refstate-mantle.xmf,462,-3.4984e-08,5.44824e-06,0,-1.19776e-09,-1.74574e+09,-1.745e+09,-1.74573e+09,-160.08,0.025036,-1.06918e-19,0,0.025036,-16303.5,-60000,-0,62175.6,160.08
step02_gravity_refstate-mantle.xmf,463,-5.26256e-07,6.79195e-06,0,-4.057e-06,-1.1398e+09,-1.13882e+09,-1.13973e+09,-542218,-0.0191445,0.147878,-0,0.149112,6167.97,-41282.7,0,41740.9,542218
step02_gravity_refstate-mantle.xmf,464,-1.39004e-07,6.07904e-06,0,-3.87475e-06,-1.12127e+09,-1.12044e+09,-1.12126e+09,-517861,-0.0185729,0.147027,-0,0.148195,6658.35,-40711.3,0,41252.2,517861
step02_gravity_refstate-mantle.xmf,465,-2.39123e-06,8.63886e-06,0,1.99252e-06,-1.35869e+09,-1.35722e+09,-1.35837e+09,266300,0.0155829,0.100429,0,0.101631,-4999.6,-48036.7,-0,48296.2,266300
step02_gravity_refstate-mantle.xmf,466,-4.20526e-06,1.15924e-05,0,-8.29729e-07,-1.25545e+09,-1.25333e+09,-1.25488e+09,-110893,-0.00374539,0.144214,-0,0.144263,879.116,-44842.8,0,44851.4,110893
step02_gravity_refstate-mantle.xmf,467,-2.3718e-06,9.45113e-06,0,-3.76956e-06,-1.19483e+09,-1.19325e+09,-1.19452e+09,-503802,-0.0167208,0.14981,-0,0.15074,4266.42,-42977.3,0,43188.5,503802
step02_gravity_refstate-mantle.xmf,468,-2.91014e-06,1.01238e-05,0,-3.32371e-06,-1.2125e+09,-1.21076e+09,-1.21211e+09,-444214,-0.0147905,0.148503,-0,0.149238,3651.45,-43521,0,43674,444214
step02_gravity_refstate-mantle.xmf,469,-3.37411e-06,1.06476e-05,0,-2.75568e-06,-1.22955e+09,-1.22768e+09,-1.2291e+09,-368296,-0.0124278,0.146504,-0,0.147031,3011.73,-44046.1,0,44148.9,368296
step02_gravity_refstate-mantle.xmf,470,-1.35258e-06,7.06252e-06,0,1.63966e-06,-1.44228e+09,-1.44115e+09,-1.4421e+09,219141,0.020929,0.0687114,0,0.0718281,-8569.61,-50621.5,-0,51341.7,219141
step02_gravity_refstate-mantle.xmf,471,-2.09204e-06,8.18296e-06,0,1.9783e-06,-1.37671e+09,-1.37534e+09,-1.37643e+09,264400,0.017212,0.0927797,0,0.0943628,-5862.61,-48594.1,-0,48946.4,264400
step02_gravity_refstate-mantle.xmf,472,-1.58683e-06,7.41163e-06,0,1.77495e-06,-1.42036e+09,-1.41916e+09,-1.42015e+09,237222,0.0197865,0.0765018,0,0.0790192,-7616.13,-49943.7,-0,50521.1,237222
step02_gravity_refstate-mantle.xmf,473,-1.82328e-06,7.7738e-06,0,1.90708e-06,-1.3963e+09,-1.39501e+09,-1.39605e+09,254881,0.0186171,0.084992,0,0.0870071,-6736.03,-49199.8,-0,49658.8,254881
step02_gravity_refstate-mantle.xmf,474,-1.05405e-06,6.64634e-06,0,1.09178e-06,-1.53247e+09,-1.53144e+09,-1.53233e+09,145916,0.0223006,0.0452855,0,0.0504786,-10360.5,-53408.5,-0,54404.1,145916
step02_gravity_refstate-mantle.xmf,475,-8.91447e-07,6.43774e-06,0,9.07255e-07,-1.56339e+09,-1.56241e+09,-1.56327e+09,121255,0.0230018,0.0374018,0,0.0439087,-11265.3,-54364.3,-0,55519.2,121255
step02_gravity_refstate-mantle.xmf,476,-4.90902e-07,5.94476e-06,0,4.87292e-07,-1.63745e+09,-1.63659e+09,-1.63738e+09,65126.5,0.0243694,0.020273,0,0.0316996,-13585.7,-56653.3,-0,58259.5,65126.5
step02_gravity_refstate-mantle.xmf,477,-7.4687e-07,6.2674e-06,0,6.70498e-07,-1.60624e+09,-1.6053e+09,-1.60614e+09,89612.1,0.0235827,0.0276652,0,0.0363526,-12188.5,-55688.2,-0,57006.5,89612.1
step02_gravity_refstate-mantle.xmf,478,1.49686e-07,5.41319e-06,0,-3.61104e-06,-1.09824e+09,-1.09754e+09,-1.09826e+09,-482615,-0.0171689,0.146934,-0,0.147934,7100.11,-40000,0,40625.3,482615
step02_gravity_refstate-mantle.xmf,479,-1.28858e-06,7.81226e-06,0,-3.88407e-06,-1.18421e+09,-1.18299e+09,-1.18404e+09,-519105,-0.0193305,0.14209,-0,0.143398,5668.37,-42652.2,0,43027.2,519105
step02_gravity_refstate-mantle.xmf,480,-3.98885e-06,1.10893e-05,0,3.59806e-07,-1.28948e+09,-1.28747e+09,-1.28895e+09,48088,0.00191998,0.132672,0,0.132686,-480.281,-45894.3,-0,45896.8,48088
step02_gravity_refstate-mantle.xmf,481,-4.14129e-06,1.13858e-05,0,-1.74496e-07,-1.27305e+09,-1.27097e+09,-1.2725e+09,-23321.4,-0.000798107,0.138511,-0,0.138513,193.067,-45386.5,0,45386.9,23321.4
step02_gravity_refstate-mantle.xmf,482,-3.82386e-06,1.08294e-05,0,7.83656e-07,-1.29961e+09,-1.29765e+09,-1.2991e+09,104736,0.00426461,0.128638,0,0.128709,-1096.04,-46207.6,-0,46220.6,104736
step02_gravity_refstate-mantle.xmf,483,-3.6199e-06,1.04714e-05,0,1.07848e-06,-1.31386e+09,-1.31197e+09,-1.31337e+09,144139,0.00630756,0.12303,0,0.123192,-1682.34,-46648.1,-0,46678.5,144139
step02_gravity_refstate-mantle.xmf,484,-2.72698e-06,9.07384e-06,0,1.66397e-06,-1.37047e+09,-1.3689e+09,-1.37011e+09,222389,0.0128826,0.100278,0,0.101102,-4019.95,-48399.4,-0,48566.1,222389
step02_gravity_refstate-mantle.xmf,485,-3.02918e-06,9.53677e-06,0,1.56013e-06,-1.35024e+09,-1.34857e+09,-1.34984e+09,208512,0.0109005,0.108289,0,0.108836,-3217.24,-47773.7,-0,47881.9,208512
step02_gravity_refstate-mantle.xmf,486,-3.33585e-06,1.00142e-05,0,1.36746e-06,-1.33105e+09,-1.32927e+09,-1.33061e+09,182761,0.00869266,0.116032,0,0.116357,-2432.03,-47180.1,-0,47242.7,182761
step02_gravity_refstate-mantle.xmf,487,-1.86818e-06,8.61202e-06,0,-3.72043e-06,-1.20295e+09,-1.20155e+09,-1.2027e+09,-497236,-0.0182261,0.142136,-0,0.1433,5027.19,-43229.1,0,43520.5,497236
step02_gravity_refstate-mantle.xmf,488,-3.72234e-06,1.09792e-05,0,-2.07243e-06,-1.24774e+09,-1.24578e+09,-1.24725e+09,-276980,-0.00973384,0.143199,-0,0.14353,2352.94,-44606.6,0,44668.6,276980
step02_gravity_refstate-mantle.xmf,489,-3.90012e-06,1.1109e-05,0,-1.42521e-06,-1.26578e+09,-1.26377e+09,-1.26526e+09,-190479,-0.00688107,0.13905,-0,0.13922,1679.59,-45162.8,0,45194.1,190479
step02_gravity_refstate-mantle.xmf,490,-1.24237e-06,6.90093e-06,0,1.25082e-06,-1.5065e+09,-1.50541e+09,-1.50633e+09,167172,0.0214141,0.052697,0,0.0568818,-9416.65,-52605.6,-0,53441.7,167172
step02_gravity_refstate-mantle.xmf,491,-1.46858e-06,7.21627e-06,0,1.38696e-06,-1.48312e+09,-1.48196e+09,-1.48292e+09,185368,0.0202506,0.0601792,0,0.063495,-8393.59,-51882.8,-0,52557.3,185368
step02_gravity_refstate-mantle.xmf,492,-1.15765e-06,6.81672e-06,0,8.8249e-07,-1.57261e+09,-1.57155e+09,-1.57246e+09,117945,0.0217824,0.0373572,0,0.0432439,-10124.6,-54648.2,-0,55578.2,117945
step02_gravity_refstate-mantle.xmf,493,-5.11295e-07,6.05155e-06,0,2.35357e-07,-1.69384e+09,-1.69296e+09,-1.69377e+09,31455.5,0.0243274,0.00978526,0,0.0262216,-13641.4,-58395.3,-0,59967.5,31455.5
step02_gravity_refstate-mantle.xmf,494,-3.48735e-07,5.89848e-06,0,-2.1221e-09,-1.74577e+09,-1.74493e+09,-1.74572e+09,-283.618,0.0247002,-1.49816e-19,0,0.0247002,-14547.3,-60000,-0,61738.4,283.618
step02_gravity_refstate-mantle.xmf,495,-7.47766e-07,6.9874e-06,0,-3.87404e-06,-1.16571e+09,-1.16468e+09,-1.16561e+09,-517766,-0.0198239,0.141149,-0,0.142535,6308.7,-42082.3,0,42552.5,517766
step02_gravity_refstate-mantle.xmf,496,-3.02378e-07,6.22352e-06,0,-3.73034e-06,-1.14717e+09,-1.1463e+09,-1.14713e+09,-498560,-0.0196851,0.139807,-0,0.141186,6916.45,-41510.7,0,42082.9,498560
step02_gravity_refstate-mantle.xmf,497,7.05243e-08,5.44877e-06,0,-3.44687e-06,-1.12643e+09,-1.12571e+09,-1.12644e+09,-460675,-0.0188665,0.137885,-0,0.13917,7575.65,-40870.3,0,41566.5,460675
step02_gravity_refstate-mantle.xmf,498,-2.43468e-06,8.63703e-06,0,1.71834e-06,-1.3895e+09,-1.38802e+09,-1.38918e+09,229657,0.0147493,0.0926436,0,0.0938103,-4863.89,-48988.1,-0,49228.9,229657
step02_gravity_refstate-mantle.xmf,499,-3.95892e-06,1.10774e-05,0,-7.84613e-07,-1.28381e+09,-1.2818e+09,-1.28328e+09,-104864,-0.00397151,0.134129,-0,0.134188,988.793,-45719.3,0,45730,104864
step02_gravity_refstate-mantle.xmf,500,-2.42337e-06,9.30244e-06,0,-3.40449e-06,-1.22088e+09,-1.21931e+09,-1.22056e+09,-455010,-0.016649,0.141327,-0,0.142304,4408.25,-43781.2,0,44002.5,455010
step02_gravity_refstate-mantle.xmf,501,-2.88073e-06,9.86707e-06,0,-2.98162e-06,-1.23846e+09,-1.23676e+09,-1.23808e+09,-398494,-0.0146543,0.139755,-0,0.140521,3781.31,-44322.6,0,44483.6,398494
step02_gravity_refstate-mantle.xmf,502,-3.27208e-06,1.03078e-05,0,-2.46147e-06,-1.25579e+09,-1.25397e+09,-1.25535e+09,-328976,-0.0122914,0.137479,-0,0.138028,3128.87,-44856.4,0,44965.4,328976
step02_gravity_refstate-mantle.xmf,503,-1.70623e-06,7.55383e-06,0,1.5044e-06,-1.45987e+09,-1.45863e+09,-1.45964e+09,201063,0.0189497,0.0679784,0,0.0705702,-7405.72,-51163.8,-0,51697,201063
step02_gravity_refstate-mantle.xmf,504,-2.17145e-06,8.24827e-06,0,1.69241e-06,-1.41152e+09,-1.41012e+09,-1.41122e+09,226190,0.0163138,0.0844891,0,0.0860497,-5693.87,-49668.8,-0,49994.1,226190
step02_gravity_refstate-mantle.xmf,505,-1.9621e-06,7.92594e-06,0,1.57259e-06,-1.44013e+09,-1.4388e+09,-1.43986e+09,210176,0.0174185,0.0752931,0,0.0772816,-6429.36,-50553.2,-0,50960.4,210176
step02_gravity_refstate-mantle.xmf,506,-1.33791e-06,7.04896e-06,0,1.02161e-06,-1.54753e+09,-1.54641e+09,-1.54735e+09,136538,0.0208436,0.0442296,0,0.0488949,-9232.16,-53872.7,-0,54658.1,136538
step02_gravity_refstate-mantle.xmf,507,-1.01732e-06,6.64242e-06,0,7.32475e-07,-1.59941e+09,-1.59839e+09,-1.59928e+09,97895.3,0.0224542,0.0307045,0,0.0380389,-10875.5,-55476.5,-0,56532.5,97895.3
step02_gravity_refstate-mantle.xmf,508,-7.3591e-07,6.31697e-06,0,4.12499e-07,-1.65924e+09,-1.6583e+09,-1.65914e+09,55130.4,0.0236276,0.0171131,0,0.029174,-12440.2,-57325.7,-0,58660,55130.4
step02_gravity_refstate-mantle.xmf,509,2.70343e-07,4.92457e-06,0,-3.22134e-06,-1.09825e+09,-1.09763e+09,-1.09829e+09,-430532,-0.017003,0.139613,-0,0.140645,7894.42,-40000,0,40771.6,430532
step02_gravity_refstate-mantle.xmf,510,-9.47877e-07,7.13657e-06,0,-3.64298e-06,-1.19297e+09,-1.19188e+09,-1.19284e+09,-486885,-0.0202461,0.134009,-0,0.13553,6461.53,-42923.2,0,43406.8,486885
step02_gravity_refstate-mantle.xmf,511,-1.4567e-06,7.87639e-06,0,-3.58215e-06,-1.21155e+09,-1.21031e+09,-1.21136e+09,-478755,-0.0194622,0.134407,-0,0.135809,5812.4,-43495.9,0,43882.5,478755
step02_gravity_refstate-mantle.xmf,512,-3.76553e-06,1.06374e-05,0,4.10132e-07,-1.31894e+09,-1.31701e+09,-1.31843e+09,54814.2,0.00245623,0.122671,0,0.122696,-650.608,-46804.6,-0,46809.1,54814.2
step02_gravity_refstate-mantle.xmf,513,-3.9087e-06,1.09148e-05,0,-2.20319e-07,-1.30179e+09,-1.29981e+09,-1.30127e+09,-29445.6,-0.00113019,0.128577,-0,0.128582,289.33,-46274.7,0,46275.6,29445.6
step02_gravity_refstate-mantle.xmf,514,-3.51234e-06,1.02117e-05,0,8.10121e-07,-1.34225e+09,-1.34042e+09,-1.34178e+09,108273,0.00525493,0.114302,0,0.114423,-1464.45,-47525.3,-0,47547.8,108273
step02_gravity_refstate-mantle.xmf,515,-2.71381e-06,8.99485e-06,0,1.40856e-06,-1.40145e+09,-1.39989e+09,-1.40109e+09,188253,0.0120848,0.0919484,0,0.0927391,-3898.29,-49356.3,-0,49510,188253
step02_gravity_refstate-mantle.xmf,516,-2.98311e-06,9.39434e-06,0,1.28397e-06,-1.38229e+09,-1.38064e+09,-1.3819e+09,171603,0.00998692,0.0992781,0,0.0997792,-3065.92,-48763.7,-0,48860,171603
step02_gravity_refstate-mantle.xmf,517,-3.25357e-06,9.80612e-06,0,1.09194e-06,-1.36215e+09,-1.3604e+09,-1.36171e+09,145937,0.00772265,0.106874,0,0.107153,-2256.3,-48140.6,-0,48193.4,145937
step02_gravity_refstate-mantle.xmf,518,-1.96383e-06,8.56092e-06,0,-3.38918e-06,-1.22945e+09,-1.22805e+09,-1.22919e+09,-452964,-0.0181849,0.134141,-0,0.135368,5171.81,-44047.1,0,44349.7,452964
step02_gravity_refstate-mantle.xmf,519,-3.51261e-06,1.05182e-05,0,-1.87393e-06,-1.27716e+09,-1.27529e+09,-1.27669e+09,-250451,-0.00981639,0.132875,-0,0.133237,2518.12,-45515.5,0,45585.1,250451
step02_gravity_refstate-mantle.xmf,520,-3.69067e-06,1.06628e-05,0,-1.27876e-06,-1.29427e+09,-1.29235e+09,-1.29378e+09,-170907,-0.00692236,0.129218,-0,0.129403,1787.47,-46043.1,0,46077.8,170907
step02_gravity_refstate-mantle.xmf,521,-1.55842e-06,7.34362e-06,0,1.13778e-06,-1.52472e+09,-1.52353e+09,-1.52451e+09,152064,0.0195791,0.0512064,0,0.0548218,-8221.77,-53167.4,-0,53799.3,152064
step02_gravity_refstate-mantle.xmf,522,-1.80015e-06,7.67397e-06,0,1.24e-06,-1.50053e+09,-1.49926e+09,-1.50029e+09,165726,0.018076,0.0589621,0,0.0616707,-7176.31,-52419.4,-0,52908.3,165726
step02_gravity_refstate-mantle.xmf,523,-1.39088e-06,7.14312e-06,0,8.3231e-07,-1.58215e+09,-1.58101e+09,-1.58197e+09,111238,0.0204596,0.0368014,0,0.0421063,-9133.46,-54942.1,-0,55696.1,111238
step02_gravity_refstate-mantle.xmf,524,-1.03429e-06,6.71991e-06,0,4.88808e-07,-1.6479e+09,-1.64687e+09,-1.64776e+09,65329.2,0.0223591,0.0205937,0,0.0303978,-10971,-56974.5,-0,58021.2,65329.2
step02_gravity_refstate-mantle.xmf,525,-1.26407e-06,6.999e-06,0,6.72046e-07,-1.61353e+09,-1.61243e+09,-1.61336e+09,89818.9,0.0211607,0.0290701,0,0.0359562,-9802.08,-55911.9,-0,56764.6,89818.9
step02_gravity_refstate-mantle.xmf,526,-8.5955e-07,6.54643e-06,0,2.18681e-07,-1.7009e+09,-1.69991e+09,-1.70079e+09,29226.7,0.0231409,0.00913649,0,0.0248793,-11920.9,-58612.3,-0,59812.3,29226.7
step02_gravity_refstate-mantle.xmf,527,-6.8035e-07,6.36462e-06,0,-9.29512e-10,-1.7458e+09,-1.74486e+09,-1.74571e+09,-124.229,0.023818,-1.40912e-19,0,0.023818,-12833.5,-60000,-0,61357.1,124.229
step02_gravity_refstate-mantle.xmf,528,-4.94438e-07,6.41238e-06,0,-3.57504e-06,-1.17413e+09,-1.17321e+09,-1.17407e+09,-477804,-0.02046,0.133115,-0,0.134678,7092.61,-42342.6,0,42932.5,477804
step02_gravity_refstate-mantle.xmf,529,-1.34787e-07,5.7533e-06,0,-3.39838e-06,-1.15619e+09,-1.1554e+09,-1.15617e+09,-454193,-0.0201604,0.131619,-0,0.133154,7710.04,-41789,0,42494.3,454193
step02_gravity_refstate-mantle.xmf,530,2.50202e-07,4.88879e-06,0,-3.05605e-06,-1.12093e+09,-1.12031e+09,-1.12096e+09,-408441,-0.0184093,0.131382,-0,0.132666,8458.74,-40700.2,0,41569.9,408441
step02_gravity_refstate-mantle.xmf,531,3.47704e-07,4.5279e-06,0,-2.85544e-06,-1.09827e+09,-1.09771e+09,-1.09832e+09,-381630,-0.0167489,0.132488,-0,0.133542,8727.16,-40000,0,40941,381630
step02_gravity_refstate-mantle.xmf,532,-2.47339e-06,8.64821e-06,0,1.47779e-06,-1.41711e+09,-1.41562e+09,-1.41678e+09,197506,0.013863,0.0857935,0,0.0869063,-4672.74,-49840.6,-0,50059.2,197506
step02_gravity_refstate-mantle.xmf,533,-3.73388e-06,1.06259e-05,0,-7.49232e-07,-1.3133e+09,-1.31138e+09,-1.3128e+09,-100135,-0.00424122,0.124075,-0,0.124148,1118.13,-46630.5,0,46643.9,100135
step02_gravity_refstate-mantle.xmf,534,-2.43314e-06,9.14137e-06,0,-3.08935e-06,-1.24617e+09,-1.24462e+09,-1.24584e+09,-412892,-0.016566,0.13324,-0,0.134266,4558.39,-44561.8,0,44794.3,412892
step02_gravity_refstate-mantle.xmf,535,-2.81665e-06,9.59739e-06,0,-2.66243e-06,-1.26622e+09,-1.26456e+09,-1.26585e+09,-355833,-0.0145894,0.130556,-0,0.131369,3952.65,-45179.9,0,45352.5,355833
step02_gravity_refstate-mantle.xmf,536,-3.16912e-06,1.0042e-05,0,-2.25656e-06,-1.27717e+09,-1.27541e+09,-1.27675e+09,-301589,-0.0122893,0.130233,-0,0.130812,3257.42,-45516.9,0,45633.3,301589
step02_gravity_refstate-mantle.xmf,537,-2.05699e-06,8.02855e-06,0,1.30092e-06,-1.4774e+09,-1.47606e+09,-1.47713e+09,173868,0.0163587,0.0668146,0,0.0687881,-6142.27,-51704.3,-0,52067.9,173868
step02_gravity_refstate-mantle.xmf,538,-2.34048e-06,8.42675e-06,0,1.34153e-06,-1.44939e+09,-1.44795e+09,-1.44907e+09,179295,0.0144071,0.0762999,0,0.0776482,-5086.54,-50838,-0,51091.8,179295
step02_gravity_refstate-mantle.xmf,539,-1.59562e-06,7.41148e-06,0,9.06898e-07,-1.56585e+09,-1.56464e+09,-1.56563e+09,121207,0.0191615,0.0419018,0,0.0460752,-8182.87,-54437.8,-0,55049.4,121207
step02_gravity_refstate-mantle.xmf,540,9.88648e-08,5.23746e-06,0,-3.17067e-06,-1.14297e+09,-1.14228e+09,-1.14298e+09,-423761,-0.0196285,0.129269,-0,0.13075,8291.47,-41381,0,42203.5,423761
step02_gravity_refstate-mantle.xmf,541,3.85425e-07,4.20529e-06,0,-2.52226e-06,-1.09829e+09,-1.09778e+09,-1.09834e+09,-337100,-0.016433,0.125585,-0,0.126656,9600.66,-40000,0,41136,337100
step02_gravity_refstate-mantle.xmf,542,3.30776e-07,4.53869e-06,0,-2.75847e-06,-1.11731e+09,-1.11675e+09,-1.11736e+09,-368669,-0.0179706,0.126306,-0,0.127578,9169.37,-40588.2,0,41611,368669
step02_gravity_refstate-mantle.xmf,543,-6.70949e-07,6.56778e-06,0,-3.38511e-06,-1.20166e+09,-1.20069e+09,-1.20157e+09,-452421,-0.0209679,0.126278,-0,0.128007,7270.79,-43192,0,43799.7,452421
step02_gravity_refstate-mantle.xmf,544,-1.11396e-06,7.24222e-06,0,-3.39262e-06,-1.22053e+09,-1.21942e+09,-1.22039e+09,-453424,-0.0204624,0.126794,-0,0.128434,6616.28,-43773.9,0,44271.1,453424
step02_gravity_refstate-mantle.xmf,545,-1.57829e-06,7.89991e-06,0,-3.29172e-06,-1.23843e+09,-1.23716e+09,-1.23822e+09,-439939,-0.0194672,0.126913,-0,0.128397,5956.37,-44325.2,0,44723.6,439939
step02_gravity_refstate-mantle.xmf,546,-3.69221e-06,1.04888e-05,0,-2.16919e-07,-1.33275e+09,-1.33086e+09,-1.33226e+09,-28991.3,-0.00126472,0.118317,-0,0.118323,342.586,-47231.4,0,47232.7,28991.3
step02_gravity_refstate-mantle.xmf,547,-3.56344e-06,1.0246e-05,0,2.47183e-07,-1.35318e+09,-1.35133e+09,-1.3527e+09,33036.1,0.00168579,0.11172,0,0.111732,-473.049,-47862.6,-0,47864.9,33036.1
step02_gravity_refstate-mantle.xmf,548,-3.37199e-06,9.93317e-06,0,6.07117e-07,-1.3743e+09,-1.37253e+09,-1.37385e+09,81141.2,0.00441929,0.104528,0,0.104621,-1292.39,-48515.6,-0,48532.8,81141.2
step02_gravity_refstate-mantle.xmf,549,-2.67568e-06,8.89756e-06,0,1.18692e-06,-1.43369e+09,-1.43214e+09,-1.43333e+09,158632,0.0114465,0.083208,0,0.0839916,-3821.13,-50352,-0,50496.8,158632
step02_gravity_refstate-mantle.xmf,550,-2.91594e-06,9.24432e-06,0,1.05907e-06,-1.41523e+09,-1.4136e+09,-1.41484e+09,141544,0.00925605,0.0900108,0,0.0904855,-2955.83,-49781.1,-0,49868.8,141544
step02_gravity_refstate-mantle.xmf,551,-3.15225e-06,9.59503e-06,0,8.71128e-07,-1.39493e+09,-1.39323e+09,-1.39451e+09,116426,0.00691887,0.0972821,0,0.0975278,-2112.6,-49153.4,-0,49198.8,116426
step02_gravity_refstate-mantle.xmf,552,-2.02511e-06,8.50275e-06,0,-3.09996e-06,-1.2543e+09,-1.25289e+09,-1.25403e+09,-414310,-0.0180755,0.126824,-0,0.128106,5300.35,-44814.1,0,45126.5,414310
step02_gravity_refstate-mantle.xmf,553,-3.1886e-06,9.96247e-06,0,-1.9756e-06,-1.29833e+09,-1.29657e+09,-1.29791e+09,-264039,-0.0114629,0.124194,-0,0.124722,3120.96,-46170.2,0,46275.5,264039
step02_gravity_refstate-mantle.xmf,554,-3.4314e-06,1.02646e-05,0,-1.5704e-06,-1.30511e+09,-1.30328e+09,-1.30466e+09,-209885,-0.00908971,0.124139,-0,0.124471,2438.09,-46378.8,0,46442.9,209885
step02_gravity_refstate-mantle.xmf,555,-3.48928e-06,1.02549e-05,0,-1.19569e-06,-1.32351e+09,-1.32168e+09,-1.32305e+09,-159805,-0.00719972,0.119399,-0,0.119616,1964.92,-46946.8,0,46987.9,159805
step02_gravity_refstate-mantle.xmf,556,-2.10398e-06,8.08612e-06,0,1.05254e-06,-1.51676e+09,-1.5154e+09,-1.51648e+09,140672,0.0154716,0.0574397,0,0.0594869,-5931.03,-52919.9,-0,53251.2,140672
step02_gravity_refstate-mantle.xmf,557,-1.87162e-06,7.7844e-06,0,9.75572e-07,-1.54465e+09,-1.54336e+09,-1.5444e+09,130385,0.0172009,0.0488724,0,0.051811,-6943.6,-53782.2,-0,54228.5,130385
step02_gravity_refstate-mantle.xmf,558,-1.58623e-06,7.43446e-06,0,6.71126e-07,-1.61123e+09,-1.61003e+09,-1.61102e+09,89696,0.0190716,0.0313046,0,0.0366566,-8325.59,-55840,-0,56457.2,89696
step02_gravity_refstate-mantle.xmf,559,-1.3954e-06,7.22101e-06,0,4.54999e-07,-1.65531e+09,-1.65415e+09,-1.65512e+09,60810.6,0.020294,0.0203978,0,0.0287736,-9292.31,-57202.1,-0,57951.9,60810.6
step02_gravity_refstate-mantle.xmf,560,-1.20461e-06,7.01739e-06,0,2.31324e-07,-1.69971e+09,-1.69862e+09,-1.69955e+09,30916.4,0.0214315,0.0100542,0,0.0236727,-10262.6,-58574.6,-0,59466.8,30916.4
step02_gravity_refstate-mantle.xmf,561,-1.02406e-06,6.83815e-06,0,-6.54903e-10,-1.74584e+09,-1.74478e+09,-1.7457e+09,-87.5278,0.0223893,-1.53772e-19,0,0.0223893,-11156.7,-60000,-0,61028.4,87.5278
step02_gravity_refstate-mantle.xmf,562,-2.86265e-07,5.91913e-06,0,-3.27265e-06,-1.1826e+09,-1.18177e+09,-1.18256e+09,-437390,-0.0209611,0.12529,-0,0.127032,7916.83,-42604.2,0,43333.5,437390
step02_gravity_refstate-mantle.xmf,563,1.19191e-08,5.3381e-06,0,-3.08056e-06,-1.16448e+09,-1.16376e+09,-1.16448e+09,-411717,-0.0205049,0.123775,-0,0.125462,8552.69,-42044.9,0,42906,411717
step02_gravity_refstate-mantle.xmf,564,2.30146e-07,4.82561e-06,0,-2.86132e-06,-1.14215e+09,-1.14154e+09,-1.14218e+09,-382415,-0.0194519,0.123255,-0,0.124781,9097.84,-41355.4,0,42344.3,382415
step02_gravity_refstate-mantle.xmf,565,3.76835e-07,4.31564e-06,0,-2.50132e-06,-1.12598e+09,-1.12545e+09,-1.12603e+09,-334301,-0.0182504,0.119237,-0,0.120626,9969.81,-40855.7,0,42054.5,334301
step02_gravity_refstate-mantle.xmf,566,-3.52379e-06,1.02252e-05,0,-7.20154e-07,-1.34436e+09,-1.34252e+09,-1.34389e+09,-96248.6,-0.00458538,0.11387,-0,0.113963,1278.55,-47590.5,0,47607.6,96248.6
step02_gravity_refstate-mantle.xmf,567,-2.38743e-06,8.96895e-06,0,-2.85741e-06,-1.26767e+09,-1.26616e+09,-1.26735e+09,-381892,-0.0165984,0.126276,-0,0.127362,4735.99,-45225.9,0,45473.2,381892
step02_gravity_refstate-mantle.xmf,568,-2.92228e-06,9.62559e-06,0,-2.3329e-06,-1.28915e+09,-1.28748e+09,-1.28876e+09,-311792,-0.0135434,0.124656,-0,0.12539,3744.96,-45887.6,0,46040.1,311792
step02_gravity_refstate-mantle.xmf,569,-2.34085e-06,8.40512e-06,0,1.05924e-06,-1.49424e+09,-1.49281e+09,-1.49393e+09,141568,0.013525,0.064929,0,0.0663227,-4942.13,-52223.6,-0,52456.9,141568
step02_gravity_refstate-mantle.xmf,570,-1.80624e-06,7.71342e-06,0,7.79663e-07,-1.58453e+09,-1.58326e+09,-1.58429e+09,104202,0.0174402,0.0388709,0,0.0426041,-7256.09,-55014.2,-0,55490.7,104202
step02_gravity_refstate-mantle.xmf,571,4.02807e-07,3.93743e-06,0,-2.21363e-06,-1.09831e+09,-1.09783e+09,-1.09836e+09,-295851,-0.0160717,0.118927,-0,0.120009,10517.3,-40000,0,41359.6,295851
step02_gravity_refstate-mantle.xmf,572,-4.44914e-07,6.08415e-06,0,-3.11841e-06,-1.21062e+09,-1.20975e+09,-1.21056e+09,-416775,-0.0215379,0.118772,-0,0.120709,8106.95,-43469.2,0,44218.7,416775
step02_gravity_refstate-mantle.xmf,573,-8.28539e-07,6.69858e-06,0,-3.17777e-06,-1.22946e+09,-1.22845e+09,-1.22935e+09,-424709,-0.0212626,0.119474,-0,0.121351,7435.24,-44050.1,0,44673.2,424709
step02_gravity_refstate-mantle.xmf,574,-2.59355e-06,8.75331e-06,0,1.00593e-06,-1.47099e+09,-1.46947e+09,-1.47064e+09,134443,0.0112265,0.0728874,0,0.0737469,-3903.43,-51504.4,-0,51652.1,134443
step02_gravity_refstate-mantle.xmf,575,-1.24448e-06,7.31306e-06,0,-3.14379e-06,-1.24766e+09,-1.24652e+09,-1.24749e+09,-420168,-0.0205331,0.119747,-0,0.121495,6765.05,-44611.1,0,45121.2,420168
step02_gravity_refstate-mantle.xmf,576,-1.67303e-06,7.91517e-06,0,-3.02811e-06,-1.26407e+09,-1.26279e+09,-1.26385e+09,-404707,-0.0193613,0.119972,-0,0.121524,6071.03,-45116.7,0,45523.4,404707
step02_gravity_refstate-mantle.xmf,577,-3.49186e-06,1.01185e-05,0,-2.56229e-07,-1.36508e+09,-1.36326e+09,-1.36461e+09,-34244.9,-0.00170884,0.107966,-0,0.10798,489.048,-48230.3,0,48232.8,34244.9
step02_gravity_refstate-mantle.xmf,578,-3.38858e-06,9.9277e-06,0,1.38603e-07,-1.38623e+09,-1.38445e+09,-1.38577e+09,18524.3,0.00108908,0.101467,0,0.101472,-321.793,-48883.8,-0,48884.9,18524.3
step02_gravity_refstate-mantle.xmf,579,-3.23592e-06,9.68289e-06,0,4.48682e-07,-1.40749e+09,-1.40576e+09,-1.40705e+09,59966.4,0.00370086,0.0946094,0,0.0946818,-1133.74,-49540.9,-0,49553.9,59966.4
step02_gravity_refstate-mantle.xmf,580,-2.83695e-06,9.09541e-06,0,8.69906e-07,-1.45016e+09,-1.44856e+09,-1.44978e+09,116263,0.00867704,0.0802319,0,0.0806998,-2882.41,-50860.2,-0,50941.8,116263
step02_gravity_refstate-mantle.xmf,581,-3.04863e-06,9.4012e-06,0,6.9058e-07,-1.42895e+09,-1.42729e+09,-1.42855e+09,92296,0.00622429,0.087464,0,0.0876852,-1983.25,-50204.6,-0,50243.7,92296
step02_gravity_refstate-mantle.xmf,582,-2.11713e-06,8.51424e-06,0,-2.81912e-06,-1.27961e+09,-1.27819e+09,-1.27933e+09,-376776,-0.0176907,0.120095,-0,0.121391,5315.19,-45595.3,0,45904.1,376776
step02_gravity_refstate-mantle.xmf,583,-2.52355e-06,9.05141e-06,0,-2.55038e-06,-1.29167e+09,-1.29012e+09,-1.29133e+09,-340858,-0.0156998,0.120472,-0,0.121491,4553.98,-45966.4,0,46191.5,340858
step02_gravity_refstate-mantle.xmf,584,-3.15952e-06,9.78955e-06,0,-1.63864e-06,-1.32898e+09,-1.32725e+09,-1.32856e+09,-219004,-0.0104383,0.115328,-0,0.1158,2960.43,-47116.7,0,47209.6,219004
step02_gravity_refstate-mantle.xmf,585,-2.85156e-06,9.42875e-06,0,-2.12745e-06,-1.31242e+09,-1.31078e+09,-1.31204e+09,-284333,-0.0134147,0.117395,-0,0.118159,3852.33,-46606.3,0,46765.2,284333
step02_gravity_refstate-mantle.xmf,586,-3.28804e-06,9.87724e-06,0,-1.12905e-06,-1.35448e+09,-1.35272e+09,-1.35404e+09,-150898,-0.00766547,0.109288,-0,0.109557,2211.63,-47903.7,0,47954.8,150898
step02_gravity_refstate-mantle.xmf,587,-2.34146e-06,8.40395e-06,0,8.3713e-07,-1.53324e+09,-1.5318e+09,-1.53292e+09,111882,0.0127174,0.0550847,0,0.0565336,-4764.54,-53428.1,-0,53640.1,111882
step02_gravity_refstate-mantle.xmf,588,-2.14406e-06,8.14839e-06,0,8.53682e-07,-1.54989e+09,-1.54852e+09,-1.54961e+09,114095,0.0146299,0.0495244,0,0.0516401,-5685.74,-53943.3,-0,54242.1,114095
step02_gravity_refstate-mantle.xmf,589,-2.0367e-06,8.02332e-06,0,7.38556e-07,-1.58125e+09,-1.5799e+09,-1.58097e+09,98708,0.015366,0.0410637,0,0.0438445,-6163.2,-54912.1,-0,55256.9,98708
step02_gravity_refstate-mantle.xmf,590,-1.88993e-06,7.8506e-06,0,5.90338e-07,-1.61884e+09,-1.61754e+09,-1.61859e+09,78898.6,0.0165044,0.0310656,0,0.0351777,-6874.33,-56073.9,-0,56493.7,78898.6
step02_gravity_refstate-mantle.xmf,591,-1.71831e-06,7.65813e-06,0,4.22194e-07,-1.65814e+09,-1.65689e+09,-1.65791e+09,56426.2,0.017871,0.0209153,0,0.0275104,-7742.68,-57288.6,-0,57809.4,56426.2
step02_gravity_refstate-mantle.xmf,592,-1.54002e-06,7.47171e-06,0,2.19714e-07,-1.70131e+09,-1.70011e+09,-1.70111e+09,29364.7,0.0192159,0.0103331,0,0.0218179,-8649.89,-58622.9,-0,59257.6,29364.7
step02_gravity_refstate-mantle.xmf,593,-1.36628e-06,7.30255e-06,0,7.41733e-11,-1.74587e+09,-1.74471e+09,-1.74569e+09,9.91326,0.0204233,-1.56118e-19,0,0.0204233,-9511.38,-60000,-0,60749.2,9.91326
step02_gravity_refstate-mantle.xmf,594,-1.17607e-07,5.49439e-06,0,-2.96384e-06,-1.19248e+09,-1.19173e+09,-1.19246e+09,-396118,-0.0213784,0.117297,-0,0.119229,8807.78,-42909.4,0,43804,396118
step02_gravity_refstate-mantle.xmf,595,1.32313e-07,4.97891e-06,0,-2.77923e-06,-1.17197e+09,-1.17133e+09,-1.17199e+09,-371444,-0.0207187,0.116404,-0,0.118233,9427.9,-42276.4,0,43314.9,371444
step02_gravity_refstate-mantle.xmf,596,4.18548e-07,4.00906e-06,0,-2.17456e-06,-1.12511e+09,-1.12463e+09,-1.12517e+09,-290630,-0.01779,0.112471,-0,0.113869,10990.1,-40828.3,0,42281.6,290630
step02_gravity_refstate-mantle.xmf,597,2.81178e-07,4.61227e-06,0,-2.62253e-06,-1.15136e+09,-1.15078e+09,-1.15139e+09,-350501,-0.0197318,0.11681,-0,0.118465,9815.45,-41639.6,0,42780.8,350501
step02_gravity_refstate-mantle.xmf,598,-3.33527e-06,9.88219e-06,0,-6.83529e-07,-1.37647e+09,-1.3747e+09,-1.37602e+09,-91353.7,-0.00491774,0.103702,-0,0.103819,1445.95,-48582.5,0,48604,91353.7
step02_gravity_refstate-mantle.xmf,599,-2.55421e-06,8.68638e-06,0,7.97773e-07,-1.51038e+09,-1.50888e+09,-1.51004e+09,106622,0.0105168,0.0624612,0,0.0633404,-3778.62,-52721.3,-0,52856.6,106622
step02_gravity_refstate-mantle.xmf,600,4.19479e-07,3.70979e-06,0,-1.93719e-06,-1.09832e+09,-1.09788e+09,-1.09838e+09,-258905,-0.0156828,0.112531,-0,0.113618,11479.4,-40000,0,41614.6,258905
step02_gravity_refstate-mantle.xmf,601,4.1674e-07,3.5231e-06,0,-1.68821e-06,-1.09834e+09,-1.09792e+09,-1.09839e+09,-225630,-0.0152735,0.106409,-0,0.1075,12489.1,-40000,0,41904.4,225630
step02_gravity_refstate-mantle.xmf,602,4.5534e-07,3.77561e-06,0,-1.90272e-06,-1.1268e+09,-1.12635e+09,-1.12686e+09,-254298,-0.0174613,0.106036,-0,0.107464,12002.6,-40880,0,42605.6,254298
step02_gravity_refstate-mantle.xmf,603,4.10321e-07,3.36427e-06,0,-1.46563e-06,-1.09835e+09,-1.09796e+09,-1.09841e+09,-195881,-0.0148486,0.100571,-0,0.101661,13548.9,-40000,0,42232.4,195881
step02_gravity_refstate-mantle.xmf,604,4.72705e-07,3.59259e-06,0,-1.66338e-06,-1.12977e+09,-1.12935e+09,-1.12983e+09,-222311,-0.0171807,0.0999004,-0,0.101367,13037.6,-40971.4,0,42995.8,222311
step02_gravity_refstate-mantle.xmf,605,3.93202e-07,3.23166e-06,0,-1.26683e-06,-1.09837e+09,-1.09799e+09,-1.09842e+09,-169312,-0.0144089,0.0950228,-0,0.0961091,14661.8,-40000,0,42602.4,169312
step02_gravity_refstate-mantle.xmf,606,4.78001e-07,3.42633e-06,0,-1.44639e-06,-1.12936e+09,-1.12897e+09,-1.12942e+09,-193310,-0.0166716,0.0946482,-0,0.0961053,14076.4,-40958.4,0,43309.8,193310
step02_gravity_refstate-mantle.xmf,607,7.39278e-07,2.13508e-06,0,-1.0426e-09,-1.09838e+09,-1.0982e+09,-1.09848e+09,-139.344,1.26502e-19,0.0505523,0,0.0505523,40000,-40000,0,56568.5,139.344
step02_gravity_refstate-mantle.xmf,608,7.3315e-07,2.14333e-06,0,-3.98856e-08,-1.09838e+09,-1.0982e+09,-1.09848e+09,-5330.71,-0.00172073,0.050826,-0,0.0508551,37663.8,-40000,0,54941.4,5330.71
step02_gravity_refstate-mantle.xmf,609,8.41879e-07,2.1964e-06,0,-2.35671e-08,-1.15038e+09,-1.1502e+09,-1.15049e+09,-3149.75,-0.00135616,0.0471976,-0,0.047217,38392.6,-41607.1,0,56613.9,3149.75
step02_gravity_refstate-mantle.xmf,610,8.96877e-07,2.21935e-06,0,-1.247e-09,-1.17593e+09,-1.17576e+09,-1.17605e+09,-166.662,1.93387e-19,0.045333,0,0.045333,40000,-42396.8,0,58288,166.662
step02_gravity_refstate-mantle.xmf,611,3.61997e-07,4.3252e-06,0,-2.3656e-06,-1.15142e+09,-1.15089e+09,-1.15147e+09,-316162,-0.01948,0.111515,-0,0.113203,10612.6,-41641.4,0,42972.4,316162
step02_gravity_refstate-mantle.xmf,612,-2.68199e-07,5.68141e-06,0,-2.84509e-06,-1.22163e+09,-1.22083e+09,-1.22159e+09,-380246,-0.0220109,0.111129,-0,0.113288,8983.81,-43809.3,0,44721,380246
step02_gravity_refstate-mantle.xmf,613,-5.93233e-07,6.23603e-06,0,-2.95091e-06,-1.23848e+09,-1.23757e+09,-1.2384e+09,-394389,-0.0218921,0.112464,-0,0.114575,8265.28,-44329.2,0,45093.1,394389
step02_gravity_refstate-mantle.xmf,614,-9.58728e-07,6.8014e-06,0,-2.97151e-06,-1.25622e+09,-1.25518e+09,-1.25609e+09,-397142,-0.0213952,0.112999,-0,0.115007,7581.27,-44876.2,0,45512.1,397142
step02_gravity_refstate-mantle.xmf,615,-2.7614e-06,8.96827e-06,0,6.97397e-07,-1.48741e+09,-1.48584e+09,-1.48704e+09,93207.1,0.00809238,0.0699542,0,0.0704207,-2790.64,-52011.2,-0,52086,93207.1
step02_gravity_refstate-mantle.xmf,616,-1.34231e-06,7.35828e-06,0,-2.91428e-06,-1.27322e+09,-1.27205e+09,-1.27304e+09,-389494,-0.0205093,0.113181,-0,0.115025,6899.17,-45400,0,45921.2,389494
step02_gravity_refstate-mantle.xmf,617,-1.73733e-06,7.90483e-06,0,-2.77936e-06,-1.28968e+09,-1.28839e+09,-1.28945e+09,-371461,-0.0192195,0.113078,-0,0.1147,6190.07,-45907.3,0,46322.8,371461
step02_gravity_refstate-mantle.xmf,618,-3.31368e-06,9.805e-06,0,-2.91454e-07,-1.39785e+09,-1.3961e+09,-1.39741e+09,-38952.8,-0.00221725,0.0977972,-0,0.0978223,667.568,-49243,0,49247.5,38952.8
step02_gravity_refstate-mantle.xmf,619,-3.23235e-06,9.65814e-06,0,3.77695e-08,-1.41999e+09,-1.41826e+09,-1.41955e+09,5047.89,0.000377778,0.0912797,0,0.0912805,-117.106,-49927,-0,49927.1,5047.89
step02_gravity_refstate-mantle.xmf,620,-3.10888e-06,9.46393e-06,0,3.16791e-07,-1.4422e+09,-1.44052e+09,-1.44178e+09,42339.2,0.00300132,0.0844501,0,0.0845034,-960.946,-50613.4,-0,50622.5,42339.2
step02_gravity_refstate-mantle.xmf,621,-2.94947e-06,9.23167e-06,0,5.3506e-07,-1.46468e+09,-1.46306e+09,-1.46429e+09,71510.7,0.0055547,0.0773199,0,0.0775192,-1842.92,-51308.5,-0,51341.6,71510.7
step02_gravity_refstate-mantle.xmf,622,-2.10865e-06,8.39706e-06,0,-2.57291e-06,-1.30529e+09,-1.30389e+09,-1.30501e+09,-343869,-0.0176244,0.112536,-0,0.113908,5491.4,-46388.4,0,46712.3,343869
step02_gravity_refstate-mantle.xmf,623,-2.45686e-06,8.83625e-06,0,-2.27385e-06,-1.32301e+09,-1.3215e+09,-1.32268e+09,-303900,-0.0156505,0.110912,-0,0.112011,4767.6,-46934.5,0,47176,303900
step02_gravity_refstate-mantle.xmf,624,-2.76187e-06,9.19683e-06,0,-1.88109e-06,-1.34377e+09,-1.34217e+09,-1.3434e+09,-251407,-0.0132437,0.107904,-0,0.108714,3990.07,-47574.6,0,47741.6,251407
step02_gravity_refstate-mantle.xmf,625,-3.11563e-06,9.56631e-06,0,-1.03066e-06,-1.38725e+09,-1.38556e+09,-1.38684e+09,-137748,-0.00792063,0.0990922,-0,0.0994083,2407.63,-48916.4,0,48975.6,137748
step02_gravity_refstate-mantle.xmf,626,-2.9886e-06,9.44712e-06,0,-1.44902e-06,-1.36511e+09,-1.36345e+09,-1.36471e+09,-193661,-0.0105747,0.104014,-0,0.10455,3182.87,-48233,0,48337.9,193661
step02_gravity_refstate-mantle.xmf,627,-2.30771e-06,8.37533e-06,0,6.43279e-07,-1.57665e+09,-1.57522e+09,-1.57634e+09,85974.3,0.0123566,0.0438427,0,0.0455507,-4760.65,-54769.3,-0,54975.8,85974.3
step02_gravity_refstate-mantle.xmf,628,-2.51477e-06,8.63577e-06,0,6.20601e-07,-1.54976e+09,-1.54827e+09,-1.54943e+09,82943.3,0.00991155,0.0520575,0,0.0529926,-3663.91,-53937.9,-0,54062.2,82943.3
step02_gravity_refstate-mantle.xmf,629,-2.15676e-06,8.20539e-06,0,5.19171e-07,-1.61848e+09,-1.6171e+09,-1.6182e+09,69387.2,0.0136576,0.0324599,0,0.0352161,-5466.11,-56062.1,-0,56327.9,69387.2
step02_gravity_refstate-mantle.xmf,630,-2.00896e-06,8.04719e-06,0,3.72578e-07,-1.66006e+09,-1.65872e+09,-1.6598e+09,49795,0.0150477,0.0214616,0,0.0262114,-6231.65,-57347.1,-0,57684.7,49795
step02_gravity_refstate-mantle.xmf,631,-1.85714e-06,7.89569e-06,0,1.98841e-07,-1.70242e+09,-1.70112e+09,-1.70217e+09,26575.1,0.0164772,0.0106485,0,0.0196186,-7038.7,-58656,-0,59076.8,26575.1
step02_gravity_refstate-mantle.xmf,632,-1.69392e-06,7.74119e-06,0,8.24724e-10,-1.74591e+09,-1.74464e+09,-1.74568e+09,110.224,0.0179464,-1.591e-19,0,0.0179464,-7892.26,-60000,-0,60516.8,110.224
step02_gravity_refstate-mantle.xmf,633,4.72725e-07,3.28036e-06,0,-1.24667e-06,-1.12847e+09,-1.12809e+09,-1.12853e+09,-166618,-0.0160914,0.0895657,-0,0.0909997,15193,-40930.5,0,43659.3,166618
step02_gravity_refstate-mantle.xmf,634,4.00169e-07,3.10554e-06,0,-1.09367e-06,-1.09838e+09,-1.09801e+09,-1.09843e+09,-146169,-0.0139514,0.0897693,-0,0.0908469,15830.4,-40000,0,43018.6,146169
step02_gravity_refstate-mantle.xmf,635,7.1605e-07,2.16888e-06,0,-7.95232e-08,-1.09839e+09,-1.09819e+09,-1.09848e+09,-10628.3,-0.00333175,0.0516023,-0,0.0517097,35440.8,-40000,0,53442,10628.3
step02_gravity_refstate-mantle.xmf,636,8.4419e-07,2.2165e-06,0,-5.20024e-08,-1.15508e+09,-1.1549e+09,-1.15519e+09,-6950.12,-0.00294949,0.0473267,-0,0.0474185,36529.7,-41752.3,0,55476.8,6950.12
step02_gravity_refstate-mantle.xmf,637,9.74461e-07,2.26931e-06,0,-2.65227e-08,-1.218e+09,-1.21783e+09,-1.21813e+09,-3544.76,-0.00204826,0.0426102,-0,0.0426594,37900.3,-43696.9,0,57843.3,3544.76
step02_gravity_refstate-mantle.xmf,638,1.0454e-06,2.30517e-06,0,-1.13952e-09,-1.25397e+09,-1.2538e+09,-1.25411e+09,-152.296,2.13099e-19,0.0398763,0,0.0398763,40000,-44808.6,0,60065.1,152.296
step02_gravity_refstate-mantle.xmf,639,2.36666e-07,4.66709e-06,0,-2.50786e-06,-1.17725e+09,-1.17665e+09,-1.17728e+09,-335175,-0.0207653,0.11,-0,0.111943,10286.8,-42439.2,0,43668.1,335175
step02_gravity_refstate-mantle.xmf,640,3.72349e-08,5.08966e-06,0,-2.63011e-06,-1.20483e+09,-1.20415e+09,-1.20483e+09,-351514,-0.0217445,0.108459,-0,0.110617,9866.82,-43290.9,0,44401.1,351514
step02_gravity_refstate-mantle.xmf,641,4.08604e-07,4.08697e-06,0,-2.10918e-06,-1.15381e+09,-1.15332e+09,-1.15387e+09,-281892,-0.0192634,0.105695,-0,0.107436,11505.2,-41715.1,0,43272.6,281892
step02_gravity_refstate-mantle.xmf,642,-3.17029e-06,9.59803e-06,0,-6.49982e-07,-1.40836e+09,-1.40666e+09,-1.40794e+09,-86870,-0.00529367,0.0938954,-0,0.0940445,1633.49,-49568.2,0,49595.1,86870
step02_gravity_refstate-mantle.xmf,643,-2.69566e-06,8.87192e-06,0,5.37779e-07,-1.52628e+09,-1.52473e+09,-1.52592e+09,71874.1,0.00745073,0.0593785,0,0.0598442,-2656.58,-53211.8,-0,53278.1,71874.1
step02_gravity_refstate-mantle.xmf,644,6.9006e-07,2.20843e-06,0,-1.21324e-07,-1.09839e+09,-1.09818e+09,-1.09848e+09,-16215,-0.00481835,0.0528283,-0,0.0530476,33325.6,-40000,0,52063.3,16215
step02_gravity_refstate-mantle.xmf,645,8.17e-07,2.24602e-06,0,-8.92317e-08,-1.15117e+09,-1.15097e+09,-1.15127e+09,-11925.8,-0.00470213,0.0485427,-0,0.0487699,34373.1,-41631.3,0,53987.7,11925.8
step02_gravity_refstate-mantle.xmf,646,6.5772e-07,2.25942e-06,0,-1.66444e-07,-1.09839e+09,-1.09818e+09,-1.09848e+09,-22245.3,-0.00617365,0.0544657,-0,0.0548145,31312.8,-40000,0,50798.5,22245.3
step02_gravity_refstate-mantle.xmf,647,7.7913e-07,2.28967e-06,0,-1.333e-07,-1.14606e+09,-1.14586e+09,-1.14616e+09,-17815.5,-0.00635729,0.0503437,-0,0.0507435,32208.1,-41473.3,0,52511,17815.5
step02_gravity_refstate-mantle.xmf,648,6.21289e-07,2.31973e-06,0,-2.16167e-07,-1.09839e+09,-1.09817e+09,-1.09848e+09,-28890.7,-0.00739672,0.0564866,-0,0.0569688,29397.5,-40000,0,49640.9,28890.7
step02_gravity_refstate-mantle.xmf,649,5.8335e-07,2.38734e-06,0,-2.7167e-07,-1.0984e+09,-1.09815e+09,-1.09847e+09,-36308.6,-0.00849155,0.0588705,-0,0.0594798,27575,-40000,0,48583.7,36308.6
step02_gravity_refstate-mantle.xmf,650,7.00187e-07,2.40731e-06,0,-2.3523e-07,-1.13944e+09,-1.13921e+09,-1.13953e+09,-31438.5,-0.00905061,0.0547319,-0,0.0554751,28383.9,-41268.7,0,50087.4,31438.5
step02_gravity_refstate-mantle.xmf,651,7.39947e-07,2.3454e-06,0,-1.82163e-07,-1.14251e+09,-1.1423e+09,-1.14261e+09,-24346.1,-0.0078145,0.0524176,-0,0.0529969,30200.8,-41363.7,0,51215.7,24346.1
step02_gravity_refstate-mantle.xmf,652,5.45285e-07,2.46108e-06,0,-3.34447e-07,-1.0984e+09,-1.09814e+09,-1.09847e+09,-44698.8,-0.00946595,0.0616025,-0,0.0623255,25840.6,-40000,0,47620.8,44698.8
step02_gravity_refstate-mantle.xmf,653,6.68209e-07,2.47907e-06,0,-2.9276e-07,-1.14062e+09,-1.14038e+09,-1.14071e+09,-39127.3,-0.0102731,0.0570786,-0,0.0579957,26641.3,-41305.2,0,49151.6,39127.3
step02_gravity_refstate-mantle.xmf,654,5.04859e-07,2.53704e-06,0,-4.02633e-07,-1.0984e+09,-1.09813e+09,-1.09847e+09,-53811.9,-0.0103309,0.064671,-0,0.065491,24190.1,-40000,0,46745.7,53811.9
step02_gravity_refstate-mantle.xmf,655,6.33749e-07,2.56183e-06,0,-3.69659e-07,-1.13916e+09,-1.1389e+09,-1.13924e+09,-49405,-0.0113487,0.0600725,-0,0.0611351,24914.5,-41259.9,0,48198.7,49405
step02_gravity_refstate-mantle.xmf,656,3.95414e-07,2.99866e-06,0,-9.39056e-07,-1.09839e+09,-1.09804e+09,-1.09844e+09,-125505,-0.01347,0.0848148,-0,0.0858778,17057.8,-40000,0,43485.3,125505
step02_gravity_refstate-mantle.xmf,657,4.96621e-07,3.14962e-06,0,-1.06867e-06,-1.13194e+09,-1.13158e+09,-1.132e+09,-142828,-0.0156889,0.0840081,-0,0.0854605,16444.1,-41037.5,0,44209.6,142828
step02_gravity_refstate-mantle.xmf,658,4.60882e-07,3.88223e-06,0,-1.87186e-06,-1.15929e+09,-1.15883e+09,-1.15935e+09,-250174,-0.0191328,0.0995051,-0,0.101328,12477.8,-41883.9,0,43703,250174
step02_gravity_refstate-mantle.xmf,659,4.87048e-07,3.68095e-06,0,-1.60688e-06,-1.16506e+09,-1.16464e+09,-1.16513e+09,-214760,-0.0188706,0.0927134,-0,0.0946143,13669,-42062,0,44227.3,214760
step02_gravity_refstate-mantle.xmf,660,5.03675e-07,3.48085e-06,0,-1.41724e-06,-1.15357e+09,-1.15317e+09,-1.15363e+09,-189414,-0.0178472,0.0899982,-0,0.0917507,14514,-41706.5,0,44159.8,189414
step02_gravity_refstate-mantle.xmf,661,1.11847e-06,2.36454e-06,0,-2.49335e-08,-1.29836e+09,-1.29819e+09,-1.29851e+09,-3332.36,-0.00224409,0.0368349,-0,0.0369032,37994.5,-46180.4,0,59801.4,3332.36
step02_gravity_refstate-mantle.xmf,662,1.17793e-06,2.39661e-06,0,-1.33015e-09,-1.33274e+09,-1.33258e+09,-1.3329e+09,-177.775,2.34039e-19,0.0341527,0,0.0341527,40000,-47243,0,61902.3,177.775
step02_gravity_refstate-mantle.xmf,663,3.29427e-07,4.36775e-06,0,-2.26078e-06,-1.17502e+09,-1.17448e+09,-1.17507e+09,-302153,-0.0204389,0.105287,-0,0.107252,11107.8,-42370.4,0,43802.2,302153
step02_gravity_refstate-mantle.xmf,664,-1.60375e-07,5.41981e-06,0,-2.62188e-06,-1.23369e+09,-1.23295e+09,-1.23367e+09,-350414,-0.0223643,0.10468,-0,0.107042,9714.73,-44182.1,0,45237.5,350414
step02_gravity_refstate-mantle.xmf,665,-4.05801e-07,5.85103e-06,0,-2.71794e-06,-1.24879e+09,-1.24795e+09,-1.24873e+09,-363253,-0.0223889,0.105582,-0,0.10793,9103.17,-44647.8,0,45566.3,363253
step02_gravity_refstate-mantle.xmf,666,-7.16582e-07,6.35534e-06,0,-2.7793e-06,-1.26511e+09,-1.26416e+09,-1.26501e+09,-371453,-0.0220866,0.106421,-0,0.108689,8413.78,-45151.1,0,45928.4,371453
step02_gravity_refstate-mantle.xmf,667,-1.05939e-06,6.87157e-06,0,-2.76615e-06,-1.28243e+09,-1.28137e+09,-1.28229e+09,-369696,-0.0214418,0.106613,-0,0.108748,7733.55,-45685.4,0,46335.4,369696
step02_gravity_refstate-mantle.xmf,668,-2.85698e-06,9.08875e-06,0,4.01977e-07,-1.50227e+09,-1.50067e+09,-1.50189e+09,53724.2,0.00491002,0.0667978,0,0.0669781,-1691.43,-52469.7,-0,52497,53724.2
step02_gravity_refstate-mantle.xmf,669,-1.40458e-06,7.36463e-06,0,-2.68929e-06,-1.29889e+09,-1.29772e+09,-1.29871e+09,-359424,-0.0204811,0.106457,-0,0.10841,7067.5,-46192.8,0,46730.3,359424
step02_gravity_refstate-mantle.xmf,670,-1.74367e-06,7.82858e-06,0,-2.55433e-06,-1.31466e+09,-1.31338e+09,-1.31443e+09,-341386,-0.0192195,0.106002,-0,0.10773,6397.13,-46678.8,0,47115.1,341386
step02_gravity_refstate-mantle.xmf,671,-3.15212e-06,9.53853e-06,0,-3.29058e-07,-1.4311e+09,-1.42941e+09,-1.43068e+09,-43978.6,-0.00289022,0.0877339,-0,0.0877815,911.991,-50270.6,0,50278.8,43978.6
step02_gravity_refstate-mantle.xmf,672,-3.09136e-06,9.42737e-06,0,-5.09288e-08,-1.45504e+09,-1.45337e+09,-1.45463e+09,-6806.63,-0.000414334,0.0809409,-0,0.080942,134.285,-51010.2,0,51010.4,6806.63
step02_gravity_refstate-mantle.xmf,673,-2.99158e-06,9.27685e-06,0,2.07441e-07,-1.47856e+09,-1.47692e+09,-1.47816e+09,27724.4,0.00229876,0.074003,0,0.0740387,-767.023,-51737.1,-0,51742.8,27724.4
step02_gravity_refstate-mantle.xmf,674,-2.07841e-06,8.26283e-06,0,-2.32894e-06,-1.33367e+09,-1.33228e+09,-1.33339e+09,-311263,-0.0176014,0.104283,-0,0.105758,5710.33,-47264.7,0,47608.4,311263
step02_gravity_refstate-mantle.xmf,675,-2.39429e-06,8.65636e-06,0,-2.02212e-06,-1.35483e+09,-1.35336e+09,-1.35451e+09,-270257,-0.015562,0.101587,-0,0.102772,4963.1,-47917.4,0,48173.8,270257
step02_gravity_refstate-mantle.xmf,676,-2.65965e-06,8.9728e-06,0,-1.66254e-06,-1.37683e+09,-1.37527e+09,-1.37647e+09,-222198,-0.0131901,0.0980791,-0,0.0989621,4171.81,-48595.9,0,48774.6,222198
step02_gravity_refstate-mantle.xmf,677,-2.96988e-06,9.31699e-06,0,-9.32044e-07,-1.41983e+09,-1.41818e+09,-1.41943e+09,-124568,-0.00812628,0.0892961,-0,0.0896651,2588.54,-49922.9,0,49990,124568
step02_gravity_refstate-mantle.xmf,678,-2.85135e-06,9.19004e-06,0,-1.28842e-06,-1.39882e+09,-1.39721e+09,-1.39844e+09,-172197,-0.010666,0.0938698,-0,0.0944738,3374.76,-49274.5,0,49389.9,172197
step02_gravity_refstate-mantle.xmf,679,-2.62903e-06,8.79162e-06,0,4.06622e-07,-1.56719e+09,-1.56567e+09,-1.56684e+09,54345,0.00701276,0.0482734,0,0.0487801,-2577.48,-54476.1,-0,54537,54345
step02_gravity_refstate-mantle.xmf,680,-2.47979e-06,8.61085e-06,0,4.7799e-07,-1.5862e+09,-1.58472e+09,-1.58587e+09,63883.4,0.00941107,0.0424477,0,0.0434784,-3555.44,-55063.7,-0,55178.3,63883.4
step02_gravity_refstate-mantle.xmf,681,-2.37978e-06,8.50121e-06,0,4.12387e-07,-1.62019e+09,-1.61873e+09,-1.61987e+09,55115.5,0.0104908,0.033092,0,0.0347151,-4073.5,-56113.9,-0,56261.6,55115.5
step02_gravity_refstate-mantle.xmf,682,-2.25893e-06,8.37715e-06,0,3.07522e-07,-1.66064e+09,-1.65922e+09,-1.66034e+09,41100.3,0.0118494,0.0221632,0,0.0251319,-4733.68,-57364,-0,57559,41100.3
step02_gravity_refstate-mantle.xmf,683,-2.12982e-06,8.25552e-06,0,1.70884e-07,-1.70257e+09,-1.70118e+09,-1.70228e+09,22838.7,0.0133837,0.0110974,0,0.0173861,-5486.92,-58659.7,-0,58915.7,22838.7
step02_gravity_refstate-mantle.xmf,684,-1.99165e-06,8.13534e-06,0,1.55264e-09,-1.74594e+09,-1.74458e+09,-1.74567e+09,207.51,0.0150014,-1.6258e-19,0,0.0150014,-6293.86,-60000,-0,60329.2,207.51
step02_gravity_refstate-mantle.xmf,685,5.94755e-07,2.64838e-06,0,-4.53214e-07,-1.13801e+09,-1.13774e+09,-1.13809e+09,-60572,-0.0123362,0.0634639,-0,0.0646517,23237.3,-41224.6,0,47322.7,60572
step02_gravity_refstate-mantle.xmf,686,4.77821e-07,2.62167e-06,0,-4.86506e-07,-1.0984e+09,-1.09811e+09,-1.09846e+09,-65021.5,-0.0110984,0.0680674,-0,0.0689663,22619.3,-40000,0,45952.5,65021.5
step02_gravity_refstate-mantle.xmf,687,5.11355e-07,3.04993e-06,0,-9.1854e-07,-1.13744e+09,-1.1371e+09,-1.13751e+09,-122763,-0.0153682,0.0789015,-0,0.0803842,17675.6,-41207.3,0,44838.3,122763
step02_gravity_refstate-mantle.xmf,688,5.27108e-07,3.34982e-06,0,-1.2325e-06,-1.15921e+09,-1.15884e+09,-1.15928e+09,-164723,-0.0175665,0.0845461,-0,0.0863517,15631.6,-41880.7,0,44702.8,164723
step02_gravity_refstate-mantle.xmf,689,9.42816e-07,2.29302e-06,0,-6.57859e-08,-1.2087e+09,-1.20852e+09,-1.20883e+09,-8792.29,-0.00439117,0.0440147,-0,0.0442332,35391.4,-43409.6,0,56008.4,8792.29
step02_gravity_refstate-mantle.xmf,690,1.06349e-06,2.35662e-06,0,-5.18281e-08,-1.27312e+09,-1.27294e+09,-1.27326e+09,-6926.83,-0.00440124,0.0391926,-0,0.039439,35895.3,-45400.2,0,57876.2,6926.83
step02_gravity_refstate-mantle.xmf,691,1.24019e-06,2.4608e-06,0,-2.39789e-08,-1.3774e+09,-1.37724e+09,-1.37757e+09,-3204.78,-0.00245104,0.0309374,-0,0.0310343,38022.9,-48623,0,61724.7,3204.78
step02_gravity_refstate-mantle.xmf,692,1.95866e-07,4.68261e-06,0,-2.31608e-06,-1.2082e+09,-1.2076e+09,-1.20823e+09,-309544,-0.0217088,0.101313,-0,0.103613,10993.7,-43395.2,0,44766.1,309544
step02_gravity_refstate-mantle.xmf,693,3.65517e-07,4.22985e-06,0,-2.07298e-06,-1.18534e+09,-1.18482e+09,-1.18539e+09,-277054,-0.020622,0.0996944,-0,0.101805,11846.6,-42688.9,0,44302.2,277054
step02_gravity_refstate-mantle.xmf,694,4.5297e-09,5.07386e-06,0,-2.4363e-06,-1.23134e+09,-1.23066e+09,-1.23134e+09,-325611,-0.022376,0.100821,-0,0.103275,10460.8,-44109.6,0,45333.1,325611
step02_gravity_refstate-mantle.xmf,695,-3.03706e-06,9.3911e-06,0,-6.2314e-07,-1.43608e+09,-1.43442e+09,-1.43567e+09,-83282.6,-0.00570701,0.0855587,-0,0.0857488,1830.75,-50424.7,0,50457.9,83282.6
step02_gravity_refstate-mantle.xmf,696,-2.76876e-06,8.96802e-06,0,2.9628e-07,-1.54273e+09,-1.54116e+09,-1.54236e+09,39597.8,0.00442136,0.0555742,0,0.0557498,-1577.51,-53720,-0,53743.1,39597.8
step02_gravity_refstate-mantle.xmf,697,-2.5441e-06,8.71627e-06,0,2.91795e-07,-1.6172e+09,-1.6157e+09,-1.61686e+09,38998.4,0.00712322,0.0346827,0,0.0354067,-2701.65,-56021.2,-0,56086.3,38998.4
step02_gravity_refstate-mantle.xmf,698,9.03464e-07,2.32862e-06,0,-1.05461e-07,-1.19985e+09,-1.19966e+09,-1.19997e+09,-14094.8,-0.0063331,0.0458122,-0,0.0462478,33177.7,-43136,0,54419.4,14094.8
step02_gravity_refstate-mantle.xmf,699,7.60565e-07,2.49223e-06,0,-2.60168e-07,-1.1739e+09,-1.17367e+09,-1.174e+09,-34771.4,-0.01058,0.0533066,-0,0.0543464,27484,-42333.7,0,50472.9,34771.4
step02_gravity_refstate-mantle.xmf,700,8.52982e-07,2.38113e-06,0,-1.57142e-07,-1.18968e+09,-1.18947e+09,-1.18979e+09,-21002,-0.00817865,0.0483071,-0,0.0489946,30889.9,-42821.4,0,52800.2,21002
step02_gravity_refstate-mantle.xmf,701,8.07929e-07,2.43998e-06,0,-2.10194e-07,-1.18275e+09,-1.18253e+09,-1.18286e+09,-28092.4,-0.0095992,0.0507364,-0,0.0516365,29006.8,-42607.3,0,51543.9,28092.4
step02_gravity_refstate-mantle.xmf,702,4.14479e-07,2.89351e-06,0,-8.03999e-07,-1.09839e+09,-1.09806e+09,-1.09845e+09,-107454,-0.0129553,0.0801633,-0,0.0812034,18347,-40000,0,44007,107454
step02_gravity_refstate-mantle.xmf,703,7.59945e-07,2.59317e-06,0,-3.30066e-07,-1.18721e+09,-1.18696e+09,-1.18731e+09,-44113.3,-0.0122306,0.0547597,-0,0.0561089,25786.5,-42745,0,49920.8,44113.3
step02_gravity_refstate-mantle.xmf,704,4.52229e-07,2.70742e-06,0,-5.7859e-07,-1.0984e+09,-1.0981e+09,-1.09846e+09,-77328.5,-0.0117822,0.0717852,-0,0.0727457,21124.3,-40000,0,45235.3,77328.5
step02_gravity_refstate-mantle.xmf,705,5.84671e-07,2.74337e-06,0,-5.47294e-07,-1.14153e+09,-1.14125e+09,-1.14161e+09,-73145.9,-0.0133235,0.0664581,-0,0.0677805,21790.1,-41333.5,0,46725.4,73145.9
step02_gravity_refstate-mantle.xmf,706,4.31031e-07,2.7978e-06,0,-6.84207e-07,-1.09839e+09,-1.09808e+09,-1.09845e+09,-91444.3,-0.012397,0.0758187,-0,0.0768256,19701.4,-40000,0,44588.6,91444.3
step02_gravity_refstate-mantle.xmf,707,5.50143e-07,2.94725e-06,0,-7.8176e-07,-1.14319e+09,-1.14287e+09,-1.14327e+09,-104482,-0.0149504,0.0739523,-0,0.0754484,19012.3,-41385,0,45543.2,104482
step02_gravity_refstate-mantle.xmf,708,5.78814e-07,2.84845e-06,0,-6.56088e-07,-1.14723e+09,-1.14693e+09,-1.14731e+09,-87686.2,-0.0143523,0.0694871,-0,0.0709538,20421,-41509.8,0,46261,87686.2
step02_gravity_refstate-mantle.xmf,709,6.95061e-07,2.68488e-06,0,-4.35832e-07,-1.17417e+09,-1.17391e+09,-1.17426e+09,-58249,-0.0133096,0.0594696,-0,0.0609408,23731.3,-42342.2,0,48539,58249
step02_gravity_refstate-mantle.xmf,710,5.70583e-07,3.23158e-06,0,-1.05339e-06,-1.17111e+09,-1.17075e+09,-1.17118e+09,-140785,-0.0174174,0.0781434,-0,0.0800609,16973.7,-42248.1,0,45530.3,140785
step02_gravity_refstate-mantle.xmf,711,4.35425e-07,4.02085e-06,0,-1.83817e-06,-1.1937e+09,-1.19322e+09,-1.19376e+09,-245672,-0.0205641,0.0932393,-0,0.0954801,12873.3,-42947.1,0,44835,245672
step02_gravity_refstate-mantle.xmf,712,5.22552e-07,3.56891e-06,0,-1.41005e-06,-1.18107e+09,-1.18066e+09,-1.18114e+09,-188453,-0.0190694,0.0856655,-0,0.0877623,14814.6,-42556.4,0,45061.3,188453
step02_gravity_refstate-mantle.xmf,713,1.16752e-06,2.43193e-06,0,-4.73789e-08,-1.33509e+09,-1.33493e+09,-1.33525e+09,-6332.19,-0.00450172,0.034518,-0,0.0348103,36166.9,-47315.6,0,59555.1,6332.19
step02_gravity_refstate-mantle.xmf,714,1.29033e-06,2.49621e-06,0,-1.67971e-09,-1.41247e+09,-1.41231e+09,-1.41264e+09,-224.493,2.57838e-19,0.0281245,0,0.0281245,40000,-49706.7,0,63802.5,224.493
step02_gravity_refstate-mantle.xmf,715,-2.33948e-07,5.48704e-06,0,-2.47299e-06,-1.25957e+09,-1.25881e+09,-1.25954e+09,-330515,-0.0227976,0.0985338,-0,0.101137,10036.7,-44981.1,0,46087.3,330515
step02_gravity_refstate-mantle.xmf,716,-5.26744e-07,5.99395e-06,0,-2.59525e-06,-1.27306e+09,-1.27218e+09,-1.27298e+09,-346855,-0.0225882,0.100675,-0,0.103178,9188.11,-45397,0,46317.5,346855
step02_gravity_refstate-mantle.xmf,717,-1.16051e-06,6.95198e-06,0,-2.55598e-06,-1.31016e+09,-1.30907e+09,-1.31e+09,-341606,-0.021375,0.100104,-0,0.102361,7850.05,-46541.3,0,47198.7,341606
step02_gravity_refstate-mantle.xmf,718,-8.0318e-07,6.42492e-06,0,-2.59762e-06,-1.29127e+09,-1.2903e+09,-1.29116e+09,-347172,-0.0222177,0.100233,-0,0.102666,8605.24,-45958.9,0,46757.6,347172
step02_gravity_refstate-mantle.xmf,719,-2.88375e-06,9.12013e-06,0,1.25715e-07,-1.51693e+09,-1.51532e+09,-1.51654e+09,16801.8,0.00168055,0.0631494,0,0.0631717,-582.561,-52922.4,-0,52925.6,16801.8
step02_gravity_refstate-mantle.xmf,720,-1.47178e-06,7.39375e-06,0,-2.49558e-06,-1.32207e+09,-1.32088e+09,-1.32187e+09,-333534,-0.02035,0.100718,-0,0.102753,7163.13,-46908.3,0,47452.1,333534
step02_gravity_refstate-mantle.xmf,721,-1.72652e-06,7.72809e-06,0,-2.32772e-06,-1.34244e+09,-1.34118e+09,-1.34221e+09,-311099,-0.0192647,0.0981826,-0,0.100055,6657.13,-47536.7,0,48000.6,311099
step02_gravity_refstate-mantle.xmf,722,-2.98201e-06,9.27969e-06,0,-4.20536e-07,-1.46635e+09,-1.46472e+09,-1.46596e+09,-56204.7,-0.00422797,0.0771864,-0,0.0773021,1398.29,-51360,0,51379,56204.7
step02_gravity_refstate-mantle.xmf,723,-2.95994e-06,9.22771e-06,0,-1.00524e-07,-1.49241e+09,-1.49078e+09,-1.49201e+09,-13435,-0.00107934,0.0701418,-0,0.0701501,365.058,-52164.9,0,52166.1,13435
step02_gravity_refstate-mantle.xmf,724,-2.04192e-06,8.13552e-06,0,-2.08032e-06,-1.36538e+09,-1.36402e+09,-1.36511e+09,-278035,-0.0175574,0.0953533,-0,0.0969562,5942,-48244.3,0,48608.9,278035
step02_gravity_refstate-mantle.xmf,725,-2.32824e-06,8.49497e-06,0,-1.78744e-06,-1.38804e+09,-1.3866e+09,-1.38773e+09,-238891,-0.0154876,0.0921296,-0,0.0934223,5164.57,-48943.3,0,49215,238891
step02_gravity_refstate-mantle.xmf,726,-2.55978e-06,8.77655e-06,0,-1.46584e-06,-1.41072e+09,-1.40921e+09,-1.41038e+09,-195909,-0.0131915,0.088265,-0,0.0892453,4369.18,-49643.1,0,49835,195909
step02_gravity_refstate-mantle.xmf,727,-2.86488e-06,9.13921e-06,0,-7.90801e-07,-1.45475e+09,-1.45314e+09,-1.45436e+09,-105691,-0.00789121,0.0792959,-0,0.0796876,2621.44,-51001.8,0,51069.2,105691
step02_gravity_refstate-mantle.xmf,728,-2.73363e-06,8.98304e-06,0,-1.13368e-06,-1.43329e+09,-1.43172e+09,-1.43292e+09,-151517,-0.0107119,0.0838468,-0,0.0845283,3547.34,-50339.4,0,50464.2,151517
step02_gravity_refstate-mantle.xmf,729,-2.69135e-06,8.87946e-06,0,2.16268e-07,-1.58505e+09,-1.5835e+09,-1.58469e+09,28904.2,0.00412696,0.0439329,0,0.0441264,-1518.06,-55027.4,-0,55048.3,28904.2
step02_gravity_refstate-mantle.xmf,730,-2.45416e-06,8.63455e-06,0,2.20847e-07,-1.66196e+09,-1.66048e+09,-1.66163e+09,29516.2,0.00832525,0.0224678,0,0.0239606,-3239.96,-57404,-0,57495.4,29516.2
step02_gravity_refstate-mantle.xmf,731,-2.35246e-06,8.54776e-06,0,1.29589e-07,-1.70334e+09,-1.70189e+09,-1.70303e+09,17319.5,0.00992486,0.0112854,0,0.0150287,-3944.04,-58682.9,-0,58815.3,17319.5
step02_gravity_refstate-mantle.xmf,732,-2.24415e-06,8.46667e-06,0,2.11286e-09,-1.74596e+09,-1.74453e+09,-1.74566e+09,282.383,0.0116487,-1.62209e-19,0,0.0116487,-4710.75,-60000,-0,60184.6,282.383
step02_gravity_refstate-mantle.xmf,733,8.57141e-07,2.55492e-06,0,-2.56647e-07,-1.21947e+09,-1.21925e+09,-1.21959e+09,-34300.8,-0.0116101,0.0495979,-0,0.0509386,27601.3,-43742.3,0,51722.5,34300.8
step02_gravity_refstate-mantle.xmf,734,6.6249e-07,2.75876e-06,0,-5.10618e-07,-1.17177e+09,-1.17149e+09,-1.17186e+09,-68244.1,-0.01405,0.0622165,-0,0.0637832,22511.3,-42268.1,0,47889,68244.1
step02_gravity_refstate-mantle.xmf,735,6.01961e-07,3.135e-06,0,-9.03939e-07,-1.18164e+09,-1.1813e+09,-1.18172e+09,-120811,-0.0171669,0.0728509,-0,0.0748463,18218.9,-42573.4,0,46307.9,120811
step02_gravity_refstate-mantle.xmf,736,4.74136e-07,3.8466e-06,0,-1.60396e-06,-1.20386e+09,-1.20341e+09,-1.20392e+09,-214369,-0.0204812,0.0867613,-0,0.089146,13976.8,-43260.8,0,45462.6,214369
step02_gravity_refstate-mantle.xmf,737,5.61491e-07,3.43419e-06,0,-1.22008e-06,-1.19077e+09,-1.19038e+09,-1.19084e+09,-163063,-0.0188648,0.0797657,-0,0.0819661,16000.5,-42855.8,0,45745.4,163063
step02_gravity_refstate-mantle.xmf,738,1.02112e-06,2.387e-06,0,-9.01678e-08,-1.25895e+09,-1.25876e+09,-1.25908e+09,-12050.9,-0.00651393,0.0411727,-0,0.0416848,33741.4,-44962.3,0,56214.7,12050.9
step02_gravity_refstate-mantle.xmf,739,1.12452e-06,2.45039e-06,0,-7.64432e-08,-1.31959e+09,-1.31941e+09,-1.31974e+09,-10216.6,-0.00666343,0.0364192,-0,0.0370238,34177.1,-46836.5,0,57980.4,10216.6
step02_gravity_refstate-mantle.xmf,740,1.33928e-06,2.56807e-06,0,-2.15778e-08,-1.45836e+09,-1.45819e+09,-1.45854e+09,-2883.87,-0.00268778,0.0246506,-0,0.0247967,37993,-51124.7,0,63696.2,2883.87
step02_gravity_refstate-mantle.xmf,741,1.29162e-06,2.55872e-06,0,-4.79973e-08,-1.42764e+09,-1.42747e+09,-1.42781e+09,-6414.84,-0.00532549,0.0274527,-0,0.0279645,35902,-50175.5,0,61697.1,6414.84
step02_gravity_refstate-mantle.xmf,742,1.37908e-06,2.60527e-06,0,-1.72139e-09,-1.49337e+09,-1.49321e+09,-1.49356e+09,-230.064,2.65534e-19,0.0217471,0,0.0217471,40000,-52206.7,0,65768.8,230.064
step02_gravity_refstate-mantle.xmf,743,5.68657e-08,4.93163e-06,0,-2.23523e-06,-1.24834e+09,-1.24769e+09,-1.24834e+09,-298739,-0.0227086,0.0943192,-0,0.0970144,11186,-44634.7,0,46015,298739
step02_gravity_refstate-mantle.xmf,744,2.85504e-07,4.42846e-06,0,-2.04171e-06,-1.22043e+09,-1.21988e+09,-1.22047e+09,-272875,-0.0218298,0.0938245,-0,0.0963305,12069,-43772.8,0,45406.2,272875
step02_gravity_refstate-mantle.xmf,745,-2.78553e-06,8.99268e-06,0,7.22575e-08,-1.5592e+09,-1.55762e+09,-1.55882e+09,9657.22,0.00124556,0.0513431,0,0.0513582,-447.309,-54228.5,-0,54230.3,9657.22
step02_gravity_refstate-mantle.xmf,746,-2.63919e-06,8.8382e-06,0,1.54762e-07,-1.62148e+09,-1.61994e+09,-1.62112e+09,20684,0.00379664,0.0339903,0,0.0342017,-1424.67,-56152.8,-0,56170.9,20684
step02_gravity_refstate-mantle.xmf,747,9.73229e-07,2.43218e-06,0,-1.35018e-07,-1.24668e+09,-1.24648e+09,-1.24681e+09,-18045.1,-0.00847045,0.0434669,-0,0.0442845,31612,-44583.1,0,54653.2,18045.1
step02_gravity_refstate-mantle.xmf,748,9.20211e-07,2.49061e-06,0,-1.90172e-07,-1.23455e+09,-1.23434e+09,-1.23468e+09,-25416.5,-0.0102001,0.0461982,-0,0.0473108,29557.6,-44208.4,0,53179.3,25416.5
step02_gravity_refstate-mantle.xmf,749,8.55504e-07,2.67938e-06,0,-3.32679e-07,-1.23751e+09,-1.23726e+09,-1.23762e+09,-44462.6,-0.0135682,0.050593,-0,0.0523808,25830.3,-44299.7,0,51280.3,44462.6
step02_gravity_refstate-mantle.xmf,750,8.01252e-07,2.74886e-06,0,-4.13238e-07,-1.22413e+09,-1.22387e+09,-1.22424e+09,-55229.3,-0.0144714,0.0542313,-0,0.0561289,24288.9,-43886.3,0,50159.4,55229.3
step02_gravity_refstate-mantle.xmf,751,6.85356e-07,2.90226e-06,0,-6.23303e-07,-1.19259e+09,-1.19229e+09,-1.19268e+09,-83304.4,-0.0157425,0.0635895,-0,0.0655092,21140.6,-42911.7,0,47836.6,83304.4
step02_gravity_refstate-mantle.xmf,752,6.46752e-07,3.02048e-06,0,-7.63636e-07,-1.18771e+09,-1.1874e+09,-1.1878e+09,-102060,-0.0165786,0.0681594,-0,0.0701466,19579.4,-42761.1,0,47030.4,102060
step02_gravity_refstate-mantle.xmf,753,7.47946e-07,2.83545e-06,0,-5.15203e-07,-1.21255e+09,-1.21227e+09,-1.21265e+09,-68856.9,-0.0153673,0.0583763,-0,0.0603651,22657.4,-43528.5,0,49072.3,68856.9
step02_gravity_refstate-mantle.xmf,754,6.15677e-07,3.37363e-06,0,-1.07164e-06,-1.21546e+09,-1.21509e+09,-1.21554e+09,-143225,-0.0191809,0.0728075,-0,0.0752917,17203.8,-43618.8,0,46888.9,143225
step02_gravity_refstate-mantle.xmf,755,3.78951e-07,4.19066e-06,0,-1.80047e-06,-1.22963e+09,-1.22912e+09,-1.22968e+09,-240632,-0.0217621,0.0872989,-0,0.0899705,13160.2,-44056.9,0,45980.5,240632
step02_gravity_refstate-mantle.xmf,756,5.23769e-07,3.68502e-06,0,-1.398e-06,-1.21351e+09,-1.21308e+09,-1.21358e+09,-186843,-0.0202929,0.0807758,-0,0.0832859,15114.4,-43558.6,0,46106.4,186843
step02_gravity_refstate-mantle.xmf,757,1.20972e-06,2.52063e-06,0,-6.79099e-08,-1.37672e+09,-1.37655e+09,-1.37689e+09,-9076.16,-0.00679717,0.0319012,-0,0.0326173,34472,-48602.1,0,59585.9,9076.16
step02_gravity_refstate-mantle.xmf,758,1.41055e-06,2.67936e-06,0,-1.67354e-08,-1.53739e+09,-1.53722e+09,-1.53758e+09,-2236.69,-0.00275617,0.0182386,-0,0.0184457,38048.4,-53566.8,0,65704.5,2236.69
step02_gravity_refstate-mantle.xmf,759,1.44386e-06,2.72286e-06,0,-2.41332e-09,-1.5757e+09,-1.57553e+09,-1.57589e+09,-322.541,3.17993e-19,0.0149694,0,0.0149694,40000,-54750.5,0,67805.7,322.541
step02_gravity_refstate-mantle.xmf,760,-5.02564e-07,5.90452e-06,0,-2.40389e-06,-1.29494e+09,-1.29408e+09,-1.29487e+09,-321280,-0.0229268,0.0940608,-0,0.0968146,9695.54,-46072.9,0,47082,321280
step02_gravity_refstate-mantle.xmf,761,-1.83228e-07,5.35613e-06,0,-2.27222e-06,-1.27928e+09,-1.27854e+09,-1.27926e+09,-303683,-0.0231552,0.0918934,-0,0.0947658,10690,-45590.1,0,46826.6,303683
step02_gravity_refstate-mantle.xmf,762,-1.32795e-06,7.13552e-06,0,-2.31388e-06,-1.34433e+09,-1.3432e+09,-1.34416e+09,-309251,-0.0209367,0.0930441,-0,0.0953706,7767.52,-47596.4,0,48226.1,309251
step02_gravity_refstate-mantle.xmf,763,-8.99516e-07,6.51517e-06,0,-2.3929e-06,-1.3216e+09,-1.32061e+09,-1.32148e+09,-319811,-0.022251,0.0933377,-0,0.0959533,8776.82,-46895.5,0,47709.7,319811
step02_gravity_refstate-mantle.xmf,764,-2.84548e-06,9.068e-06,0,-1.23256e-07,-1.53156e+09,-1.52997e+09,-1.53118e+09,-16473.2,-0.0015853,0.0590401,-0,0.0590614,556.91,-53374.6,0,53377.5,16473.2
step02_gravity_refstate-mantle.xmf,765,-1.69746e-06,7.62548e-06,0,-2.08184e-06,-1.37453e+09,-1.37328e+09,-1.3743e+09,-278238,-0.019327,0.0893688,-0,0.0914347,6962.67,-48527.8,0,49024.7,278238
step02_gravity_refstate-mantle.xmf,766,-2.85715e-06,9.08803e-06,0,-3.61892e-07,-1.50709e+09,-1.50549e+09,-1.50671e+09,-48366.8,-0.00434429,0.0655601,-0,0.0657039,1500.65,-52618.7,0,52640.1,48366.8
step02_gravity_refstate-mantle.xmf,767,-2.80512e-06,9.02724e-06,0,-6.30034e-07,-1.4881e+09,-1.48652e+09,-1.48773e+09,-84204,-0.0071226,0.0701373,-0,0.0704981,2443.39,-52032.4,0,52089.8,84204
step02_gravity_refstate-mantle.xmf,768,-2.00345e-06,8.02516e-06,0,-1.84115e-06,-1.39875e+09,-1.39741e+09,-1.39848e+09,-246070,-0.0174974,0.0862481,-0,0.0880051,6169.26,-49275,0,49659.7,246070
step02_gravity_refstate-mantle.xmf,769,-2.26174e-06,8.35442e-06,0,-1.57233e-06,-1.42192e+09,-1.4205e+09,-1.42162e+09,-210142,-0.0154453,0.0827199,-0,0.0841495,5371.49,-49989.8,0,50277.6,210142
step02_gravity_refstate-mantle.xmf,770,-2.47257e-06,8.61735e-06,0,-1.27933e-06,-1.4456e+09,-1.44412e+09,-1.44527e+09,-170982,-0.0131672,0.0784771,-0,0.0795741,4549.69,-50720.8,0,50924.4,170982
step02_gravity_refstate-mantle.xmf,771,-2.64905e-06,8.83645e-06,0,-9.71692e-07,-1.4683e+09,-1.46677e+09,-1.46795e+09,-129867,-0.0105259,0.0740732,-0,0.0748173,3624.67,-51421.3,0,51548.9,129867
step02_gravity_refstate-mantle.xmf,772,-2.70536e-06,8.91e-06,0,4.45438e-08,-1.60247e+09,-1.60092e+09,-1.60211e+09,5953.28,0.00102756,0.0393814,0,0.0393948,-379.751,-55565.7,-0,55567,5953.28
step02_gravity_refstate-mantle.xmf,773,-2.59337e-06,8.80911e-06,0,1.09572e-07,-1.66259e+09,-1.66106e+09,-1.66224e+09,14644.2,0.00419119,0.0227485,0,0.0231314,-1602.39,-57423,-0,57445.3,14644.2
step02_gravity_refstate-mantle.xmf,774,-2.51358e-06,8.75838e-06,0,7.74199e-08,-1.70492e+09,-1.70341e+09,-1.70458e+09,10347.2,0.00612926,0.0111374,0,0.0127126,-2384.63,-58731,-0,58779.4,10347.2
step02_gravity_refstate-mantle.xmf,775,-2.43734e-06,8.71849e-06,0,2.59871e-09,-1.74599e+09,-1.74449e+09,-1.74566e+09,347.318,0.00796593,-1.57381e-19,0,0.00796593,-3137.45,-60000,-0,60082,347.318
step02_gravity_refstate-mantle.xmf,776,9.06255e-07,2.6454e-06,0,-2.80513e-07,-1.25509e+09,-1.25486e+09,-1.25521e+09,-37490.5,-0.0129932,0.0475469,-0,0.0492903,26972.2,-44843.1,0,52329.8,37490.5
step02_gravity_refstate-mantle.xmf,777,6.56927e-07,3.24309e-06,0,-8.92318e-07,-1.22567e+09,-1.22533e+09,-1.22576e+09,-119258,-0.018663,0.0672445,-0,0.0697863,18629.5,-43934.3,0,47720.9,119258
step02_gravity_refstate-mantle.xmf,778,4.40828e-07,3.99613e-06,0,-1.57285e-06,-1.2393e+09,-1.23882e+09,-1.23936e+09,-210211,-0.021623,0.0812288,-0,0.0840575,14262.4,-44355.7,0,46592.3,210211
step02_gravity_refstate-mantle.xmf,779,5.68003e-07,3.59459e-06,0,-1.25634e-06,-1.22662e+09,-1.22621e+09,-1.22669e+09,-167909,-0.0202896,0.0757599,-0,0.0784298,16029.7,-43963.8,0,46794.9,167909
step02_gravity_refstate-mantle.xmf,780,1.08163e-06,2.49578e-06,0,-1.19018e-07,-1.30663e+09,-1.30644e+09,-1.30677e+09,-15906.7,-0.00873369,0.038509,-0,0.0394869,32169.2,-46435.9,0,56490.3,15906.7
step02_gravity_refstate-mantle.xmf,781,1.17368e-06,2.56053e-06,0,-1.00565e-07,-1.36726e+09,-1.36707e+09,-1.36742e+09,-13440.5,-0.00882511,0.0334555,-0,0.0345999,32699.2,-48309.6,0,58335.7,13440.5
step02_gravity_refstate-mantle.xmf,782,1.25525e-06,2.62376e-06,0,-8.19091e-08,-1.4266e+09,-1.42642e+09,-1.42677e+09,-10947.2,-0.00852577,0.0283702,-0,0.0296236,33379.9,-50143.4,0,60237.6,10947.2
step02_gravity_refstate-mantle.xmf,783,1.36961e-06,2.66167e-06,0,-3.77991e-08,-1.5037e+09,-1.50353e+09,-1.50388e+09,-5051.85,-0.00530679,0.0212629,-0,0.0219151,36152.1,-52525.7,0,63764.6,5051.85
step02_gravity_refstate-mantle.xmf,784,1.45836e-06,2.79945e-06,0,-1.13847e-08,-1.61891e+09,-1.61873e+09,-1.61911e+09,-1521.56,-0.0032883,0.011355,-0,0.0118216,37750.4,-56085.6,0,67606.9,1521.56
step02_gravity_refstate-mantle.xmf,785,1.48184e-06,2.84984e-06,0,-8.14323e-10,-1.6597e+09,-1.65951e+09,-1.65989e+09,-108.834,2.59069e-19,0.00773969,0,0.00773969,40000,-57345.7,0,69918,108.834
step02_gravity_refstate-mantle.xmf,786,1.99585e-07,4.60324e-06,0,-1.96513e-06,-1.25618e+09,-1.25559e+09,-1.2562e+09,-262640,-0.0227278,0.0874867,-0,0.0903907,12346,-44877,0,46544.2,262640
step02_gravity_refstate-mantle.xmf,787,-2.64388e-08,5.05105e-06,0,-2.086e-06,-1.28323e+09,-1.28255e+09,-1.28323e+09,-278794,-0.0232961,0.0870734,-0,0.0901359,11569.2,-45712.2,0,47153.5,278794
step02_gravity_refstate-mantle.xmf,788,-2.73808e-06,8.9376e-06,0,-1.18583e-07,-1.57877e+09,-1.57721e+09,-1.57841e+09,-15848.6,-0.00200499,0.0458734,-0,0.0459172,731.214,-54833.4,0,54838.3,15848.6
step02_gravity_refstate-mantle.xmf,789,-2.64839e-06,8.86862e-06,0,5.37253e-08,-1.64006e+09,-1.63852e+09,-1.63971e+09,7180.39,0.00151974,0.0290437,0,0.0290835,-573.442,-56727.1,-0,56730,7180.39
step02_gravity_refstate-mantle.xmf,790,1.02921e-06,2.552e-06,0,-1.69932e-07,-1.29278e+09,-1.29258e+09,-1.29292e+09,-22711.4,-0.0106392,0.0410894,-0,0.0424445,30169,-46007.9,0,55017.2,22711.4
step02_gravity_refstate-mantle.xmf,791,9.7173e-07,2.62286e-06,0,-2.3585e-07,-1.27887e+09,-1.27865e+09,-1.279e+09,-31521.3,-0.01238,0.0441651,-0,0.0458675,28170.3,-45578.1,0,53581,31521.3
step02_gravity_refstate-mantle.xmf,792,9.42361e-07,2.75064e-06,0,-3.14238e-07,-1.28899e+09,-1.28874e+09,-1.28911e+09,-41997.8,-0.0144008,0.0456449,-0,0.0478628,26272.2,-45890.6,0,52878.9,41997.8
step02_gravity_refstate-mantle.xmf,793,8.83912e-07,2.82603e-06,0,-3.96075e-07,-1.27393e+09,-1.27367e+09,-1.27405e+09,-52935.4,-0.0154754,0.0492455,-0,0.0516198,24701.4,-45425.3,0,51707,52935.4
step02_gravity_refstate-mantle.xmf,794,8.26397e-07,2.9164e-06,0,-4.9592e-07,-1.26084e+09,-1.26056e+09,-1.26095e+09,-66279.6,-0.0164841,0.0531858,-0,0.0556817,23107.4,-45021,0,50604.8,66279.6
step02_gravity_refstate-mantle.xmf,795,7.17697e-07,3.11746e-06,0,-7.44166e-07,-1.23538e+09,-1.23506e+09,-1.23547e+09,-99457.7,-0.0180156,0.0622942,-0,0.064847,20075.1,-44234.2,0,48576.4,99457.7
step02_gravity_refstate-mantle.xmf,796,7.6963e-07,3.01239e-06,0,-6.12171e-07,-1.24721e+09,-1.24691e+09,-1.24731e+09,-81816.6,-0.0173123,0.0576315,-0,0.0601757,21552.8,-44599.6,0,49534.3,81816.6
step02_gravity_refstate-mantle.xmf,797,6.3172e-07,3.45934e-06,0,-1.01877e-06,-1.25291e+09,-1.25253e+09,-1.25299e+09,-136158,-0.0201759,0.0671195,-0,0.0700863,17739.2,-44775.9,0,48161.8,136158
step02_gravity_refstate-mantle.xmf,798,3.09354e-07,4.35532e-06,0,-1.73793e-06,-1.26541e+09,-1.26486e+09,-1.26545e+09,-232274,-0.0226716,0.0813861,-0,0.0844849,13428,-45162.1,0,47116.1,232274
step02_gravity_refstate-mantle.xmf,799,4.95343e-07,3.85557e-06,0,-1.39016e-06,-1.25158e+09,-1.25113e+09,-1.25164e+09,-185795,-0.0215275,0.0756593,-0,0.0786624,15288.5,-44735,0,47275.3,185795
step02_gravity_refstate-mantle.xmf,800,5.7245e-07,3.69344e-06,0,-1.20344e-06,-1.26314e+09,-1.26272e+09,-1.26321e+09,-160840,-0.0212366,0.0699786,-0,0.07313,16502.1,-45092.1,0,48016.8,160840
step02_gravity_refstate-mantle.xmf,801,1.33014e-06,2.70248e-06,0,-6.58665e-08,-1.49093e+09,-1.49074e+09,-1.4911e+09,-8803.06,-0.00810673,0.0228366,-0,0.0242328,34031.9,-52131,0,62256,8803.06
step02_gravity_refstate-mantle.xmf,802,1.42053e-06,2.75635e-06,0,-2.44915e-08,-1.57275e+09,-1.57258e+09,-1.57294e+09,-3273.29,-0.00517779,0.0154434,-0,0.0162883,36385.1,-54659.4,0,65662.2,3273.29
step02_gravity_refstate-mantle.xmf,803,1.48224e-06,2.9014e-06,0,-3.76467e-09,-1.68739e+09,-1.6872e+09,-1.68759e+09,-503.148,-0.00267038,0.00530211,-0,0.00593661,38202.8,-58201.4,0,69619.4,503.148
step02_gravity_refstate-mantle.xmf,804,1.49632e-06,2.97722e-06,0,-4.76991e-10,-1.74561e+09,-1.74541e+09,-1.74581e+09,-63.7498,-1.18814e-18,-5.15846e-19,-0,1.29529e-18,40000,-60000,0,72111,63.7498
step02_gravity_refstate-mantle.xmf,805,-3.04244e-07,5.53645e-06,0,-2.16888e-06,-1.30806e+09,-1.30728e+09,-1.30802e+09,-289871,-0.0234056,0.0868005,-0,0.0899008,10743.9,-46478.7,0,47704.3,289871
step02_gravity_refstate-mantle.xmf,806,-6.35838e-07,6.06925e-06,0,-2.20504e-06,-1.33203e+09,-1.33114e+09,-1.33195e+09,-294704,-0.0230332,0.0865259,-0,0.0895391,9841.85,-47218.4,0,48233.1,294704
step02_gravity_refstate-mantle.xmf,807,-9.99483e-07,6.61232e-06,0,-2.15626e-06,-1.35769e+09,-1.35667e+09,-1.35755e+09,-288184,-0.0221775,0.0853124,-0,0.0881478,8940.75,-48009.7,0,48835.1,288184
step02_gravity_refstate-mantle.xmf,808,-2.7362e-06,8.92616e-06,0,-3.26343e-07,-1.55063e+09,-1.54907e+09,-1.55027e+09,-43615.8,-0.0048858,0.0532988,-0,0.0535223,1757.18,-53964.1,0,53992.7,43615.8
step02_gravity_refstate-mantle.xmf,809,-1.36241e-06,7.12497e-06,0,-2.02526e-06,-1.38396e+09,-1.38282e+09,-1.38378e+09,-270676,-0.0208697,0.0831969,-0,0.0857745,8049.7,-48820.2,0,49479.3,270676
step02_gravity_refstate-mantle.xmf,810,-1.68512e-06,7.56234e-06,0,-1.83443e-06,-1.40955e+09,-1.40832e+09,-1.40933e+09,-245171,-0.0192678,0.0802845,-0,0.0825643,7212.81,-49609.7,0,50131.3,245171
step02_gravity_refstate-mantle.xmf,811,-2.68606e-06,8.86004e-06,0,-5.67743e-07,-1.5246e+09,-1.52306e+09,-1.52424e+09,-75878.9,-0.00764518,0.0597753,-0,0.0602623,2724.95,-53160.2,0,53230,75878.9
step02_gravity_refstate-mantle.xmf,812,-2.56169e-06,8.70026e-06,0,-8.30059e-07,-1.50435e+09,-1.50284e+09,-1.504e+09,-110937,-0.0105188,0.06411,-0,0.0649672,3758.07,-52534.9,0,52669.1,110937
step02_gravity_refstate-mantle.xmf,813,-1.96199e-06,7.9296e-06,0,-1.61873e-06,-1.4327e+09,-1.43138e+09,-1.43244e+09,-216344,-0.0174574,0.0771994,-0,0.0791487,6396.94,-50323.9,0,50728.9,216344
step02_gravity_refstate-mantle.xmf,814,-2.19776e-06,8.23525e-06,0,-1.37072e-06,-1.45666e+09,-1.45526e+09,-1.45636e+09,-183197,-0.0154284,0.0732979,-0,0.0749041,5579.85,-51063.1,0,51367,183197
step02_gravity_refstate-mantle.xmf,815,-2.39387e-06,8.48611e-06,0,-1.10416e-06,-1.48118e+09,-1.47972e+09,-1.48086e+09,-147571,-0.0131594,0.0687293,-0,0.0699778,4725.25,-51819.8,0,52034.8,147571
step02_gravity_refstate-mantle.xmf,816,-2.66351e-06,8.86762e-06,0,-8.11447e-08,-1.62987e+09,-1.62833e+09,-1.62951e+09,-10845,-0.00199516,0.0318197,-0,0.0318822,749.521,-56412.1,0,56417,10845
step02_gravity_refstate-mantle.xmf,817,-2.6257e-06,8.8702e-06,0,6.20195e-10,-1.67396e+09,-1.67242e+09,-1.67361e+09,82.889,7.17218e-05,0.0197817,0,0.0197818,-27.5261,-57774.2,-0,57774.2,82.889
step02_gravity_refstate-mantle.xmf,818,-2.59756e-06,8.87226e-06,0,2.39435e-08,-1.70786e+09,-1.70632e+09,-1.70751e+09,3200.05,0.00210039,0.0104731,0,0.0106816,-808.409,-58821.6,-0,58827.1,3200.05
step02_gravity_refstate-mantle.xmf,819,-2.55903e-06,8.87709e-06,0,2.58968e-09,-1.746e+09,-1.74447e+09,-1.74566e+09,346.111,0.00404658,-1.45364e-19,0,0.00404658,-1568.5,-60000,-0,60020.5,346.111
step02_gravity_refstate-mantle.xmf,820,6.85492e-07,3.40832e-06,0,-9.00579e-07,-1.27603e+09,-1.27567e+09,-1.27612e+09,-120362,-0.020202,0.0616334,-0,0.0648598,18782.6,-45490.4,0,49215.5,120362
step02_gravity_refstate-mantle.xmf,821,3.9236e-07,4.14864e-06,0,-1.54844e-06,-1.27049e+09,-1.26999e+09,-1.27054e+09,-206949,-0.0224617,0.0767749,-0,0.0799932,14393.2,-45319.2,0,47549.9,206949
step02_gravity_refstate-mantle.xmf,822,6.11878e-07,3.63103e-06,0,-1.06268e-06,-1.28471e+09,-1.28431e+09,-1.28479e+09,-142027,-0.02128,0.0644024,-0,0.067827,17486.7,-45758.6,0,48986.1,142027
step02_gravity_refstate-mantle.xmf,823,1.1233e-06,2.62085e-06,0,-1.50506e-07,-1.35255e+09,-1.35235e+09,-1.3527e+09,-20115.1,-0.010913,0.0358667,-0,0.0374901,30729.1,-47855.1,0,56871.7,20115.1
step02_gravity_refstate-mantle.xmf,824,1.20373e-06,2.68671e-06,0,-1.24432e-07,-1.41368e+09,-1.41348e+09,-1.41384e+09,-16630.3,-0.0109197,0.0304498,-0,0.0323486,31337.5,-49744,0,58792.1,16630.3
step02_gravity_refstate-mantle.xmf,825,1.27451e-06,2.75987e-06,0,-9.99319e-08,-1.47594e+09,-1.47574e+09,-1.47611e+09,-13355.9,-0.0107395,0.0248922,-0,0.0271101,31931.9,-51667.9,0,60739,13355.9
step02_gravity_refstate-mantle.xmf,826,1.3882e-06,2.78585e-06,0,-4.71558e-08,-1.55747e+09,-1.55729e+09,-1.55766e+09,-6302.37,-0.00769079,0.0170557,-0,0.0187095,34561.5,-54187.2,0,64270.9,6302.37
step02_gravity_refstate-mantle.xmf,827,1.4324e-06,2.8627e-06,0,-2.4761e-08,-1.62422e+09,-1.62403e+09,-1.62441e+09,-3309.3,-0.00687441,0.0111094,-0,0.0130643,35274.5,-56249.5,0,66395,3309.3
step02_gravity_refstate-mantle.xmf,828,1.46426e-06,2.93006e-06,0,-9.59966e-09,-1.68395e+09,-1.68375e+09,-1.68414e+09,-1282.99,-0.00557129,0.0056801,-0,0.00795631,36232.6,-58095,0,68467.7,1282.99
step02_gravity_refstate-mantle.xmf,829,1.48407e-06,3.00216e-06,0,-6.41894e-10,-1.74561e+09,-1.74541e+09,-1.74581e+09,-85.7891,-0.0038611,-5.51765e-19,-0,0.0038611,37408.2,-60000,0,70706.3,85.7891
step02_gravity_refstate-mantle.xmf,830,1.19202e-07,4.75156e-06,0,-1.85845e-06,-1.29146e+09,-1.29084e+09,-1.29147e+09,-248382,-0.0233703,0.0810699,-0,0.0843712,12642.2,-45966.6,0,47673.4,248382
step02_gravity_refstate-mantle.xmf,831,-1.20081e-07,5.19505e-06,0,-1.95241e-06,-1.31734e+09,-1.31663e+09,-1.31732e+09,-260939,-0.0236986,0.0806255,-0,0.0840363,11808,-46765.6,0,48233.3,260939
step02_gravity_refstate-mantle.xmf,832,-2.63759e-06,8.81387e-06,0,-2.63602e-07,-1.59833e+09,-1.5968e+09,-1.59798e+09,-35230.4,-0.00529061,0.0401254,-0,0.0404726,1969.73,-55437.9,0,55472.9,35230.4
step02_gravity_refstate-mantle.xmf,833,1.06845e-06,2.69596e-06,0,-2.08903e-07,-1.34058e+09,-1.34037e+09,-1.34073e+09,-27920,-0.0128205,0.038424,-0,0.0405064,28823.4,-47485.2,0,55548.5,27920
step02_gravity_refstate-mantle.xmf,834,1.01533e-06,2.79982e-06,0,-2.81442e-07,-1.33566e+09,-1.33542e+09,-1.33579e+09,-37614.7,-0.0146786,0.0407918,-0,0.0433524,26953,-47333,0,54469,37614.7
step02_gravity_refstate-mantle.xmf,835,9.53125e-07,2.89854e-06,0,-3.67187e-07,-1.32376e+09,-1.3235e+09,-1.32388e+09,-49074.5,-0.0161461,0.0440602,-0,0.0469255,25217.4,-46965.2,0,53307.1,49074.5
step02_gravity_refstate-mantle.xmf,836,8.88777e-07,3.00172e-06,0,-4.67461e-07,-1.31053e+09,-1.31025e+09,-1.31065e+09,-62476.2,-0.0173558,0.047798,-0,0.0508515,23578.2,-46556.4,0,52186.4,62476.2
step02_gravity_refstate-mantle.xmf,837,8.23183e-07,3.11456e-06,0,-5.85718e-07,-1.2972e+09,-1.29689e+09,-1.29731e+09,-78281.3,-0.0183882,0.0519944,-0,0.0551502,21980.6,-46144.4,0,51112.2,78281.3
step02_gravity_refstate-mantle.xmf,838,7.58303e-07,3.24162e-06,0,-7.23121e-07,-1.28532e+09,-1.28499e+09,-1.28542e+09,-96645.1,-0.0192858,0.0565073,-0,0.0597077,20432.7,-45777.4,0,50130.5,96645.1
step02_gravity_refstate-mantle.xmf,839,2.51816e-07,4.47736e-06,0,-1.63823e-06,-1.30016e+09,-1.2996e+09,-1.30019e+09,-218950,-0.0233123,0.07523,-0,0.0787592,13775.8,-46235.6,0,48244.2,218950
step02_gravity_refstate-mantle.xmf,840,4.22699e-07,4.11058e-06,0,-1.40267e-06,-1.29601e+09,-1.29551e+09,-1.29606e+09,-187467,-0.0227448,0.0704755,-0,0.0740548,15211.2,-46107.5,0,48551.9,187467
step02_gravity_refstate-mantle.xmf,841,5.19012e-07,3.91126e-06,0,-1.18592e-06,-1.31016e+09,-1.3097e+09,-1.31022e+09,-158499,-0.0224373,0.0642751,-0,0.0680787,16557.4,-46544.7,0,49402,158499
step02_gravity_refstate-mantle.xmf,842,1.33632e-06,2.84356e-06,0,-7.70569e-08,-1.54119e+09,-1.54099e+09,-1.54137e+09,-10298.7,-0.010403,0.0190121,-0,0.0216721,32513.3,-53684.2,0,62762.3,10298.7
step02_gravity_refstate-mantle.xmf,843,-4.08098e-07,5.67783e-06,0,-2.00345e-06,-1.34277e+09,-1.34196e+09,-1.34272e+09,-267762,-0.0236026,0.0799881,-0,0.0833977,10930.8,-47550.6,0,48790.8,267762
step02_gravity_refstate-mantle.xmf,844,-7.27996e-07,6.17534e-06,0,-1.98987e-06,-1.36894e+09,-1.36802e+09,-1.36884e+09,-265945,-0.0230719,0.0786865,-0,0.0819993,10052.1,-48358,0,49391.7,265945
step02_gravity_refstate-mantle.xmf,845,-1.06375e-06,6.66892e-06,0,-1.90941e-06,-1.39556e+09,-1.39453e+09,-1.39542e+09,-255193,-0.0221006,0.07671,-0,0.0798302,9160.17,-49179.3,0,50025.1,255193
step02_gravity_refstate-mantle.xmf,846,-2.57451e-06,8.71968e-06,0,-4.70241e-07,-1.56966e+09,-1.56815e+09,-1.56931e+09,-62847.7,-0.00811188,0.0473025,-0,0.047993,3005.24,-54552.3,0,54635,62847.7
step02_gravity_refstate-mantle.xmf,847,-1.38272e-06,7.11889e-06,0,-1.77408e-06,-1.42105e+09,-1.41991e+09,-1.42086e+09,-237106,-0.0207794,0.0742114,-0,0.0770656,8290.74,-49965.7,0,50648.8,237106
step02_gravity_refstate-mantle.xmf,848,-1.66982e-06,7.51302e-06,0,-1.60454e-06,-1.4446e+09,-1.44337e+09,-1.44437e+09,-214447,-0.0192034,0.0714247,-0,0.0739612,7444.78,-50692.2,0,51235.9,214447
step02_gravity_refstate-mantle.xmf,849,-2.46263e-06,8.56718e-06,0,-6.9902e-07,-1.54406e+09,-1.54259e+09,-1.54373e+09,-93424,-0.0108122,0.0532003,-0,0.0542879,4009.05,-53762,0,53911.3,93424
step02_gravity_refstate-mantle.xmf,850,-2.30753e-06,8.36017e-06,0,-9.40124e-07,-1.51893e+09,-1.51751e+09,-1.51862e+09,-125648,-0.0133367,0.0584837,-0,0.0599851,4972.63,-52986.3,0,53219.1,125648
step02_gravity_refstate-mantle.xmf,851,-1.92482e-06,7.85641e-06,0,-1.40908e-06,-1.46708e+09,-1.46578e+09,-1.46683e+09,-188324,-0.0174071,0.0682768,-0,0.0704609,6604.79,-51385.9,0,51808.7,188324
step02_gravity_refstate-mantle.xmf,852,-2.13633e-06,8.13497e-06,0,-1.18236e-06,-1.49169e+09,-1.49032e+09,-1.49141e+09,-158023,-0.0154541,0.0639815,-0,0.0658214,5791.77,-52145.5,0,52466.1,158023
step02_gravity_refstate-mantle.xmf,853,-2.55943e-06,8.74789e-06,0,-1.96123e-07,-1.64528e+09,-1.64377e+09,-1.64494e+09,-26211.8,-0.00587659,0.0272843,-0,0.02791,2245.36,-56888.6,0,56932.9,26211.8
step02_gravity_refstate-mantle.xmf,854,-2.59965e-06,8.83255e-06,0,-8.36957e-08,-1.66844e+09,-1.66692e+09,-1.6681e+09,-11185.9,-0.00325368,0.0212087,-0,0.0214569,1244.05,-57604,0,57617.4,11185.9
step02_gravity_refstate-mantle.xmf,855,-2.5982e-06,8.8758e-06,0,-2.49634e-08,-1.70699e+09,-1.70546e+09,-1.70664e+09,-3336.36,-0.0018976,0.0107133,-0,0.0108801,730.203,-58794.8,0,58799.3,3336.36
step02_gravity_refstate-mantle.xmf,856,-2.59977e-06,8.93016e-06,0,2.7841e-09,-1.746e+09,-1.74446e+09,-1.74566e+09,372.095,-1.02629e-07,-1.4574e-19,-0,1.02629e-07,-6.83358e-08,-60000,-0,60000,372.095
step02_gravity_refstate-mantle.xmf,857,6.05268e-07,3.73296e-06,0,-1.00709e-06,-1.32134e+09,-1.32092e+09,-1.32142e+09,-134597,-0.0219693,0.0591848,-0,0.0631308,17852.4,-46890.2,0,50173.7,134597
step02_gravity_refstate-mantle.xmf,858,1.1449e-06,2.76682e-06,0,-1.82727e-07,-1.39827e+09,-1.39805e+09,-1.39842e+09,-24421.4,-0.0130325,0.0330746,-0,0.0355497,29383.6,-49267.7,0,57364.7,24421.4
step02_gravity_refstate-mantle.xmf,859,1.21041e-06,2.83784e-06,0,-1.48572e-07,-1.4594e+09,-1.45918e+09,-1.45956e+09,-19856.6,-0.013063,0.027383,-0,0.0303392,29944.5,-51156.7,0,59276.3,19856.6
step02_gravity_refstate-mantle.xmf,860,1.26859e-06,2.91664e-06,0,-1.14803e-07,-1.52273e+09,-1.52251e+09,-1.5229e+09,-15343.4,-0.0129219,0.0214455,-0,0.0250377,30489.3,-53113.7,0,61242.6,15343.4
step02_gravity_refstate-mantle.xmf,861,1.38579e-06,2.93235e-06,0,-4.89529e-08,-1.61242e+09,-1.61221e+09,-1.61261e+09,-6542.56,-0.0099815,0.012515,-0,0.016008,33045.1,-55885,0,64923.8,6542.56
step02_gravity_refstate-mantle.xmf,862,1.42343e-06,3.00341e-06,0,-1.84974e-08,-1.68153e+09,-1.68132e+09,-1.68172e+09,-2472.17,-0.00896281,0.00605563,-0,0.0108168,33881.7,-58020.1,0,67188.6,2472.17
step02_gravity_refstate-mantle.xmf,863,1.45019e-06,3.06733e-06,0,-4.06938e-10,-1.74561e+09,-1.7454e+09,-1.74581e+09,-54.3873,-0.00750942,-5.87229e-19,-0,0.00750942,34922.2,-60000,0,69423.1,54.3873
step02_gravity_refstate-mantle.xmf,864,5.41743e-08,4.86783e-06,0,-1.72566e-06,-1.32685e+09,-1.32621e+09,-1.32686e+09,-230634,-0.0238341,0.0744176,-0,0.0781411,12987.6,-47059.9,0,48819.1,230634
step02_gravity_refstate-mantle.xmf,865,-2.0072e-07,5.31786e-06,0,-1.79037e-06,-1.3541e+09,-1.35336e+09,-1.35407e+09,-239283,-0.0239942,0.0735226,-0,0.0773388,12094.4,-47900.9,0,49404.2,239283
step02_gravity_refstate-mantle.xmf,866,-2.48755e-06,8.62926e-06,0,-3.63475e-07,-1.61491e+09,-1.61342e+09,-1.61458e+09,-48578.5,-0.008558,0.0349961,-0,0.0360273,3268.65,-55950.5,0,56045.9,48578.5
step02_gravity_refstate-mantle.xmf,867,1.08106e-06,2.86094e-06,0,-2.4956e-07,-1.38592e+09,-1.38568e+09,-1.38606e+09,-33353.7,-0.0149111,0.0357712,-0,0.0387546,27535.3,-48886.1,0,56107.4,33353.7
step02_gravity_refstate-mantle.xmf,868,6.99599e-07,3.52608e-06,0,-8.35262e-07,-1.32559e+09,-1.32521e+09,-1.32568e+09,-111633,-0.0211157,0.0549426,-0,0.0588605,19319.4,-47021.6,0,50835.7,111633
step02_gravity_refstate-mantle.xmf,869,1.0111e-06,2.96726e-06,0,-3.32208e-07,-1.37263e+09,-1.37237e+09,-1.37277e+09,-44399.6,-0.0165602,0.0389331,-0,0.0423088,25746.8,-48475.5,0,54888.7,44399.6
step02_gravity_refstate-mantle.xmf,870,9.38862e-07,3.08741e-06,0,-4.29751e-07,-1.36082e+09,-1.36053e+09,-1.36094e+09,-57436.3,-0.0179897,0.0423153,-0,0.0459806,24052.7,-48110.3,0,53787.8,57436.3
step02_gravity_refstate-mantle.xmf,871,8.62631e-07,3.2138e-06,0,-5.45378e-07,-1.34705e+09,-1.34674e+09,-1.34717e+09,-72889.8,-0.019172,0.0462816,-0,0.0500955,22425.8,-47684.9,0,52695,72889.8
step02_gravity_refstate-mantle.xmf,872,7.85068e-07,3.35154e-06,0,-6.78435e-07,-1.33397e+09,-1.33363e+09,-1.33408e+09,-90672.9,-0.020161,0.0505809,-0,0.0544509,20872.1,-47280.8,0,51682.9,90672.9
step02_gravity_refstate-mantle.xmf,873,2.39678e-07,4.5186e-06,0,-1.49359e-06,-1.33385e+09,-1.33328e+09,-1.33388e+09,-199618,-0.0237241,0.0683605,-0,0.0723601,14373.3,-47276.4,0,49413,199618
step02_gravity_refstate-mantle.xmf,874,3.67176e-07,4.27264e-06,0,-1.29801e-06,-1.34226e+09,-1.34174e+09,-1.34231e+09,-173478,-0.0234923,0.063249,-0,0.0674709,15583.1,-47536.4,0,50025.4,173478
step02_gravity_refstate-mantle.xmf,875,4.83356e-07,4.05253e-06,0,-1.1064e-06,-1.35341e+09,-1.35293e+09,-1.35347e+09,-147871,-0.0231314,0.0579935,-0,0.0624364,16884.9,-47880.9,0,50770.8,147871
step02_gravity_refstate-mantle.xmf,876,1.317e-06,3.00229e-06,0,-8.34676e-08,-1.58698e+09,-1.58675e+09,-1.58715e+09,-11155.4,-0.0126338,0.015364,-0,0.0198913,31005.2,-55098.8,0,63223.4,11155.4
step02_gravity_refstate-mantle.xmf,877,-4.90458e-07,5.78861e-06,0,-1.80496e-06,-1.38105e+09,-1.38021e+09,-1.38099e+09,-241233,-0.0237333,0.0722251,-0,0.0760246,11188.6,-48732.8,0,50000.7,241233
step02_gravity_refstate-mantle.xmf,878,-7.97274e-07,6.25764e-06,0,-1.7632e-06,-1.40777e+09,-1.40683e+09,-1.40767e+09,-235652,-0.0230637,0.0703828,-0,0.0740653,10287.9,-49557.3,0,50613.9,235652
step02_gravity_refstate-mantle.xmf,879,-1.1046e-06,6.70691e-06,0,-1.66899e-06,-1.43393e+09,-1.43289e+09,-1.43379e+09,-223061,-0.0220213,0.0680152,-0,0.0714913,9393.02,-50364.5,0,51232.9,223061
step02_gravity_refstate-mantle.xmf,880,-2.3751e-06,8.46544e-06,0,-5.59969e-07,-1.58643e+09,-1.58498e+09,-1.58611e+09,-74839.9,-0.0111494,0.0417793,-0,0.0432414,4272.41,-55071.2,0,55236.7,74839.9
step02_gravity_refstate-mantle.xmf,881,-1.39552e-06,7.1192e-06,0,-1.53507e-06,-1.45869e+09,-1.45755e+09,-1.4585e+09,-205163,-0.0206733,0.0652864,-0,0.0684814,8510.06,-51128.3,0,51831.7,205163
step02_gravity_refstate-mantle.xmf,882,-1.65429e-06,7.47895e-06,0,-1.3891e-06,-1.47947e+09,-1.47825e+09,-1.47925e+09,-185654,-0.019143,0.0627951,-0,0.0656481,7658,-51769.3,0,52332.7,185654
step02_gravity_refstate-mantle.xmf,883,-2.22616e-06,8.25706e-06,0,-7.79061e-07,-1.55787e+09,-1.55646e+09,-1.55757e+09,-104121,-0.0135931,0.0481044,-0,0.0499881,5242.68,-54189.2,0,54442.3,104121
step02_gravity_refstate-mantle.xmf,884,-2.05062e-06,8.01582e-06,0,-1.01489e-06,-1.52759e+09,-1.52625e+09,-1.52732e+09,-135639,-0.015779,0.0543949,-0,0.0566373,6133.02,-53254.7,0,53606.7,135639
step02_gravity_refstate-mantle.xmf,885,-1.90674e-06,7.8229e-06,0,-1.22136e-06,-1.49871e+09,-1.49741e+09,-1.49846e+09,-163235,-0.0172804,0.0603254,-0,0.0627516,6735.07,-52363,0,52794.3,163235
step02_gravity_refstate-mantle.xmf,886,-2.41899e-06,8.58024e-06,0,-2.47426e-07,-1.65975e+09,-1.65828e+09,-1.65943e+09,-33068.5,-0.00904517,0.0229422,-0,0.0246609,3533.06,-57336,0,57444.8,33068.5
step02_gravity_refstate-mantle.xmf,887,-2.51846e-06,8.74942e-06,0,-1.03003e-07,-1.69624e+09,-1.69473e+09,-1.6959e+09,-13766.3,-0.0061371,0.0134838,-0,0.0148147,2383.89,-58462.9,0,58511.5,13766.3
step02_gravity_refstate-mantle.xmf,888,-2.55802e-06,8.87536e-06,0,3.82782e-09,-1.746e+09,-1.74447e+09,-1.74566e+09,511.588,-0.00404738,-1.78434e-19,-0,0.00404738,1568.5,-60000,0,60020.5,511.588
step02_gravity_refstate-mantle.xmf,889,5.96995e-07,3.83758e-06,0,-9.27698e-07,-1.36321e+09,-1.36278e+09,-1.36329e+09,-123987,-0.0225533,0.0531683,-0,0.057754,18285.3,-48183.9,0,51536.8,123987
step02_gravity_refstate-mantle.xmf,890,1.14091e-06,2.93732e-06,0,-2.14113e-07,-1.44283e+09,-1.44259e+09,-1.44299e+09,-28616.2,-0.0150978,0.0302025,-0,0.0337659,28058,-50644.8,0,57897.7,28616.2
step02_gravity_refstate-mantle.xmf,891,1.191e-06,3.01609e-06,0,-1.69679e-07,-1.50428e+09,-1.50404e+09,-1.50444e+09,-22677.6,-0.0151761,0.0242002,-0,0.0285651,28535.6,-52543.5,0,59792.1,22677.6
step02_gravity_refstate-mantle.xmf,892,1.23845e-06,3.10073e-06,0,-1.21941e-07,-1.57007e+09,-1.56983e+09,-1.57024e+09,-16297.4,-0.0150365,0.0176928,-0,0.0232193,29051.5,-54576.3,0,61826.9,16297.4
step02_gravity_refstate-mantle.xmf,893,1.35184e-06,3.12091e-06,0,-3.89019e-08,-1.67089e+09,-1.67066e+09,-1.67107e+09,-5199.24,-0.0124905,0.0073488,-0,0.014492,31325.9,-57691.4,0,65647.7,5199.24
step02_gravity_refstate-mantle.xmf,894,1.39548e-06,3.17102e-06,0,-3.42e-10,-1.74562e+09,-1.74538e+09,-1.7458e+09,-45.7083,-0.0109061,-7.11008e-19,-0,0.0109061,32535.6,-60000,0,68253.7,45.7083
step02_gravity_refstate-mantle.xmf,895,-5.86174e-09,4.97715e-06,0,-1.57696e-06,-1.36436e+09,-1.36369e+09,-1.36436e+09,-210761,-0.0241876,0.0674336,-0,0.0716402,13342.2,-48218.2,0,50030.1,210761
step02_gravity_refstate-mantle.xmf,896,-2.73454e-07,5.43358e-06,0,-1.61434e-06,-1.39281e+09,-1.39205e+09,-1.39277e+09,-215757,-0.024191,0.0661198,-0,0.0704062,12372.2,-49096.4,0,50631.3,215757
step02_gravity_refstate-mantle.xmf,897,-2.29729e-06,8.39585e-06,0,-4.11423e-07,-1.63087e+09,-1.62944e+09,-1.63056e+09,-54986.7,-0.0115781,0.0299765,-0,0.0321348,4560.76,-56444.1,0,56628.1,54986.7
step02_gravity_refstate-mantle.xmf,898,1.06306e-06,3.0467e-06,0,-2.9115e-07,-1.42664e+09,-1.42638e+09,-1.42678e+09,-38912.2,-0.0168799,0.0333523,-0,0.0373805,26246.8,-50144.4,0,56598.2,38912.2
step02_gravity_refstate-mantle.xmf,899,7.02907e-07,3.64058e-06,0,-7.65006e-07,-1.37317e+09,-1.37278e+09,-1.37327e+09,-102243,-0.0217835,0.0486886,-0,0.0533395,19755.2,-48491.9,0,52361.5,102243
step02_gravity_refstate-mantle.xmf,900,9.80808e-07,3.17355e-06,0,-3.83281e-07,-1.41259e+09,-1.41229e+09,-1.41272e+09,-51225.6,-0.0184298,0.0366629,-0,0.0410344,24523.4,-49710,0,55429.9,51225.6
step02_gravity_refstate-mantle.xmf,901,8.93322e-07,3.31479e-06,0,-4.91996e-07,-1.39915e+09,-1.39883e+09,-1.39927e+09,-65755.3,-0.0197547,0.0402915,-0,0.0448738,22873.1,-49294.9,0,54343,65755.3
step02_gravity_refstate-mantle.xmf,902,8.01338e-07,3.46573e-06,0,-6.19403e-07,-1.3848e+09,-1.38444e+09,-1.38491e+09,-82783.2,-0.0208435,0.0444165,-0,0.049064,21289.8,-48851.2,0,53288.8,82783.2
step02_gravity_refstate-mantle.xmf,903,1.67034e-07,4.67469e-06,0,-1.37805e-06,-1.37431e+09,-1.37371e+09,-1.37434e+09,-184177,-0.0241759,0.0618429,-0,0.0664004,14609.5,-48526.2,0,50677.7,184177
step02_gravity_refstate-mantle.xmf,904,3.15539e-07,4.41389e-06,0,-1.18677e-06,-1.38519e+09,-1.38465e+09,-1.38524e+09,-158612,-0.0239894,0.0565785,-0,0.0614542,15893,-48862.6,0,51382.3,158612
step02_gravity_refstate-mantle.xmf,905,4.50941e-07,4.1786e-06,0,-1.00524e-06,-1.39721e+09,-1.39671e+09,-1.39727e+09,-134350,-0.0236289,0.0515161,-0,0.0566765,17234.3,-49234,0,52163.3,134350
step02_gravity_refstate-mantle.xmf,906,1.2744e-06,3.17832e-06,0,-7.67283e-08,-1.6317e+09,-1.63145e+09,-1.63187e+09,-10254.7,-0.0146969,0.0115263,-0,0.0186777,29559.6,-56480.4,0,63748,10254.7
step02_gravity_refstate-mantle.xmf,907,-5.57317e-07,5.88511e-06,0,-1.60083e-06,-1.42021e+09,-1.41935e+09,-1.42014e+09,-213951,-0.0237911,0.0643312,-0,0.0685895,11438.1,-49942.2,0,51235.3,213951
step02_gravity_refstate-mantle.xmf,908,-8.44932e-07,6.32056e-06,0,-1.53761e-06,-1.4471e+09,-1.44614e+09,-1.44699e+09,-205501,-0.0230344,0.06198,-0,0.0661219,10533.4,-50772,0,51853.1,205501
step02_gravity_refstate-mantle.xmf,909,-1.13326e-06,6.74202e-06,0,-1.4321e-06,-1.4736e+09,-1.47255e+09,-1.47345e+09,-191400,-0.0219299,0.059146,-0,0.0630807,9616.27,-51589.8,0,52478.4,191400
step02_gravity_refstate-mantle.xmf,910,-2.1505e-06,8.17884e-06,0,-6.03224e-07,-1.60088e+09,-1.5995e+09,-1.60059e+09,-80621,-0.0139036,0.0368549,-0,0.0393903,5530.6,-55518.2,0,55793,80621
step02_gravity_refstate-mantle.xmf,911,-1.41876e-06,7.1491e-06,0,-1.29171e-06,-1.49948e+09,-1.49833e+09,-1.49929e+09,-172637,-0.0204681,0.0559296,-0,0.0595572,8657.53,-52388.2,0,53098.7,172637
step02_gravity_refstate-mantle.xmf,912,-1.73619e-06,7.59115e-06,0,-1.10004e-06,-1.52743e+09,-1.52618e+09,-1.5272e+09,-147021,-0.0183178,0.0520277,-0,0.0551582,7471.57,-53250.7,0,53772.3,147021
step02_gravity_refstate-mantle.xmf,913,-1.97164e-06,7.92049e-06,0,-8.32756e-07,-1.56649e+09,-1.56517e+09,-1.56623e+09,-111298,-0.016115,0.0442829,-0,0.0471239,6478.52,-54456.6,0,54840.6,111298
step02_gravity_refstate-mantle.xmf,914,-2.26853e-06,8.39549e-06,0,-2.79793e-07,-1.66695e+09,-1.66553e+09,-1.66665e+09,-37394.3,-0.0115875,0.0205792,-0,0.0236172,4627.45,-57559,0,57744.7,37394.3
step02_gravity_refstate-mantle.xmf,915,-2.31402e-06,8.49212e-06,0,-1.45118e-07,-1.70197e+09,-1.70053e+09,-1.70166e+09,-19395,-0.0105771,0.0115826,-0,0.0156854,4223.11,-58640.6,0,58792.5,19395
step02_gravity_refstate-mantle.xmf,916,-2.44033e-06,8.72454e-06,0,1.87429e-09,-1.74599e+09,-1.74449e+09,-1.74566e+09,250.499,-0.00796482,-1.44481e-19,-0,0.00796482,3137.45,-60000,0,60082,250.499
step02_gravity_refstate-mantle.xmf,917,5.81308e-07,3.95324e-06,0,-8.36529e-07,-1.40855e+09,-1.4081e+09,-1.40863e+09,-111802,-0.0230465,0.0468456,-0,0.0522078,18665.9,-49584.6,0,52981.6,111802
step02_gravity_refstate-mantle.xmf,918,1.10792e-06,3.1313e-06,0,-2.43626e-07,-1.48403e+09,-1.48376e+09,-1.48418e+09,-32560.6,-0.0170659,0.0274387,-0,0.032313,26717.6,-51917.5,0,58388.9,32560.6
step02_gravity_refstate-mantle.xmf,919,1.14523e-06,3.22272e-06,0,-1.8135e-07,-1.55002e+09,-1.54975e+09,-1.55018e+09,-24237.4,-0.0171732,0.0206458,-0,0.0268546,27145.2,-53956.7,0,60400.2,24237.4
step02_gravity_refstate-mantle.xmf,920,1.18347e-06,3.33397e-06,0,-1.12179e-07,-1.62544e+09,-1.62515e+09,-1.62559e+09,-14992.7,-0.0170792,0.0127762,-0,0.0213291,27600.8,-56286.7,0,62689.7,14992.7
step02_gravity_refstate-mantle.xmf,921,1.26264e-06,3.31824e-06,0,-4.20186e-08,-1.69024e+09,-1.68996e+09,-1.69041e+09,-5615.79,-0.0155229,0.00576004,-0,0.0165571,29035,-58288.9,0,65120.1,5615.79
step02_gravity_refstate-mantle.xmf,922,1.31791e-06,3.31322e-06,0,4.14899e-11,-1.74562e+09,-1.74535e+09,-1.7458e+09,5.54512,-0.0140167,-5.55478e-19,-0,0.0140167,30242,-60000,0,67190.6,5.54512
step02_gravity_refstate-mantle.xmf,923,-3.32767e-07,5.53493e-06,0,-1.42969e-06,-1.43238e+09,-1.43159e+09,-1.43233e+09,-191079,-0.0243113,0.0585774,-0,0.0634221,12645.5,-50318.5,0,51883.2,191079
step02_gravity_refstate-mantle.xmf,924,-7.29151e-08,5.10355e-06,0,-1.42201e-06,-1.40423e+09,-1.40354e+09,-1.40422e+09,-190052,-0.0244436,0.0603498,-0,0.0651121,13616.4,-49449.7,0,51290.2,190052
step02_gravity_refstate-mantle.xmf,925,-2.11299e-06,8.16143e-06,0,-4.38566e-07,-1.63996e+09,-1.63859e+09,-1.63968e+09,-58614.4,-0.0139564,0.0268803,-0,0.0302875,5658.8,-56725.6,0,57007.2,58614.4
step02_gravity_refstate-mantle.xmf,926,1.01499e-06,3.27013e-06,0,-3.28489e-07,-1.46887e+09,-1.46857e+09,-1.469e+09,-43902.6,-0.0187801,0.0305841,-0,0.0358898,24937.1,-51449,0,57173.9,43902.6
step02_gravity_refstate-mantle.xmf,927,7.01543e-07,3.75182e-06,0,-6.83621e-07,-1.42127e+09,-1.42087e+09,-1.42137e+09,-91365.9,-0.0222746,0.042413,-0,0.0479064,20153.4,-49978,0,53888.4,91365.9
step02_gravity_refstate-mantle.xmf,928,9.16189e-07,3.42129e-06,0,-4.29456e-07,-1.45376e+09,-1.45343e+09,-1.45389e+09,-57396.8,-0.0202025,0.0340629,-0,0.0396033,23264.3,-50982.1,0,56039.3,57396.8
step02_gravity_refstate-mantle.xmf,929,8.1075e-07,3.58146e-06,0,-5.47338e-07,-1.43759e+09,-1.43722e+09,-1.4377e+09,-73151.7,-0.0213545,0.0380253,-0,0.0436112,21675.8,-50482.4,0,54939.1,73151.7
step02_gravity_refstate-mantle.xmf,930,1.0691e-07,4.80777e-06,0,-1.2406e-06,-1.41582e+09,-1.41519e+09,-1.41583e+09,-165807,-0.0244887,0.0549823,-0,0.0601893,14880,-49808.2,0,51983.4,165807
step02_gravity_refstate-mantle.xmf,931,2.71565e-07,4.53899e-06,0,-1.05809e-06,-1.42885e+09,-1.42828e+09,-1.42888e+09,-141414,-0.0243383,0.0497264,-0,0.0553631,16210,-50211.1,0,52762.8,141414
step02_gravity_refstate-mantle.xmf,932,4.26845e-07,4.28597e-06,0,-8.8711e-07,-1.44153e+09,-1.44101e+09,-1.44159e+09,-118562,-0.0239677,0.0448739,-0,0.0508735,17609.2,-50603.2,0,53579.6,118562
step02_gravity_refstate-mantle.xmf,933,-6.05066e-07,5.96275e-06,0,-1.38934e-06,-1.46064e+09,-1.45976e+09,-1.46056e+09,-185685,-0.0238171,0.0561646,-0,0.0610058,11704.8,-51190.9,0,52512,185685
step02_gravity_refstate-mantle.xmf,934,-8.79035e-07,6.37636e-06,0,-1.31004e-06,-1.488e+09,-1.48703e+09,-1.48789e+09,-175086,-0.0229901,0.0533202,-0,0.0580654,10774.7,-52035.4,0,53139.2,175086
step02_gravity_refstate-mantle.xmf,935,-1.15432e-06,6.78007e-06,0,-1.19388e-06,-1.51544e+09,-1.51438e+09,-1.51528e+09,-159562,-0.021827,0.0499244,-0,0.0544873,9821.38,-52882,0,53786.2,159562
step02_gravity_refstate-mantle.xmf,936,-1.91609e-06,7.8736e-06,0,-6.32731e-07,-1.60906e+09,-1.60776e+09,-1.60881e+09,-84564.5,-0.0163003,0.0335816,-0,0.0373286,6735.3,-55771.8,0,56177.1,84564.5
step02_gravity_refstate-mantle.xmf,937,-1.43562e-06,7.18407e-06,0,-1.0421e-06,-1.54361e+09,-1.54245e+09,-1.54341e+09,-139277,-0.0202561,0.0458986,-0,0.0501696,8785.66,-53751.3,0,54464.5,139277
step02_gravity_refstate-mantle.xmf,938,-1.69333e-06,7.55227e-06,0,-8.4198e-07,-1.57612e+09,-1.57488e+09,-1.57589e+09,-112531,-0.0183826,0.0401646,-0,0.0441714,7757.93,-54754.7,0,55301.6,112531
step02_gravity_refstate-mantle.xmf,939,-2.10569e-06,8.19549e-06,0,-2.68779e-07,-1.68043e+09,-1.67906e+09,-1.68015e+09,-35922.3,-0.0137774,0.0166618,-0,0.0216202,5647.75,-57976,0,58250.5,35922.3
step02_gravity_refstate-mantle.xmf,940,-2.24518e-06,8.47075e-06,0,8.70258e-10,-1.74596e+09,-1.74453e+09,-1.74566e+09,116.31,-0.0116479,-9.32677e-20,-0,0.0116479,4710.75,-60000,0,60184.6,116.31
step02_gravity_refstate-mantle.xmf,941,5.70043e-07,4.05507e-06,0,-7.32878e-07,-1.45404e+09,-1.45358e+09,-1.45412e+09,-97949.1,-0.0233803,0.0404673,-0,0.0467358,19048.3,-50990.1,0,54431.9,97949.1
step02_gravity_refstate-mantle.xmf,942,1.04295e-06,3.36829e-06,0,-2.64271e-07,-1.52796e+09,-1.52765e+09,-1.5281e+09,-35319.9,-0.0189913,0.024172,-0,0.0307401,25318.9,-53274.7,0,58985.1,35319.9
step02_gravity_refstate-mantle.xmf,943,1.06291e-06,3.46263e-06,0,-1.87313e-07,-1.59059e+09,-1.59027e+09,-1.59073e+09,-25034.3,-0.0191167,0.0173413,-0,0.0258102,25629.1,-55209.8,0,60868.5,25034.3
step02_gravity_refstate-mantle.xmf,944,1.14611e-06,3.52481e-06,0,-5.77287e-08,-1.69179e+09,-1.69147e+09,-1.69194e+09,-7715.43,-0.0181384,0.00594353,-0,0.0190873,26865.1,-58336.5,0,64225.2,7715.43
step02_gravity_refstate-mantle.xmf,945,1.21467e-06,3.4964e-06,0,5.22984e-10,-1.74563e+09,-1.74532e+09,-1.74579e+09,69.8968,-0.0168098,-5.72136e-19,-0,0.0168098,28035.6,-60000,0,66226.9,69.8968
step02_gravity_refstate-mantle.xmf,946,-3.83935e-07,5.63344e-06,0,-1.22688e-06,-1.47574e+09,-1.47493e+09,-1.47569e+09,-163972,-0.024379,0.0503819,-0,0.0559703,12917.4,-51657.9,0,53248.5,163972
step02_gravity_refstate-mantle.xmf,947,-1.28385e-07,5.21659e-06,0,-1.2503e-06,-1.44616e+09,-1.44544e+09,-1.44614e+09,-167102,-0.0246163,0.0528755,-0,0.0583248,13900.9,-50744.8,0,52614.3,167102
step02_gravity_refstate-mantle.xmf,948,-1.89175e-06,7.87863e-06,0,-4.36451e-07,-1.65094e+09,-1.64963e+09,-1.65069e+09,-58331.7,-0.0162929,0.0232886,-0,0.0284221,6850.75,-57065.6,0,57475.3,58331.7
step02_gravity_refstate-mantle.xmf,949,-2.11766e-06,8.2629e-06,0,-1.13479e-07,-1.71714e+09,-1.71575e+09,-1.71685e+09,-15166.5,-0.0134638,0.00736829,-0,0.0153482,5535.45,-59109.9,0,59368.5,15166.5
step02_gravity_refstate-mantle.xmf,950,9.28367e-07,3.53843e-06,0,-3.56605e-07,-1.51181e+09,-1.51146e+09,-1.51194e+09,-47660.3,-0.020576,0.0274856,-0,0.0343341,23557.6,-52775.7,0,57794.7,47660.3
step02_gravity_refstate-mantle.xmf,951,6.97345e-07,3.86481e-06,0,-5.89937e-07,-1.47166e+09,-1.47124e+09,-1.47176e+09,-78845,-0.022641,0.0358792,-0,0.0424256,20516.4,-51534.8,0,55468.5,78845
step02_gravity_refstate-mantle.xmf,952,8.10948e-07,3.71757e-06,0,-4.60877e-07,-1.49711e+09,-1.49673e+09,-1.49722e+09,-61596.2,-0.0218181,0.0309201,-0,0.0378428,21959.5,-52321.3,0,56742.8,61596.2
step02_gravity_refstate-mantle.xmf,953,6.09649e-08,4.92166e-06,0,-1.08155e-06,-1.45966e+09,-1.45901e+09,-1.45966e+09,-144549,-0.0247048,0.0476206,-0,0.0536474,15189.7,-51162.3,0,53369.5,144549
step02_gravity_refstate-mantle.xmf,954,2.4244e-07,4.64031e-06,0,-9.13118e-07,-1.47333e+09,-1.47274e+09,-1.47337e+09,-122038,-0.0245673,0.0426368,-0,0.0492082,16564.9,-51585.3,0,54179.7,122038
step02_gravity_refstate-mantle.xmf,955,4.15251e-07,4.37148e-06,0,-7.55395e-07,-1.48644e+09,-1.48592e+09,-1.4865e+09,-100959,-0.0241759,0.0380782,-0,0.0451045,18020.9,-51990.8,0,55025.4,100959
step02_gravity_refstate-mantle.xmf,956,1.07581e-06,3.55666e-06,0,-1.19909e-07,-1.64653e+09,-1.6462e+09,-1.64667e+09,-16025.8,-0.0191839,0.0111803,-0,0.0222041,25810.7,-56938,0,62515,16025.8
step02_gravity_refstate-mantle.xmf,957,-6.42835e-07,6.03661e-06,0,-1.17266e-06,-1.50296e+09,-1.50206e+09,-1.50287e+09,-156726,-0.0238112,0.0477159,-0,0.0533271,11953.4,-52498,0,53841.6,156726
step02_gravity_refstate-mantle.xmf,958,-8.98565e-07,6.42259e-06,0,-1.08506e-06,-1.52975e+09,-1.52877e+09,-1.52963e+09,-145018,-0.0229557,0.0445409,-0,0.0501084,11014.3,-53324.8,0,54450.4,145018
step02_gravity_refstate-mantle.xmf,959,-1.1532e-06,6.79989e-06,0,-9.56312e-07,-1.55875e+09,-1.55769e+09,-1.5586e+09,-127811,-0.0218062,0.0403618,-0,0.0458757,10069.6,-54220.1,0,55147.2,127811
step02_gravity_refstate-mantle.xmf,960,-1.66012e-06,7.54003e-06,0,-6.17976e-07,-1.62022e+09,-1.61899e+09,-1.62e+09,-82592.4,-0.0184572,0.0296074,-0,0.0348893,7979.29,-56117.3,0,56681.8,82592.4
step02_gravity_refstate-mantle.xmf,961,-1.4123e-06,7.17891e-06,0,-7.97883e-07,-1.58898e+09,-1.58783e+09,-1.58879e+09,-106637,-0.020294,0.0354121,-0,0.040815,9047.62,-55153.1,0,55890.3,106637
step02_gravity_refstate-mantle.xmf,962,-1.86379e-06,7.90093e-06,0,-2.04652e-07,-1.70142e+09,-1.70012e+09,-1.70117e+09,-27351.8,-0.0164151,0.0109036,-0,0.0197064,7004.08,-58625.2,0,59042.1,27351.8
step02_gravity_refstate-mantle.xmf,963,-1.99032e-06,8.13491e-06,0,1.05021e-09,-1.74594e+09,-1.74458e+09,-1.74567e+09,140.361,-0.0150019,-1.37426e-19,-0,0.0150019,6293.86,-60000,0,60329.2,140.361
step02_gravity_refstate-mantle.xmf,964,5.55314e-07,4.14791e-06,0,-6.34063e-07,-1.49548e+09,-1.495e+09,-1.49556e+09,-84742.5,-0.0236135,0.0347587,-0,0.042021,19322.4,-52270.3,0,55727.3,84742.5
step02_gravity_refstate-mantle.xmf,965,9.3955e-07,3.64433e-06,0,-2.73238e-07,-1.5701e+09,-1.56974e+09,-1.57023e+09,-36518.3,-0.0207758,0.0207645,-0,0.0293735,23842.8,-54576.6,0,59557.4,36518.3
step02_gravity_refstate-mantle.xmf,966,9.53122e-07,3.72822e-06,0,-1.78159e-07,-1.62938e+09,-1.62901e+09,-1.6295e+09,-23810.9,-0.0208202,0.0138242,-0,0.0249918,24131.7,-56407.9,0,61353,23810.9
step02_gravity_refstate-mantle.xmf,967,9.85082e-07,3.79768e-06,0,-8.15624e-08,-1.69143e+09,-1.69106e+09,-1.69157e+09,-10900.8,-0.0205695,0.00643815,-0,0.0215535,24584.5,-58325.2,0,63294.8,10900.8
step02_gravity_refstate-mantle.xmf,968,1.08452e-06,3.71943e-06,0,9.20074e-10,-1.74564e+09,-1.74528e+09,-1.74578e+09,122.968,-0.0192515,-6.1797e-19,-0,0.0192515,25910.4,-60000,0,65355.6,122.968
step02_gravity_refstate-mantle.xmf,969,-4.34378e-07,5.74078e-06,0,-1.01764e-06,-1.52142e+09,-1.52059e+09,-1.52136e+09,-136008,-0.0243847,0.04191,-0,0.0484877,13121.4,-53069,0,54667,136008
step02_gravity_refstate-mantle.xmf,970,-1.74359e-07,5.32301e-06,0,-1.06351e-06,-1.49088e+09,-1.49015e+09,-1.49086e+09,-142138,-0.0247265,0.0449395,-0,0.0512929,14178.2,-52126.4,0,54020.2,142138
step02_gravity_refstate-mantle.xmf,971,-1.62634e-06,7.53824e-06,0,-4.02798e-07,-1.6636e+09,-1.66238e+09,-1.66339e+09,-53833.9,-0.0185957,0.0193203,-0,0.0268156,8189.06,-57457.6,0,58038.2,53833.9
step02_gravity_refstate-mantle.xmf,972,8.00027e-07,3.84814e-06,0,-3.7098e-07,-1.55272e+09,-1.55232e+09,-1.55283e+09,-49581.4,-0.0221597,0.0242529,-0,0.032852,22112.2,-54039.4,0,58388.4,49581.4
step02_gravity_refstate-mantle.xmf,973,6.33926e-07,4.08552e-06,0,-5.05001e-07,-1.53179e+09,-1.53133e+09,-1.53187e+09,-67493.3,-0.023306,0.0287861,-0,0.037038,20305.4,-53392.1,0,57122.9,67493.3
step02_gravity_refstate-mantle.xmf,974,3.07037e-08,5.01678e-06,0,-9.07836e-07,-1.50535e+09,-1.50469e+09,-1.50536e+09,-121332,-0.0248475,0.0399055,-0,0.047009,15522.9,-52573.9,0,54817.7,121332
step02_gravity_refstate-mantle.xmf,975,2.35021e-07,4.71179e-06,0,-7.53499e-07,-1.51916e+09,-1.51856e+09,-1.51919e+09,-100705,-0.0246996,0.0352368,-0,0.0430314,16990.7,-53000.9,0,55657.8,100705
step02_gravity_refstate-mantle.xmf,976,4.33451e-07,4.41089e-06,0,-6.13418e-07,-1.5308e+09,-1.53027e+09,-1.53086e+09,-81983.3,-0.0242302,0.0312038,-0,0.0395068,18564.2,-53361.2,0,56498.2,81983.3
step02_gravity_refstate-mantle.xmf,977,-6.78429e-07,6.10846e-06,0,-9.91963e-07,-1.53935e+09,-1.53844e+09,-1.53926e+09,-132576,-0.023765,0.0405901,-0,0.0470354,12100.6,-53622.1,0,54970.5,132576
step02_gravity_refstate-mantle.xmf,978,-8.7898e-07,6.42422e-06,0,-8.56908e-07,-1.57277e+09,-1.57179e+09,-1.57265e+09,-114526,-0.02305,0.035371,-0,0.0422186,11370.4,-54653.9,0,55824.1,114526
step02_gravity_refstate-mantle.xmf,979,-1.11655e-06,6.78424e-06,0,-7.1887e-07,-1.60335e+09,-1.60229e+09,-1.6032e+09,-96077,-0.0219621,0.0304639,-0,0.037555,10432,-55597.8,0,56568.1,96077
step02_gravity_refstate-mantle.xmf,980,-1.38386e-06,7.17883e-06,0,-5.71344e-07,-1.63261e+09,-1.63147e+09,-1.63243e+09,-76360.1,-0.0203951,0.0254412,-0,0.032607,9295.11,-56501.1,0,57260.6,76360.1
step02_gravity_refstate-mantle.xmf,981,-1.52946e-06,7.46423e-06,0,-1.90338e-07,-1.70724e+09,-1.70604e+09,-1.70703e+09,-25438.7,-0.0192845,0.00894732,-0,0.021259,8701.82,-58806,0,59446.3,25438.7
step02_gravity_refstate-mantle.xmf,982,-1.69358e-06,7.74183e-06,0,-2.79551e-10,-1.74591e+09,-1.74464e+09,-1.74568e+09,-37.362,-0.0179463,-1.0882e-19,-0,0.0179463,7892.26,-60000,0,60516.8,37.362
step02_gravity_refstate-mantle.xmf,983,8.00922e-07,3.95536e-06,0,-2.62971e-07,-1.61092e+09,-1.6105e+09,-1.61103e+09,-35146.1,-0.0223061,0.0170466,-0,0.028074,22345.1,-55837.3,0,60142.4,35146.1
step02_gravity_refstate-mantle.xmf,984,8.1512e-07,4.02193e-06,0,-1.50686e-07,-1.66644e+09,-1.66601e+09,-1.66655e+09,-20139.2,-0.0222671,0.010043,-0,0.0244271,22637,-57552.6,0,61844.4,20139.2
step02_gravity_refstate-mantle.xmf,985,9.24366e-07,3.98386e-06,0,6.05799e-10,-1.74565e+09,-1.74524e+09,-1.74577e+09,80.965,-0.0213084,-3.84042e-19,-0,0.0213084,23860.6,-60000,0,64570.3,80.965
step02_gravity_refstate-mantle.xmf,986,-5.23435e-07,5.9168e-06,0,-8.07783e-07,-1.56986e+09,-1.569e+09,-1.56979e+09,-107960,-0.0242337,0.0333241,-0,0.0412039,13043.4,-54565.1,0,56102.4,107960
step02_gravity_refstate-mantle.xmf,987,-2.07697e-07,5.41897e-06,0,-8.65631e-07,-1.53766e+09,-1.53691e+09,-1.53764e+09,-115692,-0.0247916,0.0366588,-0,0.0442549,14445.8,-53571.4,0,55484.9,115692
step02_gravity_refstate-mantle.xmf,988,-1.36331e-06,7.19544e-06,0,-3.67563e-07,-1.67237e+09,-1.67123e+09,-1.67219e+09,-49124.8,-0.0204775,0.0164725,-0,0.0262806,9467.8,-57729.4,0,58500.7,49124.8
step02_gravity_refstate-mantle.xmf,989,6.32245e-07,4.19795e-06,0,-3.60376e-07,-1.59379e+09,-1.59332e+09,-1.59388e+09,-48164.2,-0.023446,0.0204951,-0,0.0311411,20645.3,-55307.8,0,59035.4,48164.2
step02_gravity_refstate-mantle.xmf,990,4.44161e-07,4.47426e-06,0,-4.65762e-07,-1.58063e+09,-1.58009e+09,-1.58069e+09,-62249.1,-0.0242763,0.0238289,-0,0.034017,18999.6,-54900.5,0,58095.2,62249.1
step02_gravity_refstate-mantle.xmf,991,1.80883e-08,5.09143e-06,0,-7.25003e-07,-1.5524e+09,-1.55173e+09,-1.55241e+09,-96896.6,-0.0249373,0.031955,-0,0.0405338,15878.2,-54027.5,0,56312.4,96896.6
step02_gravity_refstate-mantle.xmf,992,2.36382e-07,4.77592e-06,0,-5.89521e-07,-1.56662e+09,-1.56601e+09,-1.56665e+09,-78789.5,-0.0247753,0.0276943,-0,0.037159,17393.2,-54467.1,0,57176.8,78789.5
step02_gravity_refstate-mantle.xmf,993,8.31557e-07,4.07906e-06,0,-5.79451e-08,-1.71415e+09,-1.71372e+09,-1.71426e+09,-7744.36,-0.0221603,0.00400106,-0,0.0225186,22870.6,-59026.6,0,63302.5,7744.36
step02_gravity_refstate-mantle.xmf,994,-7.91747e-07,6.34152e-06,0,-6.42372e-07,-1.61285e+09,-1.6119e+09,-1.61274e+09,-85853,-0.0234021,0.0266269,-0,0.0354492,11982.2,-55892.3,0,57162.3,85853
step02_gravity_refstate-mantle.xmf,995,-1.06548e-06,6.76708e-06,0,-4.54636e-07,-1.65442e+09,-1.65337e+09,-1.65428e+09,-60762.1,-0.0221935,0.0193526,-0,0.0294462,10833.2,-57175.7,0,58192.9,60762.1
step02_gravity_refstate-mantle.xmf,996,-1.1935e-06,7.00625e-06,0,-2.08535e-07,-1.70399e+09,-1.7029e+09,-1.70384e+09,-27870.7,-0.0214929,0.00910494,-0,0.0233419,10319.8,-58706.9,0,59607,27870.7
step02_gravity_refstate-mantle.xmf,997,-1.36579e-06,7.30278e-06,0,-7.88914e-10,-1.74587e+09,-1.74471e+09,-1.74569e+09,-105.438,-0.0204233,-1.08852e-19,-0,0.0204233,9511.38,-60000,0,60749.2,105.438
step02_gravity_refstate-mantle.xmf,998,6.31721e-07,4.29355e-06,0,-2.29194e-07,-1.64974e+09,-1.64925e+09,-1.64982e+09,-30631.8,-0.0235149,0.0130104,-0,0.0268742,20851.9,-57036.1,0,60728.2,30631.8
step02_gravity_refstate-mantle.xmf,999,6.51684e-07,4.34491e-06,0,-9.93504e-08,-1.70257e+09,-1.70208e+09,-1.70266e+09,-13278.2,-0.0234329,0.00584337,-0,0.0241505,21139.5,-58668.4,0,62360.7,13278.2
step02_gravity_refstate-mantle.xmf,1000,7.30575e-07,4.29437e-06,0,1.36961e-09,-1.74567e+09,-1.74519e+09,-1.74576e+09,183.049,-0.0229485,-5.6188e-19,-0,0.0229485,21880.6,-60000,0,63865.2,183.049
step02_gravity_refstate-mantle.xmf,1001,-2.26117e-07,5.50089e-06,0,-6.62579e-07,-1.58567e+09,-1.58491e+09,-1.58564e+09,-88553.7,-0.0248318,0.0281708,-0,0.0375528,14703.4,-55054.5,0,56984.1,88553.7
step02_gravity_refstate-mantle.xmf,1002,4.43072e-07,4.55949e-06,0,-3.19745e-07,-1.63228e+09,-1.63173e+09,-1.63233e+09,-42733.9,-0.024328,0.0163946,-0,0.0293366,19256.2,-56496.1,0,59687.6,42733.9
step02_gravity_refstate-mantle.xmf,1003,2.43702e-07,4.83613e-06,0,-4.24479e-07,-1.61532e+09,-1.6147e+09,-1.61535e+09,-56731.6,-0.0248107,0.0200806,-0,0.0319186,17743.1,-55971.7,0,58716.7,56731.6
step02_gravity_refstate-mantle.xmf,1004,1.83995e-08,5.15381e-06,0,-5.36711e-07,-1.60107e+09,-1.60038e+09,-1.60107e+09,-71731.4,-0.0249914,0.023805,-0,0.0345145,16223.1,-55530.8,0,57852,71731.4
step02_gravity_refstate-mantle.xmf,1005,-4.7498e-07,5.90166e-06,0,-5.65452e-07,-1.61953e+09,-1.61868e+09,-1.61947e+09,-75572.7,-0.0243946,0.0235617,-0,0.0339153,13574.6,-56099.8,0,57718.8,75572.7
step02_gravity_refstate-mantle.xmf,1006,-6.91491e-07,6.25259e-06,0,-4.16147e-07,-1.65717e+09,-1.65624e+09,-1.65708e+09,-55618.1,-0.0237738,0.0173622,-0,0.0294387,12639.5,-57261.8,0,58640.2,55618.1
step02_gravity_refstate-mantle.xmf,1007,-8.6567e-07,6.5531e-06,0,-2.16339e-07,-1.70092e+09,-1.69993e+09,-1.7008e+09,-28913.8,-0.0231132,0.00914568,-0,0.0248569,11889,-58612.8,0,59806.4,28913.8
step02_gravity_refstate-mantle.xmf,1008,-1.02374e-06,6.83843e-06,0,-1.30581e-09,-1.74583e+09,-1.74478e+09,-1.7457e+09,-174.522,-0.0223892,-1.10055e-19,-0,0.0223892,11156.7,-60000,0,61028.4,174.522
step02_gravity_refstate-mantle.xmf,1009,4.18027e-07,4.69334e-06,0,-1.58537e-07,-1.69116e+09,-1.69059e+09,-1.69122e+09,-21188.5,-0.0244482,0.00799574,-0,0.0257225,19216,-58315.3,0,61399.8,21188.5
step02_gravity_refstate-mantle.xmf,1010,5.06524e-07,4.64314e-06,0,1.88443e-09,-1.74569e+09,-1.74513e+09,-1.74575e+09,251.854,-0.0241367,-7.68639e-19,-0,0.0241367,19964.7,-60000,0,63234.4,251.854
step02_gravity_refstate-mantle.xmf,1011,-2.08112e-07,5.5364e-06,0,-4.51596e-07,-1.63469e+09,-1.63392e+09,-1.63466e+09,-60355.8,-0.0248901,0.0194077,-0,0.0315622,15072.5,-56568.8,0,58542.4,60355.8
step02_gravity_refstate-mantle.xmf,1012,2.54601e-07,4.88403e-06,0,-2.80112e-07,-1.65827e+09,-1.65765e+09,-1.6583e+09,-37437,-0.0248157,0.0134363,-0,0.0282197,18001.1,-57298.6,0,60059.7,37437
step02_gravity_refstate-mantle.xmf,1013,3.69435e-08,5.196e-06,0,-3.43779e-07,-1.65142e+09,-1.65073e+09,-1.65143e+09,-45946.1,-0.0250183,0.015427,-0,0.0293923,16584.5,-57086.5,0,59446.7,45946.1
step02_gravity_refstate-mantle.xmf,1014,-4.21463e-07,5.8728e-06,0,-3.74752e-07,-1.66021e+09,-1.65936e+09,-1.66015e+09,-50085.7,-0.0245439,0.0157529,-0,0.0291643,14032.9,-57356.5,0,59048.2,50085.7
step02_gravity_refstate-mantle.xmf,1015,-5.28537e-07,6.0816e-06,0,-2.05754e-07,-1.69996e+09,-1.69908e+09,-1.69989e+09,-27499,-0.0242819,0.00867087,-0,0.0257836,13564,-58584.3,0,60134,27499
step02_gravity_refstate-mantle.xmf,1016,-6.80781e-07,6.36549e-06,0,-1.51423e-09,-1.7458e+09,-1.74486e+09,-1.74571e+09,-202.377,-0.0238182,-1.03532e-19,-0,0.0238182,12833.5,-60000,0,61357.1,202.377
step02_gravity_refstate-mantle.xmf,1017,1.17882e-07,5.15412e-06,0,-1.5527e-07,-1.70117e+09,-1.70049e+09,-1.70118e+09,-20751.9,-0.0249954,0.00715344,-0,0.0259989,17205.5,-58623.5,0,61096.2,20751.9
step02_gravity_refstate-mantle.xmf,1018,2.51661e-07,5.02798e-06,0,1.19298e-09,-1.74571e+09,-1.74507e+09,-1.74574e+09,159.442,-0.0248408,-6.86064e-19,-0,0.0248408,18107.5,-60000,0,62672.8,159.442
step02_gravity_refstate-mantle.xmf,1019,-2.02166e-07,5.59761e-06,0,-2.21167e-07,-1.6908e+09,-1.69002e+09,-1.69077e+09,-29559,-0.0249223,0.00959191,-0,0.0267044,15319.1,-58302.2,0,60281.2,29559
step02_gravity_refstate-mantle.xmf,1020,-3.48604e-07,5.89907e-06,0,-2.24139e-09,-1.74577e+09,-1.74493e+09,-1.74572e+09,-299.562,-0.0246993,-1.11374e-19,-0,0.0246993,14547.3,-60000,0,61738.4,299.562
step02_gravity_refstate-mantle.xmf,1021,-3.57086e-08,5.44968e-06,0,2.37987e-09,-1.74574e+09,-1.745e+09,-1.74573e+09,318.069,-0.0250367,-9.19441e-19,-0,0.0250367,16303.5,-60000,0,62175.6,318.069
step02_gravity_refstate-intrusion.xmf,0,5.37151e-06,-1.30662e-05,0,1.43347e-05,-8.23926e+08,-8.25198e+08,-8.24296e+08,988708,-0.018484,0.330197,-0,0.330714,-2000,-30000,-0,30066.6,988708
step02_gravity_refstate-intrusion.xmf,1,8.43899e-06,-1.93585e-05,0,1.04958e-05,-8.23822e+08,-8.25739e+08,-8.24404e+08,723926,-0.0148928,0.343462,-0,0.343785,-1499.28,-30000,-0,30037.4,723926
step02_gravity_refstate-intrusion.xmf,2,4.98307e-06,-1.04713e-05,0,1.65843e-05,-8.37664e+08,-8.3873e+08,-8.38008e+08,1.14387e+06,-0.0167434,0.336113,-0,0.33653,-2000,-30501.8,-0,30567.3,1.14387e+06
step02_gravity_refstate-intrusion.xmf,3,3.67712e-06,-5.07809e-06,0,1.94876e-05,-8.65095e+08,-8.65698e+08,-8.65348e+08,1.34412e+06,-0.0118634,0.343863,-0,0.344067,-2000,-31502.2,-0,31565.6,1.34412e+06
step02_gravity_refstate-intrusion.xmf,4,4.37706e-06,-7.80702e-06,0,1.82054e-05,-8.51368e+08,-8.52208e+08,-8.5167e+08,1.25568e+06,-0.0144338,0.34067,-0,0.340975,-2000,-31001.7,-0,31066.2,1.25568e+06
step02_gravity_refstate-intrusion.xmf,5,2.88923e-06,-2.26596e-06,0,2.04798e-05,-8.78817e+08,-8.79173e+08,-8.79017e+08,1.41256e+06,-0.00917459,0.345667,-0,0.345789,-2000,-32002.2,-0,32064.7,1.41256e+06
step02_gravity_refstate-intrusion.xmf,6,9.76155e-06,-2.21201e-05,0,6.97323e-06,-8.23778e+08,-8.25977e+08,-8.24452e+08,480965,-0.010339,0.352921,-0,0.353072,-999.317,-30000,-0,30016.6,480965
step02_gravity_refstate-intrusion.xmf,7,2.0354e-06,5.36585e-07,0,2.11892e-05,-8.9253e+08,-8.92634e+08,-8.92671e+08,1.46148e+06,-0.00644682,0.346078,-0,0.346138,-2000,-32501.7,-0,32563.2,1.46148e+06
step02_gravity_refstate-intrusion.xmf,8,1.04599e-05,-2.35905e-05,0,3.47455e-06,-8.23756e+08,-8.26105e+08,-8.24477e+08,239650,-0.00528574,0.358578,-0,0.358617,-499.831,-30000,-0,30004.2,239650
step02_gravity_refstate-intrusion.xmf,9,1.16834e-06,3.37486e-06,0,2.16962e-05,-9.06234e+08,-9.06082e+08,-9.06315e+08,1.49645e+06,-0.00371734,0.345093,-0,0.345113,-2000,-33000.8,-0,33061.4,1.49645e+06
step02_gravity_refstate-intrusion.xmf,10,1.06799e-05,-2.40554e-05,0,-1.68571e-08,-8.23749e+08,-8.26145e+08,-8.24486e+08,-1162.68,5.16852e-07,0.360464,0,0.360464,-2.07592e-10,-30000,-0,30000,1162.68
step02_gravity_refstate-intrusion.xmf,11,2.13177e-07,6.14053e-06,0,2.19166e-05,-9.19965e+08,-9.19556e+08,-9.1998e+08,1.51166e+06,-0.00099981,0.342707,-0,0.342709,-2000,-33500.5,-0,33560.1,1.51166e+06
step02_gravity_refstate-intrusion.xmf,12,1.04637e-05,-2.35872e-05,0,-3.5079e-06,-8.23756e+08,-8.26104e+08,-8.24477e+08,-241951,0.00528659,0.358578,0,0.358617,499.831,-30000,0,30004.2,241951
step02_gravity_refstate-intrusion.xmf,13,-7.18267e-07,8.96984e-06,0,2.19697e-05,-9.33708e+08,-9.3304e+08,-9.33659e+08,1.51532e+06,0.0016988,0.338914,0,0.338918,-2000,-34000.8,-0,34059.6,1.51532e+06
step02_gravity_refstate-intrusion.xmf,14,9.84786e-06,-2.21274e-05,0,-6.99037e-06,-8.2377e+08,-8.25975e+08,-8.24449e+08,-482147,0.0103394,0.352921,0,0.353072,999.317,-30000,0,30016.6,482147
step02_gravity_refstate-intrusion.xmf,15,-1.61634e-06,1.18068e-05,0,2.18245e-05,-9.47447e+08,-9.46521e+08,-9.47336e+08,1.5053e+06,0.00437027,0.333715,0,0.333744,-2000,-34501.1,-0,34559,1.5053e+06
step02_gravity_refstate-intrusion.xmf,16,8.44589e-06,-1.93112e-05,0,-1.05451e-05,-8.23819e+08,-8.25734e+08,-8.24402e+08,-727327,0.0148927,0.343461,0,0.343784,1499.28,-30000,0,30037.4,727327
step02_gravity_refstate-intrusion.xmf,17,-2.48504e-06,1.46085e-05,0,2.14537e-05,-9.61168e+08,-9.59989e+08,-9.60996e+08,1.47973e+06,0.00700597,0.32712,0,0.327195,-2000,-35000.7,-0,35057.8,1.47973e+06
step02_gravity_refstate-intrusion.xmf,18,5.3487e-06,-1.29713e-05,0,-1.43698e-05,-8.23925e+08,-8.25189e+08,-8.24294e+08,-991132,0.0184752,0.330207,0,0.330724,2000,-30000,0,30066.6,991132
step02_gravity_refstate-intrusion.xmf,19,-3.29429e-06,1.74015e-05,0,2.08662e-05,-9.74867e+08,-9.7344e+08,-9.7464e+08,1.43921e+06,0.00959339,0.319135,0,0.319279,-2000,-35499.9,-0,35556.2,1.43921e+06
step02_gravity_refstate-intrusion.xmf,20,4.98826e-06,-1.04755e-05,0,-1.66179e-05,-8.37663e+08,-8.3873e+08,-8.38008e+08,-1.14619e+06,0.016744,0.33611,0,0.336527,2000,-30501.8,0,30567.3,1.14619e+06
step02_gravity_refstate-intrusion.xmf,21,4.41275e-06,-7.75571e-06,0,-1.82946e-05,-8.51363e+08,-8.52202e+08,-8.51667e+08,-1.26184e+06,0.0144345,0.340672,0,0.340977,2000,-31001.7,0,31066.2,1.26184e+06
step02_gravity_refstate-intrusion.xmf,22,-4.01995e-06,2.01874e-05,0,2.00448e-05,-9.88568e+08,-9.86898e+08,-9.88291e+08,1.38255e+06,0.0121117,0.309751,0,0.309987,-2000,-35999.3,-0,36054.8,1.38255e+06
step02_gravity_refstate-intrusion.xmf,23,3.69037e-06,-4.98249e-06,0,-1.95551e-05,-8.6509e+08,-8.65688e+08,-8.65345e+08,-1.34878e+06,0.0118622,0.343864,0,0.344069,2000,-31502.2,0,31565.6,1.34878e+06
step02_gravity_refstate-intrusion.xmf,24,2.89935e-06,-2.20632e-06,0,-2.05079e-05,-8.78814e+08,-8.79166e+08,-8.79014e+08,-1.4145e+06,0.0091738,0.345668,0,0.34579,2000,-32002.2,0,32064.7,1.4145e+06
step02_gravity_refstate-intrusion.xmf,25,-4.62459e-06,2.2951e-05,0,1.89613e-05,-1.00227e+09,-1.00037e+09,-1.00196e+09,1.30782e+06,0.0145118,0.298968,0,0.29932,-2000,-36499.4,-0,36554.2,1.30782e+06
step02_gravity_refstate-intrusion.xmf,26,2.05743e-06,5.65437e-07,0,-2.12073e-05,-8.92527e+08,-8.9263e+08,-8.92669e+08,-1.46273e+06,0.00644669,0.346078,0,0.346138,2000,-32501.7,0,32563.2,1.46273e+06
step02_gravity_refstate-intrusion.xmf,27,1.15826e-06,3.37385e-06,0,-2.16803e-05,-9.06236e+08,-9.06083e+08,-9.06315e+08,-1.49536e+06,0.00371642,0.345093,0,0.345113,2000,-33000.8,0,33061.4,1.49536e+06
step02_gravity_refstate-intrusion.xmf,28,-5.06942e-06,2.56807e-05,0,1.7563e-05,-1.01597e+09,-1.01385e+09,-1.01562e+09,1.21138e+06,0.0167028,0.286806,0,0.287292,-2000,-36999.8,-0,37053.8,1.21138e+06
step02_gravity_refstate-intrusion.xmf,29,-6.88325e-07,8.98669e-06,0,-2.19854e-05,-9.33705e+08,-9.33037e+08,-9.33657e+08,-1.5164e+06,-0.00169975,0.338913,-0,0.338917,2000,-34000.8,0,34059.6,1.5164e+06
step02_gravity_refstate-intrusion.xmf,30,1.76878e-07,6.17892e-06,0,-2.19376e-05,-9.19968e+08,-9.19554e+08,-9.1998e+08,-1.51311e+06,0.000999072,0.342706,0,0.342708,2000,-33500.5,0,33560.1,1.51311e+06
step02_gravity_refstate-intrusion.xmf,31,-1.60558e-06,1.18088e-05,0,-2.18219e-05,-9.47446e+08,-9.46521e+08,-9.47335e+08,-1.50513e+06,-0.00437031,0.333715,-0,0.333743,2000,-34501.1,0,34559,1.50513e+06
step02_gravity_refstate-intrusion.xmf,32,-5.3417e-06,2.83766e-05,0,1.57332e-05,-1.02964e+09,-1.02732e+09,-1.02927e+09,1.08517e+06,0.0185281,0.273313,0,0.273941,-2000,-37499.7,-0,37553,1.08517e+06
step02_gravity_refstate-intrusion.xmf,33,-2.48024e-06,1.46052e-05,0,-2.14542e-05,-9.61167e+08,-9.59989e+08,-9.60996e+08,-1.47977e+06,-0.00700457,0.327119,-0,0.327194,2000,-35000.7,0,35057.8,1.47977e+06
step02_gravity_refstate-intrusion.xmf,34,-3.30041e-06,1.73998e-05,0,-2.08581e-05,-9.74868e+08,-9.7344e+08,-9.7464e+08,-1.43865e+06,-0.00959318,0.319135,-0,0.319279,2000,-35499.9,0,35556.2,1.43865e+06
step02_gravity_refstate-intrusion.xmf,35,-6.22987e-06,3.22957e-05,0,1.26353e-05,-1.04335e+09,-1.04069e+09,-1.04292e+09,871495,0.0197183,0.258522,0,0.259273,-2000,-38000,-0,38052.6,871495
step02_gravity_refstate-intrusion.xmf,36,-4.02503e-06,2.01777e-05,0,-2.0036e-05,-9.88569e+08,-9.869e+08,-9.88291e+08,-1.38194e+06,-0.012113,0.30975,-0,0.309987,2000,-35999.3,0,36054.8,1.38194e+06
step02_gravity_refstate-intrusion.xmf,37,-8.98727e-06,3.78256e-05,0,9.70311e-06,-1.04344e+09,-1.04021e+09,-1.04282e+09,669254,0.0158821,0.27018,0,0.270646,-1499.83,-38000,-0,38029.6,669254
step02_gravity_refstate-intrusion.xmf,38,-1.04054e-05,4.0929e-05,0,6.44649e-06,-1.04348e+09,-1.03994e+09,-1.04277e+09,444635,0.011034,0.278504,0,0.278723,-1000,-38000,-0,38013.2,444635
step02_gravity_refstate-intrusion.xmf,39,-1.11605e-05,4.26422e-05,0,3.20722e-06,-1.0435e+09,-1.03979e+09,-1.04274e+09,221212,0.00564229,0.283476,0,0.283533,-500.172,-38000,-0,38003.3,221212
step02_gravity_refstate-intrusion.xmf,40,-1.14175e-05,4.31863e-05,0,-2.30222e-08,-1.04351e+09,-1.03975e+09,-1.04273e+09,-1587.91,7.59533e-07,0.28513,0,0.28513,0,-38000,0,38000,1587.91
step02_gravity_refstate-intrusion.xmf,41,-4.63065e-06,2.2939e-05,0,-1.89529e-05,-1.00228e+09,-1.00037e+09,-1.00196e+09,-1.30724e+06,-0.0145139,0.298968,-0,0.29932,2000,-36499.4,0,36554.2,1.30724e+06
step02_gravity_refstate-intrusion.xmf,42,-1.11757e-05,4.26479e-05,0,-3.26397e-06,-1.04351e+09,-1.03979e+09,-1.04274e+09,-225126,-0.00564141,0.283476,-0,0.283532,500.172,-38000,0,38003.3,225126
step02_gravity_refstate-intrusion.xmf,43,-5.07539e-06,2.56715e-05,0,-1.7561e-05,-1.01598e+09,-1.01385e+09,-1.01563e+09,-1.21124e+06,-0.0167048,0.286806,-0,0.287292,2000,-36999.8,0,37053.8,1.21124e+06
step02_gravity_refstate-intrusion.xmf,44,-1.04151e-05,4.09714e-05,0,-6.51261e-06,-1.04348e+09,-1.03994e+09,-1.04277e+09,-449195,-0.0110336,0.278505,-0,0.278723,1000,-38000,0,38013.2,449195
step02_gravity_refstate-intrusion.xmf,45,-5.35131e-06,2.83693e-05,0,-1.57386e-05,-1.02964e+09,-1.02732e+09,-1.02928e+09,-1.08554e+06,-0.0185292,0.273313,-0,0.27394,2000,-37499.7,0,37553,1.08554e+06
step02_gravity_refstate-intrusion.xmf,46,-9.08151e-06,3.78497e-05,0,-9.81159e-06,-1.04345e+09,-1.04021e+09,-1.04283e+09,-676736,-0.0158835,0.270177,-0,0.270644,1499.83,-38000,0,38029.6,676736
step02_gravity_refstate-intrusion.xmf,47,-6.25092e-06,3.2286e-05,0,-1.26784e-05,-1.04335e+09,-1.04069e+09,-1.04292e+09,-874466,-0.019718,0.258515,-0,0.259266,2000,-38000,0,38052.6,874466
step02_gravity_refstate-intrusion.xmf,48,7.107e-06,-1.48919e-05,0,1.24257e-05,-8.33806e+08,-8.35323e+08,-8.34296e+08,857039,-0.0150465,0.3462,-0,0.346527,-1636.38,-30363.9,-0,30408,857039
step02_gravity_refstate-intrusion.xmf,49,8.51027e-06,-1.72967e-05,0,9.29336e-06,-8.34774e+08,-8.36554e+08,-8.35361e+08,640992,-0.0119121,0.35631,-0,0.356509,-1249.3,-30401.5,-0,30427.2,640992
step02_gravity_refstate-intrusion.xmf,50,6.66727e-06,-1.25884e-05,0,1.28e-05,-8.43446e+08,-8.44774e+08,-8.43906e+08,882854,-0.0134044,0.352687,-0,0.352942,-1579.07,-30716,-0,30756.6,882854
step02_gravity_refstate-intrusion.xmf,51,4.33144e-06,-5.30033e-06,0,1.50958e-05,-8.72087e+08,-8.72751e+08,-8.72386e+08,1.0412e+06,-0.00888321,0.361929,-0,0.362038,-1577.41,-31758.9,-0,31798,1.0412e+06
step02_gravity_refstate-intrusion.xmf,52,5.94631e-06,-9.56293e-06,0,1.27999e-05,-8.56987e+08,-8.58057e+08,-8.57397e+08,882849,-0.0107158,0.361508,-0,0.361667,-1466.13,-31210,-0,31244.4,882849
step02_gravity_refstate-intrusion.xmf,53,3.15061e-06,-1.84207e-06,0,1.60678e-05,-8.86294e+08,-8.86638e+08,-8.86511e+08,1.10825e+06,-0.00655132,0.363147,-0,0.363206,-1593.77,-32275.9,-0,32315.2,1.10825e+06
step02_gravity_refstate-intrusion.xmf,54,9.52461e-06,-1.9194e-05,0,5.43165e-06,-8.3533e+08,-8.37311e+08,-8.35987e+08,374638,-0.00726594,0.365241,-0,0.365313,-739.405,-30423.2,-0,30432.2,374638
step02_gravity_refstate-intrusion.xmf,55,8.07959e-06,-1.47287e-05,0,8.30284e-06,-8.45713e+08,-8.47287e+08,-8.46271e+08,572672,-0.00921695,0.36674,-0,0.366856,-1050.12,-30801.3,-0,30819.2,572672
step02_gravity_refstate-intrusion.xmf,56,1.9526e-06,1.54748e-06,0,1.66019e-05,-9.00841e+08,-9.00869e+08,-9.00976e+08,1.14509e+06,-0.00408431,0.363285,-0,0.363308,-1591.41,-32805.2,-0,32843.8,1.14509e+06
step02_gravity_refstate-intrusion.xmf,57,4.42413e-06,-4.53683e-06,0,1.14099e-05,-8.79635e+08,-8.80254e+08,-8.79941e+08,786979,-0.00604903,0.37507,-0,0.375118,-1193.27,-32035,-0,32057.2,786979
step02_gravity_refstate-intrusion.xmf,58,5.65708e-06,-7.93487e-06,0,1.08073e-05,-8.66928e+08,-8.67866e+08,-8.67318e+08,745412,-0.00772776,0.372214,-0,0.372294,-1193.2,-31572.8,-0,31595.4,745412
step02_gravity_refstate-intrusion.xmf,59,9.96088e-06,-2.00232e-05,0,1.82517e-06,-8.35574e+08,-8.37642e+08,-8.36261e+08,125887,-0.00248896,0.369477,-0,0.369485,-249.916,-30432.7,-0,30433.7,125887
step02_gravity_refstate-intrusion.xmf,60,7.44183e-07,4.99907e-06,0,1.70062e-05,-9.15641e+08,-9.15348e+08,-9.15693e+08,1.17297e+06,-0.00160452,0.361391,-0,0.361395,-1594.48,-33343.7,-0,33381.8,1.17297e+06
step02_gravity_refstate-intrusion.xmf,61,2.9692e-06,-6.48893e-07,0,1.18875e-05,-8.94522e+08,-8.94772e+08,-8.94727e+08,819915,-0.00404237,0.37664,-0,0.376661,-1185.71,-32576.2,-0,32597.8,819915
step02_gravity_refstate-intrusion.xmf,62,7.19374e-06,-1.15655e-05,0,7.49214e-06,-8.5813e+08,-8.59424e+08,-8.58626e+08,516756,-0.00676316,0.375686,-0,0.375747,-886.275,-31253.8,-0,31266.4,516756
step02_gravity_refstate-intrusion.xmf,63,5.79559e-06,-7.53708e-06,0,7.20705e-06,-8.72264e+08,-8.73184e+08,-8.72664e+08,497093,-0.00485756,0.382087,-0,0.382118,-796.266,-31768.1,-0,31778.1,497093
step02_gravity_refstate-intrusion.xmf,64,8.73689e-06,-1.54635e-05,0,3.62269e-06,-8.48346e+08,-8.50015e+08,-8.48949e+08,249868,-0.00398543,0.376482,-0,0.376503,-451.938,-30898.7,-0,30902,249868
step02_gravity_refstate-intrusion.xmf,65,9.96565e-06,-2.00512e-05,0,-1.90591e-06,-8.35315e+08,-8.37385e+08,-8.36002e+08,-131456,0.00258546,0.369248,0,0.369257,259.15,-30423.3,0,30424.4,131456
step02_gravity_refstate-intrusion.xmf,66,1.39725e-06,3.4392e-06,0,1.20927e-05,-9.10613e+08,-9.10472e+08,-9.10709e+08,834074,-0.00190465,0.376247,-0,0.376252,-1169.52,-33161.1,-0,33181.8,834074
step02_gravity_refstate-intrusion.xmf,67,4.17955e-06,-3.32219e-06,0,7.53775e-06,-8.86988e+08,-8.87505e+08,-8.87276e+08,519902,-0.00346024,0.385121,-0,0.385136,-785.34,-32303.2,-0,32312.8,519902
step02_gravity_refstate-intrusion.xmf,68,9.25855e-06,-1.70316e-05,0,4.84895e-08,-8.44667e+08,-8.46481e+08,-8.45306e+08,3344.47,1.03295e-06,0.376156,0,0.376156,0.0331425,-30764.8,0,30764.8,3344.47
step02_gravity_refstate-intrusion.xmf,69,-4.65486e-07,8.18549e-06,0,1.75272e-05,-9.29858e+08,-9.29261e+08,-9.29826e+08,1.20891e+06,0.00077444,0.356454,0,0.356455,-1633.15,-33860.6,-0,33900,1.20891e+06
step02_gravity_refstate-intrusion.xmf,70,-1.24613e-07,7.40645e-06,0,1.23088e-05,-9.26367e+08,-9.25847e+08,-9.26358e+08,848976,0.000114385,0.373045,0,0.373045,-1172.79,-33733.8,-0,33754.2,848976
step02_gravity_refstate-intrusion.xmf,71,2.44643e-06,1.04088e-06,0,7.82753e-06,-9.02782e+08,-9.02879e+08,-9.0295e+08,539889,-0.00202062,0.385807,-0,0.385812,-780.936,-32877,-0,32886.3,539889
step02_gravity_refstate-intrusion.xmf,72,7.11985e-06,-1.06927e-05,0,3.22115e-06,-8.64185e+08,-8.65414e+08,-8.64676e+08,222173,-0.00269042,0.384584,-0,0.384594,-375.79,-31475.1,-0,31477.3,222173
step02_gravity_refstate-intrusion.xmf,73,5.38103e-06,-6.05144e-06,0,3.08056e-06,-8.7939e+08,-8.80178e+08,-8.79761e+08,212476,-0.00181021,0.389429,-0,0.389434,-334.969,-32027.8,-0,32029.5,212476
step02_gravity_refstate-intrusion.xmf,74,8.08759e-06,-1.31278e-05,0,-4.53285e-07,-8.56572e+08,-8.58036e+08,-8.5713e+08,-31264.5,0.000511778,0.382669,0,0.38267,63.5697,-31198.6,0,31198.6,31264.5
step02_gravity_refstate-intrusion.xmf,75,8.77682e-06,-1.56135e-05,0,-3.61966e-06,-8.47748e+08,-8.49431e+08,-8.48354e+08,-249659,0.00417963,0.37598,0,0.376003,470.944,-30876.9,0,30880.5,249659
step02_gravity_refstate-intrusion.xmf,76,9.50825e-06,-1.90496e-05,0,-5.52986e-06,-8.35584e+08,-8.37554e+08,-8.3624e+08,-381411,0.00734938,0.365292,0,0.365366,749.574,-30432.6,0,30441.8,381411
step02_gravity_refstate-intrusion.xmf,77,-1.34696e-06,1.07107e-05,0,1.84602e-05,-9.41175e+08,-9.40343e+08,-9.41082e+08,1.27326e+06,0.00279047,0.349141,0,0.349152,-1716.75,-34272.4,-0,34315.4,1.27326e+06
step02_gravity_refstate-intrusion.xmf,78,7.03946e-07,5.35045e-06,0,8.12833e-06,-9.18819e+08,-9.18499e+08,-9.18868e+08,560636,-0.000604096,0.383717,-0,0.383718,-791.856,-33459.6,-0,33469,560636
step02_gravity_refstate-intrusion.xmf,79,3.53447e-06,-1.43553e-06,0,3.21024e-06,-8.95084e+08,-8.95426e+08,-8.95327e+08,221420,-0.00117411,0.39153,-0,0.391532,-330.488,-32597.8,-0,32599.5,221420
step02_gravity_refstate-intrusion.xmf,80,-2.34737e-06,1.35552e-05,0,1.7386e-05,-9.53277e+08,-9.5218e+08,-9.53115e+08,1.19916e+06,0.00471883,0.346761,0,0.346793,-1644.02,-34712.7,-0,34751.6,1.19916e+06
step02_gravity_refstate-intrusion.xmf,81,-1.62878e-06,1.13405e-05,0,1.37963e-05,-9.42757e+08,-9.41862e+08,-9.42645e+08,951575,0.00243587,0.363193,0,0.363201,-1315.32,-34329.7,-0,34354.9,951575
step02_gravity_refstate-intrusion.xmf,82,-9.99636e-07,9.59406e-06,0,8.31469e-06,-9.34902e+08,-9.34171e+08,-9.34833e+08,573490,0.000838092,0.379083,0,0.379084,-805.646,-34044,-0,34053.5,573490
step02_gravity_refstate-intrusion.xmf,83,1.67618e-06,3.08045e-06,0,3.42674e-06,-9.11025e+08,-9.10928e+08,-9.1114e+08,236353,-0.000575321,0.390933,-0,0.390933,-340.732,-33176.7,-0,33178.5,236353
step02_gravity_refstate-intrusion.xmf,84,6.36853e-06,-8.54291e-06,0,-1.18387e-06,-8.71626e+08,-8.72655e+08,-8.72066e+08,-81655.1,0.000850963,0.388416,0,0.388417,134.399,-31745.8,0,31746.1,81655.1
step02_gravity_refstate-intrusion.xmf,85,4.50152e-06,-3.77615e-06,0,-1.38551e-06,-8.87309e+08,-8.8788e+08,-8.8762e+08,-95563.1,0.000658633,0.391807,0,0.391807,146.848,-32315.6,0,32315.9,95563.1
step02_gravity_refstate-intrusion.xmf,86,8.46764e-06,-1.70359e-05,0,-9.37445e-06,-8.35429e+08,-8.37188e+08,-8.36013e+08,-646585,0.0119234,0.356536,0,0.356735,1257.89,-30425.5,0,30451.5,646585
step02_gravity_refstate-intrusion.xmf,87,7.055e-06,-1.05561e-05,0,-5.10142e-06,-8.62956e+08,-8.6417e+08,-8.63442e+08,-351861,0.00436153,0.38185,0,0.381875,603.769,-31430.2,0,31436,351861
step02_gravity_refstate-intrusion.xmf,88,7.52518e-06,-1.3164e-05,0,-8.70942e-06,-8.51007e+08,-8.52434e+08,-8.51526e+08,-600716,0.00884723,0.368962,0,0.369068,1072.35,-30993.8,0,31012.4,600716
step02_gravity_refstate-intrusion.xmf,89,-1.5084e-07,7.4904e-06,0,3.53039e-06,-9.26973e+08,-9.26446e+08,-9.26963e+08,243502,5.1145e-05,0.387812,0,0.387812,-346.141,-33755.9,-0,33757.7,243502
step02_gravity_refstate-intrusion.xmf,90,2.61026e-06,8.53236e-07,0,-1.38462e-06,-9.03263e+08,-9.03384e+08,-9.03443e+08,-95501.4,0.000365432,0.392621,0,0.392621,140.333,-32894.9,0,32895.2,95501.4
step02_gravity_refstate-intrusion.xmf,91,7.30594e-06,-1.54444e-05,0,-1.22913e-05,-8.33804e+08,-8.35373e+08,-8.34308e+08,-847766,0.0150469,0.346199,0,0.346526,1636.38,-30363.9,0,30408,847766
step02_gravity_refstate-intrusion.xmf,92,-3.47939e-06,1.68567e-05,0,1.65439e-05,-9.67705e+08,-9.66302e+08,-9.67465e+08,1.14108e+06,0.00699568,0.340084,0,0.340156,-1610.46,-35237.8,-0,35274.5,1.14108e+06
step02_gravity_refstate-intrusion.xmf,93,-3.26344e-06,1.56419e-05,0,1.25076e-05,-9.59502e+08,-9.58198e+08,-9.59277e+08,862685,0.00447846,0.357685,0,0.357713,-1226,-34938.4,-0,34959.9,862685
step02_gravity_refstate-intrusion.xmf,94,-2.71941e-06,1.38757e-05,0,8.19418e-06,-9.51231e+08,-9.50087e+08,-9.51044e+08,565178,0.00230321,0.372081,0,0.372088,-807.698,-34637.2,-0,34646.6,565178
step02_gravity_refstate-intrusion.xmf,95,-1.96186e-06,1.1857e-05,0,3.51716e-06,-9.42991e+08,-9.42038e+08,-9.42855e+08,242589,0.00068528,0.382169,0,0.38217,-347.769,-34337.6,-0,34339.4,242589
step02_gravity_refstate-intrusion.xmf,96,7.63582e-07,5.29872e-06,0,-1.41869e-06,-9.19087e+08,-9.18774e+08,-9.19139e+08,-97851.5,0.000106953,0.390827,0,0.390827,140.35,-33469.5,0,33469.8,97851.5
step02_gravity_refstate-intrusion.xmf,97,5.18899e-06,-5.76296e-06,0,-5.79195e-06,-8.79305e+08,-8.8006e+08,-8.79663e+08,-399489,0.00334231,0.386385,0,0.386399,625.173,-32024.3,0,32030.4,399489
step02_gravity_refstate-intrusion.xmf,98,3.34886e-06,-1.10336e-06,0,-6.02623e-06,-8.955e+08,-8.95807e+08,-8.95731e+08,-415648,0.00213127,0.388471,0,0.388477,615.946,-32612.7,0,32618.5,415648
step02_gravity_refstate-intrusion.xmf,99,6.44489e-06,-1.2115e-05,0,-1.29911e-05,-8.44736e+08,-8.46016e+08,-8.4518e+08,-896037,0.0132973,0.35292,0,0.35317,1590.46,-30762.8,0,30803.8,896037
step02_gravity_refstate-intrusion.xmf,100,5.35035e-06,-6.8564e-06,0,-1.06882e-05,-8.70864e+08,-8.71706e+08,-8.71233e+08,-737201,0.00707157,0.373952,0,0.374019,1166.49,-31716.3,0,31737.7,737201
step02_gravity_refstate-intrusion.xmf,101,-4.71e-06,1.95669e-05,0,1.1657e-05,-9.74968e+08,-9.73293e+08,-9.74643e+08,804022,0.00633742,0.348688,0,0.348745,-1194.16,-35500.9,-0,35520.9,804022
step02_gravity_refstate-intrusion.xmf,102,-1.04968e-06,9.66223e-06,0,-1.43068e-06,-9.34843e+08,-9.34104e+08,-9.34771e+08,-98678.7,-0.000147749,0.386541,-0,0.386541,140.96,-34041.7,0,34042,98678.7
step02_gravity_refstate-intrusion.xmf,103,1.5577e-06,3.30165e-06,0,-6.2899e-06,-9.11435e+08,-9.11314e+08,-9.11542e+08,-433834,0.00100641,0.38772,0,0.387721,621.803,-33191.5,0,33197.3,433834
step02_gravity_refstate-intrusion.xmf,104,5.3744e-06,-8.54014e-06,0,-1.40814e-05,-8.59184e+08,-8.60144e+08,-8.59555e+08,-971238,0.0109717,0.358937,0,0.359104,1571.04,-31289.1,0,31328.5,971238
step02_gravity_refstate-intrusion.xmf,105,-4.58894e-06,2.02657e-05,0,1.56998e-05,-9.82163e+08,-9.80449e+08,-9.81847e+08,1.08286e+06,0.0092607,0.330805,0,0.330934,-1597.1,-35764.1,-0,35799.8,1.08286e+06
step02_gravity_refstate-intrusion.xmf,106,-4.43136e-06,1.82955e-05,0,7.61141e-06,-9.6721e+08,-9.65643e+08,-9.66905e+08,524983,0.00359366,0.363324,0,0.363342,-777.101,-35218,-0,35226.5,524983
step02_gravity_refstate-intrusion.xmf,107,-3.78342e-06,1.63163e-05,0,3.29855e-06,-9.59144e+08,-9.57757e+08,-9.58883e+08,227511,0.00127761,0.373995,0,0.373998,-336.284,-34924.3,-0,34925.9,227511
step02_gravity_refstate-intrusion.xmf,108,-2.88745e-06,1.40527e-05,0,-1.54743e-06,-9.50831e+08,-9.49662e+08,-9.50632e+08,-106731,-0.000436037,0.379623,-0,0.379624,152.043,-34622.2,0,34622.6,106731
step02_gravity_refstate-intrusion.xmf,109,-1.61047e-07,7.50093e-06,0,-6.44549e-06,-9.2697e+08,-9.26441e+08,-9.26959e+08,-444566,-9.47292e-05,0.384557,-0,0.384557,628.782,-33755.8,0,33761.6,444566
step02_gravity_refstate-intrusion.xmf,110,3.82469e-06,-2.67679e-06,0,-1.03487e-05,-8.87375e+08,-8.87823e+08,-8.87638e+08,-713780,0.00454079,0.379318,0,0.379345,1065.39,-32316.8,0,32334.3,713780
step02_gravity_refstate-intrusion.xmf,111,2.10815e-06,1.68972e-06,0,-1.10263e-05,-9.0404e+08,-9.04069e+08,-9.04186e+08,-760520,0.00257799,0.379144,0,0.379153,1083.9,-32922.4,0,32940.2,760520
step02_gravity_refstate-intrusion.xmf,112,4.1687e-06,-5.03585e-06,0,-1.60378e-05,-8.71699e+08,-8.72334e+08,-8.71986e+08,-1.10618e+06,0.00930336,0.35887,0,0.35899,1660.73,-31744.5,0,31787.9,1.10618e+06
step02_gravity_refstate-intrusion.xmf,113,-6.12409e-06,2.36364e-05,0,1.08018e-05,-9.90218e+08,-9.88166e+08,-9.89796e+08,745035,0.00815551,0.337062,0,0.33716,-1180.24,-36055.8,-0,36075.1,745035
step02_gravity_refstate-intrusion.xmf,114,-6.06276e-06,2.25824e-05,0,7.1064e-06,-9.82895e+08,-9.8092e+08,-9.82477e+08,490151,0.00489872,0.351785,0,0.351819,-771.907,-35788.1,-0,35796.4,490151
step02_gravity_refstate-intrusion.xmf,115,-1.83841e-06,1.16248e-05,0,-6.46353e-06,-9.42345e+08,-9.41416e+08,-9.42218e+08,-445810,-0.00119264,0.379145,-0,0.379147,633.732,-34314.3,0,34320.1,445810
step02_gravity_refstate-intrusion.xmf,116,5.51027e-07,5.64513e-06,0,-1.1431e-05,-9.19499e+08,-9.19147e+08,-9.19537e+08,-788434,0.00072607,0.376651,0,0.376652,1100.13,-33484.2,0,33502.2,788434
step02_gravity_refstate-intrusion.xmf,117,3.35505e-06,-2.28561e-06,0,-1.56519e-05,-8.84549e+08,-8.84938e+08,-8.84781e+08,-1.07956e+06,0.00675248,0.364026,0,0.364088,1566.11,-32212.6,0,32250.7,1.07956e+06
step02_gravity_refstate-intrusion.xmf,118,-5.64835e-06,2.37794e-05,0,1.46485e-05,-9.967e+08,-9.9467e+08,-9.96311e+08,1.01035e+06,0.0114681,0.319448,0,0.319654,-1588.31,-36293.7,-0,36328.4,1.01035e+06
step02_gravity_refstate-intrusion.xmf,119,-5.5923e-06,2.10274e-05,0,3.00506e-06,-9.75173e+08,-9.73337e+08,-9.74787e+08,207269,0.00179104,0.363282,0,0.363287,-319.338,-35506.8,-0,35508.3,207269
step02_gravity_refstate-intrusion.xmf,120,-4.72611e-06,1.86033e-05,0,-1.58325e-06,-9.67e+08,-9.65391e+08,-9.66674e+08,-109202,-0.000753259,0.370005,-0,0.370005,160.219,-35209.6,0,35209.9,109202
step02_gravity_refstate-intrusion.xmf,121,-3.61366e-06,1.59614e-05,0,-6.62021e-06,-9.58552e+08,-9.57202e+08,-9.58303e+08,-456616,-0.00243567,0.370632,-0,0.37064,660.18,-34902.9,0,34909.2,456616
step02_gravity_refstate-intrusion.xmf,122,-9.1865e-07,9.39191e-06,0,-1.15551e-05,-9.34347e+08,-9.33636e+08,-9.34284e+08,-796991,-0.00107009,0.372389,-0,0.37239,1107.8,-34023.8,0,34041.8,796991
step02_gravity_refstate-intrusion.xmf,123,1.00023e-06,4.23411e-06,0,-1.64089e-05,-9.12489e+08,-9.12266e+08,-9.12558e+08,-1.13177e+06,0.00208957,0.363545,0,0.363551,1551.74,-33228.9,0,33265.2,1.13177e+06
step02_gravity_refstate-intrusion.xmf,124,2.25256e-06,8.24622e-07,0,-1.59492e-05,-8.97869e+08,-8.97967e+08,-8.98024e+08,-1.10006e+06,0.00448056,0.365159,0,0.365187,1544.52,-32697.2,0,32733.7,1.10006e+06
step02_gravity_refstate-intrusion.xmf,125,-7.54706e-06,2.80727e-05,0,9.75774e-06,-1.00595e+09,-1.0035e+09,-1.00543e+09,673022,0.00992371,0.322519,0,0.322672,-1169.03,-36628.7,-0,36647.4,673022
step02_gravity_refstate-intrusion.xmf,126,-7.68526e-06,2.72188e-05,0,6.44513e-06,-9.9859e+08,-9.96182e+08,-9.9806e+08,444541,0.00610495,0.337744,0,0.337799,-760.955,-36359,-0,36367,444541
step02_gravity_refstate-intrusion.xmf,127,-7.34775e-06,2.56207e-05,0,2.67615e-06,-9.90977e+08,-9.88703e+08,-9.9047e+08,184582,0.00229222,0.349978,0,0.349986,-311.318,-36081.2,-0,36082.6,184582
step02_gravity_refstate-intrusion.xmf,128,-2.30297e-06,1.29675e-05,0,-1.1404e-05,-9.48484e+08,-9.47431e+08,-9.48326e+08,-786569,-0.00276542,0.3667,-0,0.366711,1105.9,-34537.7,0,34555.4,786569
step02_gravity_refstate-intrusion.xmf,129,-2.22658e-07,7.55884e-06,0,-1.66313e-05,-9.26901e+08,-9.26364e+08,-9.26886e+08,-1.14711e+06,-0.000260046,0.360232,-0,0.360232,1557.61,-33753.1,0,33789,1.14711e+06
step02_gravity_refstate-intrusion.xmf,130,-6.65594e-06,2.74442e-05,0,1.33487e-05,-1.01118e+09,-1.00883e+09,-1.01072e+09,920704,0.0135171,0.306174,0,0.306473,-1580.91,-36821.4,-0,36855.4,920704
step02_gravity_refstate-intrusion.xmf,131,-6.53744e-06,2.34866e-05,0,-1.54898e-06,-9.83165e+08,-9.81094e+08,-9.82714e+08,-106838,-0.00111464,0.357643,-0,0.357645,171.004,-35797.2,0,35797.6,106838
step02_gravity_refstate-intrusion.xmf,132,-5.36848e-06,2.0492e-05,0,-6.21796e-06,-9.74889e+08,-9.73105e+08,-9.74518e+08,-428872,-0.00357701,0.359967,-0,0.359985,649.553,-35496.7,0,35502.6,428872
step02_gravity_refstate-intrusion.xmf,133,-4.01824e-06,1.76676e-05,0,-1.1879e-05,-9.66988e+08,-9.65492e+08,-9.66711e+08,-819329,-0.00530112,0.354247,-0,0.354287,1187.8,-35210.6,0,35230.7,819329
step02_gravity_refstate-intrusion.xmf,134,-1.40776e-06,1.08129e-05,0,-1.65783e-05,-9.41052e+08,-9.40209e+08,-9.40955e+08,-1.14346e+06,-0.00255017,0.355498,-0,0.355507,1557.81,-34267.8,0,34303.2,1.14346e+06
step02_gravity_refstate-intrusion.xmf,135,-8.83132e-06,3.26644e-05,0,8.73741e-06,-1.02101e+09,-1.01815e+09,-1.0204e+09,602646,0.0114406,0.305931,0,0.306145,-1166.06,-37177.8,-0,37196,602646
step02_gravity_refstate-intrusion.xmf,136,-9.13397e-06,3.21039e-05,0,6.0994e-06,-1.01469e+09,-1.01184e+09,-1.01406e+09,420695,0.00761868,0.319811,0,0.319902,-796.94,-36945.7,-0,36954.3,420695
step02_gravity_refstate-intrusion.xmf,137,-8.99606e-06,3.05608e-05,0,2.61148e-06,-1.00665e+09,-1.00393e+09,-1.00603e+09,180122,0.00300675,0.333818,0,0.333832,-334.168,-36651.8,-0,36653.3,180122
step02_gravity_refstate-intrusion.xmf,138,-8.3021e-06,2.82835e-05,0,-1.41896e-06,-9.99175e+08,-9.96651e+08,-9.98602e+08,-97869.9,-0.00134283,0.342651,-0,0.342653,162.597,-36379.3,0,36379.7,97869.9
step02_gravity_refstate-intrusion.xmf,139,-2.58568e-06,1.41018e-05,0,-1.65224e-05,-9.55417e+08,-9.54266e+08,-9.55239e+08,-1.1396e+06,-0.0048991,0.348321,-0,0.348356,1575.57,-34790.4,0,34826,1.1396e+06
step02_gravity_refstate-intrusion.xmf,140,-7.40859e-06,3.06666e-05,0,1.22684e-05,-1.02375e+09,-1.02112e+09,-1.02324e+09,846191,0.0152525,0.292256,0,0.292654,-1601.55,-37280.1,-0,37314.5,846191
step02_gravity_refstate-intrusion.xmf,141,-7.08879e-06,2.54079e-05,0,-5.69525e-06,-9.91234e+08,-9.88992e+08,-9.90745e+08,-392819,-0.00470271,0.346439,-0,0.346471,644.486,-36091.3,0,36097,392819
step02_gravity_refstate-intrusion.xmf,142,-5.6985e-06,2.20017e-05,0,-1.03088e-05,-9.83235e+08,-9.81324e+08,-9.82842e+08,-711027,-0.00678512,0.345123,-0,0.345189,1088.21,-35801.1,0,35817.6,711027
step02_gravity_refstate-intrusion.xmf,143,-3.43173e-06,1.67855e-05,0,-1.71606e-05,-9.67756e+08,-9.66362e+08,-9.67519e+08,-1.18362e+06,-0.00718277,0.338071,-0,0.338147,1662.31,-35239.7,0,35278.9,1.18362e+06
step02_gravity_refstate-intrusion.xmf,144,-9.36272e-06,3.57852e-05,0,8.82508e-06,-1.03251e+09,-1.02939e+09,-1.03186e+09,608694,0.0132885,0.289507,0,0.289812,-1270.26,-37598,-0,37619.4,608694
step02_gravity_refstate-intrusion.xmf,145,-1.04436e-05,3.71799e-05,0,5.30399e-06,-1.02944e+09,-1.02615e+09,-1.02872e+09,365833,0.00812049,0.301671,0,0.30178,-760.495,-37483.8,-0,37491.5,365833
step02_gravity_refstate-intrusion.xmf,146,-1.0051e-05,3.47478e-05,0,2.96214e-06,-1.01963e+09,-1.01654e+09,-1.01894e+09,204308,0.00402793,0.317962,0,0.317988,-397.07,-37125.3,-0,37127.4,204308
step02_gravity_refstate-intrusion.xmf,147,-9.98531e-06,3.3951e-05,0,-8.09064e-07,-1.01641e+09,-1.01338e+09,-1.01572e+09,-55803.7,-0.00107753,0.323257,-0,0.323259,108.371,-37007.5,0,37007.7,55803.7
step02_gravity_refstate-intrusion.xmf,148,-8.78368e-06,3.0307e-05,0,-5.07019e-06,-1.00742e+09,-1.00472e+09,-1.00681e+09,-349707,-0.00558233,0.330378,-0,0.330425,622.003,-36680.1,0,36685.4,349707
step02_gravity_refstate-intrusion.xmf,149,-4.52792e-06,2.00335e-05,0,-1.55061e-05,-9.80568e+08,-9.78874e+08,-9.80256e+08,-1.0695e+06,-0.00890034,0.332837,-0,0.332956,1572.88,-35706,0,35740.6,1.0695e+06
step02_gravity_refstate-intrusion.xmf,150,-7.94236e-06,3.32932e-05,0,1.17182e-05,-1.0335e+09,-1.03066e+09,-1.03295e+09,808238,0.0164846,0.279954,0,0.280439,-1636.51,-37636.5,-0,37672,808238
step02_gravity_refstate-intrusion.xmf,151,-1.09677e-05,3.87951e-05,0,1.41145e-06,-1.03092e+09,-1.02749e+09,-1.03016e+09,97352.2,0.00221327,0.303755,0,0.303763,-202.117,-37537.8,-0,37538.3,97352.2
step02_gravity_refstate-intrusion.xmf,152,-7.22829e-06,2.69224e-05,0,-9.43399e-06,-1.00031e+09,-9.97951e+08,-9.99808e+08,-650692,-0.00875025,0.329832,-0,0.329948,1094.47,-36422.9,0,36439.3,650692
step02_gravity_refstate-intrusion.xmf,153,-5.5982e-06,2.32102e-05,0,-1.45888e-05,-9.93836e+08,-9.91849e+08,-9.9345e+08,-1.00623e+06,-0.0108631,0.322941,-0,0.323124,1557.44,-36188.9,0,36222.4,1.00623e+06
step02_gravity_refstate-intrusion.xmf,154,-9.94337e-06,3.456e-05,0,-4.38475e-06,-1.02029e+09,-1.01722e+09,-1.0196e+09,-302430,-0.00603986,0.315448,-0,0.315506,596.058,-37149.6,0,37154.3,302430
step02_gravity_refstate-intrusion.xmf,155,-8.80515e-06,3.2019e-05,0,-8.27247e-06,-1.01752e+09,-1.0147e+09,-1.01691e+09,-570578,-0.0103505,0.311794,-0,0.311966,1077.62,-37049.8,0,37065.5,570578
step02_gravity_refstate-intrusion.xmf,156,-1.09096e-05,3.86858e-05,0,-2.0457e-06,-1.03089e+09,-1.02747e+09,-1.03014e+09,-141098,-0.00328499,0.303412,-0,0.30343,300.542,-37536.9,0,37538.2,141098
step02_gravity_refstate-intrusion.xmf,157,-6.53471e-06,2.69771e-05,0,-1.34489e-05,-1.00867e+09,-1.00636e+09,-1.00822e+09,-927609,-0.0130849,0.309063,-0,0.309339,1567.71,-36730.1,0,36763.5,927609
step02_gravity_refstate-intrusion.xmf,158,-1.04574e-05,3.7666e-05,0,-5.46404e-06,-1.03126e+09,-1.02794e+09,-1.03054e+09,-376872,-0.00853329,0.298785,-0,0.298907,792.955,-37550.7,0,37559.1,376872
step02_gravity_refstate-intrusion.xmf,159,-7.3505e-06,3.05649e-05,0,-1.23418e-05,-1.02275e+09,-1.02013e+09,-1.02224e+09,-851252,-0.0150978,0.293514,-0,0.293902,1596.19,-37243.8,0,37278,851252
step02_gravity_refstate-intrusion.xmf,160,-9.26415e-06,3.56519e-05,0,-8.80988e-06,-1.03201e+09,-1.02891e+09,-1.03137e+09,-607645,-0.0132277,0.290206,-0,0.290507,1267.19,-37580.1,0,37601.5,607645
step02_gravity_refstate-intrusion.xmf,161,-7.93017e-06,3.32859e-05,0,-1.17112e-05,-1.0335e+09,-1.03066e+09,-1.03295e+09,-807755,-0.0164848,0.279954,-0,0.280439,1636.52,-37636.5,0,37672.1,807755
step02_gravity_refstate-crust.xmf,0,7.32823e-07,4.44098e-06,0,7.84226e-08,-1.09845e+09,-1.0982e+09,-1.0985e+09,5379.79,0.00172088,0.0508259,0,0.050855,-37663.8,-40000,-0,54941.4,5379.79
step02_gravity_refstate-crust.xmf,1,7.3994e-07,4.42325e-06,0,9.37604e-10,-1.09845e+09,-1.0982e+09,-1.0985e+09,64.3196,1.77387e-19,0.0505524,0,0.0505524,-40000,-40000,-0,56568.5,64.3196
step02_gravity_refstate-crust.xmf,2,7.15908e-07,4.48532e-06,0,1.55855e-07,-1.09845e+09,-1.09819e+09,-1.0985e+09,10691.7,0.00333165,0.0516023,0,0.0517097,-35440.8,-40000,-0,53442,10691.7
step02_gravity_refstate-crust.xmf,3,6.89317e-07,4.55344e-06,0,2.37239e-07,-1.09845e+09,-1.09818e+09,-1.0985e+09,16274.6,0.0048184,0.0528282,0,0.0530475,-33325.6,-40000,-0,52063.3,16274.6
step02_gravity_refstate-crust.xmf,4,6.56644e-07,4.64125e-06,0,3.25167e-07,-1.09845e+09,-1.09818e+09,-1.09849e+09,22306.4,0.00617359,0.0544657,0,0.0548145,-31312.8,-40000,-0,50798.5,22306.4
step02_gravity_refstate-crust.xmf,5,6.19507e-07,4.74591e-06,0,4.2154e-07,-1.09845e+09,-1.09817e+09,-1.09849e+09,28917.6,0.00739689,0.0564867,0,0.0569689,-29397.5,-40000,-0,49640.9,28917.6
step02_gravity_refstate-crust.xmf,6,5.80808e-07,4.8644e-06,0,5.30259e-07,-1.09845e+09,-1.09815e+09,-1.09849e+09,36375.8,0.00849151,0.0588705,0,0.0594798,-27575,-40000,-0,48583.7,36375.8
step02_gravity_refstate-crust.xmf,7,5.41553e-07,4.99484e-06,0,6.52516e-07,-1.09845e+09,-1.09814e+09,-1.09848e+09,44762.6,0.00946624,0.0616026,0,0.0623257,-25840.6,-40000,-0,47620.8,44762.6
step02_gravity_refstate-crust.xmf,8,5.04973e-07,5.13472e-06,0,7.91937e-07,-1.09845e+09,-1.09813e+09,-1.09848e+09,54326.9,0.0103306,0.064671,0,0.0654909,-24190.1,-40000,-0,46745.7,54326.9
step02_gravity_refstate-crust.xmf,9,4.70845e-07,5.28452e-06,0,9.49364e-07,-1.09844e+09,-1.09811e+09,-1.09848e+09,65126.4,0.0110987,0.0680676,0,0.0689665,-22619.3,-40000,-0,45952.5,65126.4
step02_gravity_refstate-crust.xmf,10,4.42789e-07,5.44268e-06,0,1.12966e-06,-1.09844e+09,-1.0981e+09,-1.09847e+09,77494.6,0.0117824,0.0717853,0,0.0727459,-21124.3,-40000,-0,45235.3,77494.6
step02_gravity_refstate-crust.xmf,11,4.1951e-07,5.61124e-06,0,1.33443e-06,-1.09843e+09,-1.09808e+09,-1.09846e+09,91541.7,0.012397,0.0758188,0,0.0768257,-19701.4,-40000,-0,44588.6,91541.7
step02_gravity_refstate-crust.xmf,12,4.03041e-07,5.79152e-06,0,1.56735e-06,-1.09843e+09,-1.09806e+09,-1.09846e+09,107521,0.0129552,0.0801634,0,0.0812035,-18347,-40000,-0,44007,107521
step02_gravity_refstate-crust.xmf,13,3.91713e-07,6.43866e-06,0,2.47215e-06,-1.0984e+09,-1.09799e+09,-1.09843e+09,169589,0.0144089,0.095023,0,0.0961092,-14661.8,-40000,-0,42602.4,169589
step02_gravity_refstate-crust.xmf,14,3.91963e-07,6.18477e-06,0,2.12071e-06,-1.09841e+09,-1.09802e+09,-1.09844e+09,145481,0.0139519,0.0897694,0,0.0908471,-15830.4,-40000,-0,43018.6,145481
step02_gravity_refstate-crust.xmf,15,3.94099e-07,5.98601e-06,0,1.83272e-06,-1.09842e+09,-1.09804e+09,-1.09845e+09,125724,0.0134695,0.0848147,0,0.0858776,-17057.8,-40000,-0,43485.3,125724
step02_gravity_refstate-crust.xmf,16,3.95553e-07,6.7086e-06,0,2.85668e-06,-1.09839e+09,-1.09796e+09,-1.09842e+09,195969,0.0148489,0.100571,0,0.101662,-13548.9,-40000,-0,42232.4,195969
step02_gravity_refstate-crust.xmf,17,4.02604e-07,7.01965e-06,0,3.29027e-06,-1.09838e+09,-1.09792e+09,-1.0984e+09,225712,0.0152733,0.106409,0,0.1075,-12489.1,-40000,-0,41904.4,225712
step02_gravity_refstate-crust.xmf,18,4.05618e-07,7.38382e-06,0,3.7756e-06,-1.09836e+09,-1.09788e+09,-1.09839e+09,259006,0.015683,0.112531,0,0.113618,-11479.4,-40000,-0,41614.6,259006
step02_gravity_refstate-crust.xmf,19,-2.14763e-08,1.16649e-05,0,7.82626e-06,-1.09823e+09,-1.09742e+09,-1.09822e+09,536881,0.0172157,0.154414,0,0.155371,-6341.87,-40000,-0,40499.6,536881
step02_gravity_refstate-crust.xmf,20,1.50096e-07,1.05737e-05,0,7.00723e-06,-1.09825e+09,-1.09754e+09,-1.09826e+09,480696,0.0171691,0.146934,0,0.147934,-7100.11,-40000,-0,40625.3,480696
step02_gravity_refstate-crust.xmf,21,2.68491e-07,9.6709e-06,0,6.25512e-06,-1.09828e+09,-1.09763e+09,-1.0983e+09,429101,0.017003,0.139613,0,0.140645,-7894.42,-40000,-0,40771.6,429101
step02_gravity_refstate-crust.xmf,22,3.43633e-07,8.92432e-06,0,5.54941e-06,-1.0983e+09,-1.09771e+09,-1.09833e+09,380690,0.0167489,0.132488,0,0.133542,-8727.16,-40000,-0,40941,380690
step02_gravity_refstate-crust.xmf,23,3.83967e-07,8.30581e-06,0,4.89397e-06,-1.09832e+09,-1.09778e+09,-1.09835e+09,335726,0.0164325,0.125585,0,0.126656,-9600.66,-40000,-0,41136,335726
step02_gravity_refstate-crust.xmf,24,4.02857e-07,7.81363e-06,0,4.31825e-06,-1.09834e+09,-1.09783e+09,-1.09837e+09,296232,0.0160719,0.118927,0,0.120008,-10517.3,-40000,-0,41359.6,296232
step02_gravity_refstate-crust.xmf,25,-2.74769e-07,1.29806e-05,0,8.60179e-06,-1.0982e+09,-1.09729e+09,-1.09818e+09,590083,0.0171052,0.162005,0,0.162905,-5617.28,-40000,-0,40392.5,590083
step02_gravity_refstate-crust.xmf,26,-1.09255e-06,1.6404e-05,0,1.00336e-05,-1.09814e+09,-1.09694e+09,-1.09807e+09,688303,0.0162124,0.177252,0,0.177991,-4258.41,-40000,-0,40226,688303
step02_gravity_refstate-crust.xmf,27,-6.35829e-07,1.45701e-05,0,9.34014e-06,-1.09817e+09,-1.09713e+09,-1.09813e+09,640734,0.0167895,0.169645,0,0.170474,-4923.76,-40000,-0,40301.9,640734
step02_gravity_refstate-crust.xmf,28,-1.71469e-06,1.86145e-05,0,1.04841e-05,-1.09812e+09,-1.09672e+09,-1.098e+09,719212,0.0153048,0.184713,0,0.185346,-3617.79,-40000,-0,40163.3,719212
step02_gravity_refstate-crust.xmf,29,-2.51331e-06,2.11938e-05,0,1.05472e-05,-1.0981e+09,-1.09647e+09,-1.09793e+09,723536,0.0139854,0.191867,0,0.192376,-2997.53,-40000,-0,40112.2,723536
step02_gravity_refstate-crust.xmf,30,-4.44866e-06,2.68809e-05,0,8.54507e-06,-1.09807e+09,-1.09592e+09,-1.09777e+09,586192,0.00979396,0.204259,0,0.204494,-1793.25,-40000,-0,40040.2,586192
step02_gravity_refstate-crust.xmf,31,-3.48624e-06,2.4269e-05,0,1.00027e-05,-1.09808e+09,-1.09617e+09,-1.09784e+09,686183,0.0121684,0.198487,0,0.19886,-2391.83,-40000,-0,40071.4,686183
step02_gravity_refstate-crust.xmf,32,-5.29514e-06,2.93086e-05,0,6.20937e-06,-1.09806e+09,-1.09569e+09,-1.0977e+09,425963,0.0068768,0.208789,0,0.208902,-1195.5,-40000,-0,40017.9,425963
step02_gravity_refstate-crust.xmf,33,-5.85066e-06,3.09301e-05,0,3.25243e-06,-1.09805e+09,-1.09553e+09,-1.09765e+09,223117,0.00354699,0.211677,0,0.211706,-597.755,-40000,-0,40004.5,223117
step02_gravity_refstate-crust.xmf,34,-6.05178e-06,3.15599e-05,0,-8.72414e-08,-1.09805e+09,-1.09547e+09,-1.09764e+09,-5984.76,3.23895e-06,0.212666,0,0.212666,0,-40000,0,40000,5984.76
step02_gravity_refstate-crust.xmf,35,-5.84684e-06,3.1001e-05,0,-3.32271e-06,-1.09805e+09,-1.09552e+09,-1.09765e+09,-227938,-0.00354694,0.211675,-0,0.211705,597.755,-40000,0,40004.5,227938
step02_gravity_refstate-crust.xmf,36,-5.32795e-06,2.94895e-05,0,-6.28055e-06,-1.09806e+09,-1.09567e+09,-1.09769e+09,-430845,-0.00687599,0.208788,-0,0.208901,1195.5,-40000,0,40017.9,430845
step02_gravity_refstate-crust.xmf,37,-4.47914e-06,2.71304e-05,0,-8.59727e-06,-1.09806e+09,-1.0959e+09,-1.09776e+09,-589773,-0.00979266,0.204259,-0,0.204493,1793.25,-40000,0,40040.2,589773
step02_gravity_refstate-crust.xmf,38,-3.49227e-06,2.42746e-05,0,-1.00013e-05,-1.09808e+09,-1.09617e+09,-1.09784e+09,-686087,-0.0121681,0.198487,-0,0.198859,2391.83,-40000,0,40071.4,686087
step02_gravity_refstate-crust.xmf,39,-2.53827e-06,2.13715e-05,0,-1.05461e-05,-1.09809e+09,-1.09645e+09,-1.09792e+09,-723460,-0.0139843,0.191866,-0,0.192375,2997.53,-40000,0,40112.2,723460
step02_gravity_refstate-crust.xmf,40,-1.7275e-06,1.87166e-05,0,-1.04586e-05,-1.09812e+09,-1.09671e+09,-1.098e+09,-717459,-0.0153066,0.184712,-0,0.185346,3617.79,-40000,0,40163.3,717459
step02_gravity_refstate-crust.xmf,41,-1.10661e-06,1.64724e-05,0,-9.99435e-06,-1.09814e+09,-1.09694e+09,-1.09807e+09,-685613,-0.0162134,0.177252,-0,0.177992,4258.41,-40000,0,40226,685613
step02_gravity_refstate-crust.xmf,42,-6.32753e-07,1.45681e-05,0,-9.33964e-06,-1.09817e+09,-1.09713e+09,-1.09813e+09,-640699,-0.0167895,0.169645,-0,0.170474,4923.76,-40000,0,40301.9,640699
step02_gravity_refstate-crust.xmf,43,-2.83427e-07,1.29969e-05,0,-8.58323e-06,-1.0982e+09,-1.09729e+09,-1.09818e+09,-588809,-0.0171051,0.162005,-0,0.162905,5617.28,-40000,0,40392.5,588809
step02_gravity_refstate-crust.xmf,44,-2.88416e-08,1.16739e-05,0,-7.78928e-06,-1.09823e+09,-1.09742e+09,-1.09822e+09,-534345,-0.0172161,0.154413,-0,0.15537,6341.87,-40000,0,40499.6,534345
step02_gravity_refstate-crust.xmf,45,1.49686e-07,1.05723e-05,0,-7.00733e-06,-1.09825e+09,-1.09754e+09,-1.09826e+09,-480703,-0.0171689,0.146934,-0,0.147934,7100.11,-40000,0,40625.3,480703
step02_gravity_refstate-crust.xmf,46,2.70343e-07,9.67148e-06,0,-6.25641e-06,-1.09828e+09,-1.09763e+09,-1.0983e+09,-429190,-0.017003,0.139613,-0,0.140645,7894.42,-40000,0,40771.6,429190
step02_gravity_refstate-crust.xmf,47,3.43077e-07,8.92844e-06,0,-5.55096e-06,-1.0983e+09,-1.09771e+09,-1.09833e+09,-380796,-0.0167489,0.132488,-0,0.133542,8727.16,-40000,0,40941,380796
step02_gravity_refstate-crust.xmf,48,3.85425e-07,8.30599e-06,0,-4.89246e-06,-1.09832e+09,-1.09778e+09,-1.09835e+09,-335622,-0.016433,0.125585,-0,0.126656,9600.66,-40000,0,41136,335622
step02_gravity_refstate-crust.xmf,49,4.02807e-07,7.78793e-06,0,-4.2978e-06,-1.09834e+09,-1.09784e+09,-1.09837e+09,-294829,-0.0160717,0.118927,-0,0.120009,10517.3,-40000,0,41359.6,294829
step02_gravity_refstate-crust.xmf,50,4.08071e-07,7.36008e-06,0,-3.75779e-06,-1.09836e+09,-1.09788e+09,-1.09839e+09,-257784,-0.0156828,0.112531,-0,0.113618,11479.4,-40000,0,41614.6,257784
step02_gravity_refstate-crust.xmf,51,4.04724e-07,6.99936e-06,0,-3.27436e-06,-1.09838e+09,-1.09792e+09,-1.09841e+09,-224621,-0.0152735,0.106409,-0,0.1075,12489.1,-40000,0,41904.4,224621
step02_gravity_refstate-crust.xmf,52,3.98463e-07,6.69057e-06,0,-2.8433e-06,-1.09839e+09,-1.09796e+09,-1.09842e+09,-195050,-0.0148486,0.100571,-0,0.101661,13548.9,-40000,0,42232.4,195050
step02_gravity_refstate-crust.xmf,53,3.93202e-07,6.42235e-06,0,-2.46059e-06,-1.0984e+09,-1.09799e+09,-1.09843e+09,-168796,-0.0144089,0.0950228,-0,0.0961091,14661.8,-40000,0,42602.4,168796
step02_gravity_refstate-crust.xmf,54,7.40065e-07,4.42336e-06,0,-9.00761e-10,-1.09845e+09,-1.0982e+09,-1.0985e+09,-61.7922,-5.59129e-20,0.0505523,-0,0.0505523,40000,-40000,0,56568.5,61.7922
step02_gravity_refstate-crust.xmf,55,7.33269e-07,4.4411e-06,0,-7.81437e-08,-1.09845e+09,-1.0982e+09,-1.0985e+09,-5360.66,-0.00172073,0.050826,-0,0.0508551,37663.8,-40000,0,54941.4,5360.66
step02_gravity_refstate-crust.xmf,56,3.91566e-07,6.18566e-06,0,-2.12175e-06,-1.09841e+09,-1.09802e+09,-1.09844e+09,-145552,-0.0139514,0.0897693,-0,0.0908469,15830.4,-40000,0,43018.6,145552
step02_gravity_refstate-crust.xmf,57,7.15654e-07,4.48564e-06,0,-1.55647e-07,-1.09845e+09,-1.09819e+09,-1.0985e+09,-10677.4,-0.00333175,0.0516023,-0,0.0517097,35440.8,-40000,0,53442,10677.4
step02_gravity_refstate-crust.xmf,58,6.89465e-07,4.55354e-06,0,-2.37037e-07,-1.09845e+09,-1.09818e+09,-1.0985e+09,-16260.8,-0.00481835,0.0528283,-0,0.0530476,33325.6,-40000,0,52063.3,16260.8
step02_gravity_refstate-crust.xmf,59,6.56757e-07,4.64144e-06,0,-3.24913e-07,-1.09845e+09,-1.09818e+09,-1.09849e+09,-22289,-0.00617365,0.0544657,-0,0.0548145,31312.8,-40000,0,50798.5,22289
step02_gravity_refstate-crust.xmf,60,6.20422e-07,4.74188e-06,0,-4.19284e-07,-1.09845e+09,-1.09817e+09,-1.09849e+09,-28762.9,-0.00739672,0.0564866,-0,0.0569688,29397.5,-40000,0,49640.9,28762.9
step02_gravity_refstate-crust.xmf,61,5.80795e-07,4.86448e-06,0,-5.30393e-07,-1.09845e+09,-1.09815e+09,-1.09849e+09,-36385,-0.00849155,0.0588705,-0,0.0594798,27575,-40000,0,48583.7,36385
step02_gravity_refstate-crust.xmf,62,5.41913e-07,4.99434e-06,0,-6.53128e-07,-1.09845e+09,-1.09814e+09,-1.09848e+09,-44804.6,-0.00946595,0.0616025,-0,0.0623255,25840.6,-40000,0,47620.8,44804.6
step02_gravity_refstate-crust.xmf,63,5.04859e-07,5.13482e-06,0,-7.91556e-07,-1.09845e+09,-1.09813e+09,-1.09848e+09,-54300.7,-0.0103309,0.064671,-0,0.065491,24190.1,-40000,0,46745.7,54300.7
step02_gravity_refstate-crust.xmf,64,3.95414e-07,5.97223e-06,0,-1.8216e-06,-1.09842e+09,-1.09804e+09,-1.09845e+09,-124962,-0.01347,0.0848148,-0,0.0858778,17057.8,-40000,0,43485.3,124962
step02_gravity_refstate-crust.xmf,65,4.71403e-07,5.28431e-06,0,-9.49731e-07,-1.09844e+09,-1.09811e+09,-1.09848e+09,-65151.5,-0.0110984,0.0680674,-0,0.0689663,22619.3,-40000,0,45952.5,65151.5
step02_gravity_refstate-crust.xmf,66,4.04783e-07,5.77925e-06,0,-1.55852e-06,-1.09843e+09,-1.09806e+09,-1.09846e+09,-106915,-0.0129553,0.0801633,-0,0.0812034,18347,-40000,0,44007,106915
step02_gravity_refstate-crust.xmf,67,4.42968e-07,5.44258e-06,0,-1.12994e-06,-1.09844e+09,-1.0981e+09,-1.09847e+09,-77514.2,-0.0117822,0.0717852,-0,0.0727457,21124.3,-40000,0,45235.3,77514.2
step02_gravity_refstate-crust.xmf,68,4.21079e-07,5.60079e-06,0,-1.32688e-06,-1.09843e+09,-1.09808e+09,-1.09846e+09,-91024.2,-0.012397,0.0758187,-0,0.0768256,19701.4,-40000,0,44588.6,91024.2
step02_gravity_refstate-crust.xmf,69,-4.28675e-07,3.20241e-07,0,3.93394e-07,-4.65599e+07,-4.65085e+07,-4.65305e+07,26986.8,-0.0266814,0.186241,-0,0.188142,-20852.4,-1693.82,-0,20921.1,26986.8
step02_gravity_refstate-crust.xmf,70,-7.47992e-07,2.81899e-07,0,9.1781e-09,-71136.1,-485.576,-19823.9,629.618,-0.0309127,0.183243,-0,0.185832,-21926.5,0,-0,21926.5,629.618
step02_gravity_refstate-crust.xmf,71,-3.27989e-07,1.23935e-07,0,4.36533e-09,-31178.8,-176.852,-8678.8,299.461,-0.0321368,0.19063,-0,0.19332,-19656.4,0,-0,19656.4,299.461
step02_gravity_refstate-crust.xmf,72,-7.72165e-07,4.42485e-07,0,3.47893e-07,-4.59482e+07,-4.58649e+07,-4.58952e+07,23865.4,-0.0253636,0.178871,-0,0.18066,-23130.1,-1670.35,-0,23190.3,23865.4
step02_gravity_refstate-crust.xmf,73,-2.31658e-07,4.29052e-07,0,8.06808e-07,-9.8854e+07,-9.88087e+07,-9.88381e+07,55347.1,-0.0227004,0.189228,-0,0.190585,-19785,-3598.61,-0,20109.6,55347.1
step02_gravity_refstate-crust.xmf,74,-8.16965e-08,1.83748e-07,0,4.51151e-07,-4.78251e+07,-4.78069e+07,-4.78195e+07,30949,-0.0271278,0.193788,-0,0.195678,-18660.6,-1741.07,-0,18741.6,30949
step02_gravity_refstate-crust.xmf,75,5.07169e-08,2.75636e-07,0,7.74012e-07,-8.74234e+07,-8.7408e+07,-8.74269e+07,53097.2,-0.0237201,0.196372,-0,0.197799,-17848.5,-3183.37,-0,18130.1,53097.2
step02_gravity_refstate-crust.xmf,76,2.38344e-07,2.57344e-07,0,9.50671e-07,-1.05834e+08,-1.05832e+08,-1.0585e+08,65216.1,-0.0221851,0.201391,-0,0.20261,-16440.1,-3854.35,-0,16885.9,65216.1
step02_gravity_refstate-crust.xmf,77,-1.68926e-08,4.57724e-07,0,1.06851e-06,-1.29972e+08,-1.29939e+08,-1.29971e+08,73299.6,-0.0208572,0.194892,-0,0.196005,-18095.4,-4732.4,-0,18704,73299.6
step02_gravity_refstate-crust.xmf,78,1.57387e-07,4.69327e-07,0,1.27837e-06,-1.55757e+08,-1.55736e+08,-1.55768e+08,87695.9,-0.019359,0.20049,-0,0.201422,-16503.7,-5671.85,-0,17451.2,87695.9
step02_gravity_refstate-crust.xmf,79,-1.11304e-06,4.20616e-07,0,9.68662e-09,-105805,-596.09,-29450.4,664.502,-0.0287471,0.176206,-0,0.178536,-24260.6,0,-0,24260.6,664.502
step02_gravity_refstate-crust.xmf,80,-5.24126e-07,5.013e-07,0,6.39423e-07,-8.57795e+07,-8.57091e+07,-8.57435e+07,43864.4,-0.0228363,0.18186,-0,0.183288,-21987.8,-3121.54,-0,22208.3,43864.4
step02_gravity_refstate-crust.xmf,81,4.20389e-07,2.66661e-07,0,1.15309e-06,-1.32477e+08,-1.32488e+08,-1.32506e+08,79102.3,-0.0200638,0.206903,-0,0.207874,-14902.8,-4825.09,-0,15664.4,79102.3
step02_gravity_refstate-crust.xmf,82,3.01091e-07,5.38912e-08,0,5.41898e-07,-5.39513e+07,-5.39683e+07,-5.3972e+07,37174.2,-0.0262919,0.201803,-0,0.203509,-16408.3,-1965.45,-0,16525.6,37174.2
step02_gravity_refstate-crust.xmf,83,1.19124e-07,-4.57701e-08,0,7.63088e-09,11291.8,-19.9471,3119.88,523.479,-0.0323835,0.198157,-0,0.200785,-17443.5,0,-0,17443.5,523.479
step02_gravity_refstate-crust.xmf,84,-2.23548e-07,6.51809e-07,0,1.12888e-06,-1.53431e+08,-1.5337e+08,-1.53415e+08,77441.4,-0.0193509,0.187987,-0,0.188981,-19830.7,-5585.9,-0,20602.4,77441.4
step02_gravity_refstate-crust.xmf,85,-8.15604e-08,6.85948e-07,0,1.3561e-06,-1.80721e+08,-1.80669e+08,-1.80716e+08,93028.6,-0.0183225,0.193377,-0,0.194243,-18216.4,-6580.07,-0,19368.4,93028.6
step02_gravity_refstate-crust.xmf,86,6.12467e-08,6.9872e-07,0,1.54823e-06,-2.05314e+08,-2.0527e+08,-2.05318e+08,106209,-0.0174211,0.198995,-0,0.199756,-16617,-7475.99,-0,18221.3,106209
step02_gravity_refstate-crust.xmf,87,3.06711e-07,4.722e-07,0,1.46528e-06,-1.81618e+08,-1.81607e+08,-1.81639e+08,100518,-0.0179113,0.206028,-0,0.206805,-14959.2,-6613.97,-0,16356.1,100518
step02_gravity_refstate-crust.xmf,88,-1.04135e-06,5.68536e-07,0,3.35679e-07,-5.25665e+07,-5.24561e+07,-5.24951e+07,23027.6,-0.0227035,0.171859,-0,0.173353,-25463.4,-1910.4,-0,25535,23027.6
step02_gravity_refstate-crust.xmf,89,-7.92953e-07,6.19595e-07,0,5.82029e-07,-9.06056e+07,-9.05087e+07,-9.05512e+07,39927.2,-0.0209747,0.174447,-0,0.175703,-24289.8,-3296.34,-0,24512.5,39927.2
step02_gravity_refstate-crust.xmf,90,-4.30592e-07,6.63919e-07,0,9.4891e-07,-1.3595e+08,-1.35875e+08,-1.35921e+08,65095.2,-0.0197273,0.182163,-0,0.183228,-21584.5,-4948.69,-0,22144.5,65095.2
step02_gravity_refstate-crust.xmf,91,-1.42848e-06,5.39967e-07,0,1.18995e-08,-135784,-748.547,-37790.3,816.308,-0.0256944,0.169721,-0,0.171655,-26665.5,0,-0,26665.5,816.308
step02_gravity_refstate-crust.xmf,92,1.97434e-07,6.84157e-07,0,1.7165e-06,-2.28973e+08,-2.28939e+08,-2.28986e+08,117752,-0.0165636,0.204702,-0,0.205371,-15042,-8337.83,-0,17198.3,117752
step02_gravity_refstate-crust.xmf,93,4.47508e-07,4.58865e-07,0,1.61908e-06,-2.07877e+08,-2.07877e+08,-2.07908e+08,111069,-0.0165363,0.211564,-0,0.21221,-13427.8,-7570.5,-0,15414.9,111069
step02_gravity_refstate-crust.xmf,94,4.86139e-07,9.43055e-08,0,8.35654e-07,-8.8645e+07,-8.86719e+07,-8.86784e+07,57325.8,-0.0228843,0.206611,-0,0.207875,-15059.2,-3229.32,-0,15401.6,57325.8
step02_gravity_refstate-crust.xmf,95,9.72665e-08,8.88987e-07,0,1.92959e-06,-2.73875e+08,-2.7382e+08,-2.73881e+08,132370,-0.0157889,0.203442,-0,0.204054,-15035.8,-9972.45,-0,18042.3,132370
step02_gravity_refstate-crust.xmf,96,3.27857e-07,6.5552e-07,0,1.86668e-06,-2.5501e+08,-2.54988e+08,-2.55033e+08,128054,-0.0156981,0.21032,-0,0.210905,-13502.3,-9286.25,-0,16387.4,128054
step02_gravity_refstate-crust.xmf,97,-6.02523e-07,6.92355e-07,0,8.18307e-07,-1.25813e+08,-1.25724e+08,-1.25772e+08,56135.9,-0.0195347,0.177285,-0,0.178358,-23116.2,-4578.99,-0,23565.3,56135.9
step02_gravity_refstate-crust.xmf,98,-4.11597e-07,8.61381e-07,0,1.18289e-06,-1.83217e+08,-1.8313e+08,-1.83189e+08,81146,-0.0174068,0.181154,-0,0.181988,-21497.4,-6669.88,-0,22508.4,81146
step02_gravity_refstate-crust.xmf,99,-2.66421e-07,8.912e-07,0,1.37485e-06,-2.04862e+08,-2.04782e+08,-2.04843e+08,94314.7,-0.0170824,0.186251,-0,0.187033,-19909.3,-7458.5,-0,21260.5,94314.7
step02_gravity_refstate-crust.xmf,100,-1.24452e-06,6.91133e-07,0,3.23305e-07,-6.52323e+07,-6.50996e+07,-6.5147e+07,22178.7,-0.0187552,0.164685,-0,0.16575,-28130.2,-2370.88,-0,28230,22178.7
step02_gravity_refstate-crust.xmf,101,5.69152e-07,2.55763e-07,0,1.33546e-06,-1.58379e+08,-1.584e+08,-1.58418e+08,91612.7,-0.0180836,0.212473,-0,0.213241,-13357.8,-5768.64,-0,14550.2,91612.7
step02_gravity_refstate-crust.xmf,102,7.25686e-07,2.86015e-08,0,9.47713e-07,-1.01831e+08,-1.01879e+08,-1.01881e+08,65013.1,-0.0209248,0.212954,-0,0.21398,-13307,-3710.24,-0,13814.6,65013.1
step02_gravity_refstate-crust.xmf,103,7.05358e-07,-1.19687e-07,0,5.09623e-07,-4.91354e+07,-4.9192e+07,-4.91838e+07,34960.1,-0.0256396,0.209553,-0,0.211116,-14237.9,-1791.49,-0,14350.2,34960.1
step02_gravity_refstate-crust.xmf,104,5.86835e-07,-2.24032e-07,0,9.94136e-09,55687.6,62.0907,15430.7,681.977,-0.0316356,0.205609,-0,0.208028,-15281,0,-0,15281,681.977
step02_gravity_refstate-crust.xmf,105,-1.44841e-08,9.11771e-07,0,1.7695e-06,-2.51639e+08,-2.51576e+08,-2.51638e+08,121387,-0.0162177,0.197996,-0,0.198659,-16527.8,-9162.53,-0,18897.6,121387
step02_gravity_refstate-crust.xmf,106,2.09583e-07,8.43575e-07,0,2.08249e-06,-2.99122e+08,-2.99078e+08,-2.99136e+08,142859,-0.0153558,0.208794,-0,0.209358,-13580.6,-10892,-0,17408.8,142859
step02_gravity_refstate-crust.xmf,107,-1.69061e-07,9.53958e-07,0,1.60587e-06,-2.35269e+08,-2.35192e+08,-2.35258e+08,110163,-0.0164482,0.191244,-0,0.19195,-18345.9,-8566.01,-0,20247.2,110163
step02_gravity_refstate-crust.xmf,108,-1.69414e-06,6.44777e-07,0,8.94203e-09,-160850,-399.973,-44631.6,613.424,-0.0218302,0.163986,-0,0.165432,-29148.2,0,-0,29148.2,613.424
step02_gravity_refstate-crust.xmf,109,-9.43008e-07,7.46099e-07,0,5.78988e-07,-1.07911e+08,-1.07795e+08,-1.07846e+08,39718.6,-0.0181509,0.168236,-0,0.169212,-26295.8,-3925.95,-0,26587.3,39718.6
step02_gravity_refstate-crust.xmf,110,-7.29871e-07,8.1411e-07,0,8.11151e-07,-1.4269e+08,-1.42584e+08,-1.4264e+08,55644.9,-0.0175376,0.171777,-0,0.17267,-24722.9,-5193.07,-0,25262.5,55644.9
step02_gravity_refstate-crust.xmf,111,-5.7305e-07,8.69092e-07,0,1.00279e-06,-1.68604e+08,-1.68505e+08,-1.68565e+08,68791.3,-0.0171869,0.175502,-0,0.176342,-23290,-6137.22,-0,24085.1,68791.3
step02_gravity_refstate-crust.xmf,112,-4.38951e-07,1.08403e-06,0,1.3595e-06,-2.29022e+08,-2.28918e+08,-2.28992e+08,93261.7,-0.0156422,0.179101,-0,0.179783,-21617.8,-8337.68,-0,23170,93261.7
step02_gravity_refstate-crust.xmf,113,4.37783e-07,6.75353e-07,0,2.30824e-06,-3.46625e+08,-3.46608e+08,-3.46655e+08,158345,-0.0147167,0.217942,-0,0.218438,-11150.4,-12622,-0,16841.8,158345
step02_gravity_refstate-crust.xmf,114,3.13518e-07,7.77898e-07,0,2.20764e-06,-3.23385e+08,-3.23353e+08,-3.23407e+08,151444,-0.0150216,0.213347,-0,0.213875,-12352.2,-11775.6,-0,17065.8,151444
step02_gravity_refstate-crust.xmf,115,1.87535e-07,9.71041e-07,0,2.40437e-06,-3.64269e+08,-3.64216e+08,-3.64282e+08,164940,-0.0152891,0.211503,-0,0.212055,-12473.9,-13263.9,-0,18207.9,164940
step02_gravity_refstate-crust.xmf,116,4.39094e-07,5.90679e-07,0,1.98829e-06,-2.79576e+08,-2.79565e+08,-2.79606e+08,136397,-0.0149854,0.21511,-0,0.215631,-12192.5,-10180.9,-0,15884.2,136397
step02_gravity_refstate-crust.xmf,117,5.68552e-07,4.17668e-07,0,1.74327e-06,-2.33878e+08,-2.33888e+08,-2.33917e+08,119588,-0.0153167,0.216638,-0,0.217179,-12018.2,-8517.51,-0,14730.4,119588
step02_gravity_refstate-crust.xmf,118,7.05058e-07,2.37192e-07,0,1.47143e-06,-1.85916e+08,-1.85948e+08,-1.85965e+08,100940,-0.0162018,0.217783,-0,0.218385,-11864.4,-6771.69,-0,13660.9,100940
step02_gravity_refstate-crust.xmf,119,8.49895e-08,1.05186e-06,0,2.26679e-06,-3.40787e+08,-3.4072e+08,-3.40793e+08,155502,-0.0153366,0.206823,-0,0.207391,-13702.6,-12408.7,-0,18486.1,155502
step02_gravity_refstate-crust.xmf,120,-4.489e-09,1.09513e-06,0,2.11725e-06,-3.17223e+08,-3.17148e+08,-3.17223e+08,145243,-0.0154231,0.202087,-0,0.202674,-14986.6,-11550.5,-0,18921.2,145243
step02_gravity_refstate-crust.xmf,121,-9.17342e-08,1.10841e-06,0,1.94888e-06,-2.92861e+08,-2.92778e+08,-2.92854e+08,133693,-0.0155642,0.197061,-0,0.197675,-16388,-10663.2,-0,19551.8,133693
step02_gravity_refstate-crust.xmf,122,-1.48653e-06,7.58616e-07,0,2.2107e-07,-5.73804e+07,-5.72264e+07,-5.72785e+07,15165.4,-0.0156472,0.159374,-0,0.16014,-30736.1,-2084.15,-0,30806.7,15165.4
step02_gravity_refstate-crust.xmf,123,-1.87381e-06,7.17759e-07,0,1.29922e-09,-177713,69.0806,-49169.2,89.1262,-0.0172232,0.159189,-0,0.160118,-31715.7,0,-0,31715.7,89.1262
step02_gravity_refstate-crust.xmf,124,-5.17018e-07,1.01322e-06,0,1.1847e-06,-2.05445e+08,-2.0534e+08,-2.0541e+08,81270.4,-0.0159095,0.1759,-0,0.176618,-22792.3,-7478.91,-0,23988,81270.4
step02_gravity_refstate-crust.xmf,125,-3.30781e-07,1.12552e-06,0,1.53933e-06,-2.49684e+08,-2.49584e+08,-2.49661e+08,105598,-0.0156106,0.183821,-0,0.184483,-20117,-9090.4,-0,22075.5,105598
step02_gravity_refstate-crust.xmf,126,-1.02759e-06,8.81424e-07,0,5.70442e-07,-1.32877e+08,-1.32746e+08,-1.32806e+08,39132.3,-0.0148325,0.162204,-0,0.16288,-28358.6,-4834.73,-0,28767.8,39132.3
step02_gravity_refstate-crust.xmf,127,3.17429e-07,8.48555e-07,0,2.51975e-06,-3.86215e+08,-3.86179e+08,-3.86237e+08,172855,-0.0152346,0.216272,-0,0.216808,-11280.7,-14063.2,-0,18028.5,172855
step02_gravity_refstate-crust.xmf,128,5.53441e-07,5.06281e-07,0,2.08844e-06,-3.05412e+08,-3.05416e+08,-3.0545e+08,143267,-0.0143738,0.219503,-0,0.219973,-10989,-11121.9,-0,15635,143267
step02_gravity_refstate-crust.xmf,129,8.44592e-07,5.90275e-08,0,1.17932e-06,-1.38384e+08,-1.38438e+08,-1.38442e+08,80901.4,-0.0177744,0.218419,-0,0.219141,-11758.6,-5041.51,-0,12793.8,80901.4
step02_gravity_refstate-crust.xmf,130,1.07009e-06,-2.59508e-07,0,5.15773e-07,-5.04699e+07,-5.05611e+07,-5.05433e+07,35382,-0.0237395,0.216484,-0,0.217782,-12232.3,-1841.33,-0,12370.1,35382
step02_gravity_refstate-crust.xmf,131,1.0642e-06,-4.04471e-07,0,1.16467e-08,101063,312.666,28059.4,798.967,-0.0299034,0.212771,-0,0.214862,-13162.3,0,-0,13162.3,798.967
step02_gravity_refstate-crust.xmf,132,5.30161e-08,1.18098e-06,0,2.586e-06,-4.0378e+08,-4.03703e+08,-4.03784e+08,177400,-0.0157036,0.209473,-0,0.210061,-12576.4,-14702.1,-0,19347.3,177400
step02_gravity_refstate-crust.xmf,133,-1.7551e-07,1.11213e-06,0,1.79725e-06,-2.73885e+08,-2.73797e+08,-2.73873e+08,123291,-0.015679,0.192346,-0,0.192984,-17709,-9972.09,-0,20323.7,123291
step02_gravity_refstate-crust.xmf,134,-4.62388e-08,1.27566e-06,0,2.43502e-06,-3.81892e+08,-3.81802e+08,-3.81889e+08,167042,-0.0155127,0.204692,-0,0.205279,-13787.6,-13905,-0,19581.8,167042
step02_gravity_refstate-crust.xmf,135,-1.21752e-06,8.51687e-07,0,4.0803e-07,-1.08368e+08,-1.08226e+08,-1.08284e+08,27990.9,-0.0140326,0.159173,-0,0.15979,-30076,-3941.63,-0,30333.2,27990.9
step02_gravity_refstate-crust.xmf,136,-1.63276e-06,8.09166e-07,0,1.44586e-07,-5.44936e+07,-5.43261e+07,-5.43816e+07,9918.58,-0.0119024,0.155419,-0,0.155874,-33212,-1978.54,-0,33270.9,9918.58
step02_gravity_refstate-crust.xmf,137,-2.05058e-06,7.80477e-07,0,6.14077e-09,-194690,-479.31,-54020.1,421.257,-0.0119735,0.155523,-0,0.155983,-34375.2,0,-0,34375.2,421.257
step02_gravity_refstate-crust.xmf,138,-8.30452e-07,9.55808e-07,0,7.89942e-07,-1.66328e+08,-1.66205e+08,-1.66271e+08,54190.1,-0.0149897,0.165685,-0,0.166362,-26566.3,-6053.44,-0,27247.2,54190.1
step02_gravity_refstate-crust.xmf,139,-6.6201e-07,1.04863e-06,0,1.03637e-06,-2.00359e+08,-2.00242e+08,-2.00314e+08,71095,-0.0149999,0.169979,-0,0.170639,-24672.6,-7293.22,-0,25727.9,71095
step02_gravity_refstate-crust.xmf,140,-5.75095e-07,1.20025e-06,0,1.24621e-06,-2.39532e+08,-2.39411e+08,-2.39493e+08,85489.7,-0.0143448,0.172039,-0,0.172636,-23531.7,-8719.94,-0,25095.4,85489.7
step02_gravity_refstate-crust.xmf,141,-4.97394e-07,1.33333e-06,0,1.47627e-06,-2.74975e+08,-2.7485e+08,-2.74941e+08,101272,-0.0141951,0.175827,-0,0.176399,-21965.3,-10010.8,-0,24139,101272
step02_gravity_refstate-crust.xmf,142,1.79289e-07,1.03457e-06,0,2.72017e-06,-4.23725e+08,-4.23666e+08,-4.23737e+08,186603,-0.0158565,0.214307,-0,0.214893,-11423.9,-15428.4,-0,19197.5,186603
step02_gravity_refstate-crust.xmf,143,4.78545e-07,6.54139e-07,0,2.61137e-06,-4.0581e+08,-4.05798e+08,-4.05843e+08,179140,-0.0151049,0.221113,-0,0.221628,-10129.4,-14776.9,-0,17915.4,179140
step02_gravity_refstate-crust.xmf,144,5.88435e-07,5.09622e-07,0,2.38799e-06,-3.69043e+08,-3.69048e+08,-3.69083e+08,163816,-0.0143924,0.222572,-0,0.223036,-9976.42,-13438.5,-0,16736.9,163816
step02_gravity_refstate-crust.xmf,145,6.85236e-07,3.86068e-07,0,2.15762e-06,-3.29764e+08,-3.29784e+08,-3.29811e+08,148013,-0.0138179,0.223789,-0,0.224215,-9836.48,-12008.7,-0,15523.1,148013
step02_gravity_refstate-crust.xmf,146,6.84806e-07,3.40318e-07,0,1.84213e-06,-2.60645e+08,-2.60668e+08,-2.60692e+08,126370,-0.0142408,0.221285,-0,0.221742,-10712.6,-9492.33,-0,14313.1,126370
step02_gravity_refstate-crust.xmf,147,8.29653e-07,1.82331e-07,0,1.56157e-06,-2.11988e+08,-2.12032e+08,-2.12045e+08,107124,-0.0145396,0.222776,-0,0.22325,-10433.1,-7721.28,-0,12979.5,107124
step02_gravity_refstate-crust.xmf,148,9.74528e-07,2.75126e-08,0,1.27816e-06,-1.63501e+08,-1.63566e+08,-1.63568e+08,87681.9,-0.0155206,0.223447,-0,0.223985,-10292.3,-5956.4,-0,11891.6,87681.9
step02_gravity_refstate-crust.xmf,149,1.0051e-06,-1.14495e-07,0,8.66912e-07,-9.48877e+07,-9.49645e+07,-9.49566e+07,59470.1,-0.0199126,0.218761,-0,0.219666,-11646.8,-3458.37,-0,12149.4,59470.1
step02_gravity_refstate-crust.xmf,150,3.55696e-07,8.08763e-07,0,2.81144e-06,-4.37772e+08,-4.37741e+08,-4.37797e+08,192864,-0.0158311,0.219393,-0,0.219963,-10309.4,-15940.2,-0,18983.5,192864
step02_gravity_refstate-crust.xmf,151,6.03375e-07,4.8424e-07,0,2.87383e-06,-4.52373e+08,-4.52381e+08,-4.52414e+08,197145,-0.0155768,0.225422,-0,0.22596,-9039.42,-16472.3,-0,18789.5,197145
step02_gravity_refstate-crust.xmf,152,2.99175e-07,8.8472e-07,0,3.00581e-06,-4.68816e+08,-4.68776e+08,-4.68837e+08,206199,-0.0164669,0.219577,-0,0.220193,-10088.8,-17070.3,-0,19828.7,206199
step02_gravity_refstate-crust.xmf,153,-3.13136e-07,1.24763e-06,0,1.73197e-06,-2.82696e+08,-2.82589e+08,-2.82674e+08,118813,-0.0151765,0.186321,-0,0.186938,-19108.2,-10292.5,-0,21703.9,118813
step02_gravity_refstate-crust.xmf,154,-1.24442e-07,1.32178e-06,0,2.27523e-06,-3.58827e+08,-3.58728e+08,-3.58819e+08,156081,-0.0153346,0.200043,-0,0.20063,-15034.7,-13065,-0,19918.2,156081
step02_gravity_refstate-crust.xmf,155,-2.61262e-07,1.32071e-06,0,1.92725e-06,-3.11794e+08,-3.11686e+08,-3.11777e+08,132209,-0.0150949,0.190442,-0,0.19104,-17763.4,-11352.2,-0,21081.1,132209
step02_gravity_refstate-crust.xmf,156,-1.90758e-07,1.32925e-06,0,2.1055e-06,-3.34742e+08,-3.34638e+08,-3.34729e+08,144437,-0.0152011,0.195402,-0,0.195992,-16341.7,-12187.9,-0,20386.1,144437
step02_gravity_refstate-crust.xmf,157,-1.86312e-07,1.51526e-06,0,2.5816e-06,-4.21377e+08,-4.2126e+08,-4.21364e+08,177098,-0.0157987,0.20234,-0,0.202956,-13859.7,-15342.2,-0,20675.5,177098
step02_gravity_refstate-crust.xmf,158,-1.30558e-06,9.13681e-07,0,3.2933e-07,-1.16707e+08,-1.16555e+08,-1.16617e+08,22592,-0.0108112,0.154733,-0,0.15511,-32366.4,-4244.96,-0,32643.6,22592
step02_gravity_refstate-crust.xmf,159,-1.74967e-06,8.42106e-07,0,9.65036e-08,-5.37944e+07,-5.36166e+07,-5.36743e+07,6620.15,-0.00768885,0.152607,-0,0.1528,-35704.7,-1952.66,-0,35758,6620.15
step02_gravity_refstate-crust.xmf,160,-2.14202e-06,8.1472e-07,0,3.41188e-09,-203395,-562.912,-56452.7,234.055,-0.00618814,0.15318,-0,0.153305,-37134.2,0,-0,37134.2,234.055
step02_gravity_refstate-crust.xmf,161,-4.33421e-07,1.43229e-06,0,1.66753e-06,-3.02892e+08,-3.02764e+08,-3.02863e+08,114392,-0.0142533,0.17968,-0,0.180244,-20552.5,-11027.6,-0,23324.1,114392
step02_gravity_refstate-crust.xmf,162,-1.05764e-06,1.00739e-06,0,5.23596e-07,-1.58577e+08,-1.58436e+08,-1.58505e+08,35918.7,-0.0115963,0.156702,-0,0.15713,-30457.1,-5770.45,-0,30999,35918.7
step02_gravity_refstate-crust.xmf,163,-8.99374e-07,1.09352e-06,0,7.28797e-07,-1.91338e+08,-1.91201e+08,-1.91276e+08,49995.5,-0.012286,0.159563,-0,0.160035,-28583.7,-6963.9,-0,29419.8,49995.5
step02_gravity_refstate-crust.xmf,164,7.86381e-07,2.5684e-07,0,1.92728e-06,-2.89867e+08,-2.89903e+08,-2.89921e+08,132211,-0.0134218,0.225035,-0,0.225435,-9636.83,-10556.5,-0,14293.6,132211
step02_gravity_refstate-crust.xmf,165,1.14161e-06,-1.40683e-07,0,9.74025e-07,-1.14716e+08,-1.14804e+08,-1.14794e+08,66818.1,-0.0172633,0.223715,-0,0.224381,-10180.3,-4180.74,-0,11005.3,66818.1
step02_gravity_refstate-crust.xmf,166,1.40601e-06,-3.77228e-07,0,5.42413e-07,-5.67104e+07,-5.68328e+07,-5.68069e+07,37209.5,-0.0206062,0.223396,-0,0.224345,-10108.6,-2069.7,-0,10318.3,37209.5
step02_gravity_refstate-crust.xmf,167,1.52885e-06,-5.7868e-07,0,1.53839e-08,145291,715.064,40412.5,1055.34,-0.0272195,0.219426,-0,0.221108,-11080.7,0,-0,11080.7,1055.34
step02_gravity_refstate-crust.xmf,168,6.70549e-07,4.00492e-07,0,2.65584e-06,-4.20686e+08,-4.20705e+08,-4.20732e+08,182191,-0.0148157,0.225776,-0,0.226261,-9071.36,-15318.8,-0,17803.3,182191
step02_gravity_refstate-crust.xmf,169,5.31028e-07,5.67033e-07,0,3.09913e-06,-4.83179e+08,-4.83176e+08,-4.83215e+08,212601,-0.0163896,0.225147,-0,0.225742,-8981.03,-17593.6,-0,19753.3,212601
step02_gravity_refstate-crust.xmf,170,-9.8055e-08,1.41649e-06,0,2.74973e-06,-4.41762e+08,-4.41658e+08,-4.41755e+08,188632,-0.0161846,0.207129,-0,0.20776,-12686.5,-16084.6,-0,20485.6,188632
step02_gravity_refstate-crust.xmf,171,3.48281e-08,1.23866e-06,0,2.92779e-06,-4.62699e+08,-4.62616e+08,-4.62701e+08,200846,-0.0165587,0.212639,-0,0.213283,-11434,-16847.1,-0,20360.7,200846
step02_gravity_refstate-crust.xmf,172,2.00992e-07,1.00649e-06,0,3.21799e-06,-5.00281e+08,-5.00226e+08,-5.00295e+08,220754,-0.0172208,0.219098,-0,0.219773,-9979.67,-18215.6,-0,20770.2,220754
step02_gravity_refstate-crust.xmf,173,-2.54195e-07,1.56836e-06,0,2.4103e-06,-3.99934e+08,-3.99809e+08,-3.99916e+08,165347,-0.0154071,0.197661,-0,0.19826,-15082.2,-14561.4,-0,20964.4,165347
step02_gravity_refstate-crust.xmf,174,-1.4688e-06,9.04274e-07,0,2.09954e-07,-9.87203e+07,-9.85575e+07,-9.86195e+07,14402.9,-0.00860024,0.152549,-0,0.152791,-34373.9,-3589.47,-0,34560.8,14402.9
step02_gravity_refstate-crust.xmf,175,-1.78082e-06,8.6888e-07,0,4.1376e-08,-5.65674e+07,-5.63856e+07,-5.64453e+07,2838.4,-0.00368623,0.151055,-0,0.1511,-37941.8,-2053.53,-0,37997.4,2838.4
step02_gravity_refstate-crust.xmf,176,-2.15181e-06,8.16901e-07,0,-4.71887e-09,-204390,-736.834,-56776.2,-323.715,-7.60965e-19,0.152353,-0,0.152353,-40000,0,-0,40000,323.715
step02_gravity_refstate-crust.xmf,177,-7.58158e-07,1.19762e-06,0,9.50052e-07,-2.23958e+08,-2.23824e+08,-2.23906e+08,65173.6,-0.0127365,0.163027,-0,0.163524,-26710.6,-8152.21,-0,27926.9,65173.6
step02_gravity_refstate-crust.xmf,178,-6.61218e-07,1.33965e-06,0,1.16314e-06,-2.60095e+08,-2.59958e+08,-2.6005e+08,79791.4,-0.0127446,0.165859,-0,0.166348,-25166.1,-9468.42,-0,26888.4,79791.4
step02_gravity_refstate-crust.xmf,179,-5.99395e-07,1.49252e-06,0,1.36925e-06,-2.95668e+08,-2.95525e+08,-2.95627e+08,93930.7,-0.012763,0.168703,-0,0.169185,-23706.7,-10764,-0,26036,93930.7
step02_gravity_refstate-crust.xmf,180,-5.56878e-07,1.61562e-06,0,1.57103e-06,-3.25062e+08,-3.24913e+08,-3.25024e+08,107773,-0.0130375,0.172368,-0,0.17286,-22178.2,-11834.5,-0,25138.2,107773
step02_gravity_refstate-crust.xmf,181,7.7199e-07,2.86653e-07,0,2.42486e-06,-3.88223e+08,-3.88257e+08,-3.88276e+08,166345,-0.013958,0.227201,-0,0.227629,-8843.36,-14137.2,-0,16675.3,166345
step02_gravity_refstate-crust.xmf,182,8.52636e-07,1.94856e-07,0,2.18614e-06,-3.5191e+08,-3.51955e+08,-3.51969e+08,149969,-0.0131942,0.228224,-0,0.228605,-8670.66,-12815.4,-0,15473,149969
step02_gravity_refstate-crust.xmf,183,9.24278e-07,1.19729e-07,0,1.95067e-06,-3.13589e+08,-3.13644e+08,-3.13653e+08,133816,-0.0125993,0.229057,-0,0.229403,-8508.05,-11420.5,-0,14241.3,133816
step02_gravity_refstate-crust.xmf,184,9.65394e-07,7.56566e-08,0,1.61857e-06,-2.42498e+08,-2.42559e+08,-2.42564e+08,111034,-0.0128684,0.227835,-0,0.228198,-8934.81,-8832.41,-0,12563.5,111034
step02_gravity_refstate-crust.xmf,185,1.09011e-06,-3.19128e-08,0,1.32995e-06,-1.89251e+08,-1.89328e+08,-1.89325e+08,91234.3,-0.0134096,0.228169,-0,0.228563,-8848.64,-6894.22,-0,11217.3,91234.3
step02_gravity_refstate-crust.xmf,186,1.24599e-06,-1.6076e-07,0,1.05661e-06,-1.41637e+08,-1.41734e+08,-1.41723e+08,72483.2,-0.0144588,0.228381,-0,0.228838,-8726.71,-5161.24,-0,10138.7,72483.2
step02_gravity_refstate-crust.xmf,187,9.22272e-07,7.38923e-08,0,2.66055e-06,-4.36574e+08,-4.36632e+08,-4.36637e+08,182514,-0.014281,0.23108,-0,0.231521,-7893.75,-15897.7,-0,17749.6,182514
step02_gravity_refstate-crust.xmf,188,8.78216e-07,1.0895e-07,0,2.90102e-06,-4.67209e+08,-4.67262e+08,-4.6727e+08,199010,-0.01515,0.230991,-0,0.231487,-7892.23,-17012.9,-0,18754.4,199010
step02_gravity_refstate-crust.xmf,189,4.09406e-07,6.95885e-07,0,3.35071e-06,-5.1456e+08,-5.1454e+08,-5.14588e+08,229858,-0.0173198,0.224312,-0,0.22498,-9002.1,-18735.8,-0,20786.2,229858
step02_gravity_refstate-crust.xmf,190,7.94994e-07,1.91799e-07,0,3.18032e-06,-4.99096e+08,-4.99138e+08,-4.99151e+08,218170,-0.0161923,0.230583,-0,0.231151,-7939.17,-18173.6,-0,19832.1,218170
step02_gravity_refstate-crust.xmf,191,4.61519e-08,1.2306e-06,0,3.09541e-06,-4.87944e+08,-4.87862e+08,-4.87947e+08,212345,-0.0170412,0.214611,-0,0.215287,-10862.9,-17766.2,-0,20824,212345
step02_gravity_refstate-crust.xmf,192,-4.07485e-07,1.52042e-06,0,1.86157e-06,-3.30264e+08,-3.30132e+08,-3.30236e+08,127703,-0.0143827,0.183511,-0,0.184074,-19210.8,-12024.3,-0,22663.6,127703
step02_gravity_refstate-crust.xmf,193,-3.17357e-07,1.59622e-06,0,2.2371e-06,-3.79131e+08,-3.78999e+08,-3.79109e+08,153465,-0.0150216,0.192781,-0,0.193366,-16399.7,-13803.8,-0,21435.9,153465
step02_gravity_refstate-crust.xmf,194,-3.6879e-07,1.58262e-06,0,2.05602e-06,-3.56657e+08,-3.56523e+08,-3.56632e+08,141043,-0.0146546,0.187942,-0,0.188513,-17793.8,-12985.4,-0,22028.2,141043
step02_gravity_refstate-crust.xmf,195,-3.87443e-07,1.82192e-06,0,2.52191e-06,-4.39142e+08,-4.3899e+08,-4.39115e+08,173003,-0.0155596,0.19517,-0,0.19579,-15096.5,-15988.6,-0,21989.6,173003
step02_gravity_refstate-crust.xmf,196,-3.44826e-07,1.78564e-06,0,2.70065e-06,-4.59572e+08,-4.59425e+08,-4.59548e+08,185265,-0.0160991,0.199478,-0,0.200126,-13972.4,-16732.5,-0,21799.2,185265
step02_gravity_refstate-crust.xmf,197,-1.07583e-06,1.12594e-06,0,4.33535e-07,-1.84881e+08,-1.8473e+08,-1.84807e+08,29740.5,-0.00837521,0.151639,-0,0.151871,-32726.1,-6728.17,-0,33410.6,29740.5
step02_gravity_refstate-crust.xmf,198,-1.47052e-06,9.531e-07,0,1.14315e-07,-1.12079e+08,-1.11913e+08,-1.11978e+08,7841.98,-0.00414159,0.149581,-0,0.149638,-37215.6,-4075.87,-0,37438.1,7841.98
step02_gravity_refstate-crust.xmf,199,-1.24772e-06,1.04633e-06,0,2.61925e-07,-1.54343e+08,-1.54186e+08,-1.54258e+08,17968,-0.0064134,0.149857,-0,0.149994,-35011.9,-5615.6,-0,35459.4,17968
step02_gravity_refstate-crust.xmf,200,-1.66508e-06,8.98781e-07,0,-2.53648e-09,-7.84138e+07,-7.82379e+07,-7.82996e+07,-174.003,-8.39292e-19,0.149908,-0,0.149908,-40000,-2849.39,-0,40101.4,174.003
step02_gravity_refstate-crust.xmf,201,-5.19036e-07,1.72254e-06,0,1.75958e-06,-3.51984e+08,-3.5183e+08,-3.51948e+08,120707,-0.0133908,0.176216,-0,0.176724,-20719.4,-12814.9,-0,24362.1,120707
step02_gravity_refstate-crust.xmf,202,-9.15232e-07,1.22446e-06,0,6.37608e-07,-2.1835e+08,-2.18204e+08,-2.18288e+08,43739.9,-0.00959234,0.153903,-0,0.154202,-30642.2,-7947.45,-0,31656.1,43739.9
step02_gravity_refstate-crust.xmf,203,-8.07579e-07,1.34402e-06,0,8.449e-07,-2.51122e+08,-2.50975e+08,-2.51067e+08,57960.1,-0.0103746,0.156543,-0,0.156887,-28736.7,-9141.17,-0,30155.5,57960.1
step02_gravity_refstate-crust.xmf,204,9.96927e-07,4.65101e-08,0,1.73808e-06,-2.78573e+08,-2.78638e+08,-2.78641e+08,119232,-0.0122074,0.229866,-0,0.23019,-8308.96,-10145.8,-0,13114,119232
step02_gravity_refstate-crust.xmf,205,1.46578e-06,-3.29184e-07,0,7.49211e-07,-9.32515e+07,-9.33746e+07,-9.33521e+07,51395.9,-0.0161391,0.228501,-0,0.229071,-8537.8,-3400.34,-0,9190.01,51395.9
step02_gravity_refstate-crust.xmf,206,1.96298e-06,-7.46366e-07,0,1.30468e-08,186405,544.273,51745,895.011,-0.0236567,0.225363,-0,0.226601,-9029.63,0,-0,9029.63,895.011
step02_gravity_refstate-crust.xmf,207,9.87801e-07,6.57202e-09,0,2.41788e-06,-4.05516e+08,-4.05583e+08,-4.05583e+08,165867,-0.0133738,0.231737,-0,0.232123,-7753.79,-14767.2,-0,16679.1,165867
step02_gravity_refstate-crust.xmf,208,6.42459e-07,3.64738e-07,0,3.47599e-06,-5.29912e+08,-5.29931e+08,-5.29956e+08,238453,-0.0173358,0.229408,-0,0.230062,-8093.08,-19295.1,-0,20923.7,238453
step02_gravity_refstate-crust.xmf,209,9.66393e-07,-2.62759e-07,0,4.08818e-06,-5.87685e+08,-5.87769e+08,-5.87751e+08,280449,-0.0184395,0.23809,-0,0.238803,-6726.32,-21398.7,-0,22431,280449
step02_gravity_refstate-crust.xmf,210,1.1819e-06,-4.87316e-07,0,3.72492e-06,-5.62344e+08,-5.62458e+08,-5.62425e+08,255529,-0.0171437,0.239228,-0,0.239841,-6503.97,-20476.7,-0,21484.8,255529
step02_gravity_refstate-crust.xmf,211,6.83846e-07,1.86082e-07,0,3.92754e-06,-5.73285e+08,-5.73319e+08,-5.73331e+08,269429,-0.0184831,0.232909,-0,0.233641,-7475.73,-20874.1,-0,22172.3,269429
step02_gravity_refstate-crust.xmf,212,2.34756e-07,9.07583e-07,0,3.58452e-06,-5.43849e+08,-5.43803e+08,-5.43865e+08,245898,-0.0182234,0.222827,-0,0.223571,-9105.12,-19801.7,-0,21794.8,245898
step02_gravity_refstate-crust.xmf,213,4.45128e-07,5.70603e-07,0,3.75433e-06,-5.582e+08,-5.58191e+08,-5.5823e+08,257547,-0.0183899,0.227853,-0,0.228594,-8265.26,-20324.5,-0,21940.8,257547
step02_gravity_refstate-crust.xmf,214,9.10739e-07,-6.46333e-08,0,3.60412e-06,-5.45876e+08,-5.45943e+08,-5.45939e+08,247243,-0.0172508,0.234515,-0,0.235149,-7237.09,-19876.8,-0,21153.3,247243
step02_gravity_refstate-crust.xmf,215,-2.63682e-07,1.69272e-06,0,2.88081e-06,-4.79415e+08,-4.7928e+08,-4.79397e+08,197624,-0.0166632,0.204308,-0,0.204987,-12817.5,-17455.1,-0,21655.7,197624
step02_gravity_refstate-crust.xmf,216,4.51791e-08,1.20877e-06,0,3.41133e-06,-5.29602e+08,-5.29522e+08,-5.29605e+08,234017,-0.0179666,0.217636,-0,0.218377,-10026.8,-19282.7,-0,21733.9,234017
step02_gravity_refstate-crust.xmf,217,-1.09503e-07,1.44819e-06,0,3.248e-06,-5.16486e+08,-5.16379e+08,-5.16478e+08,222812,-0.0176415,0.212704,-0,0.213434,-10952.5,-18805,-0,21762,222812
step02_gravity_refstate-crust.xmf,218,-2.03954e-07,1.59335e-06,0,3.07253e-06,-4.9945e+08,-4.99327e+08,-4.99436e+08,210776,-0.0171875,0.208464,-0,0.209171,-11849,-18184.6,-0,21704.4,210776
step02_gravity_refstate-crust.xmf,219,-4.24867e-07,1.84821e-06,0,2.34526e-06,-4.20033e+08,-4.19877e+08,-4.20004e+08,160885,-0.0150333,0.190737,-0,0.191328,-16287.4,-15292.9,-0,22341.7,160885
step02_gravity_refstate-crust.xmf,220,-7.20552e-07,1.48396e-06,0,1.05042e-06,-2.84526e+08,-2.84375e+08,-2.84477e+08,72058.8,-0.0108671,0.159294,-0,0.159664,-26992.6,-10357.8,-0,28911.7,72058.8
step02_gravity_refstate-crust.xmf,221,-6.64823e-07,1.63018e-06,0,1.24779e-06,-3.16528e+08,-3.1637e+08,-3.16482e+08,85598.2,-0.0112578,0.162145,-0,0.162536,-25382.7,-11523.3,-0,27876,85598.2
step02_gravity_refstate-crust.xmf,222,-6.32867e-07,1.77285e-06,0,1.44148e-06,-3.46515e+08,-3.4635e+08,-3.46471e+08,98885.4,-0.0116822,0.165306,-0,0.165718,-23818.5,-12615.4,-0,26953.1,98885.4
step02_gravity_refstate-crust.xmf,223,-6.17801e-07,1.90147e-06,0,1.63197e-06,-3.73815e+08,-3.73643e+08,-3.73773e+08,111953,-0.0121853,0.168842,-0,0.169281,-22289.3,-13609.6,-0,26115.8,111953
step02_gravity_refstate-crust.xmf,224,-9.11441e-07,1.34652e-06,0,5.24611e-07,-2.46474e+08,-2.46319e+08,-2.46412e+08,35988.3,-0.00704573,0.148892,-0,0.149059,-32712.4,-8971.54,-0,33920.3,35988.3
step02_gravity_refstate-crust.xmf,225,1.05156e-06,-4.83322e-08,0,2.16369e-06,-3.71548e+08,-3.71624e+08,-3.71621e+08,148429,-0.0124349,0.232624,-0,0.232956,-7525.37,-13530.8,-0,15482.7,148429
step02_gravity_refstate-crust.xmf,226,1.09787e-06,-8.35319e-08,0,1.91897e-06,-3.34736e+08,-3.34817e+08,-3.34811e+08,131641,-0.0116633,0.233174,-0,0.233465,-7348.89,-12190.7,-0,14234.4,131641
step02_gravity_refstate-crust.xmf,227,1.13886e-06,-1.06405e-07,0,1.6895e-06,-2.96189e+08,-2.96274e+08,-2.96267e+08,115900,-0.0111142,0.233525,-0,0.233789,-7203.41,-10787.5,-0,12971.5,115900
step02_gravity_refstate-crust.xmf,228,1.18019e-06,-1.22344e-07,0,1.47608e-06,-2.54629e+08,-2.54719e+08,-2.5471e+08,101259,-0.0109276,0.233491,-0,0.233746,-7159.91,-9274.62,-0,11716.8,101259
step02_gravity_refstate-crust.xmf,229,1.21417e-06,-1.29809e-07,0,1.30619e-06,-2.1202e+08,-2.12112e+08,-2.12103e+08,89604.5,-0.0114377,0.232567,-0,0.232848,-7412.41,-7723.49,-0,10705,89604.5
step02_gravity_refstate-crust.xmf,230,1.33497e-06,-2.08184e-07,0,1.07488e-06,-1.6742e+08,-1.67526e+08,-1.67512e+08,73736.7,-0.0119468,0.232616,-0,0.232923,-7298.42,-6100.19,-0,9512.06,73736.7
step02_gravity_refstate-crust.xmf,231,1.50829e-06,-3.23881e-07,0,8.29761e-07,-1.2211e+08,-1.22236e+08,-1.22213e+08,56921.6,-0.0129439,0.232517,-0,0.232877,-7171.35,-4451.13,-0,8440.43,56921.6
step02_gravity_refstate-crust.xmf,232,1.82982e-06,-5.76371e-07,0,3.79685e-07,-4.46123e+07,-4.47773e+07,-4.47378e+07,26046.4,-0.0179362,0.229317,-0,0.230018,-7939.86,-1630.66,-0,8105.58,26046.4
step02_gravity_refstate-crust.xmf,233,1.19274e-06,-2.63485e-07,0,2.39419e-06,-4.22647e+08,-4.22747e+08,-4.22729e+08,164241,-0.0127968,0.235608,-0,0.235955,-6836.83,-15391.3,-0,16841.4,164241
step02_gravity_refstate-crust.xmf,234,1.20615e-06,-3.10591e-07,0,2.61249e-06,-4.51565e+08,-4.51669e+08,-4.51647e+08,179217,-0.0135317,0.236115,-0,0.236502,-6788.29,-16444.1,-0,17790.1,179217
step02_gravity_refstate-crust.xmf,235,1.1709e-06,-2.9831e-07,0,2.90865e-06,-4.83652e+08,-4.83753e+08,-4.83732e+08,199533,-0.0146204,0.236131,-0,0.236584,-6861.63,-17612.1,-0,18901.5,199533
step02_gravity_refstate-crust.xmf,236,1.0805e-06,-2.22153e-07,0,3.25049e-06,-5.16088e+08,-5.16178e+08,-5.16163e+08,222984,-0.0159068,0.235719,-0,0.236255,-7002.55,-18792.7,-0,20055,222984
step02_gravity_refstate-crust.xmf,237,1.48042e-06,-9.27413e-07,0,3.81604e-06,-5.76924e+08,-5.77089e+08,-5.77026e+08,261780,-0.0168792,0.243867,-0,0.24445,-5831.45,-21008.1,-0,21802.4,261780
step02_gravity_refstate-crust.xmf,238,1.32507e-06,-8.03478e-07,0,4.22828e-06,-6.02e+08,-6.02146e+08,-6.02091e+08,290060,-0.0181962,0.243788,-0,0.244466,-5961.69,-21920.5,-0,22716.8,290060
step02_gravity_refstate-crust.xmf,239,7.38761e-07,-3.39054e-08,0,4.45491e-06,-6.13793e+08,-6.13846e+08,-6.13844e+08,305607,-0.0196217,0.23735,-0,0.23816,-6845.59,-22348.7,-0,23373.6,305607
step02_gravity_refstate-crust.xmf,240,4.4049e-07,4.66506e-07,0,4.21893e-06,-5.98907e+08,-5.98906e+08,-5.98938e+08,289418,-0.0195278,0.231342,-0,0.232165,-7652.92,-21806.3,-0,23110.2,289418
step02_gravity_refstate-crust.xmf,241,2.07967e-08,1.1803e-06,0,3.78872e-06,-5.71214e+08,-5.71135e+08,-5.71216e+08,259906,-0.0190139,0.220851,-0,0.221668,-9247.11,-20797.5,-0,22760.6,259906
step02_gravity_refstate-crust.xmf,242,2.10986e-07,8.54686e-07,0,4.00159e-06,-5.85058e+08,-5.85014e+08,-5.85072e+08,274509,-0.0193195,0.226003,-0,0.226828,-8433.43,-21301.8,-0,22910.5,274509
step02_gravity_refstate-crust.xmf,243,-5.12493e-07,1.81701e-06,0,1.9576e-06,-3.78765e+08,-3.78605e+08,-3.7873e+08,134291,-0.013818,0.180245,-0,0.180774,-19288.4,-13790.1,-0,23710.9,134291
step02_gravity_refstate-crust.xmf,244,-5.02703e-07,1.90755e-06,0,2.17064e-06,-4.08573e+08,-4.08408e+08,-4.08538e+08,148906,-0.0143719,0.184736,-0,0.185294,-17773.2,-14875.4,-0,23176.8,148906
step02_gravity_refstate-crust.xmf,245,-5.04547e-07,2.06778e-06,0,2.79271e-06,-4.96459e+08,-4.96283e+08,-4.96424e+08,191580,-0.0163626,0.196567,-0,0.197247,-14033.5,-18075.2,-0,22883.5,191580
step02_gravity_refstate-crust.xmf,246,-5.24145e-07,2.06143e-06,0,2.43295e-06,-4.5419e+08,-4.54013e+08,-4.54154e+08,166901,-0.0151346,0.189138,-0,0.189742,-16113.6,-16536.3,-0,23088.9,166901
step02_gravity_refstate-crust.xmf,247,-5.53301e-07,2.14138e-06,0,2.57979e-06,-4.78272e+08,-4.78087e+08,-4.78234e+08,176974,-0.0155974,0.191205,-0,0.19184,-15326.1,-17413.1,-0,23197,176974
step02_gravity_refstate-crust.xmf,248,-4.51691e-07,2.00049e-06,0,2.98443e-06,-5.15391e+08,-5.15222e+08,-5.1536e+08,204732,-0.017036,0.201073,-0,0.201793,-12965,-18764.6,-0,22807.9,204732
step02_gravity_refstate-crust.xmf,249,-1.04531e-06,1.24297e-06,0,3.0846e-07,-2.15141e+08,-2.14984e+08,-2.15069e+08,21160.4,-0.0050603,0.147042,-0,0.147129,-35282.5,-7830.1,-0,36140.9,21160.4
step02_gravity_refstate-crust.xmf,250,-1.16115e-06,1.15771e-06,0,1.51082e-07,-1.8829e+08,-1.88131e+08,-1.8821e+08,10364.2,-0.00295722,0.146503,-0,0.146533,-37476.8,-6851.97,-0,38098,10364.2
step02_gravity_refstate-crust.xmf,251,-1.30301e-06,1.0637e-06,0,-7.02447e-10,-1.54428e+08,-1.54265e+08,-1.54338e+08,-48.1879,-5.9749e-19,0.147192,-0,0.147192,-40000,-5618.47,-0,40392.7,48.1879
step02_gravity_refstate-crust.xmf,252,-6.05138e-07,2.0209e-06,0,1.81482e-06,-4.00185e+08,-4.00005e+08,-4.00144e+08,124497,-0.0127337,0.172515,-0,0.172984,-20825.7,-14569.8,-0,25416.3,124497
step02_gravity_refstate-crust.xmf,253,-8.09202e-07,1.47611e-06,0,7.22253e-07,-2.78837e+08,-2.7868e+08,-2.78781e+08,49546.5,-0.00815114,0.150826,-0,0.151046,-30693.7,-10150.3,-0,32328.5,49546.5
step02_gravity_refstate-crust.xmf,254,-7.46153e-07,1.61926e-06,0,9.18235e-07,-3.1072e+08,-3.10558e+08,-3.10669e+08,62990.9,-0.00894067,0.153057,-0,0.153318,-28850.5,-11311.6,-0,30988.8,62990.9
step02_gravity_refstate-crust.xmf,255,1.72007e-06,-4.65262e-07,0,5.9018e-07,-8.21173e+07,-8.22672e+07,-8.22353e+07,40486.4,-0.0142548,0.232299,-0,0.232736,-7029.21,-2995.8,-0,7640.98,40486.4
step02_gravity_refstate-crust.xmf,256,2.34168e-06,-8.88022e-07,0,1.56131e-08,222467,908.811,61827.1,1071.06,-0.0193034,0.230392,-0,0.231199,-7002.37,0,-0,7002.37,1071.06
step02_gravity_refstate-crust.xmf,257,1.28931e-06,-3.63842e-07,0,2.09964e-06,-3.93417e+08,-3.9353e+08,-3.93505e+08,144035,-0.011505,0.237135,-0,0.237413,-6352.08,-14327.4,-0,15672.4,144035
step02_gravity_refstate-crust.xmf,258,1.426e-06,-7.52817e-07,0,3.31358e-06,-5.34888e+08,-5.35037e+08,-5.34985e+08,227312,-0.0154523,0.241206,-0,0.241701,-6064.17,-19477.7,-0,20399.9,227312
step02_gravity_refstate-crust.xmf,259,1.59101e-06,-1.02388e-06,0,3.48026e-06,-5.56129e+08,-5.56308e+08,-5.56238e+08,238746,-0.015732,0.244098,-0,0.244605,-5671.89,-20251.3,-0,21030.6,238746
step02_gravity_refstate-crust.xmf,260,1.1242e-06,-6.35437e-07,0,4.66285e-06,-6.27374e+08,-6.27495e+08,-6.27451e+08,319872,-0.0194751,0.243785,-0,0.244562,-6052.28,-22843.7,-0,23631.9,319872
step02_gravity_refstate-crust.xmf,261,7.97723e-07,-4.55572e-07,0,5.49651e-06,-6.72764e+08,-6.7285e+08,-6.72819e+08,377061,-0.0213686,0.245985,-0,0.246911,-5912.11,-24495.2,-0,25198.5,377061
step02_gravity_refstate-crust.xmf,262,1.40305e-06,-1.27803e-06,0,5.28499e-06,-6.61058e+08,-6.61242e+08,-6.61154e+08,362550,-0.020181,0.251184,-0,0.251994,-5326.15,-24070.2,-0,24652.4,362550
step02_gravity_refstate-crust.xmf,263,9.00346e-07,-4.5314e-07,0,5.07373e-06,-6.50949e+08,-6.51042e+08,-6.5101e+08,348058,-0.020571,0.244003,-0,0.244868,-6084.16,-23701.4,-0,24469.8,348058
step02_gravity_refstate-crust.xmf,264,-1.24237e-07,1.43555e-06,0,3.58027e-06,-5.56834e+08,-5.56727e+08,-5.56826e+08,245606,-0.0186157,0.216028,-0,0.216828,-10073.7,-20273.8,-0,22638.6,245606
step02_gravity_refstate-crust.xmf,265,-2.8203e-07,1.70559e-06,0,3.37372e-06,-5.44195e+08,-5.44058e+08,-5.44175e+08,231437,-0.0181576,0.210466,-0,0.211248,-11059.2,-19813.5,-0,22690.9,231437
step02_gravity_refstate-crust.xmf,266,-4.17906e-07,1.92619e-06,0,3.19029e-06,-5.34394e+08,-5.34233e+08,-5.34366e+08,218854,-0.0176618,0.205096,-0,0.205855,-12042.9,-19456.4,-0,22882,218854
step02_gravity_refstate-crust.xmf,267,-5.55183e-07,2.08082e-06,0,2.30784e-06,-4.43282e+08,-4.43101e+08,-4.43244e+08,158318,-0.01464,0.185524,-0,0.186101,-17046.8,-16139.1,-0,23474.8,158318
step02_gravity_refstate-crust.xmf,268,-6.69598e-07,2.3643e-06,0,2.85929e-06,-5.3184e+08,-5.31632e+08,-5.31795e+08,196147,-0.0165293,0.193539,-0,0.194243,-14065.3,-19363.1,-0,23932.5,196147
step02_gravity_refstate-crust.xmf,269,-7.95687e-07,1.59766e-06,0,5.85963e-07,-3.0698e+08,-3.06816e+08,-3.06925e+08,40197.1,-0.00608097,0.14577,-0,0.145897,-32635.2,-11175.2,-0,34495.6,40197.1
step02_gravity_refstate-crust.xmf,270,-8.85629e-07,1.45987e-06,0,4.08823e-07,-2.74016e+08,-2.73855e+08,-2.73955e+08,28045.2,-0.00493778,0.14495,-0,0.145034,-34554.5,-9974.49,-0,35965.4,28045.2
step02_gravity_refstate-crust.xmf,271,-7.00012e-07,1.76724e-06,0,1.10783e-06,-3.40942e+08,-3.40773e+08,-3.40894e+08,75996.8,-0.00958765,0.155578,-0,0.155873,-27130.6,-12412.2,-0,29835.1,75996.8
step02_gravity_refstate-crust.xmf,272,-6.76278e-07,1.91631e-06,0,1.29404e-06,-3.69683e+08,-3.69505e+08,-3.69637e+08,88771.2,-0.0101941,0.158412,-0,0.158739,-25481.5,-13458.9,-0,28817.5,88771.2
step02_gravity_refstate-crust.xmf,273,-6.70621e-07,2.05781e-06,0,1.47747e-06,-3.96296e+08,-3.96109e+08,-3.9625e+08,101355,-0.0108232,0.161602,-0,0.161964,-23887.4,-14428,-0,27906.5,101355
step02_gravity_refstate-crust.xmf,274,-6.79914e-07,2.19622e-06,0,1.65721e-06,-4.22383e+08,-4.22185e+08,-4.22336e+08,113685,-0.0114619,0.164925,-0,0.165323,-22369.4,-15377.9,-0,27145.4,113685
step02_gravity_refstate-crust.xmf,275,1.29931e-06,-3.33898e-07,0,1.83525e-06,-3.55272e+08,-3.55384e+08,-3.55361e+08,125898,-0.0105841,0.237196,-0,0.237432,-6193.2,-12938.8,-0,14344.6,125898
step02_gravity_refstate-crust.xmf,276,1.31031e-06,-3.10444e-07,0,1.59773e-06,-3.17484e+08,-3.17595e+08,-3.17574e+08,109604,-0.00984459,0.237314,-0,0.237518,-6010.99,-11563.1,-0,13032.2,109604
step02_gravity_refstate-crust.xmf,277,1.32273e-06,-2.8312e-07,0,1.38924e-06,-2.77384e+08,-2.77494e+08,-2.77475e+08,95302.1,-0.00941647,0.237158,-0,0.237344,-5913.19,-10103.4,-0,11706.6,95302.1
step02_gravity_refstate-crust.xmf,278,1.3525e-06,-2.66975e-07,0,1.20444e-06,-2.35386e+08,-2.35497e+08,-2.35478e+08,82624.7,-0.00935766,0.236781,-0,0.236966,-5899.32,-8574.5,-0,10407.9,82624.7
step02_gravity_refstate-crust.xmf,279,1.4259e-06,-2.86449e-07,0,1.01799e-06,-1.92074e+08,-1.92192e+08,-1.92172e+08,69834.1,-0.00959262,0.236438,-0,0.236632,-5864.35,-6997.98,-0,9130.3,69834.1
step02_gravity_refstate-crust.xmf,280,1.55962e-06,-3.5217e-07,0,8.15947e-07,-1.47401e+08,-1.47533e+08,-1.47508e+08,55974,-0.0101277,0.23615,-0,0.236367,-5766.03,-5372.06,-0,7880.74,55974
step02_gravity_refstate-crust.xmf,281,1.76477e-06,-4.71023e-07,0,5.98674e-07,-1.01481e+08,-1.01634e+08,-1.01602e+08,41069.1,-0.0111649,0.235652,-0,0.235916,-5681.94,-3700.92,-0,6780.95,41069.1
step02_gravity_refstate-crust.xmf,282,2.08018e-06,-6.6958e-07,0,3.37936e-07,-4.91285e+07,-4.93171e+07,-4.92712e+07,23182.4,-0.0135088,0.234309,-0,0.234698,-5815.08,-1795.95,-0,6086.1,23182.4
step02_gravity_refstate-crust.xmf,283,1.46354e-06,-6.08693e-07,0,2.22925e-06,-4.30278e+08,-4.3042e+08,-4.30379e+08,152926,-0.0115679,0.23994,-0,0.240219,-5760.67,-15669.7,-0,16695,152926
step02_gravity_refstate-crust.xmf,284,1.50554e-06,-7.21263e-07,0,2.54185e-06,-4.68369e+08,-4.68522e+08,-4.68473e+08,174371,-0.0126758,0.24079,-0,0.241123,-5778.41,-17056.4,-0,18008.7,174371
step02_gravity_refstate-crust.xmf,285,1.49895e-06,-7.62429e-07,0,2.87064e-06,-4.99632e+08,-4.99787e+08,-4.99735e+08,196926,-0.01388,0.241126,-0,0.241525,-5891.16,-18194.5,-0,19124.5,196926
step02_gravity_refstate-crust.xmf,286,1.9289e-06,-1.50897e-06,0,3.42485e-06,-5.65464e+08,-5.657e+08,-5.65596e+08,234945,-0.0149477,0.248394,-0,0.248843,-4995.87,-20591.7,-0,21189.1,234945
step02_gravity_refstate-crust.xmf,287,1.27681e-06,-1.24021e-06,0,5.67834e-06,-6.78372e+08,-6.78545e+08,-6.7846e+08,389534,-0.0209541,0.252627,-0,0.253495,-5259.36,-24700.1,-0,25253.8,389534
step02_gravity_refstate-crust.xmf,288,1.58143e-06,-1.3974e-06,0,4.84025e-06,-6.40273e+08,-6.40477e+08,-6.40381e+08,332041,-0.019093,0.25037,-0,0.251097,-5302.97,-23314,-0,23909.5,332041
step02_gravity_refstate-crust.xmf,289,1.88141e-06,-1.53729e-06,0,3.85438e-06,-5.90912e+08,-5.91147e+08,-5.91041e+08,264411,-0.0162749,0.249261,-0,0.249792,-5087.22,-21518,-0,22111.2,264411
step02_gravity_refstate-crust.xmf,290,1.76127e-06,-1.48491e-06,0,4.34892e-06,-6.16625e+08,-6.16848e+08,-6.16746e+08,298336,-0.0177284,0.249918,-0,0.250546,-5200.27,-22453.7,-0,23048,298336
step02_gravity_refstate-crust.xmf,291,4.9849e-07,2.01383e-07,0,4.81945e-06,-6.39364e+08,-6.39384e+08,-6.39398e+08,330614,-0.0206478,0.237024,-0,0.237922,-6875.97,-23279,-0,24273.3,330614
step02_gravity_refstate-crust.xmf,292,2.11328e-07,4.7096e-07,0,5.21355e-06,-6.66557e+08,-6.66539e+08,-6.66572e+08,357649,-0.0215895,0.237095,-0,0.238075,-6831.27,-24268.3,-0,25211.4,357649
step02_gravity_refstate-crust.xmf,293,7.60577e-07,-6.00162e-07,0,5.91994e-06,-6.90933e+08,-6.91027e+08,-6.90985e+08,406108,-0.0219181,0.249104,-0,0.250066,-5641.27,-25156.3,-0,25781,406108
step02_gravity_refstate-crust.xmf,294,1.47189e-06,-1.72255e-06,0,6.05719e-06,-6.92435e+08,-6.92654e+08,-6.92536e+08,415524,-0.0211574,0.257168,-0,0.258037,-4892.03,-25212.1,-0,25682.3,415524
step02_gravity_refstate-crust.xmf,295,8.35909e-07,-9.33486e-07,0,6.42338e-06,-7.09032e+08,-7.09153e+08,-7.09089e+08,440644,-0.022345,0.254024,-0,0.255005,-5244.74,-25815,-0,26342.3,440644
step02_gravity_refstate-crust.xmf,296,1.77386e-07,7.62522e-07,0,4.521e-06,-6.26015e+08,-6.25974e+08,-6.26027e+08,310140,-0.0204691,0.2302,-0,0.231108,-7721.9,-22792.6,-0,24065.1,310140
step02_gravity_refstate-crust.xmf,297,-3.69779e-08,1.15892e-06,0,4.22949e-06,-6.11173e+08,-6.11091e+08,-6.11171e+08,290143,-0.0200929,0.224296,-0,0.225194,-8534.64,-22252,-0,23832.6,290143
step02_gravity_refstate-crust.xmf,298,-3.23357e-07,1.70643e-06,0,3.72228e-06,-5.82291e+08,-5.82151e+08,-5.82268e+08,255349,-0.0191309,0.21399,-0,0.214843,-10160.4,-21200.2,-0,23509.2,255349
step02_gravity_refstate-crust.xmf,299,-2.03121e-07,1.47166e-06,0,3.96351e-06,-5.96766e+08,-5.96652e+08,-5.96753e+08,271897,-0.0196408,0.218873,-0,0.219752,-9352.58,-21727.3,-0,23654.8,271897
step02_gravity_refstate-crust.xmf,300,-6.24978e-07,2.1337e-06,0,2.00624e-06,-4.27008e+08,-4.26818e+08,-4.26965e+08,137628,-0.0133321,0.176233,-0,0.176736,-19417.8,-15546.4,-0,24874.5,137628
step02_gravity_refstate-crust.xmf,301,-6.79864e-07,2.38689e-06,0,2.66693e-06,-5.1437e+08,-5.14159e+08,-5.14323e+08,182952,-0.0157944,0.189351,-0,0.190008,-15110.7,-18727.1,-0,24063.2,182952
step02_gravity_refstate-crust.xmf,302,-6.61328e-07,2.3181e-06,0,2.373e-06,-4.78722e+08,-4.78518e+08,-4.78677e+08,162788,-0.0146565,0.183476,-0,0.18406,-16880.5,-17429.3,-0,24263.8,162788
step02_gravity_refstate-crust.xmf,303,-6.48789e-07,2.2509e-06,0,2.18211e-06,-4.5489e+08,-4.54691e+08,-4.54846e+08,149692,-0.0139174,0.179411,-0,0.17995,-18179.4,-16561.6,-0,24592.2,149692
step02_gravity_refstate-crust.xmf,304,-6.46383e-07,2.32751e-06,0,3.05908e-06,-5.50633e+08,-5.50429e+08,-5.50588e+08,209853,-0.0172762,0.197766,-0,0.19852,-13056.4,-20047.3,-0,23924.1,209853
step02_gravity_refstate-crust.xmf,305,-7.64173e-07,1.7184e-06,0,4.51986e-07,-3.36581e+08,-3.36411e+08,-3.36528e+08,31006.2,-0.00430116,0.141498,-0,0.141564,-34414.7,-12253.1,-0,36531,31006.2
step02_gravity_refstate-crust.xmf,306,-9.33261e-07,1.42316e-06,0,1.95123e-07,-2.6497e+08,-2.64809e+08,-2.64906e+08,13385.4,-0.00248798,0.142975,-0,0.142997,-37347,-9644.94,-0,38572.3,13385.4
step02_gravity_refstate-crust.xmf,307,-1.04164e-06,1.29178e-06,0,-3.70715e-10,-2.28457e+08,-2.28297e+08,-2.28386e+08,-25.431,-5.01871e-19,0.144018,-0,0.144018,-40000,-8315,-0,40855.1,25.431
step02_gravity_refstate-crust.xmf,308,-6.90702e-07,2.3291e-06,0,1.8322e-06,-4.4812e+08,-4.47913e+08,-4.48073e+08,125689,-0.0121376,0.168383,-0,0.16882,-20910.8,-16315.1,-0,26522.5,125689
step02_gravity_refstate-crust.xmf,309,-7.34004e-07,1.7435e-06,0,7.72101e-07,-3.37871e+08,-3.37702e+08,-3.37821e+08,52966.2,-0.00706683,0.147325,-0,0.147495,-30713.9,-12300.3,-0,33085.3,52966.2
step02_gravity_refstate-crust.xmf,310,-7.0437e-07,1.89805e-06,0,9.55485e-07,-3.67806e+08,-3.67627e+08,-3.67758e+08,65546.3,-0.00787641,0.149287,-0,0.149495,-28898.7,-13390.4,-0,31850.2,65546.3
step02_gravity_refstate-crust.xmf,311,2.65097e-06,-1.01015e-06,0,9.21609e-09,251644,490.891,69787.3,632.223,-0.0143006,0.234335,-0,0.234771,-4992.34,0,-0,4992.34,632.223
step02_gravity_refstate-crust.xmf,312,1.51662e-06,-6.43996e-07,0,1.91268e-06,-4.01977e+08,-4.02125e+08,-4.02081e+08,131210,-0.0102245,0.240863,-0,0.24108,-5308.61,-14639.5,-0,15572.3,131210
step02_gravity_refstate-crust.xmf,313,1.9089e-06,-1.41082e-06,0,3.07902e-06,-5.41027e+08,-5.41254e+08,-5.41157e+08,211221,-0.0138672,0.247269,-0,0.247657,-4963.99,-19702.2,-0,20317.9,211221
step02_gravity_refstate-crust.xmf,314,1.66583e-06,-2.16997e-06,0,6.53906e-06,-7.09322e+08,-7.09586e+08,-7.09437e+08,448579,-0.0214494,0.262547,-0,0.263421,-4515.23,-25827,-0,26218.7,448579
step02_gravity_refstate-crust.xmf,315,1.96627e-06,-2.23863e-06,0,5.474e-06,-6.71773e+08,-6.72062e+08,-6.71908e+08,375516,-0.0195679,0.258402,-0,0.259142,-4620.59,-24461.1,-0,24893.6,375516
step02_gravity_refstate-crust.xmf,316,1.93573e-06,-1.97706e-06,0,4.99344e-06,-6.51871e+08,-6.52139e+08,-6.52003e+08,342550,-0.0188105,0.255346,-0,0.256038,-4793.22,-23736.8,-0,24215.9,342550
step02_gravity_refstate-crust.xmf,317,9.50762e-07,-1.29999e-06,0,6.96809e-06,-7.26579e+08,-7.26733e+08,-7.26644e+08,478011,-0.0227123,0.259477,-0,0.260469,-4857.18,-26453.7,-0,26895.9,478011
step02_gravity_refstate-crust.xmf,318,2.08569e-07,3.39134e-07,0,5.66966e-06,-6.89295e+08,-6.89286e+08,-6.89309e+08,388939,-0.0222081,0.241278,-0,0.242298,-6378.94,-25095.8,-0,25893.8,388939
step02_gravity_refstate-crust.xmf,319,1.71917e-07,1.63827e-07,0,6.14691e-06,-7.08373e+08,-7.08373e+08,-7.08384e+08,421678,-0.0226909,0.245493,-0,0.24654,-5979.16,-25790,-0,26474,421678
step02_gravity_refstate-crust.xmf,320,-3.9191e-07,1.85607e-06,0,3.52041e-06,-5.68678e+08,-5.68524e+08,-5.68652e+08,241500,-0.0186395,0.210095,-0,0.21092,-10869.5,-20704.6,-0,23384.3,241500
step02_gravity_refstate-crust.xmf,321,-5.98019e-07,2.19562e-06,0,3.32847e-06,-5.68066e+08,-5.67874e+08,-5.68024e+08,228333,-0.0181135,0.203334,-0,0.204139,-11919.4,-20682,-0,23870.8,228333
step02_gravity_refstate-crust.xmf,322,-7.06705e-07,2.43672e-06,0,2.50258e-06,-5.0449e+08,-5.04275e+08,-5.04442e+08,171677,-0.0151068,0.184997,-0,0.185612,-16119.8,-18367.4,-0,24437.8,171677
step02_gravity_refstate-crust.xmf,323,-8.22234e-07,2.67244e-06,0,2.68946e-06,-5.48074e+08,-5.47834e+08,-5.48018e+08,184497,-0.0157393,0.186175,-0,0.186839,-15124,-19954,-0,25037.9,184497
step02_gravity_refstate-crust.xmf,324,-8.40389e-07,2.68477e-06,0,2.88415e-06,-5.66179e+08,-5.65937e+08,-5.66122e+08,197852,-0.0165029,0.190013,-0,0.190729,-14129.9,-20613.1,-0,24991,197852
step02_gravity_refstate-crust.xmf,325,-7.09354e-07,1.85804e-06,0,6.17914e-07,-3.65515e+08,-3.65339e+08,-3.65467e+08,42388.9,-0.00530211,0.142166,-0,0.142264,-32585.6,-13307,-0,35197.9,42388.9
step02_gravity_refstate-crust.xmf,326,-8.18244e-07,1.61137e-06,0,3.05737e-07,-3.12278e+08,-3.12111e+08,-3.12221e+08,20973.6,-0.00319802,0.141236,-0,0.141273,-36113,-11368,-0,37860,20973.6
step02_gravity_refstate-crust.xmf,327,-6.885e-07,2.04808e-06,0,1.13247e-06,-3.94843e+08,-3.94655e+08,-3.94796e+08,77687.1,-0.00861711,0.151696,-0,0.151941,-27181.3,-14375,-0,30748.4,77687.1
step02_gravity_refstate-crust.xmf,328,-6.90294e-07,2.19723e-06,0,1.30807e-06,-4.20488e+08,-4.2029e+08,-4.20441e+08,89733.7,-0.00934269,0.154503,-0,0.154785,-25515.6,-15308.9,-0,29755.8,89733.7
step02_gravity_refstate-crust.xmf,329,-7.06976e-07,2.34553e-06,0,1.48034e-06,-4.45486e+08,-4.45276e+08,-4.45437e+08,101551,-0.010059,0.157537,-0,0.157858,-23923.5,-16219.1,-0,28903.2,101551
step02_gravity_refstate-crust.xmf,330,-7.37142e-07,2.49475e-06,0,1.64786e-06,-4.70605e+08,-4.70383e+08,-4.70554e+08,113043,-0.0107648,0.160617,-0,0.160977,-22421.1,-17133.7,-0,28218.3,113043
step02_gravity_refstate-crust.xmf,331,1.49515e-06,-5.75495e-07,0,1.69223e-06,-3.70271e+08,-3.70413e+08,-3.70374e+08,116087,-0.00939121,0.240613,-0,0.240796,-5158.98,-13485.2,-0,14438.4,116087
step02_gravity_refstate-crust.xmf,332,1.51009e-06,-5.62168e-07,0,1.43907e-06,-3.40502e+08,-3.40645e+08,-3.40606e+08,98720.1,-0.00836222,0.241058,-0,0.241203,-4766.82,-12401.6,-0,13286.1,98720.1
step02_gravity_refstate-crust.xmf,333,1.47987e-06,-4.77848e-07,0,1.24271e-06,-3.00681e+08,-3.00815e+08,-3.00782e+08,85249.8,-0.00781783,0.240544,-0,0.240671,-4669.55,-10951.8,-0,11905.8,85249.8
step02_gravity_refstate-crust.xmf,334,1.47706e-06,-4.16179e-07,0,1.06278e-06,-2.59271e+08,-2.59401e+08,-2.59372e+08,72906.7,-0.00747749,0.240092,-0,0.240209,-4571.84,-9444.35,-0,10492.7,72906.7
step02_gravity_refstate-crust.xmf,335,1.51373e-06,-3.87972e-07,0,8.96044e-07,-2.16934e+08,-2.17064e+08,-2.17037e+08,61468.6,-0.00737226,0.239677,-0,0.239791,-4474.22,-7903.21,-0,9081.81,61468.6
step02_gravity_refstate-crust.xmf,336,1.60398e-06,-4.0193e-07,0,7.31689e-07,-1.731e+08,-1.73238e+08,-1.7321e+08,50193.9,-0.00752272,0.239255,-0,0.239373,-4366.54,-6307.76,-0,7671.67,50193.9
step02_gravity_refstate-crust.xmf,337,1.77006e-06,-4.72015e-07,0,5.57681e-07,-1.27144e+08,-1.27298e+08,-1.27265e+08,38256.9,-0.00795644,0.23877,-0,0.238902,-4228.52,-4635.23,-0,6274.21,38256.9
step02_gravity_refstate-crust.xmf,338,2.02121e-06,-6.05471e-07,0,3.75563e-07,-8.14648e+07,-8.1645e+07,-8.16035e+07,25763.6,-0.00874675,0.238097,-0,0.238258,-4094.19,-2973.05,-0,5059.78,25763.6
step02_gravity_refstate-crust.xmf,339,2.38019e-06,-8.13811e-07,0,1.78809e-07,-3.61856e+07,-3.64047e+07,-3.63489e+07,12266.3,-0.0100382,0.237062,-0,0.237274,-4007.13,-1325.74,-0,4220.75,12266.3
step02_gravity_refstate-crust.xmf,340,1.86317e-06,-1.2795e-06,0,2.74753e-06,-5.13481e+08,-5.13696e+08,-5.13609e+08,188480,-0.0127846,0.246031,-0,0.246363,-4942.21,-18699.3,-0,19341.4,188480
step02_gravity_refstate-crust.xmf,341,1.72129e-06,-9.26838e-07,0,1.82298e-06,-4.20712e+08,-4.20894e+08,-4.20831e+08,125056,-0.00941084,0.243771,-0,0.243953,-4550.96,-15322,-0,15983.6,125056
step02_gravity_refstate-crust.xmf,342,1.7802e-06,-1.05224e-06,0,2.10058e-06,-4.53119e+08,-4.53313e+08,-4.53241e+08,144100,-0.0104452,0.244474,-0,0.244697,-4691.1,-16501.8,-0,17155.6,144100
step02_gravity_refstate-crust.xmf,343,1.8331e-06,-1.17393e-06,0,2.39313e-06,-4.83139e+08,-4.83346e+08,-4.83265e+08,164169,-0.0115168,0.245263,-0,0.245533,-4804.77,-17594.8,-0,18239,164169
step02_gravity_refstate-crust.xmf,344,2.31666e-06,-2.97275e-06,0,5.94784e-06,-6.91764e+08,-6.92127e+08,-6.91923e+08,408022,-0.0197454,0.26472,-0,0.265456,-4164.2,-25189.1,-0,25531,408022
step02_gravity_refstate-crust.xmf,345,2.31694e-06,-1.98835e-06,0,2.91225e-06,-5.53096e+08,-5.53391e+08,-5.53255e+08,199780,-0.0126192,0.252028,-0,0.252344,-4143.38,-20142.3,-0,20564.1,199780
step02_gravity_refstate-crust.xmf,346,2.35289e-06,-2.12256e-06,0,3.32785e-06,-5.78139e+08,-5.78446e+08,-5.783e+08,228290,-0.0139201,0.253348,-0,0.25373,-4252.53,-21054,-0,21479.1,228290
step02_gravity_refstate-crust.xmf,347,2.18392e-06,-2.21374e-06,0,4.50484e-06,-6.32956e+08,-6.33258e+08,-6.33106e+08,309032,-0.0173485,0.255624,-0,0.256212,-4578.03,-23048.8,-0,23499.1,309032
step02_gravity_refstate-crust.xmf,348,2.39559e-06,-2.3162e-06,0,3.87711e-06,-6.08605e+08,-6.08928e+08,-6.08769e+08,265970,-0.0154136,0.255658,-0,0.256122,-4281.58,-22163,-0,22572.8,265970
step02_gravity_refstate-crust.xmf,349,1.87663e-06,-2.83879e-06,0,7.14598e-06,-7.26456e+08,-7.26779e+08,-7.26584e+08,490214,-0.0217184,0.268551,-0,0.269427,-4148.62,-26450.5,-0,26773.9,490214
step02_gravity_refstate-crust.xmf,350,1.50529e-07,-3.10782e-08,0,6.66183e-06,-7.26535e+08,-7.26547e+08,-7.26545e+08,457001,-0.0230983,0.25021,-0,0.251274,-5583.6,-26450.8,-0,27033.7,457001
step02_gravity_refstate-crust.xmf,351,1.01859e-06,-1.69781e-06,0,7.59933e-06,-7.43541e+08,-7.43727e+08,-7.43611e+08,521314,-0.0230176,0.265237,-0,0.266234,-4499.07,-27070.8,-0,27442.2,521314
step02_gravity_refstate-crust.xmf,352,2.08335e-06,-3.49021e-06,0,7.81299e-06,-7.42869e+08,-7.43251e+08,-7.43012e+08,535971,-0.021937,0.274898,-0,0.275772,-3812.65,-27047.9,-0,27315.3,535971
step02_gravity_refstate-crust.xmf,353,1.04411e-06,-2.19016e-06,0,8.36448e-06,-7.60123e+08,-7.60345e+08,-7.60195e+08,573804,-0.0232151,0.271674,-0,0.272664,-4146.75,-27673.9,-0,27982.8,573804
step02_gravity_refstate-crust.xmf,354,2.34374e-06,-4.14847e-06,0,8.52665e-06,-7.5837e+08,-7.58816e+08,-7.58531e+08,584929,-0.0220181,0.281975,-0,0.282833,-3479.72,-27612.3,-0,27830.7,584929
step02_gravity_refstate-crust.xmf,355,-9.19923e-08,1.07287e-06,0,4.7963e-06,-6.51488e+08,-6.51408e+08,-6.51482e+08,329026,-0.0212084,0.229364,-0,0.230343,-7720.59,-23719.4,-0,24944.2,329026
step02_gravity_refstate-crust.xmf,356,-3.15335e-07,1.18937e-06,0,5.37574e-06,-6.89263e+08,-6.8916e+08,-6.89241e+08,368776,-0.0221583,0.232975,-0,0.234027,-7178.98,-25093.9,-0,26100.6,368776
step02_gravity_refstate-crust.xmf,357,-3.14632e-07,1.50528e-06,0,4.44753e-06,-6.38183e+08,-6.38058e+08,-6.38161e+08,305101,-0.0207317,0.222639,-0,0.223603,-8578.15,-23234.7,-0,24767.7,305101
step02_gravity_refstate-crust.xmf,358,-4.59576e-07,1.81808e-06,0,4.11352e-06,-6.2297e+08,-6.22814e+08,-6.22938e+08,282188,-0.0201236,0.216583,-0,0.217516,-9448.41,-22680.8,-0,24570.1,282188
step02_gravity_refstate-crust.xmf,359,-6.16456e-07,2.19011e-06,0,3.56651e-06,-5.92008e+08,-5.91815e+08,-5.91965e+08,244663,-0.018816,0.206595,-0,0.20745,-11134.8,-21553.5,-0,24259.8,244663
step02_gravity_refstate-crust.xmf,360,-5.56619e-07,2.03903e-06,0,3.82881e-06,-6.08322e+08,-6.08144e+08,-6.08283e+08,262656,-0.0194956,0.211357,-0,0.212254,-10281.2,-22147.5,-0,24417.5,262656
step02_gravity_refstate-crust.xmf,361,-7.33573e-07,2.4591e-06,0,2.00958e-06,-4.74267e+08,-4.74048e+08,-4.74217e+08,137857,-0.0128171,0.171676,-0,0.172154,-19560.1,-17267,-0,26091.1,137857
step02_gravity_refstate-crust.xmf,362,-8.11622e-07,2.6677e-06,0,2.50889e-06,-5.33161e+08,-5.32922e+08,-5.33105e+08,172110,-0.0149772,0.182185,-0,0.1828,-16148.6,-19411.1,-0,25250.1,172110
step02_gravity_refstate-crust.xmf,363,-7.69302e-07,2.56765e-06,0,2.18541e-06,-4.98419e+08,-4.9819e+08,-4.98366e+08,149919,-0.0135523,0.17516,-0,0.175683,-18274.8,-18146.3,-0,25753.7,149919
step02_gravity_refstate-crust.xmf,364,-7.98116e-07,2.63988e-06,0,2.35043e-06,-5.18141e+08,-5.17906e+08,-5.18087e+08,161239,-0.014282,0.178666,-0,0.179235,-17139.1,-18864.3,-0,25487.5,161239
step02_gravity_refstate-crust.xmf,365,-8.35424e-07,2.66486e-06,0,3.09851e-06,-5.84174e+08,-5.83934e+08,-5.84117e+08,212558,-0.017321,0.194354,-0,0.195125,-13116.3,-21268.2,-0,24987.5,212558
step02_gravity_refstate-crust.xmf,366,-6.73797e-07,1.96441e-06,0,4.68172e-07,-3.92725e+08,-3.92544e+08,-3.92678e+08,32116.6,-0.00377071,0.137811,-0,0.137863,-34349.9,-14297.8,-0,37206.8,32116.6
step02_gravity_refstate-crust.xmf,367,-7.10666e-07,1.84414e-06,0,3.16882e-07,-3.681e+08,-3.67924e+08,-3.68051e+08,21738.1,-0.00276102,0.137722,-0,0.137749,-36115.4,-13401,-0,38521.5,21738.1
step02_gravity_refstate-crust.xmf,368,-7.68717e-07,1.71198e-06,0,1.66619e-07,-3.38121e+08,-3.37951e+08,-3.38068e+08,11430.1,-0.00160669,0.138509,-0,0.138519,-37913.2,-12309.2,-0,39861.4,11430.1
step02_gravity_refstate-crust.xmf,369,-8.49525e-07,1.55871e-06,0,3.73199e-10,-3.0071e+08,-3.00545e+08,-3.00652e+08,25.6014,-3.23306e-19,0.140267,-0,0.140267,-40000,-10946.6,-0,41470.8,25.6014
step02_gravity_refstate-crust.xmf,370,-7.68747e-07,2.64171e-06,0,1.80938e-06,-4.95669e+08,-4.95435e+08,-4.95616e+08,124123,-0.0114826,0.163741,-0,0.164143,-20996,-18046.3,-0,27685.8,124123
step02_gravity_refstate-crust.xmf,371,-6.7688e-07,2.01055e-06,0,7.88672e-07,-3.94357e+08,-3.94172e+08,-3.9431e+08,54102.9,-0.00618765,0.143397,-0,0.143531,-30747.9,-14357.3,-0,33934.7,54102.9
step02_gravity_refstate-crust.xmf,372,-6.38726e-07,2.11094e-06,0,6.17059e-07,-4.20928e+08,-4.20739e+08,-4.20884e+08,42330.3,-0.00458688,0.138068,-0,0.138145,-32644.3,-15325,-0,36062.5,42330.3
step02_gravity_refstate-crust.xmf,373,-6.71934e-07,2.1711e-06,0,9.60896e-07,-4.22288e+08,-4.22093e+08,-4.22242e+08,65917.4,-0.00700029,0.145182,-0,0.145351,-28928.1,-15374.5,-0,32759.8,65917.4
step02_gravity_refstate-crust.xmf,374,1.66624e-06,-8.21322e-07,0,1.62737e-06,-3.93133e+08,-3.93304e+08,-3.93247e+08,111638,-0.00869634,0.243168,-0,0.243323,-4458.53,-14317.9,-0,14996,111638
step02_gravity_refstate-crust.xmf,375,2.85947e-06,-1.08383e-06,0,1.31576e-08,271681,1170.32,75521.4,902.612,-0.00878615,0.237055,-0,0.237218,-2992.92,0,-0,2992.92,902.612
step02_gravity_refstate-crust.xmf,376,2.24431e-06,-1.80973e-06,0,2.5301e-06,-5.25617e+08,-5.25895e+08,-5.25771e+08,173565,-0.0113711,0.250582,-0,0.25084,-4042.09,-19141.9,-0,19564,173565
step02_gravity_refstate-crust.xmf,377,2.64276e-06,-3.61081e-06,0,6.4391e-06,-7.09517e+08,-7.09946e+08,-7.09699e+08,441722,-0.0199128,0.270775,-0,0.271506,-3794.71,-25835.8,-0,26113,441722
step02_gravity_refstate-crust.xmf,378,2.51763e-06,-2.79056e-06,0,4.81755e-06,-6.53272e+08,-6.53636e+08,-6.53444e+08,330484,-0.0174525,0.260816,-0,0.261399,-4147.57,-23788.9,-0,24147.7,330484
step02_gravity_refstate-crust.xmf,379,2.7495e-06,-2.71425e-06,0,3.26137e-06,-5.92722e+08,-5.93097e+08,-5.92911e+08,223730,-0.013043,0.257842,-0,0.258172,-3653.48,-21585.6,-0,21892.6,223730
step02_gravity_refstate-crust.xmf,380,2.98759e-06,-4.51164e-06,0,7.02243e-06,-7.26418e+08,-7.26933e+08,-7.26623e+08,481739,-0.0200499,0.277137,-0,0.277862,-3461.35,-26451.1,-0,26676.6,481739
step02_gravity_refstate-crust.xmf,381,3.37854e-06,-5.45166e-06,0,7.65272e-06,-7.42506e+08,-7.43112e+08,-7.42738e+08,524977,-0.0200964,0.284048,-0,0.284758,-3144.66,-27036.9,-0,27219.2,524977
step02_gravity_refstate-crust.xmf,382,1.3657e-07,-2.23731e-07,0,7.21177e-06,-7.44009e+08,-7.44034e+08,-7.44019e+08,494728,-0.0234162,0.255296,-0,0.256368,-5206.09,-27086.6,-0,27582.4,494728
step02_gravity_refstate-crust.xmf,383,1.24318e-06,-2.91646e-06,0,9.14751e-06,-7.74297e+08,-7.74583e+08,-7.74383e+08,627519,-0.0231604,0.279433,-0,0.280391,-3758.32,-28189.6,-0,28439,627519
step02_gravity_refstate-crust.xmf,384,-2.81607e-07,1.27803e-06,0,5.04052e-06,-6.72552e+08,-6.72445e+08,-6.72532e+08,345779,-0.0217183,0.229688,-0,0.230713,-7587.7,-24485.8,-0,25634.5,345779
step02_gravity_refstate-crust.xmf,385,-3.43872e-07,1.09873e-06,0,5.7811e-06,-7.08078e+08,-7.07979e+08,-7.08054e+08,396583,-0.0226144,0.236985,-0,0.238062,-6730.41,-25778.6,-0,26642.7,396583
step02_gravity_refstate-crust.xmf,386,-4.44256e-07,1.03752e-06,0,6.22436e-06,-7.26458e+08,-7.26356e+08,-7.26427e+08,426991,-0.0229874,0.240946,-0,0.24204,-6329.73,-26447.2,-0,27194.1,426991
step02_gravity_refstate-crust.xmf,387,-9.26124e-07,2.94281e-06,0,2.47847e-06,-5.64984e+08,-5.64719e+08,-5.64921e+08,170023,-0.0146346,0.178413,-0,0.179012,-16248.9,-20569.6,-0,26213.3,170023
step02_gravity_refstate-crust.xmf,388,-9.67501e-07,2.99198e-06,0,2.65881e-06,-5.823e+08,-5.82028e+08,-5.82233e+08,182395,-0.0154037,0.182035,-0,0.182685,-15234.5,-21199.9,-0,26106.1,182395
step02_gravity_refstate-crust.xmf,389,-1.00712e-06,3.02504e-06,0,2.86157e-06,-5.99984e+08,-5.99707e+08,-5.99915e+08,196304,-0.0162158,0.185986,-0,0.186692,-14216.9,-21843.6,-0,26062.7,196304
step02_gravity_refstate-crust.xmf,390,-6.79676e-07,2.32439e-06,0,1.13152e-06,-4.46921e+08,-4.46715e+08,-4.46875e+08,77622.4,-0.00780674,0.147623,-0,0.147829,-27154.8,-16271.5,-0,31656.6,77622.4
step02_gravity_refstate-crust.xmf,391,-7.01361e-07,2.47224e-06,0,1.29873e-06,-4.697e+08,-4.69482e+08,-4.69652e+08,89093,-0.00859867,0.150472,-0,0.150718,-25465.4,-17100.9,-0,30674.5,89093
step02_gravity_refstate-crust.xmf,392,-7.35232e-07,2.6296e-06,0,1.45068e-06,-4.93834e+08,-4.93603e+08,-4.93783e+08,99516.3,-0.00928323,0.153066,-0,0.153348,-23950.8,-17979.6,-0,29948.4,99516.3
step02_gravity_refstate-crust.xmf,393,-7.81353e-07,2.7879e-06,0,1.60296e-06,-5.17875e+08,-5.1763e+08,-5.17821e+08,109963,-0.00999126,0.15588,-0,0.1562,-22473.1,-18854.9,-0,29335.1,109963
step02_gravity_refstate-crust.xmf,394,-5.94231e-07,2.19941e-06,0,4.51361e-07,-4.45992e+08,-4.458e+08,-4.45951e+08,30963.4,-0.00318262,0.133601,-0,0.133639,-34495.8,-16237.8,-0,38126.4,30963.4
step02_gravity_refstate-crust.xmf,395,1.64398e-06,-6.98877e-07,0,1.05528e-06,-3.25781e+08,-3.25942e+08,-3.25894e+08,72392.4,-0.00622238,0.243474,-0,0.243554,-3512.12,-11866,-0,12374.8,72392.4
step02_gravity_refstate-crust.xmf,396,1.71043e-06,-8.43786e-07,0,1.29205e-06,-3.67545e+08,-3.67721e+08,-3.67663e+08,88634.7,-0.00708667,0.244149,-0,0.244252,-3748.65,-13386.5,-0,13901.4,88634.7
step02_gravity_refstate-crust.xmf,397,1.60047e-06,-5.81816e-07,0,8.73802e-07,-2.83629e+08,-2.83778e+08,-2.83738e+08,59942.8,-0.00566565,0.242806,-0,0.242872,-3340.05,-10331.4,-0,10857.8,59942.8
step02_gravity_refstate-crust.xmf,398,1.59652e-06,-5.03357e-07,0,7.21965e-07,-2.41274e+08,-2.41418e+08,-2.41384e+08,49526.8,-0.00532847,0.242217,-0,0.242276,-3187.52,-8789.51,-0,9349.64,49526.8
step02_gravity_refstate-crust.xmf,399,1.64381e-06,-4.68875e-07,0,5.84217e-07,-1.98108e+08,-1.98253e+08,-1.98221e+08,40077.3,-0.00517365,0.241677,-0,0.241732,-3033.68,-7218.25,-0,7829.84,40077.3
step02_gravity_refstate-crust.xmf,400,1.75915e-06,-4.8674e-07,0,4.50608e-07,-1.53203e+08,-1.53357e+08,-1.53324e+08,30911.7,-0.00518687,0.241119,-0,0.241175,-2861.71,-5583.88,-0,6274.48,30911.7
step02_gravity_refstate-crust.xmf,401,1.97104e-06,-5.74721e-07,0,3.07998e-07,-1.06209e+08,-1.06383e+08,-1.06344e+08,21128.7,-0.00524958,0.240505,-0,0.240563,-2600.71,-3873.72,-0,4665.77,21128.7
step02_gravity_refstate-crust.xmf,402,2.37321e-06,-7.84434e-07,0,1.58593e-07,-5.16909e+07,-5.19075e+07,-5.18537e+07,10879.5,-0.00539392,0.239503,-0,0.239563,-2242.55,-1890.25,-0,2932.93,10879.5
step02_gravity_refstate-crust.xmf,403,2.16665e-06,-1.63519e-06,0,2.16782e-06,-4.96587e+08,-4.96848e+08,-4.96736e+08,148712,-0.0100976,0.249361,-0,0.249566,-3887.06,-18085,-0,18498,148712
step02_gravity_refstate-crust.xmf,404,1.8621e-06,-1.08454e-06,0,1.39596e-06,-4.05137e+08,-4.05339e+08,-4.05265e+08,95762.8,-0.00726512,0.24595,-0,0.246057,-3524.53,-14755.3,-0,15170.4,95762.8
step02_gravity_refstate-crust.xmf,405,1.9819e-06,-1.28806e-06,0,1.60991e-06,-4.38688e+08,-4.38913e+08,-4.38824e+08,110440,-0.0080264,0.247216,-0,0.247347,-3590.42,-15976.9,-0,16375.4,110440
step02_gravity_refstate-crust.xmf,406,2.07556e-06,-1.45872e-06,0,1.8667e-06,-4.67608e+08,-4.6785e+08,-4.6775e+08,128056,-0.00898931,0.24823,-0,0.248393,-3737.7,-17029.9,-0,17435.2,128056
step02_gravity_refstate-crust.xmf,407,2.85026e-06,-3.51715e-06,0,5.2083e-06,-6.73311e+08,-6.73748e+08,-6.73506e+08,357290,-0.0176567,0.266117,-0,0.266702,-3788.04,-24518.6,-0,24809.5,357290
step02_gravity_refstate-crust.xmf,408,3.27217e-06,-4.34614e-06,0,5.60936e-06,-6.92187e+08,-6.92709e+08,-6.92411e+08,384802,-0.0176812,0.272164,-0,0.272738,-3414.2,-25206.3,-0,25436.4,384802
step02_gravity_refstate-crust.xmf,409,2.61984e-06,-2.34661e-06,0,2.29298e-06,-5.39534e+08,-5.39875e+08,-5.39714e+08,157298,-0.00992806,0.2547,-0,0.254894,-3253.08,-19649.3,-0,19916.7,157298
step02_gravity_refstate-crust.xmf,410,2.79293e-06,-2.70224e-06,0,2.70418e-06,-5.69916e+08,-5.70293e+08,-5.70108e+08,185507,-0.0111618,0.257225,-0,0.257467,-3313.96,-20755.5,-0,21018.4,185507
step02_gravity_refstate-crust.xmf,411,2.81734e-06,-3.09772e-06,0,4.14207e-06,-6.33041e+08,-6.33447e+08,-6.33234e+08,284146,-0.0153968,0.26126,-0,0.261713,-3794.46,-23053.1,-0,23363.3,284146
step02_gravity_refstate-crust.xmf,412,3.04266e-06,-3.21335e-06,0,3.45739e-06,-6.13336e+08,-6.13765e+08,-6.13544e+08,237177,-0.0131663,0.261614,-0,0.261945,-3370.9,-22336.4,-0,22589.4,237177
step02_gravity_refstate-crust.xmf,413,2.6605e-06,-5.05362e-06,0,9.33362e-06,-7.72637e+08,-7.73166e+08,-7.7282e+08,640286,-0.0219271,0.289655,-0,0.290484,-3159.04,-28131.6,-0,28308.4,640286
step02_gravity_refstate-crust.xmf,414,3.81941e-06,-6.37075e-06,0,8.3385e-06,-7.57841e+08,-7.5854e+08,-7.58103e+08,572021,-0.0200461,0.291516,-0,0.292205,-2847.77,-27595.5,-0,27742.1,572021
step02_gravity_refstate-crust.xmf,415,-5.42614e-07,9.76029e-07,0,6.70263e-06,-7.44249e+08,-7.44145e+08,-7.44212e+08,459800,-0.0232617,0.245357,-0,0.246458,-5933.43,-27094.4,-0,27736.5,459800
step02_gravity_refstate-crust.xmf,416,6.59852e-08,-4.2685e-07,0,7.84673e-06,-7.61428e+08,-7.61462e+08,-7.61432e+08,538286,-0.0236156,0.26093,-0,0.261996,-4836.51,-27720.1,-0,28138.9,538286
step02_gravity_refstate-crust.xmf,417,4.73308e-09,-7.78152e-07,0,8.68992e-06,-7.79674e+08,-7.79727e+08,-7.79674e+08,596128,-0.0236165,0.268419,-0,0.269456,-4405.64,-28383.6,-0,28723.5,596128
step02_gravity_refstate-crust.xmf,418,-6.3372e-07,1.90756e-06,0,4.65903e-06,-6.67105e+08,-6.66931e+08,-6.67062e+08,319609,-0.0212,0.221129,-0,0.222143,-8545.66,-24287,-0,25746.6,319609
step02_gravity_refstate-crust.xmf,419,-7.17942e-07,1.93628e-06,0,4.99642e-06,-6.89332e+08,-6.8915e+08,-6.89283e+08,342754,-0.0217125,0.224318,-0,0.225367,-8041.33,-25095.9,-0,26352.8,342754
step02_gravity_refstate-crust.xmf,420,-8.01832e-07,1.93358e-06,0,5.33849e-06,-7.08056e+08,-7.07868e+08,-7.08001e+08,366220,-0.0221209,0.227734,-0,0.228806,-7578.7,-25777.2,-0,26868.2,366220
step02_gravity_refstate-crust.xmf,421,-7.40307e-07,2.20829e-06,0,4.24432e-06,-6.50674e+08,-6.50472e+08,-6.50624e+08,291160,-0.020427,0.214266,-0,0.215237,-9484.32,-23688.9,-0,25517,291160
step02_gravity_refstate-crust.xmf,422,-8.04465e-07,2.40799e-06,0,3.90972e-06,-6.35377e+08,-6.35156e+08,-6.35322e+08,268207,-0.0196789,0.208596,-0,0.209522,-10357.6,-23132,-0,25345,268207
step02_gravity_refstate-crust.xmf,423,-8.52177e-07,2.6227e-06,0,3.35095e-06,-6.02448e+08,-6.0221e+08,-6.02389e+08,229875,-0.0181281,0.198792,-0,0.199617,-12153.6,-21933.3,-0,25075.5,229875
step02_gravity_refstate-crust.xmf,424,-8.42278e-07,2.54621e-06,0,3.61751e-06,-6.19981e+08,-6.19748e+08,-6.19923e+08,248161,-0.0189165,0.203466,-0,0.204343,-11237.4,-22571.6,-0,25214.2,248161
step02_gravity_refstate-crust.xmf,425,-8.27769e-07,2.77798e-06,0,1.97936e-06,-5.1985e+08,-5.19603e+08,-5.19794e+08,135784,-0.0122396,0.167025,-0,0.167473,-19631.1,-18926.6,-0,27268.9,135784
step02_gravity_refstate-crust.xmf,426,-8.8307e-07,2.88113e-06,0,2.3304e-06,-5.48903e+08,-5.48645e+08,-5.48842e+08,159866,-0.0139983,0.175524,-0,0.176082,-17149.1,-19984.2,-0,26333.7,159866
step02_gravity_refstate-crust.xmf,427,-8.82668e-07,2.92489e-06,0,2.15178e-06,-5.46024e+08,-5.45763e+08,-5.45963e+08,147612,-0.0130249,0.170327,-0,0.170824,-18291.4,-19879.5,-0,27014.2,147612
step02_gravity_refstate-crust.xmf,428,-1.02721e-06,3.03256e-06,0,3.07993e-06,-6.1707e+08,-6.16791e+08,-6.16999e+08,211283,-0.0170588,0.190319,-0,0.191082,-13215.1,-22465.6,-0,26064.2,211283
step02_gravity_refstate-crust.xmf,429,-6.30128e-07,2.05673e-06,0,3.43585e-07,-4.16746e+08,-4.16561e+08,-4.16702e+08,23569.9,-0.0026114,0.134521,-0,0.134547,-35817.7,-15172.7,-0,38898.9,23569.9
step02_gravity_refstate-crust.xmf,430,-6.31455e-07,2.02554e-06,0,1.79008e-07,-4.12421e+08,-4.12239e+08,-4.12378e+08,12279.9,-0.00138296,0.133504,-0,0.133511,-37804.3,-15015.2,-0,40677,12279.9
step02_gravity_refstate-crust.xmf,431,-7.02474e-07,1.84675e-06,0,8.46955e-10,-3.71378e+08,-3.71203e+08,-3.7133e+08,58.1011,-2.79093e-19,0.135884,-0,0.135884,-40000,-13520.4,-0,42223.2,58.1011
step02_gravity_refstate-crust.xmf,432,-8.29289e-07,2.94286e-06,0,1.75352e-06,-5.4144e+08,-5.41181e+08,-5.41383e+08,120292,-0.0107224,0.158865,-0,0.159227,-21051.7,-19712.9,-0,28840.4,120292
step02_gravity_refstate-crust.xmf,433,-6.23104e-07,2.27756e-06,0,7.71525e-07,-4.50498e+08,-4.50299e+08,-4.50455e+08,52926.6,-0.00534302,0.138798,-0,0.138901,-30859,-16401.8,-0,34947,52926.6
step02_gravity_refstate-crust.xmf,434,-5.68876e-07,2.35982e-06,0,5.88472e-07,-4.75966e+08,-4.75765e+08,-4.75927e+08,40369.2,-0.00385944,0.133343,-0,0.133398,-32805.6,-17329.4,-0,37101.4,40369.2
step02_gravity_refstate-crust.xmf,435,-6.31755e-07,2.46292e-06,0,9.35858e-07,-4.80597e+08,-4.80385e+08,-4.80554e+08,64199.9,-0.00609588,0.140178,-0,0.14031,-28965,-17497.9,-0,33840,64199.9
step02_gravity_refstate-crust.xmf,436,2.97657e-06,-1.12846e-06,0,6.26329e-09,282796,1191.78,78603.8,429.662,-0.00296957,0.238446,-0,0.238465,-997.56,0,-0,997.56,429.662
step02_gravity_refstate-crust.xmf,437,2.48989e-06,-2.08887e-06,0,1.91773e-06,-5.1113e+08,-5.11444e+08,-5.11301e+08,131556,-0.0086358,0.253009,-0,0.253157,-3078.65,-18615,-0,18867.9,131556
step02_gravity_refstate-crust.xmf,438,3.7261e-06,-5.15811e-06,0,6.04418e-06,-7.09969e+08,-7.10578e+08,-7.10225e+08,414631,-0.0176672,0.27852,-0,0.27908,-3078.55,-25854.2,-0,26036.9,414631
step02_gravity_refstate-crust.xmf,439,3.23959e-06,-3.79161e-06,0,4.41876e-06,-6.54645e+08,-6.55127e+08,-6.54867e+08,303127,-0.015363,0.266778,-0,0.26722,-3393.56,-23840.2,-0,24080.6,303127
step02_gravity_refstate-crust.xmf,440,3.17758e-06,-3.28462e-06,0,2.80284e-06,-5.94291e+08,-5.94734e+08,-5.94509e+08,192275,-0.0109357,0.261612,-0,0.26184,-2919.63,-21643.5,-0,21839.6,192275
step02_gravity_refstate-crust.xmf,441,4.24308e-06,-6.34692e-06,0,6.56398e-06,-7.27385e+08,-7.28112e+08,-7.27676e+08,450289,-0.0176193,0.285453,-0,0.285996,-2767.98,-26488.5,-0,26632.8,450289
step02_gravity_refstate-crust.xmf,442,5.52337e-07,-1.96508e-06,0,9.44769e-06,-7.87755e+08,-7.87928e+08,-7.87793e+08,648112,-0.0234168,0.278613,-0,0.279595,-3869.04,-28678.2,-0,28938,648112
step02_gravity_refstate-crust.xmf,443,1.61036e-06,-3.82452e-06,0,9.92369e-06,-7.86781e+08,-7.87153e+08,-7.86891e+08,680765,-0.022891,0.287853,-0,0.288762,-3383.55,-28644.1,-0,28843.3,680765
step02_gravity_refstate-crust.xmf,444,4.7849e-06,-7.47671e-06,0,7.02954e-06,-7.42732e+08,-7.43573e+08,-7.4306e+08,482227,-0.0174541,0.292474,-0,0.292994,-2491.72,-27047.7,-0,27162.2,482227
step02_gravity_refstate-crust.xmf,445,-6.60608e-07,9.4354e-07,0,7.2108e-06,-7.61757e+08,-7.61647e+08,-7.61712e+08,494661,-0.0233889,0.250041,-0,0.251132,-5556.8,-27731.3,-0,28282.6,494661
step02_gravity_refstate-crust.xmf,446,-8.88613e-07,1.93241e-06,0,5.71216e-06,-7.26415e+08,-7.26221e+08,-7.26354e+08,391854,-0.0224526,0.231481,-0,0.232568,-7125.59,-26445.2,-0,27388.4,391854
step02_gravity_refstate-crust.xmf,447,-1.01938e-06,1.95017e-06,0,6.12013e-06,-7.44516e+08,-7.44312e+08,-7.44446e+08,419841,-0.0226679,0.235471,-0,0.236559,-6691.36,-27103.7,-0,27917.5,419841
step02_gravity_refstate-crust.xmf,448,-9.70839e-07,3.13557e-06,0,2.24846e-06,-5.78647e+08,-5.78365e+08,-5.7858e+08,154244,-0.0133175,0.170828,-0,0.171346,-17439.2,-21067.2,-0,27348.7,154244
step02_gravity_refstate-crust.xmf,449,-1.03522e-06,3.23926e-06,0,2.40942e-06,-5.98583e+08,-5.98289e+08,-5.98512e+08,165286,-0.0140337,0.173977,-0,0.174542,-16373,-21792.8,-0,27258.1,165286
step02_gravity_refstate-crust.xmf,450,-1.09812e-06,3.31859e-06,0,2.59317e-06,-6.16794e+08,-6.16491e+08,-6.16719e+08,177891,-0.0148216,0.177648,-0,0.178265,-15309.7,-22455.7,-0,27178,177891
step02_gravity_refstate-crust.xmf,451,-1.15835e-06,3.37596e-06,0,2.79315e-06,-6.33762e+08,-6.3345e+08,-6.33682e+08,191610,-0.0156282,0.181604,-0,0.182276,-14290.5,-23073.3,-0,27140.2,191610
step02_gravity_refstate-crust.xmf,452,-5.51352e-07,2.25922e-06,0,2.95775e-07,-4.64492e+08,-4.64299e+08,-4.64454e+08,20290.2,-0.00199577,0.130354,-0,0.130369,-36323.3,-16911.6,-0,40067.2,20290.2
step02_gravity_refstate-crust.xmf,453,-6.69172e-07,2.58655e-06,0,1.12629e-06,-4.95853e+08,-4.95629e+08,-4.95807e+08,77263.3,-0.00718105,0.143912,-0,0.144091,-26908.8,-18053.3,-0,32403.8,77263.3
step02_gravity_refstate-crust.xmf,454,-7.0282e-07,2.73829e-06,0,1.25862e-06,-5.17766e+08,-5.1753e+08,-5.17718e+08,86341.3,-0.00779592,0.145965,-0,0.146173,-25447.9,-18851.2,-0,31669.6,86341.3
step02_gravity_refstate-crust.xmf,455,-7.48851e-07,2.89876e-06,0,1.39495e-06,-5.40351e+08,-5.40101e+08,-5.403e+08,95693.6,-0.00844598,0.148353,-0,0.148594,-23960.1,-19673.5,-0,31002.1,95693.6
step02_gravity_refstate-crust.xmf,456,-8.06318e-07,3.05854e-06,0,1.53561e-06,-5.62315e+08,-5.62049e+08,-5.62259e+08,105343,-0.00914292,0.151114,-0,0.151391,-22482.8,-20473.1,-0,30407.6,105343
step02_gravity_refstate-crust.xmf,457,-5.12478e-07,2.42963e-06,0,4.15363e-07,-4.99265e+08,-4.99063e+08,-4.9923e+08,28493.9,-0.00257644,0.128838,-0,0.128863,-34741.4,-18177.9,-0,39209.7,28493.9
step02_gravity_refstate-crust.xmf,458,1.72094e-06,-7.56255e-07,0,6.45382e-07,-3.08507e+08,-3.08677e+08,-3.08625e+08,44273.2,-0.00390943,0.24498,-0,0.245011,-2209.94,-11237.3,-0,11452.5,44273.2
step02_gravity_refstate-crust.xmf,459,1.81193e-06,-9.34315e-07,0,8.00807e-07,-3.49674e+08,-3.49863e+08,-3.49798e+08,54935.4,-0.00447419,0.246013,-0,0.246054,-2379.67,-12736.1,-0,12956.5,54935.4
step02_gravity_refstate-crust.xmf,460,1.94405e-06,-1.15889e-06,0,9.41069e-07,-3.8832e+08,-3.88533e+08,-3.88453e+08,64557.3,-0.00496011,0.247375,-0,0.247424,-2439.88,-14143.2,-0,14352.2,64557.3
step02_gravity_refstate-crust.xmf,461,1.74336e-06,-5.14759e-07,0,2.88026e-07,-1.78965e+08,-1.7912e+08,-1.79085e+08,19758.6,-0.00279651,0.242746,-0,0.242763,-1587.52,-6521.67,-0,6712.1,19758.6
step02_gravity_refstate-crust.xmf,462,1.67619e-06,-6.26964e-07,0,4.96268e-07,-2.65507e+08,-2.65665e+08,-2.65622e+08,34044,-0.00335609,0.24417,-0,0.244193,-1965.96,-9671.88,-0,9869.66,34044
step02_gravity_refstate-crust.xmf,463,1.67988e-06,-5.47487e-07,0,3.78452e-07,-2.23247e+08,-2.234e+08,-2.23363e+08,25961.8,-0.00296233,0.243475,-0,0.243493,-1740.57,-8133.5,-0,8317.65,25961.8
step02_gravity_refstate-crust.xmf,464,1.88734e-06,-5.45285e-07,0,2.02957e-07,-1.33621e+08,-1.33788e+08,-1.33751e+08,13922.8,-0.00265797,0.242002,-0,0.242017,-1396.68,-4871.4,-0,5067.67,13922.8
step02_gravity_refstate-crust.xmf,465,2.14608e-06,-6.56307e-07,0,1.11545e-07,-8.7562e+07,-8.77542e+07,-8.77092e+07,7651.96,-0.00214424,0.241192,-0,0.241202,-998.487,-3195.45,-0,3347.81,7651.96
step02_gravity_refstate-crust.xmf,466,2.48781e-06,-8.36081e-07,0,1.35471e-08,-4.5416e+07,-4.5644e+07,-4.55867e+07,929.333,-8.83818e-05,0.240243,-0,0.240243,-35.7565,-1662.19,-0,1662.57,929.333
step02_gravity_refstate-crust.xmf,467,2.36042e-06,-1.84302e-06,0,1.55215e-06,-4.80373e+08,-4.80661e+08,-4.80535e+08,106477,-0.00726703,0.251528,-0,0.251633,-2823.75,-17495.2,-0,17721.6,106477
step02_gravity_refstate-crust.xmf,468,2.09319e-06,-1.40049e-06,0,1.09017e-06,-4.22358e+08,-4.22597e+08,-4.22501e+08,74785.4,-0.0054861,0.248859,-0,0.248919,-2486.69,-15382.7,-0,15582.4,74785.4
step02_gravity_refstate-crust.xmf,469,2.23917e-06,-1.64036e-06,0,1.29426e-06,-4.53243e+08,-4.5351e+08,-4.53397e+08,88786.3,-0.00626222,0.250292,-0,0.25037,-2618.58,-16507.3,-0,16713.7,88786.3
step02_gravity_refstate-crust.xmf,470,3.72052e-06,-4.7247e-06,0,4.66532e-06,-6.73726e+08,-6.74306e+08,-6.73981e+08,320041,-0.0151357,0.272568,-0,0.272988,-3012.17,-24535.4,-0,24719.6,320041
step02_gravity_refstate-crust.xmf,471,4.25736e-06,-5.72273e-06,0,4.94927e-06,-6.92602e+08,-6.93287e+08,-6.92894e+08,339520,-0.0149099,0.278825,-0,0.279223,-2669.55,-25223.2,-0,25364.1,339520
step02_gravity_refstate-crust.xmf,472,2.82063e-06,-2.56686e-06,0,1.60986e-06,-5.26459e+08,-5.26829e+08,-5.26653e+08,110437,-0.00699929,0.256465,-0,0.25656,-2312.99,-19173.7,-0,19312.7,110437
step02_gravity_refstate-crust.xmf,473,3.03078e-06,-2.94022e-06,0,1.93461e-06,-5.54077e+08,-5.54487e+08,-5.54285e+08,132714,-0.00804649,0.258888,-0,0.259013,-2427.76,-20179.4,-0,20325,132714
step02_gravity_refstate-crust.xmf,474,3.47299e-06,-4.00335e-06,0,3.62966e-06,-6.35417e+08,-6.3593e+08,-6.35655e+08,248995,-0.0130013,0.26667,-0,0.266987,-2993.11,-23140.9,-0,23333.6,248995
step02_gravity_refstate-crust.xmf,475,3.2302e-06,-3.28107e-06,0,2.22495e-06,-5.77395e+08,-5.77841e+08,-5.77616e+08,152632,-0.0088925,0.261373,-0,0.261524,-2472.98,-21028.6,-0,21173.5,152632
step02_gravity_refstate-crust.xmf,476,3.59555e-06,-3.96499e-06,0,2.87194e-06,-6.16086e+08,-6.16605e+08,-6.16333e+08,197015,-0.0105862,0.266148,-0,0.266358,-2556.29,-22437.7,-0,22582.8,197015
step02_gravity_refstate-crust.xmf,477,5.0381e-07,-2.23632e-06,0,1.01703e-05,-8.00156e+08,-8.00344e+08,-8.0019e+08,697680,-0.0231044,0.28451,-0,0.285447,-3622.55,-29129,-0,29353.4,697680
step02_gravity_refstate-crust.xmf,478,3.11049e-06,-6.25941e-06,0,1.02432e-05,-7.86052e+08,-7.86695e+08,-7.86266e+08,702681,-0.0215811,0.298416,-0,0.299196,-2831.96,-28619.9,-0,28759.7,702681
step02_gravity_refstate-crust.xmf,479,4.41553e-06,-7.73695e-06,0,9.09028e-06,-7.72146e+08,-7.7298e+08,-7.72449e+08,623593,-0.0197238,0.299971,-0,0.300619,-2541.84,-28116.6,-0,28231.3,623593
step02_gravity_refstate-crust.xmf,480,5.34388e-06,-8.64406e-06,0,7.71938e-06,-7.58637e+08,-7.59597e+08,-7.59004e+08,529550,-0.017395,0.300129,-0,0.300633,-2256.35,-27627.2,-0,27719.2,529550
step02_gravity_refstate-crust.xmf,481,-1.16409e-06,2.00523e-06,0,6.53503e-06,-7.62146e+08,-7.61929e+08,-7.62066e+08,448303,-0.0227102,0.239559,-0,0.240633,-6287.91,-27745.1,-0,28448.7,448303
step02_gravity_refstate-crust.xmf,482,-8.21732e-07,9.27389e-07,0,7.77432e-06,-7.79251e+08,-7.79131e+08,-7.79194e+08,533318,-0.0233057,0.255277,-0,0.256339,-5181.87,-28367.5,-0,28836.9,533318
step02_gravity_refstate-crust.xmf,483,-3.23833e-07,-4.95664e-07,0,9.26644e-06,-7.98351e+08,-7.98362e+08,-7.98328e+08,635678,-0.0232163,0.272879,-0,0.273865,-4189.89,-29062.7,-0,29363.1,635678
step02_gravity_refstate-crust.xmf,484,-1.03696e-06,2.66022e-06,0,4.29812e-06,-6.77558e+08,-6.77304e+08,-6.77487e+08,294851,-0.0203825,0.21129,-0,0.212271,-9554.05,-24667.1,-0,26452.7,294851
step02_gravity_refstate-crust.xmf,485,-9.96824e-07,2.50113e-06,0,4.62012e-06,-6.89928e+08,-6.89688e+08,-6.89859e+08,316940,-0.0210188,0.21647,-0,0.217488,-8853.5,-25117.4,-0,26632,316940
step02_gravity_refstate-crust.xmf,486,-1.11546e-06,2.60877e-06,0,4.85372e-06,-7.08012e+08,-7.07756e+08,-7.07935e+08,332965,-0.0212661,0.218522,-0,0.219554,-8469.41,-25775.4,-0,27131.2,332965
step02_gravity_refstate-crust.xmf,487,-1.22088e-06,2.64573e-06,0,5.18394e-06,-7.26508e+08,-7.26243e+08,-7.26425e+08,355618,-0.0215678,0.222101,-0,0.223146,-7958.88,-26448.4,-0,27620,355618
step02_gravity_refstate-crust.xmf,488,-1.05615e-06,2.80737e-06,0,3.95172e-06,-6.62991e+08,-6.62726e+08,-6.62918e+08,271088,-0.0196142,0.205715,-0,0.206647,-10390.7,-24136.9,-0,26278.5,271088
step02_gravity_refstate-crust.xmf,489,-1.07152e-06,2.9311e-06,0,3.63284e-06,-6.48611e+08,-6.48336e+08,-6.48537e+08,249213,-0.0187759,0.200188,-0,0.201067,-11295.6,-23613.5,-0,26176.1,249213
step02_gravity_refstate-crust.xmf,490,-1.06439e-06,3.00554e-06,0,3.34316e-06,-6.33509e+08,-6.3323e+08,-6.33436e+08,229341,-0.0179069,0.194973,-0,0.195794,-12247.2,-23063.9,-0,26113.9,229341
step02_gravity_refstate-crust.xmf,491,-1.19138e-06,3.39032e-06,0,3.00723e-06,-6.47383e+08,-6.47068e+08,-6.47301e+08,206296,-0.0164663,0.185991,-0,0.186718,-13335.9,-23569,-0,27080.4,206296
step02_gravity_refstate-crust.xmf,492,-9.00728e-07,3.10182e-06,0,1.89383e-06,-5.6577e+08,-5.65496e+08,-5.65709e+08,129917,-0.0113657,0.161445,-0,0.161845,-19785.1,-20598.6,-0,28561.4,129917
step02_gravity_refstate-crust.xmf,493,-8.64246e-07,3.22098e-06,0,1.6649e-06,-5.84743e+08,-5.84463e+08,-5.84684e+08,114212,-0.00977503,0.153692,-0,0.154003,-21130.5,-21289.7,-0,29995.8,114212
step02_gravity_refstate-crust.xmf,494,-5.78777e-07,2.13971e-06,0,1.15078e-09,-4.40645e+08,-4.40458e+08,-4.40605e+08,78.9436,-1.82295e-19,0.130857,-0,0.130857,-40000,-16043.1,-0,43097.3,78.9436
step02_gravity_refstate-crust.xmf,495,-5.6155e-07,2.53196e-06,0,7.17367e-07,-5.05789e+08,-5.05577e+08,-5.05751e+08,49211.4,-0.00442589,0.133425,-0,0.133498,-31144.5,-18415.4,-0,36181.6,49211.4
step02_gravity_refstate-crust.xmf,496,-4.90575e-07,2.59297e-06,0,5.34626e-07,-5.29768e+08,-5.29557e+08,-5.29735e+08,36675.3,-0.00308232,0.128044,-0,0.128081,-33116.9,-19288.8,-0,38324.8,36675.3
step02_gravity_refstate-crust.xmf,497,-6.20322e-07,2.68482e-06,0,9.75475e-07,-5.21492e+08,-5.21265e+08,-5.2145e+08,66917.6,-0.00592852,0.138188,-0,0.138316,-28181.4,-18987.1,-0,33980.9,66917.6
step02_gravity_refstate-crust.xmf,498,1.8182e-06,-5.3575e-07,0,3.21936e-08,-1.58894e+08,-1.59055e+08,-1.59019e+08,2208.48,-0.000361163,0.242882,-0,0.242883,-198.385,-5791.22,-0,5794.61,2208.48
step02_gravity_refstate-crust.xmf,499,2.97211e-06,-1.1277e-06,0,6.37764e-09,282333,1086.49,78446.6,437.506,0.00296824,0.238446,0,0.238464,997.56,0,0,997.56,437.506
step02_gravity_refstate-crust.xmf,500,2.64731e-06,-2.25584e-06,0,1.27732e-06,-4.98882e+08,-4.99219e+08,-4.99064e+08,87623.9,-0.00577204,0.254605,-0,0.25467,-2074.86,-18169.5,-0,18287.6,87623.9
step02_gravity_refstate-crust.xmf,501,4.86309e-06,-6.76205e-06,0,5.30482e-06,-7.11609e+08,-7.12406e+08,-7.11942e+08,363911,-0.0146716,0.285796,-0,0.286173,-2354.84,-25916,-0,26022.8,363911
step02_gravity_refstate-crust.xmf,502,3.95688e-06,-4.77653e-06,0,3.76549e-06,-6.55451e+08,-6.5605e+08,-6.55722e+08,258313,-0.0126615,0.27204,-0,0.272334,-2629.99,-23871,-0,24015.4,258313
step02_gravity_refstate-crust.xmf,503,3.61132e-06,-3.86024e-06,0,2.14589e-06,-5.96061e+08,-5.96573e+08,-5.96308e+08,147208,-0.00816493,0.265156,-0,0.265281,-2084.5,-21708.8,-0,21808.7,147208
step02_gravity_refstate-crust.xmf,504,5.69192e-06,-8.34217e-06,0,5.6849e-06,-7.31452e+08,-7.32415e+08,-7.31842e+08,389984,-0.0141933,0.294336,-0,0.294678,-2017.99,-26639.3,-0,26715.7,389984
step02_gravity_refstate-crust.xmf,505,1.78469e-06,-4.62673e-06,0,1.08644e-05,-7.99822e+08,-8.00262e+08,-7.99945e+08,745296,-0.0224934,0.296113,-0,0.296966,-3078.91,-29118.4,-0,29280.7,745296
step02_gravity_refstate-crust.xmf,506,5.78772e-06,-8.93138e-06,0,6.58264e-06,-7.47051e+08,-7.48061e+08,-7.47448e+08,451569,-0.0154172,0.298945,-0,0.299342,-2048.55,-27206.7,-0,27283.7,451569
step02_gravity_refstate-crust.xmf,507,-1.32962e-06,2.09086e-06,0,6.96554e-06,-7.7952e+08,-7.79286e+08,-7.79429e+08,477836,-0.0225191,0.243834,-0,0.244872,-5905.52,-28377.1,-0,28985.1,477836
step02_gravity_refstate-crust.xmf,508,-9.98286e-07,9.67023e-07,0,8.34015e-06,-7.96422e+08,-7.96287e+08,-7.96353e+08,572134,-0.0228873,0.260651,-0,0.261654,-4836.81,-28992,-0,29392.7,572134
step02_gravity_refstate-crust.xmf,509,-4.06998e-07,-5.72619e-07,0,9.94256e-06,-8.138e+08,-8.13812e+08,-8.13772e+08,682059,-0.0224138,0.279337,-0,0.280235,-3895.49,-29624.7,-0,29879.7,682059
step02_gravity_refstate-crust.xmf,510,-1.33985e-06,2.70193e-06,0,5.53705e-06,-7.44864e+08,-7.44587e+08,-7.44772e+08,379842,-0.0217472,0.225949,-0,0.226993,-7464.44,-27116.3,-0,28124.9,379842
step02_gravity_refstate-crust.xmf,511,-1.49073e-06,2.82279e-06,0,5.86579e-06,-7.62757e+08,-7.62461e+08,-7.62654e+08,402393,-0.0216932,0.229459,-0,0.230483,-7037.27,-27767.3,-0,28645.1,402393
step02_gravity_refstate-crust.xmf,512,-1.24203e-06,3.64692e-06,0,2.68764e-06,-6.59014e+08,-6.58678e+08,-6.58928e+08,184372,-0.0148611,0.17763,-0,0.178251,-14411.5,-23992.7,-0,27988.2,184372
step02_gravity_refstate-crust.xmf,513,-9.66455e-07,3.2897e-06,0,2.00287e-06,-5.93901e+08,-5.93609e+08,-5.93835e+08,137397,-0.011802,0.163036,-0,0.163462,-18694.8,-21622.8,-0,28583.9,137397
step02_gravity_refstate-crust.xmf,514,-1.0467e-06,3.42498e-06,0,2.14961e-06,-6.14764e+08,-6.14458e+08,-6.14693e+08,147463,-0.0124629,0.165944,-0,0.166411,-17554.2,-22382.2,-0,28444.9,147463
step02_gravity_refstate-crust.xmf,515,-1.1254e-06,3.54783e-06,0,2.31167e-06,-6.34436e+08,-6.34115e+08,-6.34359e+08,158580,-0.013177,0.169271,-0,0.169783,-16424.8,-23098.2,-0,28342.6,158580
step02_gravity_refstate-crust.xmf,516,-1.20819e-06,3.65388e-06,0,2.49703e-06,-6.52653e+08,-6.52319e+08,-6.5257e+08,171296,-0.0139566,0.173115,-0,0.173676,-15306.9,-23761.2,-0,28264.8,171296
step02_gravity_refstate-crust.xmf,517,-8.07874e-07,3.30821e-06,0,1.45627e-06,-6.04529e+08,-6.04247e+08,-6.04473e+08,99900.2,-0.00821309,0.14647,-0,0.1467,-22414.1,-22010.3,-0,31414.1,99900.2
step02_gravity_refstate-crust.xmf,518,-5.05278e-07,2.33526e-06,0,1.39639e-07,-4.85844e+08,-4.85649e+08,-4.85809e+08,9579.22,-0.000894658,0.127501,-0,0.127505,-38222,-17689.2,-0,42116.9,9579.22
step02_gravity_refstate-crust.xmf,519,-4.55223e-07,2.50285e-06,0,2.65049e-07,-5.22354e+08,-5.22151e+08,-5.22323e+08,18182.4,-0.00154142,0.125186,-0,0.125196,-36529.6,-19018.8,-0,41184.1,18182.4
step02_gravity_refstate-crust.xmf,520,-6.4793e-07,2.83073e-06,0,1.07972e-06,-5.42752e+08,-5.42514e+08,-5.42708e+08,74069,-0.00637628,0.139383,-0,0.139529,-26872.7,-19761.2,-0,33356.4,74069
step02_gravity_refstate-crust.xmf,521,-6.88456e-07,2.99318e-06,0,1.19332e-06,-5.65355e+08,-5.65102e+08,-5.65308e+08,81861.5,-0.00687434,0.141001,-0,0.141169,-25447.1,-20584.2,-0,32730.1,81861.5
step02_gravity_refstate-crust.xmf,522,-7.46751e-07,3.14766e-06,0,1.32707e-06,-5.84471e+08,-5.84204e+08,-5.8442e+08,91036.8,-0.00756175,0.143727,-0,0.143926,-23890.4,-21280.1,-0,31993.7,91036.8
step02_gravity_refstate-crust.xmf,523,-4.23105e-07,2.65943e-06,0,3.78489e-07,-5.53987e+08,-5.53775e+08,-5.53958e+08,25964.3,-0.00202176,0.123611,-0,0.123627,-34891.8,-20170.8,-0,40302.6,25964.3
step02_gravity_refstate-crust.xmf,524,-5.63198e-07,2.71562e-06,0,8.22719e-07,-5.36774e+08,-5.36549e+08,-5.36736e+08,56438.5,-0.00479064,0.133322,-0,0.133408,-29677.2,-19543.7,-0,35534.4,56438.5
step02_gravity_refstate-crust.xmf,525,1.73955e-06,-7.38189e-07,0,2.59295e-07,-2.90078e+08,-2.90248e+08,-2.90197e+08,17787.6,-0.00160805,0.245519,-0,0.245524,-917.916,-10566.5,-0,10606.3,17787.6
step02_gravity_refstate-crust.xmf,526,1.84336e-06,-9.46291e-07,0,3.76946e-07,-3.34942e+08,-3.35133e+08,-3.35068e+08,25858.5,-0.00215378,0.246744,-0,0.246754,-1159.19,-12199.9,-0,12254.8,25858.5
step02_gravity_refstate-crust.xmf,527,1.97616e-06,-1.16992e-06,0,4.58344e-07,-3.72478e+08,-3.72694e+08,-3.72614e+08,31442.4,-0.0024586,0.248115,-0,0.248127,-1232.08,-13566.6,-0,13622.5,31442.4
step02_gravity_refstate-crust.xmf,528,2.13693e-06,-1.4282e-06,0,5.62989e-07,-4.07743e+08,-4.07988e+08,-4.0789e+08,38621.1,-0.00287245,0.249678,-0,0.249694,-1326.75,-14850.7,-0,14909.9,38621.1
step02_gravity_refstate-crust.xmf,529,1.72451e-06,-5.52422e-07,0,6.13835e-08,-2.06009e+08,-2.06165e+08,-2.06127e+08,4210.91,-0.000542808,0.243782,-0,0.243783,-314.674,-7506.08,-0,7512.67,4210.91
step02_gravity_refstate-crust.xmf,530,1.71362e-06,-6.32163e-07,0,8.00285e-08,-2.4962e+08,-2.49781e+08,-2.49737e+08,5489.96,-0.000606161,0.244696,-0,0.244697,-354.04,-9093.61,-0,9100.5,5489.96
step02_gravity_refstate-crust.xmf,531,1.97271e-06,-5.78589e-07,0,1.3513e-08,-1.19019e+08,-1.19194e+08,-1.19154e+08,926.989,-0.000221802,0.242087,-0,0.242087,-112.32,-4340.1,-0,4341.55,926.989
step02_gravity_refstate-crust.xmf,532,2.15032e-06,-6.547e-07,0,-7.88094e-08,-8.77032e+07,-8.78957e+07,-8.78507e+07,-5406.32,0.0017624,0.241257,0,0.241264,820.354,-3200.61,0,3304.07,5406.32
step02_gravity_refstate-crust.xmf,533,2.4291e-06,-8.08316e-07,0,-1.07626e-07,-4.67818e+07,-4.70039e+07,-4.69484e+07,-7383.17,0.00484214,0.239569,0,0.239617,1973.53,-1711.71,0,2612.43,7383.17
step02_gravity_refstate-crust.xmf,534,2.49658e-06,-2.00153e-06,0,8.81279e-07,-4.69278e+08,-4.69586e+08,-4.69449e+08,60455.7,-0.00415844,0.2531,-0,0.253135,-1624.61,-17091.5,-0,17168.6,60455.7
step02_gravity_refstate-crust.xmf,535,2.31504e-06,-1.71256e-06,0,6.92901e-07,-4.40141e+08,-4.40417e+08,-4.403e+08,47533,-0.00339102,0.251391,-0,0.251414,-1438.52,-16030.5,-0,16094.9,47533
step02_gravity_refstate-crust.xmf,536,4.56915e-06,-5.85582e-06,0,3.76505e-06,-6.73483e+08,-6.74198e+08,-6.73797e+08,258282,-0.0117701,0.278126,-0,0.278375,-2203.5,-24528.2,-0,24627,258282
step02_gravity_refstate-crust.xmf,537,5.13266e-06,-6.9368e-06,0,4.071e-06,-6.94739e+08,-6.95567e+08,-6.95091e+08,279271,-0.0117879,0.284473,-0,0.284717,-1978.02,-25302.7,-0,25379.9,279271
step02_gravity_refstate-crust.xmf,538,2.90792e-06,-2.64444e-06,0,9.35504e-07,-5.14523e+08,-5.14904e+08,-5.14722e+08,64175.6,-0.00410126,0.25722,-0,0.257252,-1379.88,-18739.4,-0,18790.1,64175.6
step02_gravity_refstate-crust.xmf,539,3.17404e-06,-3.08919e-06,0,1.15956e-06,-5.42531e+08,-5.42961e+08,-5.42749e+08,79545.7,-0.00485808,0.259934,-0,0.25998,-1486.1,-19759.4,-0,19815.3,79545.7
step02_gravity_refstate-crust.xmf,540,3.51402e-06,-3.67261e-06,0,1.43148e-06,-5.73038e+08,-5.73531e+08,-5.73279e+08,98199.5,-0.00567392,0.263497,-0,0.263558,-1554.51,-20870.6,-0,20928.4,98199.5
step02_gravity_refstate-crust.xmf,541,4.06635e-06,-4.79794e-06,0,2.88776e-06,-6.36248e+08,-6.36856e+08,-6.36527e+08,198100,-0.0100439,0.271004,-0,0.27119,-2197.48,-23172.3,-0,23276.2,198100
step02_gravity_refstate-crust.xmf,542,4.06669e-06,-4.59295e-06,0,2.06794e-06,-6.17583e+08,-6.18177e+08,-6.17862e+08,141861,-0.00741806,0.269711,-0,0.269812,-1715.11,-22493.1,-0,22558.4,141861
step02_gravity_refstate-crust.xmf,543,5.418e-07,-2.63532e-06,0,1.10626e-05,-8.14373e+08,-8.14591e+08,-8.1441e+08,758893,-0.0223292,0.292598,-0,0.293449,-3318.43,-29646.2,-0,29831.3,758893
step02_gravity_refstate-crust.xmf,544,3.58378e-06,-7.59194e-06,0,1.13248e-05,-7.99151e+08,-7.99917e+08,-7.99396e+08,776879,-0.0210524,0.307716,-0,0.308435,-2541.09,-29096.6,-0,29207.4,776879
step02_gravity_refstate-crust.xmf,545,6.70241e-06,-1.06351e-05,0,6.71162e-06,-7.59896e+08,-7.61085e+08,-7.60355e+08,460417,-0.0144045,0.306992,-0,0.30733,-1744.6,-27675.4,-0,27730.3,460417
step02_gravity_refstate-crust.xmf,546,5.10771e-06,-9.34951e-06,0,9.97264e-06,-7.86196e+08,-7.87188e+08,-7.86547e+08,684123,-0.0192672,0.309157,-0,0.309756,-2264.6,-28628.5,-0,28717.9,684123
step02_gravity_refstate-crust.xmf,547,6.17772e-06,-1.03904e-05,0,8.29856e-06,-7.73254e+08,-7.74391e+08,-7.73678e+08,569281,-0.0168418,0.309059,-0,0.309518,-1982.34,-28160,-0,28229.7,569281
step02_gravity_refstate-crust.xmf,548,-1.64345e-06,2.9705e-06,0,6.19051e-06,-7.80129e+08,-7.79813e+08,-7.80017e+08,424669,-0.0213972,0.23303,-0,0.23401,-6638.49,-28399.3,-0,29164.9,424669
step02_gravity_refstate-crust.xmf,549,-1.48558e-06,2.19389e-06,0,7.40696e-06,-7.96419e+08,-7.96167e+08,-7.96317e+08,508118,-0.0220354,0.2485,-0,0.249475,-5532.03,-28991.8,-0,29514.9,508118
step02_gravity_refstate-crust.xmf,550,-1.08604e-06,1.03655e-06,0,8.87579e-06,-8.1286e+08,-8.12715e+08,-8.12786e+08,608879,-0.0220329,0.266322,-0,0.267232,-4511.23,-29590.2,-0,29932.1,608879
step02_gravity_refstate-crust.xmf,551,-1.29951e-06,3.2301e-06,0,3.94244e-06,-6.90287e+08,-6.89976e+08,-6.90198e+08,270451,-0.0192187,0.202617,-0,0.203527,-10402.6,-25130.3,-0,27198.3,270451
step02_gravity_refstate-crust.xmf,552,-1.32475e-06,3.12081e-06,0,4.34299e-06,-7.0583e+08,-7.05525e+08,-7.05739e+08,297929,-0.020074,0.208975,-0,0.209937,-9481.57,-25695.9,-0,27389.4,297929
step02_gravity_refstate-crust.xmf,553,-1.43615e-06,3.21643e-06,0,4.62826e-06,-7.26125e+08,-7.25806e+08,-7.26026e+08,317498,-0.0203346,0.212326,-0,0.213297,-8894,-26434.5,-0,27890.6,317498
step02_gravity_refstate-crust.xmf,554,-1.54636e-06,3.27416e-06,0,4.97576e-06,-7.45268e+08,-7.44937e+08,-7.45162e+08,341337,-0.0205882,0.216802,-0,0.217777,-8257.25,-27131,-0,28359.8,341337
step02_gravity_refstate-crust.xmf,555,-1.26423e-06,3.28776e-06,0,3.6245e-06,-6.75821e+08,-6.75508e+08,-6.75734e+08,248640,-0.0184379,0.197427,-0,0.198287,-11253.7,-24603.9,-0,27055.5,248640
step02_gravity_refstate-crust.xmf,556,-1.26081e-06,3.41894e-06,0,3.27675e-06,-6.65039e+08,-6.64718e+08,-6.64952e+08,224785,-0.0173121,0.190678,-0,0.191462,-12334.1,-24211.6,-0,27172.2,224785
step02_gravity_refstate-crust.xmf,557,-1.31369e-06,3.74337e-06,0,2.84236e-06,-6.7549e+08,-6.75143e+08,-6.754e+08,194986,-0.0153448,0.180391,-0,0.181043,-13632,-24592.4,-0,28117.9,194986
step02_gravity_refstate-crust.xmf,558,-9.37738e-07,3.3916e-06,0,1.77809e-06,-6.08552e+08,-6.08255e+08,-6.08488e+08,121977,-0.0102661,0.155742,-0,0.15608,-19935.6,-22156.4,-0,29805,121977
step02_gravity_refstate-crust.xmf,559,-8.66837e-07,3.47878e-06,0,1.54768e-06,-6.27236e+08,-6.26938e+08,-6.27177e+08,106171,-0.00857559,0.148097,-0,0.148345,-21235.3,-22837,-0,31184.4,106171
step02_gravity_refstate-crust.xmf,560,-4.62397e-07,2.42607e-06,0,1.3725e-09,-5.08713e+08,-5.08515e+08,-5.08681e+08,94.1533,-1.39218e-19,0.125198,-0,0.125198,-40000,-18522.1,-0,44080.2,94.1533
step02_gravity_refstate-crust.xmf,561,-7.44483e-07,3.34712e-06,0,1.29884e-06,-6.18389e+08,-6.18108e+08,-6.18338e+08,89100.3,-0.00702351,0.141103,-0,0.141278,-23473,-22515.2,-0,32525.7,89100.3
step02_gravity_refstate-crust.xmf,562,-4.83725e-07,2.77306e-06,0,6.4788e-07,-5.6113e+08,-5.60907e+08,-5.61097e+08,44444.6,-0.00349043,0.127556,-0,0.127603,-31443.2,-20430.8,-0,37497.9,44444.6
step02_gravity_refstate-crust.xmf,563,-4.04052e-07,2.82411e-06,0,4.90651e-07,-5.84549e+08,-5.84328e+08,-5.84522e+08,33658.7,-0.00239896,0.122546,-0,0.122569,-33186.6,-21283.8,-0,39425.3,33658.7
step02_gravity_refstate-crust.xmf,564,-5.76136e-07,2.89955e-06,0,9.09687e-07,-5.66677e+08,-5.66438e+08,-5.66637e+08,62404.5,-0.00503986,0.13325,-0,0.133346,-28326.2,-20632.6,-0,35043.9,62404.5
step02_gravity_refstate-crust.xmf,565,-7.66197e-07,3.52298e-06,0,1.31965e-06,-6.45873e+08,-6.45579e+08,-6.4582e+08,90528,-0.00680864,0.140286,-0,0.140451,-22706.5,-23516,-0,32689.3,90528
step02_gravity_refstate-crust.xmf,566,1.89748e-06,-5.51413e-07,0,-1.72724e-07,-1.32716e+08,-1.32884e+08,-1.32846e+08,-11848.8,0.00227432,0.24209,0,0.242101,1191.9,-4838.48,0,4983.12,11848.8
step02_gravity_refstate-crust.xmf,567,1.75679e-06,-5.24401e-07,0,-2.13046e-07,-1.78017e+08,-1.78174e+08,-1.78138e+08,-14615,0.00206972,0.24297,0,0.242979,1171.09,-6487.19,0,6592.05,14615
step02_gravity_refstate-crust.xmf,568,2.85772e-06,-1.08524e-06,0,2.53103e-09,271427,940.008,75387.4,173.628,0.00879168,0.237056,0,0.237219,2992.92,0,0,2992.92,173.628
step02_gravity_refstate-crust.xmf,569,2.7218e-06,-2.3365e-06,0,7.4718e-07,-4.91537e+08,-4.91884e+08,-4.91724e+08,51256.6,-0.00339545,0.255356,-0,0.255379,-1229.27,-17902.3,-0,17944.5,51256.6
step02_gravity_refstate-crust.xmf,570,5.90004e-06,-8.21713e-06,0,4.16415e-06,-7.13264e+08,-7.14232e+08,-7.13668e+08,285661,-0.0110245,0.291728,-0,0.291936,-1658.27,-25978.2,-0,26031.1,285661
step02_gravity_refstate-crust.xmf,571,4.45197e-06,-5.45838e-06,0,2.99684e-06,-6.5351e+08,-6.54189e+08,-6.53815e+08,205583,-0.00993676,0.275128,-0,0.275308,-2002.23,-23801.2,-0,23885.3,205583
step02_gravity_refstate-crust.xmf,572,3.94243e-06,-4.29827e-06,0,1.3473e-06,-5.97684e+08,-5.9825e+08,-5.97955e+08,92424.8,-0.00502214,0.267742,-0,0.26779,-1240.39,-21768.6,-0,21803.9,92424.8
step02_gravity_refstate-crust.xmf,573,6.86206e-06,-1.03917e-05,0,5.34677e-06,-7.46047e+08,-7.47231e+08,-7.46518e+08,366788,-0.012154,0.303723,-0,0.303967,-1542.14,-27172.3,-0,27216,366788
step02_gravity_refstate-crust.xmf,574,-2.56136e-07,-8.41919e-07,0,1.0746e-05,-8.285e+08,-8.2854e+08,-8.28482e+08,737173,-0.021038,0.287156,-0,0.287925,-3578.96,-30160,-0,30371.6,737173
step02_gravity_refstate-crust.xmf,575,1.9577e-06,-5.50136e-06,0,1.18693e-05,-8.12429e+08,-8.1294e+08,-8.12563e+08,814235,-0.0217686,0.304888,-0,0.305664,-2800.59,-29576.7,-0,29709,814235
step02_gravity_refstate-crust.xmf,576,-1.04217e-06,1.04601e-06,0,9.4794e-06,-8.28657e+08,-8.28514e+08,-8.28586e+08,650287,-0.0206222,0.272639,-0,0.273418,-4189.43,-30165.5,-0,30455,650287
step02_gravity_refstate-crust.xmf,577,-1.79111e-06,3.11494e-06,0,6.54361e-06,-7.97076e+08,-7.96739e+08,-7.96953e+08,448892,-0.0208319,0.237026,-0,0.23794,-6241.09,-29015.9,-0,29679.5,448892
step02_gravity_refstate-crust.xmf,578,-1.58788e-06,2.29301e-06,0,7.86218e-06,-8.12632e+08,-8.12366e+08,-8.12523e+08,539346,-0.0211816,0.253567,-0,0.25445,-5170.18,-29581.8,-0,30030.2,539346
step02_gravity_refstate-crust.xmf,579,-1.28471e-06,3.92236e-06,0,2.46558e-06,-6.83975e+08,-6.83618e+08,-6.83887e+08,169139,-0.0133631,0.171119,-0,0.17164,-14914.1,-24901.7,-0,29026.3,169139
step02_gravity_refstate-crust.xmf,580,-1.69024e-06,3.4066e-06,0,5.26607e-06,-7.63128e+08,-7.62778e+08,-7.63012e+08,361252,-0.0205032,0.220178,-0,0.221131,-7777.39,-27780.9,-0,28849,361252
step02_gravity_refstate-crust.xmf,581,-1.83062e-06,3.63909e-06,0,5.46259e-06,-7.81382e+08,-7.81007e+08,-7.81256e+08,374733,-0.019984,0.222546,-0,0.223441,-7401.65,-28445.2,-0,29392.4,374733
step02_gravity_refstate-crust.xmf,582,-1.00707e-06,3.55704e-06,0,1.89507e-06,-6.31219e+08,-6.30906e+08,-6.3115e+08,130002,-0.0107817,0.158094,-0,0.158461,-18757.8,-22981.6,-0,29664.9,130002
step02_gravity_refstate-crust.xmf,583,-1.09214e-06,3.70245e-06,0,2.02906e-06,-6.50801e+08,-6.50472e+08,-6.50726e+08,139193,-0.0113746,0.160996,-0,0.161398,-17608.9,-23694.4,-0,29521.1,139193
step02_gravity_refstate-crust.xmf,584,-1.18628e-06,3.88377e-06,0,2.17244e-06,-6.74131e+08,-6.73783e+08,-6.74049e+08,149029,-0.0119194,0.164057,-0,0.16449,-16396.6,-24543.6,-0,29516.7,149029
step02_gravity_refstate-crust.xmf,585,-3.98641e-07,2.58968e-06,0,1.25507e-07,-5.4731e+08,-5.47105e+08,-5.47283e+08,8609.78,-0.000677413,0.121966,-0,0.121968,-38288.5,-19927.8,-0,43164,8609.78
step02_gravity_refstate-crust.xmf,586,-3.5321e-07,2.73845e-06,0,2.38388e-07,-5.80192e+08,-5.7998e+08,-5.80168e+08,16353.4,-0.00115021,0.119605,-0,0.11961,-36620.6,-21125.3,-0,42277,16353.4
step02_gravity_refstate-crust.xmf,587,-6.05913e-07,3.07762e-06,0,1.00663e-06,-5.92714e+08,-5.92461e+08,-5.92672e+08,69054.9,-0.00537228,0.134019,-0,0.134127,-26868.4,-21580.7,-0,34462.1,69054.9
step02_gravity_refstate-crust.xmf,588,-6.58206e-07,3.26478e-06,0,1.12098e-06,-6.16873e+08,-6.16604e+08,-6.16828e+08,76899,-0.00583793,0.135787,-0,0.135913,-25225,-22460.3,-0,33775.2,76899
step02_gravity_refstate-crust.xmf,589,-3.24046e-07,2.88296e-06,0,3.43441e-07,-6.09399e+08,-6.09179e+08,-6.09377e+08,23560.1,-0.00148503,0.117972,-0,0.117981,-34938.7,-22188.9,-0,41389.2,23560.1
step02_gravity_refstate-crust.xmf,590,-4.89419e-07,2.95502e-06,0,7.46748e-07,-5.90916e+08,-5.9068e+08,-5.90882e+08,51226.9,-0.00377844,0.127355,-0,0.127411,-29862.3,-21515.5,-0,36805.9,51226.9
step02_gravity_refstate-crust.xmf,591,-6.81976e-07,3.43799e-06,0,1.16592e-06,-6.43159e+08,-6.42876e+08,-6.43112e+08,79982.5,-0.0057949,0.135618,-0,0.135742,-24223,-23417.4,-0,33691.6,79982.5
step02_gravity_refstate-crust.xmf,592,1.74526e-06,-7.29321e-07,0,-6.02708e-08,-2.81885e+08,-2.82055e+08,-2.82005e+08,-4134.58,0.000393744,0.2455,0,0.245501,226.458,-10268.2,0,10270.7,4134.58
step02_gravity_refstate-crust.xmf,593,1.81424e-06,-8.66136e-07,0,-2.21571e-08,-3.17005e+08,-3.17189e+08,-3.1713e+08,-1519.98,0.00016139,0.246524,0,0.246525,88.957,-11546.9,0,11547.2,1519.98
step02_gravity_refstate-crust.xmf,594,1.9421e-06,-1.10127e-06,0,8.04414e-09,-3.56168e+08,-3.56376e+08,-3.56301e+08,551.828,-4.14902e-05,0.247913,-0,0.247913,-21.2392,-12972.8,-0,12972.8,551.828
step02_gravity_refstate-crust.xmf,595,2.1059e-06,-1.36257e-06,0,5.40357e-08,-3.93046e+08,-3.93284e+08,-3.93191e+08,3706.85,-0.000284173,0.249535,-0,0.249535,-135.116,-14315.6,-0,14316.3,3706.85
step02_gravity_refstate-crust.xmf,596,2.29084e-06,-1.6485e-06,0,1.53106e-07,-4.26548e+08,-4.26819e+08,-4.26706e+08,10503.1,-0.000755903,0.251317,-0,0.251318,-330.311,-15535.6,-0,15539.1,10503.1
step02_gravity_refstate-crust.xmf,597,1.70131e-06,-5.59134e-07,0,-2.43475e-07,-2.19106e+08,-2.19261e+08,-2.19223e+08,-16702.4,0.00193696,0.243783,0,0.24379,1132.56,-7982.78,0,8062.72,16702.4
step02_gravity_refstate-crust.xmf,598,2.00277e-06,-5.9073e-07,0,-3.06426e-07,-1.00011e+08,-1.00189e+08,-1.00149e+08,-21020.8,0.00575129,0.240161,0,0.24023,2805.99,-3648.19,0,4602.49,21020.8
step02_gravity_refstate-crust.xmf,599,2.29094e-06,-7.53808e-07,0,-2.28662e-07,-4.79356e+07,-4.81445e+07,-4.80928e+07,-15686.2,0.00949647,0.237468,0,0.237658,3959.46,-1753.25,0,4330.27,15686.2
step02_gravity_refstate-crust.xmf,600,2.43773e-06,-1.86781e-06,0,3.08347e-07,-4.50121e+08,-4.50416e+08,-4.50288e+08,21152.6,-0.00145557,0.252723,-0,0.252727,-595.742,-16394.1,-0,16404.9,21152.6
step02_gravity_refstate-crust.xmf,601,2.64018e-06,-2.19561e-06,0,2.8582e-07,-4.75371e+08,-4.75703e+08,-4.75552e+08,19607.2,-0.00133366,0.254624,-0,0.254628,-504.702,-17313.7,-0,17321,19607.2
step02_gravity_refstate-crust.xmf,602,2.87983e-06,-2.57543e-06,0,3.10217e-07,-5.02244e+08,-5.02618e+08,-5.02442e+08,21280.9,-0.00138227,0.256942,-0,0.256946,-479.542,-18292.4,-0,18298.6,21280.9
step02_gravity_refstate-crust.xmf,603,5.85117e-06,-7.9074e-06,0,2.95738e-06,-6.96417e+08,-6.9736e+08,-6.96818e+08,202876,-0.00832251,0.28865,-0,0.28877,-1332.57,-25365.2,-0,25400.2,202876
step02_gravity_refstate-crust.xmf,604,5.20644e-06,-6.78288e-06,0,3.11109e-06,-6.80611e+08,-6.81433e+08,-6.80968e+08,213421,-0.00937623,0.282896,-0,0.283051,-1644.47,-24788.9,-0,24843.4,213421
step02_gravity_refstate-crust.xmf,605,3.16343e-06,-3.03142e-06,0,3.98505e-07,-5.29998e+08,-5.30423e+08,-5.30215e+08,27337.4,-0.0016955,0.259709,-0,0.259714,-535.026,-19303.2,-0,19310.6,27337.4
step02_gravity_refstate-crust.xmf,606,3.49539e-06,-3.57816e-06,0,5.26199e-07,-5.58165e+08,-5.5865e+08,-5.58404e+08,36097.2,-0.00212556,0.263001,-0,0.26301,-605.972,-20329.1,-0,20338.2,36097.2
step02_gravity_refstate-crust.xmf,607,4.651e-06,-5.58069e-06,0,1.98167e-06,-6.41742e+08,-6.42444e+08,-6.42061e+08,135942,-0.00660976,0.275306,-0,0.275385,-1363.04,-23373.4,-0,23413.2,135942
step02_gravity_refstate-crust.xmf,608,4.99932e-06,-6.30227e-06,0,2.56355e-06,-6.64793e+08,-6.65568e+08,-6.65136e+08,175860,-0.00804258,0.279762,-0,0.279878,-1505.95,-24212.9,-0,24259.7,175860
step02_gravity_refstate-crust.xmf,609,3.89259e-06,-4.22471e-06,0,5.1919e-07,-5.85439e+08,-5.85996e+08,-5.85706e+08,35616.5,-0.00200453,0.266903,-0,0.266911,-513.76,-21322.7,-0,21328.9,35616.5
step02_gravity_refstate-crust.xmf,610,4.42733e-06,-5.09838e-06,0,1.11025e-06,-6.20597e+08,-6.21251e+08,-6.20901e+08,76163,-0.003906,0.272382,-0,0.27241,-870.839,-22603.5,-0,22620.3,76163
step02_gravity_refstate-crust.xmf,611,6.83046e-06,-9.89504e-06,0,3.98524e-06,-7.30388e+08,-7.31535e+08,-7.30856e+08,273388,-0.00965202,0.299778,-0,0.299933,-1301.4,-26602.8,-0,26634.6,273388
step02_gravity_refstate-crust.xmf,612,9.59203e-07,-3.65193e-06,0,1.20266e-05,-8.27763e+08,-8.28079e+08,-8.27829e+08,825024,-0.020894,0.303115,-0,0.303835,-2966.36,-30133.8,-0,30279.4,825024
step02_gravity_refstate-crust.xmf,613,6.0548e-06,-1.14513e-05,0,1.08525e-05,-7.9921e+08,-8.00411e+08,-7.99626e+08,744484,-0.018465,0.319211,-0,0.319744,-2000.3,-29102.8,-0,29171.5,744484
step02_gravity_refstate-crust.xmf,614,4.26055e-06,-9.17576e-06,0,1.269e-05,-8.1118e+08,-8.12102e+08,-8.11472e+08,870536,-0.020148,0.317847,-0,0.318485,-2266.96,-29534.9,-0,29621.7,870536
step02_gravity_refstate-crust.xmf,615,7.97973e-06,-1.25043e-05,0,4.98118e-06,-7.60443e+08,-7.61848e+08,-7.6099e+08,341709,-0.0103415,0.312849,-0,0.31302,-1185.97,-27697.6,-0,27723,341709
step02_gravity_refstate-crust.xmf,616,7.82477e-06,-1.28742e-05,0,6.73993e-06,-7.74212e+08,-7.75632e+08,-7.74749e+08,462359,-0.0131064,0.316698,-0,0.31697,-1438.86,-28197.7,-0,28234.4,462359
step02_gravity_refstate-crust.xmf,617,7.24684e-06,-1.26616e-05,0,8.73459e-06,-7.87187e+08,-7.88553e+08,-7.87684e+08,599193,-0.0158956,0.319104,-0,0.3195,-1707.47,-28668,-0,28718.9,599193
step02_gravity_refstate-crust.xmf,618,-7.39795e-07,9.39966e-07,0,1.03153e-05,-8.44003e+08,-8.43888e+08,-8.43952e+08,707630,-0.0185249,0.280109,-0,0.28072,-3856.65,-30725.2,-0,30966.3,707630
step02_gravity_refstate-crust.xmf,619,-1.94204e-06,3.80934e-06,0,5.73394e-06,-7.98227e+08,-7.97832e+08,-7.98093e+08,393348,-0.0193628,0.226065,-0,0.226893,-6973.96,-29058.3,-0,29883.4,393348
step02_gravity_refstate-crust.xmf,620,-1.88369e-06,3.2684e-06,0,6.89645e-06,-8.13345e+08,-8.12992e+08,-8.13216e+08,473096,-0.0199253,0.241324,-0,0.242145,-5858.24,-29608.1,-0,30182.1,473096
step02_gravity_refstate-crust.xmf,621,-1.5529e-06,2.4045e-06,0,8.32707e-06,-8.28608e+08,-8.28336e+08,-8.28501e+08,571237,-0.0198075,0.25902,-0,0.259776,-4821.13,-30163.7,-0,30546.6,571237
step02_gravity_refstate-crust.xmf,622,2.2119e-07,-1.16723e-06,0,1.17738e-05,-8.42826e+08,-8.42921e+08,-8.42841e+08,807682,-0.0188809,0.295709,-0,0.296312,-3277.79,-30683,-0,30857.6,807682
step02_gravity_refstate-crust.xmf,623,-1.44505e-06,3.66685e-06,0,3.55698e-06,-7.02007e+08,-7.01657e+08,-7.01908e+08,244009,-0.017724,0.194108,-0,0.194915,-11254.3,-25557.1,-0,27925.4,244009
step02_gravity_refstate-crust.xmf,624,-1.5169e-06,3.67903e-06,0,3.8442e-06,-7.16909e+08,-7.16553e+08,-7.16805e+08,263712,-0.0183485,0.198783,-0,0.199628,-10459.2,-26099.4,-0,28117.1,263712
step02_gravity_refstate-crust.xmf,625,-1.59017e-06,3.68561e-06,0,4.153e-06,-7.31532e+08,-7.3117e+08,-7.31423e+08,284896,-0.0188894,0.203574,-0,0.204448,-9717.77,-26631.4,-0,28349,284896
step02_gravity_refstate-crust.xmf,626,-1.6826e-06,3.73011e-06,0,4.47737e-06,-7.48508e+08,-7.48137e+08,-7.48392e+08,307148,-0.0192225,0.208303,-0,0.209188,-9010.54,-27249.1,-0,28700.3,307148
step02_gravity_refstate-crust.xmf,627,-1.76414e-06,3.76733e-06,0,4.77571e-06,-7.62424e+08,-7.62044e+08,-7.62303e+08,327613,-0.0193953,0.212488,-0,0.213372,-8447,-27755.5,-0,29012.4,327613
step02_gravity_refstate-crust.xmf,628,-1.37362e-06,3.63665e-06,0,3.32304e-06,-6.87855e+08,-6.87511e+08,-6.87761e+08,227961,-0.0171414,0.190196,-0,0.190966,-12000.2,-25042.1,-0,27768.9,227961
step02_gravity_refstate-crust.xmf,629,-1.38582e-06,4.07652e-06,0,2.63894e-06,-7.05032e+08,-7.04657e+08,-7.04937e+08,181031,-0.0138296,0.174508,-0,0.175055,-13887.2,-25668.1,-0,29184,181031
step02_gravity_refstate-crust.xmf,630,-1.39844e-06,3.84993e-06,0,3.01311e-06,-6.93235e+08,-6.92875e+08,-6.93139e+08,206699,-0.0157882,0.183334,-0,0.184012,-12841.8,-25238.2,-0,28317.5,206699
step02_gravity_refstate-crust.xmf,631,-9.40835e-07,3.64562e-06,0,1.6527e-06,-6.48438e+08,-6.48124e+08,-6.48374e+08,113375,-0.00902054,0.150316,-0,0.150586,-20010.1,-23608.9,-0,30948.1,113375
step02_gravity_refstate-crust.xmf,632,-8.36034e-07,3.70339e-06,0,1.42094e-06,-6.67457e+08,-6.67146e+08,-6.674e+08,97476.4,-0.00720517,0.142521,-0,0.142703,-21317.3,-24301.8,-0,32326.5,97476.4
step02_gravity_refstate-crust.xmf,633,-3.42253e-07,2.69841e-06,0,1.41416e-09,-5.75784e+08,-5.75576e+08,-5.75761e+08,97.0116,-9.60653e-20,0.118939,-0,0.118939,-40000,-20964.8,-0,45161.1,97.0116
step02_gravity_refstate-crust.xmf,634,-3.96804e-07,2.9989e-06,0,5.87284e-07,-6.15046e+08,-6.14813e+08,-6.15019e+08,40287.7,-0.00262736,0.121738,-0,0.121766,-31534.6,-22394.4,-0,38677.4,40287.7
step02_gravity_refstate-crust.xmf,635,-3.06383e-07,3.03708e-06,0,4.41884e-07,-6.38116e+08,-6.37887e+08,-6.38095e+08,30313.2,-0.00168221,0.116744,-0,0.116756,-33252.3,-23234.7,-0,40565.6,30313.2
step02_gravity_refstate-crust.xmf,636,-5.07448e-07,3.14087e-06,0,8.33478e-07,-6.19609e+08,-6.19359e+08,-6.19574e+08,57176.6,-0.00398082,0.127428,-0,0.127491,-28326,-22560.3,-0,36212.3,57176.6
step02_gravity_refstate-crust.xmf,637,-6.67775e-07,3.60083e-06,0,1.1436e-06,-6.71904e+08,-6.71611e+08,-6.71858e+08,78450.7,-0.00525014,0.133528,-0,0.133631,-23718.3,-24464.2,-0,34074.2,78450.7
step02_gravity_refstate-crust.xmf,638,2.63958e-06,-1.00343e-06,0,-1.55699e-09,250664,753.56,69588.9,-106.809,0.014297,0.234336,0,0.234772,4992.34,0,0,4992.34,106.809
step02_gravity_refstate-crust.xmf,639,1.70434e-06,-6.48719e-07,0,-2.84343e-07,-2.60947e+08,-2.61108e+08,-2.61064e+08,-19505.9,0.00193737,0.244684,0,0.244692,1130.55,-9505.92,0,9572.91,19505.9
step02_gravity_refstate-crust.xmf,640,1.75494e-06,-7.80852e-07,0,-3.50417e-07,-3.00364e+08,-3.00538e+08,-3.00484e+08,-24038.6,0.00215391,0.245638,0,0.245648,1217.98,-10940.9,0,11008.5,24038.6
step02_gravity_refstate-crust.xmf,641,1.76704e-06,-4.94877e-07,0,-4.18976e-07,-1.53981e+08,-1.54137e+08,-1.54103e+08,-28741.8,0.00480621,0.241368,0,0.241416,2649.76,-5612.23,0,6206.32,28741.8
step02_gravity_refstate-crust.xmf,642,1.66985e-06,-4.9268e-07,0,-4.94545e-07,-1.98462e+08,-1.9861e+08,-1.98576e+08,-33925.8,0.00436335,0.242262,0,0.242301,2545.92,-7231.18,0,7666.27,33925.8
step02_gravity_refstate-crust.xmf,643,6.67109e-06,-9.30647e-06,0,2.68202e-06,-7.14238e+08,-7.15334e+08,-7.14695e+08,183986,-0.00690376,0.295773,-0,0.295854,-995.048,-26015.1,-0,26034.1,183986
step02_gravity_refstate-crust.xmf,644,5.63911e-06,-7.33398e-06,0,2.04058e-06,-6.79556e+08,-6.80446e+08,-6.79943e+08,139984,-0.0060795,0.285142,-0,0.285207,-1043.45,-24751.4,-0,24773.3,139984
step02_gravity_refstate-crust.xmf,645,4.22469e-06,-4.74899e-06,0,4.3061e-07,-6.05345e+08,-6.0596e+08,-6.05635e+08,29539.8,-0.00160563,0.270238,-0,0.270243,-379.34,-22047.9,-0,22051.2,29539.8
step02_gravity_refstate-crust.xmf,646,7.85031e-06,-1.18127e-05,0,3.53855e-06,-7.46345e+08,-7.47694e+08,-7.46884e+08,242745,-0.00784605,0.308259,-0,0.308359,-953.323,-27184.9,-0,27201.6,242745
step02_gravity_refstate-crust.xmf,647,2.62677e-06,-7.06522e-06,0,1.28118e-05,-8.21365e+08,-8.2203e+08,-8.21545e+08,878888,-0.0206425,0.314693,-0,0.315369,-2503.55,-29902.3,-0,30006.9,878888
step02_gravity_refstate-crust.xmf,648,-1.92549e-07,7.88721e-07,0,1.15253e-05,-8.5801e+08,-8.57943e+08,-8.57997e+08,790633,-0.0158907,0.289072,-0,0.289509,-3512.39,-31237.1,-0,31434,790633
step02_gravity_refstate-crust.xmf,649,1.10149e-06,-1.60729e-06,0,1.34995e-05,-8.55344e+08,-8.55529e+08,-8.55419e+08,926063,-0.0161907,0.307245,-0,0.307671,-2923.02,-31141.6,-0,31278.5,926063
step02_gravity_refstate-crust.xmf,650,-1.37583e-06,2.46642e-06,0,8.93698e-06,-8.44114e+08,-8.43851e+08,-8.4402e+08,613077,-0.0178511,0.2652,-0,0.265801,-4473.13,-30729.1,-0,31052.9,613077
step02_gravity_refstate-crust.xmf,651,-2.03271e-06,3.97617e-06,0,6.02261e-06,-8.14291e+08,-8.13879e+08,-8.14152e+08,413151,-0.0184408,0.229798,-0,0.230537,-6566.27,-29643,-0,30361.6,413151
step02_gravity_refstate-crust.xmf,652,-1.89116e-06,3.42046e-06,0,7.27771e-06,-8.29273e+08,-8.28908e+08,-8.29143e+08,499251,-0.0185721,0.245961,-0,0.246661,-5487.03,-30188.1,-0,30682.8,499251
step02_gravity_refstate-crust.xmf,653,-1.23797e-06,4.11088e-06,0,2.16258e-06,-7.03706e+08,-7.03339e+08,-7.03621e+08,148353,-0.0113396,0.162894,-0,0.163289,-15828.5,-25620.5,-0,30115.6,148353
step02_gravity_refstate-crust.xmf,654,-1.32128e-06,4.23346e-06,0,2.30043e-06,-7.18432e+08,-7.18051e+08,-7.18341e+08,157809,-0.0117813,0.16606,-0,0.166477,-14904.7,-26156.4,-0,30105,157809
step02_gravity_refstate-crust.xmf,655,-1.93048e-06,4.15659e-06,0,4.75438e-06,-7.83213e+08,-7.82796e+08,-7.83081e+08,326150,-0.0182395,0.211721,-0,0.212505,-8253.94,-28512.3,-0,29683,326150
step02_gravity_refstate-crust.xmf,656,-2.01137e-06,4.32525e-06,0,5.00732e-06,-8.00816e+08,-8.00382e+08,-8.00678e+08,343502,-0.0175989,0.215428,-0,0.216146,-7733.9,-29153.1,-0,30161.5,343502
step02_gravity_refstate-crust.xmf,657,-1.01257e-06,3.80564e-06,0,1.7615e-06,-6.68167e+08,-6.67837e+08,-6.68098e+08,120839,-0.00947693,0.152817,-0,0.153111,-18828.5,-24327.1,-0,30762.3,120839
step02_gravity_refstate-crust.xmf,658,-1.09625e-06,3.94598e-06,0,1.88386e-06,-6.84243e+08,-6.83897e+08,-6.84167e+08,129233,-0.0100198,0.155849,-0,0.156171,-17708.8,-24912.2,-0,30565,129233
step02_gravity_refstate-crust.xmf,659,-7.19283e-07,3.74148e-06,0,1.21851e-06,-6.88035e+08,-6.87729e+08,-6.87986e+08,83589.8,-0.00548624,0.13518,-0,0.135292,-22570.6,-25051.5,-0,33719.5,83589.8
step02_gravity_refstate-crust.xmf,660,-2.81492e-07,2.83776e-06,0,1.0881e-07,-6.10057e+08,-6.09843e+08,-6.10038e+08,7464.37,-0.000456792,0.115742,-0,0.115743,-38359.1,-22213,-0,44326.5,7464.37
step02_gravity_refstate-crust.xmf,661,-2.39205e-07,2.9636e-06,0,2.07081e-07,-6.38722e+08,-6.38503e+08,-6.38706e+08,14205.8,-0.000737194,0.113452,-0,0.113455,-36740.4,-23256.9,-0,43482.7,14205.8
step02_gravity_refstate-crust.xmf,662,-5.37916e-07,3.32316e-06,0,9.19093e-07,-6.45362e+08,-6.45097e+08,-6.45325e+08,63049.8,-0.00417408,0.128062,-0,0.12813,-26799,-23498,-0,35641.9,63049.8
step02_gravity_refstate-crust.xmf,663,-5.7988e-07,3.52813e-06,0,1.00567e-06,-6.72652e+08,-6.7237e+08,-6.72612e+08,68989,-0.00432552,0.129065,-0,0.129138,-25164.3,-24491.7,-0,35115.3,68989
step02_gravity_refstate-crust.xmf,664,-2.18096e-07,3.08417e-06,0,3.06101e-07,-6.62416e+08,-6.62189e+08,-6.62401e+08,20998.5,-0.00093188,0.112153,-0,0.112156,-35002,-24119.8,-0,42507.7,20998.5
step02_gravity_refstate-crust.xmf,665,-4.01778e-07,3.17843e-06,0,6.74176e-07,-6.4418e+08,-6.43934e+08,-6.44152e+08,46248.5,-0.00275176,0.121316,-0,0.121348,-29908.7,-23455.3,-0,38008.9,46248.5
step02_gravity_refstate-crust.xmf,666,2.08633e-06,-6.7312e-07,0,-3.22769e-07,-4.74064e+07,-4.75957e+07,-4.75495e+07,-22142,0.0138506,0.234019,0,0.234428,5937.98,-1733.27,0,6185.78,22142
step02_gravity_refstate-crust.xmf,667,1.85489e-06,-9.47591e-07,0,-3.84524e-07,-3.38598e+08,-3.3879e+08,-3.38725e+08,-26378.3,0.00222014,0.246851,0,0.246861,1187.66,-12333,0,12390.1,26378.3
step02_gravity_refstate-crust.xmf,668,2.01533e-06,-1.2157e-06,0,-4.66791e-07,-3.7994e+08,-3.80162e+08,-3.80079e+08,-32021.9,0.0025007,0.248435,0,0.248448,1232.92,-13838.4,0,13893.2,32021.9
step02_gravity_refstate-crust.xmf,669,2.46407e-06,-1.92614e-06,0,-2.20115e-07,-4.52405e+08,-4.52706e+08,-4.52574e+08,-15099.9,0.0010618,0.25295,0,0.252952,430.859,-16477.2,0,16482.9,15099.9
step02_gravity_refstate-crust.xmf,670,2.22567e-06,-1.55387e-06,0,-3.60087e-07,-4.18188e+08,-4.18447e+08,-4.1834e+08,-24702,0.00181492,0.25063,0,0.250637,812.098,-15231.1,0,15252.8,24702
step02_gravity_refstate-crust.xmf,671,1.64021e-06,-5.47767e-07,0,-5.68941e-07,-2.41418e+08,-2.41568e+08,-2.41531e+08,-39029.4,0.00417874,0.243132,0,0.243168,2477.53,-8794.86,0,9137.16,39029.4
step02_gravity_refstate-crust.xmf,672,1.89407e-06,-5.37327e-07,0,-4.90671e-07,-9.31014e+07,-9.32682e+07,-9.32314e+07,-33660,0.00997395,0.237021,0,0.23723,4891.24,-3396.28,0,5954.75,33660
step02_gravity_refstate-crust.xmf,673,2.74541e-06,-2.36668e-06,0,-2.63815e-07,-4.87575e+08,-4.87926e+08,-4.87763e+08,-18097.7,0.00119624,0.255657,0,0.25566,435.701,-17758.1,0,17763.4,18097.7
step02_gravity_refstate-crust.xmf,674,3.03511e-06,-2.82554e-06,0,-2.83492e-07,-5.17477e+08,-5.17879e+08,-5.17685e+08,-19447.6,0.00123055,0.258458,0,0.258461,405.498,-18847.2,0,18851.5,19447.6
step02_gravity_refstate-crust.xmf,675,6.32975e-06,-8.52515e-06,0,1.52963e-06,-6.96521e+08,-6.9754e+08,-6.96955e+08,104933,-0.00426125,0.291133,-0,0.291165,-665.007,-25369.9,-0,25378.7,104933
step02_gravity_refstate-crust.xmf,676,3.3642e-06,-3.35551e-06,0,-2.92765e-07,-5.46281e+08,-5.46742e+08,-5.46511e+08,-20083.7,0.00120511,0.261677,0,0.261679,358.276,-19896.3,0,19899.5,20083.7
step02_gravity_refstate-crust.xmf,677,3.7274e-06,-3.94968e-06,0,-3.10016e-07,-5.73502e+08,-5.74029e+08,-5.73758e+08,-21267.1,0.00120646,0.265268,0,0.26527,323.538,-20887.9,0,20890.4,21267.1
step02_gravity_refstate-crust.xmf,678,5.29793e-06,-6.63494e-06,0,1.3071e-06,-6.60579e+08,-6.61397e+08,-6.60942e+08,89667.4,-0.00408002,0.281074,-0,0.281103,-759.972,-24060.2,-0,24072.2,89667.4
step02_gravity_refstate-crust.xmf,679,4.16219e-06,-4.61565e-06,0,-3.73112e-07,-6.00505e+08,-6.01107e+08,-6.00791e+08,-25595.5,0.00139738,0.269441,0,0.269445,336.577,-21871.7,0,21874.3,25595.5
step02_gravity_refstate-crust.xmf,680,4.55392e-06,-5.28336e-06,0,7.07953e-08,-6.21454e+08,-6.22129e+08,-6.21767e+08,4856.56,-0.000229964,0.27331,-0,0.273311,-50.7789,-22634.9,-0,22635,4856.56
step02_gravity_refstate-crust.xmf,681,4.90438e-06,-5.89509e-06,0,7.0872e-07,-6.39836e+08,-6.40576e+08,-6.40172e+08,48618.2,-0.0023373,0.276796,-0,0.276806,-476.106,-23304.6,-0,23309.4,48618.2
step02_gravity_refstate-crust.xmf,682,7.52644e-06,-1.08705e-05,0,2.08325e-06,-7.30194e+08,-7.31456e+08,-7.3071e+08,142911,-0.00495225,0.302992,-0,0.303032,-647.45,-26597.1,-0,26604.9,142911
step02_gravity_refstate-crust.xmf,683,8.3802e-06,-1.53396e-05,0,8.86135e-06,-8.00181e+08,-8.01809e+08,-8.00756e+08,607889,-0.014706,0.329546,-0,0.329874,-1472.68,-29141.6,-0,29178.7,607889
step02_gravity_refstate-crust.xmf,684,1.35871e-06,-3.33599e-06,0,1.30623e-05,-8.40834e+08,-8.41156e+08,-8.40927e+08,896071,-0.0188464,0.308867,-0,0.309441,-2827.71,-30611.7,-0,30742.1,896071
step02_gravity_refstate-crust.xmf,685,4.39118e-07,6.10892e-07,0,1.32638e-05,-8.697e+08,-8.69688e+08,-8.6973e+08,909894,-0.013168,0.299687,-0,0.299976,-3160.96,-31665,-0,31822.4,909894
step02_gravity_refstate-crust.xmf,686,1.43635e-06,-1.16391e-06,0,1.51149e-05,-8.67303e+08,-8.67481e+08,-8.67401e+08,1.03688e+06,-0.0133144,0.314282,-0,0.314564,-2739.54,-31579,-0,31697.6,1.03688e+06
step02_gravity_refstate-crust.xmf,687,7.41978e-06,-1.47061e-05,0,1.13079e-05,-8.11772e+08,-8.1329e+08,-8.12281e+08,775719,-0.0171312,0.330596,-0,0.33104,-1746.63,-29560.6,-0,29612.2,775719
step02_gravity_refstate-crust.xmf,688,5.71645e-06,-1.30662e-05,0,1.43054e-05,-8.2396e+08,-8.25249e+08,-8.24353e+08,981349,-0.018484,0.330197,-0,0.330714,-2000,-30000,-0,30066.6,981349
step02_gravity_refstate-crust.xmf,689,2.70183e-06,-6.7701e-06,0,1.3627e-05,-8.32992e+08,-8.33642e+08,-8.33177e+08,934812,-0.019288,0.318925,-0,0.319507,-2458.58,-30326.3,-0,30425.8,934812
step02_gravity_refstate-crust.xmf,690,8.87622e-06,-1.38322e-05,0,2.57421e-06,-7.60422e+08,-7.6198e+08,-7.61031e+08,176591,-0.00527638,0.316731,-0,0.316775,-584.979,-27698.4,-0,27704.6,176591
step02_gravity_refstate-crust.xmf,691,9.14398e-06,-1.49193e-05,0,4.35354e-06,-7.75187e+08,-7.76837e+08,-7.75814e+08,298653,-0.00828165,0.322809,-0,0.322915,-864.196,-28235.3,-0,28248.6,298653
step02_gravity_refstate-crust.xmf,692,8.98263e-06,-1.54321e-05,0,6.56427e-06,-7.8831e+08,-7.89984e+08,-7.88926e+08,450309,-0.0116337,0.3271,-0,0.327306,-1173.7,-28711.6,-0,28735.6,450309
step02_gravity_refstate-crust.xmf,693,-9.9267e-07,2.51681e-06,0,9.83133e-06,-8.5944e+08,-8.592e+08,-8.59372e+08,674430,-0.0152106,0.272222,-0,0.272647,-4126.37,-31288.7,-0,31559.6,674430
step02_gravity_refstate-crust.xmf,694,-2.07422e-06,4.46538e-06,0,5.2706e-06,-8.15611e+08,-8.15162e+08,-8.15468e+08,361563,-0.0168547,0.219355,-0,0.220002,-7265.27,-29691.6,-0,30567.6,361563
step02_gravity_refstate-crust.xmf,695,-2.04321e-06,4.16135e-06,0,6.31647e-06,-8.30253e+08,-8.29828e+08,-8.30113e+08,433310,-0.0170885,0.233719,-0,0.234343,-6174.41,-30224.4,-0,30848.6,433310
step02_gravity_refstate-crust.xmf,696,-1.75195e-06,3.58261e-06,0,7.71587e-06,-8.44882e+08,-8.44516e+08,-8.44762e+08,529309,-0.0166931,0.251059,-0,0.251614,-5123.48,-30757.2,-0,31181,529309
step02_gravity_refstate-crust.xmf,697,-1.13998e-06,4.14001e-06,0,1.90792e-06,-7.10042e+08,-7.09679e+08,-7.09963e+08,130883,-0.00968686,0.155837,-0,0.156138,-16958.6,-25851.6,-0,30917.6,130883
step02_gravity_refstate-crust.xmf,698,-1.20963e-06,4.32382e-06,0,1.99096e-06,-7.31947e+08,-7.31568e+08,-7.31864e+08,136580,-0.00968611,0.157774,-0,0.158071,-15968.2,-26649.1,-0,31067,136580
step02_gravity_refstate-crust.xmf,699,-1.49912e-06,3.98068e-06,0,3.18208e-06,-7.12615e+08,-7.12239e+08,-7.12512e+08,218291,-0.0160534,0.185988,-0,0.18668,-12102.7,-25943.6,-0,28627.7,218291
step02_gravity_refstate-crust.xmf,700,-1.58944e-06,4.06182e-06,0,3.40709e-06,-7.28353e+08,-7.27966e+08,-7.28244e+08,233727,-0.0165034,0.189897,-0,0.190613,-11316.3,-26516.3,-0,28830.1,233727
step02_gravity_refstate-crust.xmf,701,-1.67769e-06,4.11855e-06,0,3.672e-06,-7.42807e+08,-7.4241e+08,-7.42692e+08,251899,-0.0169809,0.19443,-0,0.195171,-10535.7,-27042.2,-0,29022.1,251899
step02_gravity_refstate-crust.xmf,702,-1.76649e-06,4.16882e-06,0,3.96629e-06,-7.57212e+08,-7.56805e+08,-7.57091e+08,272087,-0.0173811,0.199302,-0,0.200058,-9780.23,-27566.4,-0,29249.9,272087
step02_gravity_refstate-crust.xmf,703,-1.8541e-06,4.21105e-06,0,4.29137e-06,-7.71378e+08,-7.70962e+08,-7.7125e+08,294388,-0.0176723,0.204473,-0,0.205235,-9060.43,-28081.8,-0,29507.3,294388
step02_gravity_refstate-crust.xmf,704,-1.40709e-06,4.38715e-06,0,2.43383e-06,-7.36682e+08,-7.36285e+08,-7.36586e+08,166961,-0.0119985,0.169004,-0,0.169429,-13982.9,-26820.8,-0,30246.9,166961
step02_gravity_refstate-crust.xmf,705,-1.47948e-06,4.21587e-06,0,2.80296e-06,-7.23683e+08,-7.23292e+08,-7.23581e+08,192283,-0.0141519,0.177667,-0,0.17823,-13010.9,-26346.9,-0,29384.4,192283
step02_gravity_refstate-crust.xmf,706,-9.06449e-07,3.86797e-06,0,1.51468e-06,-6.86668e+08,-6.8634e+08,-6.86606e+08,103907,-0.0075493,0.14477,-0,0.144967,-20085.6,-25001.2,-0,32070.1,103907
step02_gravity_refstate-crust.xmf,707,-5.8464e-07,3.74584e-06,0,1.03279e-06,-7.07241e+08,-7.06944e+08,-7.07201e+08,70849.7,-0.00388947,0.128093,-0,0.128152,-23944.6,-25751.2,-0,35163.5,70849.7
step02_gravity_refstate-crust.xmf,708,-7.69983e-07,3.90929e-06,0,1.28675e-06,-7.08298e+08,-7.07977e+08,-7.08246e+08,88271,-0.00558909,0.136684,-0,0.136798,-21363.7,-25789.3,-0,33488.7,88271
step02_gravity_refstate-crust.xmf,709,-2.12861e-07,2.95274e-06,0,1.20711e-09,-6.42061e+08,-6.41844e+08,-6.42046e+08,82.808,-4.8275e-20,0.112119,-0,0.112119,-40000,-23378.6,-0,46331,82.808
step02_gravity_refstate-crust.xmf,710,-2.96729e-07,3.20436e-06,0,5.25711e-07,-6.67495e+08,-6.67255e+08,-6.67475e+08,36063.7,-0.00172414,0.115716,-0,0.115728,-31596.3,-24304.6,-0,39862.7,36063.7
step02_gravity_refstate-crust.xmf,711,-1.96896e-07,3.23265e-06,0,3.9248e-07,-6.90791e+08,-6.90556e+08,-6.90778e+08,26924.1,-0.000926012,0.110652,-0,0.110656,-33315.7,-25153.2,-0,41744.6,26924.1
step02_gravity_refstate-crust.xmf,712,-4.14706e-07,3.35755e-06,0,7.47407e-07,-6.71545e+08,-6.71286e+08,-6.71517e+08,51272.1,-0.00277707,0.121199,-0,0.121231,-28363.8,-24451.8,-0,37448.5,51272.1
step02_gravity_refstate-crust.xmf,713,2.3302e-06,-8.87519e-07,0,-5.07129e-09,221212,476.435,61360.3,-347.891,0.0193043,0.230391,0,0.231199,7002.37,0,0,7002.37,347.891
step02_gravity_refstate-crust.xmf,714,1.66609e-06,-6.51669e-07,0,-6.43439e-07,-2.82171e+08,-2.8233e+08,-2.82285e+08,-44139.9,0.00415942,0.244067,0,0.244102,2421.93,-10278.5,0,10559.9,44139.9
step02_gravity_refstate-crust.xmf,715,1.73616e-06,-7.98585e-07,0,-7.18266e-07,-3.20761e+08,-3.20935e+08,-3.2088e+08,-49273.1,0.00424154,0.245136,0,0.245173,2363.71,-11683.4,0,11920.1,49273.1
step02_gravity_refstate-crust.xmf,716,1.73508e-06,-4.56149e-07,0,-5.81396e-07,-1.36238e+08,-1.36389e+08,-1.36357e+08,-39883.7,0.00775408,0.238961,0,0.239087,4203.83,-4966.2,0,6506.56,39883.7
step02_gravity_refstate-crust.xmf,717,1.6145e-06,-4.19978e-07,0,-6.97845e-07,-1.79851e+08,-1.7999e+08,-1.79962e+08,-47872.2,0.006885,0.239956,0,0.240055,4011.08,-6553.53,0,7683.59,47872.2
step02_gravity_refstate-crust.xmf,718,1.55484e-06,-4.36043e-07,0,-8.09306e-07,-2.22946e+08,-2.23082e+08,-2.23052e+08,-55518.4,0.00645832,0.240809,0,0.240896,3891.45,-8122.18,0,9006.28,55518.4
step02_gravity_refstate-crust.xmf,719,7.04955e-06,-9.81524e-06,0,8.68957e-07,-7.13397e+08,-7.14554e+08,-7.1388e+08,59610.4,-0.002208,0.297452,-0,0.29746,-313.445,-25985.2,-0,25987.1,59610.4
step02_gravity_refstate-crust.xmf,720,5.89005e-06,-7.63913e-06,0,6.73538e-07,-6.78356e+08,-6.79284e+08,-6.7876e+08,46204.7,-0.00202344,0.28636,-0,0.286367,-343.727,-24708.2,-0,24710.6,46204.7
step02_gravity_refstate-crust.xmf,721,1.00355e-06,5.42572e-07,0,1.54317e-05,-8.79048e+08,-8.79079e+08,-8.79116e+08,1.05861e+06,-0.0106547,0.312328,-0,0.31251,-2796.57,-32007.5,-0,32129.4,1.05861e+06
step02_gravity_refstate-crust.xmf,722,8.36224e-06,-1.25356e-05,0,1.25563e-06,-7.45173e+08,-7.46606e+08,-7.45746e+08,86136.1,-0.00277657,0.310237,-0,0.310249,-331.657,-27143.2,-0,27145.2,86136.1
step02_gravity_refstate-crust.xmf,723,2.8183e-06,-5.26323e-06,0,1.49785e-05,-8.46411e+08,-8.46965e+08,-8.46604e+08,1.02753e+06,-0.0170305,0.322414,-0,0.322863,-2444.21,-30817.7,-0,30914.5,1.02753e+06
step02_gravity_refstate-crust.xmf,724,2.63788e-06,-3.72501e-06,0,1.63169e-05,-8.59727e+08,-8.60163e+08,-8.59908e+08,1.11934e+06,-0.0143111,0.325608,-0,0.325922,-2418.95,-31304.1,-0,31397.4,1.11934e+06
step02_gravity_refstate-crust.xmf,725,9.81408e-06,-1.79598e-05,0,6.26573e-06,-8.01812e+08,-8.03717e+08,-8.02485e+08,429829,-0.0104582,0.337366,-0,0.337528,-999.336,-29202.7,-0,29219.7,429829
step02_gravity_refstate-crust.xmf,726,2.08104e-07,2.07417e-06,0,1.3617e-05,-8.81899e+08,-8.81771e+08,-8.81914e+08,934129,-0.0102104,0.298289,-0,0.298464,-3185.3,-32110.5,-0,32268.1,934129
step02_gravity_refstate-crust.xmf,727,-4.22981e-07,2.6074e-06,0,1.14401e-05,-8.75331e+08,-8.75123e+08,-8.75302e+08,784788,-0.0117993,0.282573,-0,0.28282,-3697.28,-31869.6,-0,32083.4,784788
step02_gravity_refstate-crust.xmf,728,-1.5022e-06,3.74657e-06,0,8.33904e-06,-8.60173e+08,-8.59813e+08,-8.6007e+08,572058,-0.0142474,0.256758,-0,0.257153,-4764.62,-31315.2,-0,31675.6,572058
step02_gravity_refstate-crust.xmf,729,-2.07788e-06,4.6712e-06,0,5.46739e-06,-8.31243e+08,-8.3078e+08,-8.311e+08,375063,-0.0154889,0.222288,-0,0.222827,-6884.36,-30261.1,-0,31034.3,375063
step02_gravity_refstate-crust.xmf,730,-1.9551e-06,4.3544e-06,0,6.65884e-06,-8.46012e+08,-8.45579e+08,-8.45877e+08,456796,-0.0152452,0.237894,-0,0.238382,-5796.19,-30798.7,-0,31339.4,456796
step02_gravity_refstate-crust.xmf,731,-1.2849e-06,4.48777e-06,0,2.09788e-06,-7.50223e+08,-7.49827e+08,-7.50135e+08,143915,-0.00977567,0.160457,-0,0.160754,-14996.6,-27314.4,-0,31160.4,143915
step02_gravity_refstate-crust.xmf,732,-2.04057e-06,4.77111e-06,0,4.70426e-06,-8.17012e+08,-8.16544e+08,-8.16872e+08,322712,-0.0154683,0.211169,-0,0.211735,-7856.48,-29743.3,-0,30763.4,322712
step02_gravity_refstate-crust.xmf,733,-1.93503e-06,4.67147e-06,0,4.05401e-06,-7.95169e+08,-7.94715e+08,-7.95036e+08,278105,-0.0155538,0.200549,-0,0.201151,-9067.5,-28948.3,-0,30335.2,278105
step02_gravity_refstate-crust.xmf,734,-1.99465e-06,4.79737e-06,0,4.33631e-06,-8.10869e+08,-8.10403e+08,-8.10732e+08,297471,-0.015096,0.205254,-0,0.205809,-8418.14,-29519.8,-0,30696.7,297471
step02_gravity_refstate-crust.xmf,735,-2.03591e-06,5.00129e-06,0,4.75366e-06,-8.3252e+08,-8.32037e+08,-8.3238e+08,326101,-0.0138667,0.212014,-0,0.212467,-7585.54,-30308.2,-0,31243.1,326101
step02_gravity_refstate-crust.xmf,736,-9.7671e-07,4.01542e-06,0,1.61235e-06,-7.02812e+08,-7.0247e+08,-7.02745e+08,110607,-0.00792316,0.147316,-0,0.147529,-18954.5,-25588.9,-0,31844.3,110607
step02_gravity_refstate-crust.xmf,737,-1.02249e-06,4.1864e-06,0,1.66365e-06,-7.24331e+08,-7.23974e+08,-7.24261e+08,114126,-0.00781717,0.148408,-0,0.148613,-18020,-26372.4,-0,31940.9,114126
step02_gravity_refstate-crust.xmf,738,-6.24847e-07,3.91705e-06,0,1.0918e-06,-7.2885e+08,-7.28539e+08,-7.28807e+08,74897.2,-0.00381445,0.129107,-0,0.129163,-22683.1,-26538.1,-0,34911.2,74897.2
step02_gravity_refstate-crust.xmf,739,-1.51392e-07,3.07133e-06,0,8.44801e-08,-6.73309e+08,-6.73088e+08,-6.73298e+08,5795.34,-0.000214179,0.10888,-0,0.10888,-38558.8,-24516.6,-0,45693,5795.34
step02_gravity_refstate-crust.xmf,740,-1.19144e-07,3.16856e-06,0,1.80374e-07,-6.95368e+08,-6.95143e+08,-6.9536e+08,12373.7,-0.000338393,0.107086,-0,0.107086,-36811.6,-25320,-0,44678.8,12373.7
step02_gravity_refstate-crust.xmf,741,-4.3458e-07,3.54217e-06,0,8.15838e-07,-6.98217e+08,-6.97944e+08,-6.98187e+08,55966.5,-0.00271763,0.121369,-0,0.121399,-26833.3,-25423,-0,36964.3,55966.5
step02_gravity_refstate-crust.xmf,742,-1.04915e-07,3.26521e-06,0,2.68525e-07,-7.13746e+08,-7.13515e+08,-7.13739e+08,18420.8,-0.0003629,0.106122,-0,0.106122,-35112,-25989.3,-0,43684,18420.8
step02_gravity_refstate-crust.xmf,743,-2.96443e-07,3.37945e-06,0,6.00614e-07,-6.96201e+08,-6.95949e+08,-6.9618e+08,41202.1,-0.00164236,0.115031,-0,0.115043,-29948,-25349.9,-0,39236.5,41202.1
step02_gravity_refstate-crust.xmf,744,-4.49652e-07,3.73066e-06,0,8.6951e-07,-7.25626e+08,-7.25339e+08,-7.25595e+08,59648.4,-0.0024832,0.121388,-0,0.121413,-25407.9,-26421.1,-0,36655.6,59648.4
step02_gravity_refstate-crust.xmf,745,1.65335e-06,-4.16965e-07,0,-6.65176e-07,-9.57233e+07,-9.58653e+07,-9.58367e+07,-45631.1,0.0134792,0.232805,0,0.233195,6910.96,-3490.95,0,7742.61,45631.1
step02_gravity_refstate-crust.xmf,746,1.81958e-06,-5.69472e-07,0,-4.01014e-07,-4.69961e+07,-4.71599e+07,-4.71209e+07,-27509.6,0.0177289,0.22944,0,0.230124,7912,-1717.42,0,8096.25,27509.6
step02_gravity_refstate-crust.xmf,747,1.84557e-06,-9.68904e-07,0,-7.91699e-07,-3.57261e+08,-3.57454e+08,-3.57387e+08,-54310.6,0.00440339,0.246376,0,0.246415,2306.32,-13012.4,0,13215.2,54310.6
step02_gravity_refstate-crust.xmf,748,2.11164e-06,-1.40186e-06,0,-8.70347e-07,-4.14306e+08,-4.14547e+08,-4.14451e+08,-59705.8,0.00441968,0.249189,0,0.249228,2027.37,-15089.6,0,15225.2,59705.8
step02_gravity_refstate-crust.xmf,749,2.32002e-06,-1.7198e-06,0,-7.90336e-07,-4.43806e+08,-4.44083e+08,-4.43965e+08,-54217,0.00386111,0.251393,0,0.251423,1625.18,-16163.9,0,16245.4,54217
step02_gravity_refstate-crust.xmf,750,1.55233e-06,-5.03327e-07,0,-9.11597e-07,-2.64619e+08,-2.6476e+08,-2.64726e+08,-62535.5,0.00626133,0.241727,0,0.241808,3761.08,-9639.23,0,10347,62535.5
step02_gravity_refstate-crust.xmf,751,1.64698e-06,-3.9821e-07,0,-7.14642e-07,-1.26333e+08,-1.26473e+08,-1.26446e+08,-49024.5,0.010487,0.236014,0,0.236247,5695.21,-4605.32,0,7324.24,49024.5
step02_gravity_refstate-crust.xmf,752,2.55289e-06,-2.08734e-06,0,-7.89073e-07,-4.74278e+08,-4.74596e+08,-4.74453e+08,-54130.4,0.00368776,0.253752,0,0.253779,1413.81,-17273.7,0,17331.4,54130.4
step02_gravity_refstate-crust.xmf,753,2.81736e-06,-2.5062e-06,0,-8.85457e-07,-5.04912e+08,-5.05277e+08,-5.05105e+08,-60742.4,0.00394408,0.256341,0,0.256371,1370.31,-18389.3,0,18440.3,60742.4
step02_gravity_refstate-crust.xmf,754,3.11626e-06,-2.98768e-06,0,-1.00625e-06,-5.34834e+08,-5.35252e+08,-5.35047e+08,-69028.9,0.00426516,0.259346,0,0.259381,1337.09,-19479.1,0,19525,69028.9
step02_gravity_refstate-crust.xmf,755,6.47356e-06,-8.68869e-06,0,-1.15963e-07,-6.95958e+08,-6.96998e+08,-6.96402e+08,-7955.04,0.000267526,0.291785,0,0.291785,41.4687,-25349.8,0,25349.8,7955.04
step02_gravity_refstate-crust.xmf,756,3.46436e-06,-3.50419e-06,0,-1.04718e-06,-5.62526e+08,-5.63004e+08,-5.62764e+08,-71836.2,0.00429733,0.262798,0,0.262833,1215.47,-20487.9,0,20523.9,71836.2
step02_gravity_refstate-crust.xmf,757,3.81064e-06,-4.12856e-06,0,-1.16397e-06,-5.87545e+08,-5.88089e+08,-5.87806e+08,-79848.6,0.00444147,0.266389,0,0.266426,1139.53,-21399.2,0,21429.5,79848.6
step02_gravity_refstate-crust.xmf,758,5.40806e-06,-6.77111e-06,0,2.90173e-08,-6.59415e+08,-6.60251e+08,-6.59786e+08,1990.59,-7.19274e-05,0.281578,-0,0.281578,-13.3146,-24018.1,-0,24018.1,1990.59
step02_gravity_refstate-crust.xmf,759,4.48628e-06,-5.20985e-06,0,-9.48003e-07,-6.22044e+08,-6.2271e+08,-6.22352e+08,-65033,0.00333577,0.27287,0,0.27289,737.598,-22656.2,0,22668.2,65033
step02_gravity_refstate-crust.xmf,760,4.93197e-06,-5.94967e-06,0,-5.10319e-07,-6.40412e+08,-6.41159e+08,-6.40751e+08,-35007.9,0.00171152,0.277045,0,0.27705,347.437,-23325.6,0,23328.2,35007.9
step02_gravity_refstate-crust.xmf,761,7.73735e-06,-1.11377e-05,0,1.456e-08,-7.29296e+08,-7.3059e+08,-7.29826e+08,998.818,-1.73596e-05,0.303738,-0,0.303738,-2.22766,-26564.8,-0,26564.8,998.818
step02_gravity_refstate-crust.xmf,762,2.1896e-06,-1.83563e-06,0,1.73997e-05,-8.72683e+08,-8.72959e+08,-8.72833e+08,1.19362e+06,-0.0114773,0.327779,-0,0.32798,-2398.19,-31776.9,-0,31867.3,1.19362e+06
step02_gravity_refstate-crust.xmf,763,9.09847e-06,-1.40539e-05,0,-3.55598e-07,-7.58979e+08,-7.60567e+08,-7.59603e+08,-24394,0.00075356,0.317252,0,0.317253,83.3307,-27646.4,0,27646.5,24394
step02_gravity_refstate-crust.xmf,764,9.35176e-06,-1.83649e-05,0,8.31572e-06,-8.12387e+08,-8.14289e+08,-8.13029e+08,570459,-0.0129398,0.340785,-0,0.34103,-1246.59,-29585.2,-0,29611.4,570459
step02_gravity_refstate-crust.xmf,765,8.43899e-06,-1.85053e-05,0,1.06421e-05,-8.23889e+08,-8.25738e+08,-8.24468e+08,730045,-0.0148928,0.343462,-0,0.343785,-1499.28,-30000,-0,30037.4,730045
step02_gravity_refstate-crust.xmf,766,5.25869e-06,-1.04713e-05,0,1.66834e-05,-8.37686e+08,-8.38765e+08,-8.38046e+08,1.14448e+06,-0.0167434,0.336113,-0,0.33653,-2000,-30501.8,-0,30567.3,1.14448e+06
step02_gravity_refstate-crust.xmf,767,9.84098e-06,-1.60257e-05,0,1.35858e-06,-7.75365e+08,-7.7714e+08,-7.7604e+08,93198.7,-0.00258376,0.325933,-0,0.325943,-263.084,-28242.9,-0,28244.2,93198.7
step02_gravity_refstate-crust.xmf,768,1.02451e-05,-1.78138e-05,0,3.35401e-06,-7.91046e+08,-7.92971e+08,-7.91749e+08,230085,-0.0059122,0.334251,-0,0.334303,-568.847,-28812.7,-0,28818.3,230085
step02_gravity_refstate-crust.xmf,769,4.30546e-07,2.63465e-06,0,1.56214e-05,-8.92858e+08,-8.92707e+08,-8.92888e+08,1.07162e+06,-0.00735767,0.308391,-0,0.308479,-2879.59,-32511.2,-0,32638.5,1.07162e+06
step02_gravity_refstate-crust.xmf,770,-1.12736e-06,3.97743e-06,0,9.29684e-06,-8.75552e+08,-8.75202e+08,-8.75475e+08,637763,-0.0111805,0.263456,-0,0.263693,-4395.34,-31876.9,-0,32178.5,637763
step02_gravity_refstate-crust.xmf,771,-2.00564e-06,4.88321e-06,0,5.72434e-06,-8.47146e+08,-8.46674e+08,-8.47009e+08,392690,-0.0136859,0.225785,-0,0.2262,-6485.48,-30840.7,-0,31515.2,392690
step02_gravity_refstate-crust.xmf,772,-1.74597e-06,4.57792e-06,0,7.09354e-06,-8.61376e+08,-8.60942e+08,-8.61256e+08,486617,-0.0129198,0.24257,-0,0.242914,-5421.9,-31359.3,-0,31824.5,486617
step02_gravity_refstate-crust.xmf,773,-1.06888e-06,4.3599e-06,0,1.7206e-06,-7.45238e+08,-7.44866e+08,-7.45165e+08,118033,-0.0076581,0.149834,-0,0.15003,-17066.8,-27133.6,-0,32054.8,118033
step02_gravity_refstate-crust.xmf,774,-1.12356e-06,4.53247e-06,0,1.80053e-06,-7.64363e+08,-7.63975e+08,-7.64286e+08,123516,-0.00756233,0.152092,-0,0.15228,-16050.5,-27829.9,-0,32126.6,123516
step02_gravity_refstate-crust.xmf,775,-1.57747e-06,4.34157e-06,0,2.98304e-06,-7.40545e+08,-7.40139e+08,-7.40437e+08,204637,-0.0144258,0.181069,-0,0.181643,-12192.8,-26960.6,-0,29589.5,204637
step02_gravity_refstate-crust.xmf,776,-1.67145e-06,4.43857e-06,0,3.20626e-06,-7.55014e+08,-7.54595e+08,-7.54899e+08,219949,-0.0148072,0.185341,-0,0.185931,-11368.3,-27487.2,-0,29745.3,219949
step02_gravity_refstate-crust.xmf,777,-1.76272e-06,4.51446e-06,0,3.46559e-06,-7.68139e+08,-7.67708e+08,-7.68018e+08,237740,-0.0152057,0.190172,-0,0.190779,-10566.4,-27964.7,-0,29894.4,237740
step02_gravity_refstate-crust.xmf,778,-1.85002e-06,4.59626e-06,0,3.73888e-06,-7.81683e+08,-7.81241e+08,-7.81556e+08,256487,-0.0154313,0.195083,-0,0.195692,-9812.16,-28457.6,-0,30101.7,256487
step02_gravity_refstate-crust.xmf,779,-1.35552e-06,4.65393e-06,0,2.21047e-06,-7.68147e+08,-7.67735e+08,-7.68054e+08,151638,-0.00975147,0.163327,-0,0.163618,-14059,-27966.9,-0,31301.8,151638
step02_gravity_refstate-crust.xmf,780,-1.49106e-06,4.53785e-06,0,2.57588e-06,-7.54042e+08,-7.53628e+08,-7.53939e+08,176705,-0.0121326,0.172151,-0,0.172578,-13106.4,-27452.6,-0,30420.8,176705
step02_gravity_refstate-crust.xmf,781,-1.92741e-06,5.1943e-06,0,4.08355e-06,-8.31885e+08,-8.31397e+08,-8.31753e+08,280132,-0.0123438,0.20158,-0,0.201957,-8405.8,-30285.9,-0,31430.7,280132
step02_gravity_refstate-crust.xmf,782,-8.31382e-07,4.06979e-06,0,1.36832e-06,-7.25858e+08,-7.25522e+08,-7.25801e+08,93866.6,-0.00578194,0.138871,-0,0.138992,-20142.8,-26428.5,-0,33229.5,93866.6
step02_gravity_refstate-crust.xmf,783,-4.68894e-07,3.90492e-06,0,9.19729e-07,-7.49204e+08,-7.48904e+08,-7.49172e+08,63093.4,-0.00222889,0.121861,-0,0.121881,-24073,-27279.7,-0,36382.6,63093.4
step02_gravity_refstate-crust.xmf,784,-6.51747e-07,4.10963e-06,0,1.13893e-06,-7.54413e+08,-7.54086e+08,-7.54368e+08,78130.3,-0.00348349,0.129806,-0,0.129852,-21402.5,-27468.9,-0,34822.5,78130.3
step02_gravity_refstate-crust.xmf,785,-7.19355e-08,3.18796e-06,0,1.20454e-09,-7.07743e+08,-7.07519e+08,-7.07738e+08,82.6314,-9.85969e-21,0.104774,-0,0.104774,-40000,-25770.7,-0,47582.9,82.6314
step02_gravity_refstate-crust.xmf,786,-1.80639e-07,3.39646e-06,0,4.65408e-07,-7.2032e+08,-7.20074e+08,-7.20307e+08,31927,-0.000745572,0.109306,-0,0.109309,-31636.3,-26228.5,-0,41094.8,31927
step02_gravity_refstate-crust.xmf,787,-7.64308e-08,3.41613e-06,0,3.46855e-07,-7.435e+08,-7.43261e+08,-7.43495e+08,23794.2,-0.000128478,0.104234,-0,0.104235,-33347,-27072.9,-0,42953,23794.2
step02_gravity_refstate-crust.xmf,788,-2.99349e-07,3.55194e-06,0,6.61977e-07,-7.2289e+08,-7.22626e+08,-7.22869e+08,45411.6,-0.00145155,0.114657,-0,0.114666,-28402.3,-26321.8,-0,38723.8,45411.6
step02_gravity_refstate-crust.xmf,789,1.9471e-06,-7.43466e-07,0,-7.55444e-09,184764,191.184,51193,-518.235,0.0236556,0.225364,0,0.226602,9029.63,0,0,9029.63,518.235
step02_gravity_refstate-crust.xmf,790,1.59661e-06,-6.15547e-07,0,-1.00924e-06,-3.04285e+08,-3.04437e+08,-3.04395e+08,-69234.1,0.00623339,0.242762,0,0.242842,3623.29,-11083.3,0,11660.5,69234.1
step02_gravity_refstate-crust.xmf,791,1.6763e-06,-7.64725e-07,0,-1.11279e-06,-3.4178e+08,-3.41947e+08,-3.41895e+08,-76337.2,0.00636515,0.243907,0,0.24399,3505.45,-12448.4,0,12932.6,76337.2
step02_gravity_refstate-crust.xmf,792,1.94423e-06,-1.15307e-06,0,-9.25403e-07,-3.86733e+08,-3.86946e+08,-3.86867e+08,-63482.7,0.00488557,0.247353,0,0.247401,2411.17,-14085.5,0,14290.4,63482.7
step02_gravity_refstate-crust.xmf,793,1.53504e-06,-3.44974e-07,0,-8.48792e-07,-1.63062e+08,-1.63191e+08,-1.63167e+08,-58227.1,0.0094408,0.236912,0,0.2371,5503.13,-5942.09,0,8098.95,58227.1
step02_gravity_refstate-crust.xmf,794,1.45062e-06,-3.21857e-07,0,-9.96137e-07,-2.05115e+08,-2.05237e+08,-2.05214e+08,-68335,0.00874936,0.237719,0,0.23788,5358.95,-7472.79,0,9195.7,68335
step02_gravity_refstate-crust.xmf,795,1.42226e-06,-3.50825e-07,0,-1.12841e-06,-2.48007e+08,-2.48128e+08,-2.48104e+08,-77408.6,0.00829926,0.238697,0,0.238841,5147.27,-9034.14,0,10397.6,77408.6
step02_gravity_refstate-crust.xmf,796,1.44529e-06,-2.77089e-07,0,-9.22832e-07,-1.43539e+08,-1.43657e+08,-1.43638e+08,-63306.3,0.0120254,0.233271,0,0.23358,6966.92,-5231.09,0,8712.19,63306.3
step02_gravity_refstate-crust.xmf,797,7.01699e-06,-9.79149e-06,0,-1.05531e-06,-7.13187e+08,-7.1434e+08,-7.13669e+08,-72394.3,0.00270645,0.297266,0,0.297278,384.931,-25977.5,0,25980.4,72394.3
step02_gravity_refstate-crust.xmf,798,5.86523e-06,-7.58845e-06,0,-7.95576e-07,-6.77881e+08,-6.78804e+08,-6.78283e+08,-54576.5,0.00230369,0.286171,0,0.28618,392.49,-24690.9,0,24694,54576.5
step02_gravity_refstate-crust.xmf,799,4.11585e-06,-4.62873e-06,0,-1.28593e-06,-6.06811e+08,-6.0741e+08,-6.07093e+08,-88214.6,0.00468763,0.26949,0,0.269531,1112.85,-22101,0,22129,88214.6
step02_gravity_refstate-crust.xmf,800,1.50569e-06,4.165e-07,0,1.80553e-05,-8.85926e+08,-8.86001e+08,-8.8603e+08,1.23859e+06,-0.00855647,0.327514,-0,0.327626,-2412.95,-32259.8,-0,32349.9,1.23859e+06
step02_gravity_refstate-crust.xmf,801,8.30483e-06,-1.24128e-05,0,-7.49106e-07,-7.42823e+08,-7.44244e+08,-7.43392e+08,-51388.6,0.00168411,0.309386,0,0.30939,203.965,-27057.6,0,27058.3,51388.6
step02_gravity_refstate-crust.xmf,802,3.7997e-06,-4.98741e-06,0,1.96468e-05,-8.65091e+08,-8.65694e+08,-8.65352e+08,1.34777e+06,-0.0118634,0.343863,-0,0.344067,-2000,-31502.2,-0,31565.6,1.34777e+06
step02_gravity_refstate-crust.xmf,803,4.58054e-06,-7.77381e-06,0,1.83776e-05,-8.51377e+08,-8.52225e+08,-8.51692e+08,1.2607e+06,-0.0144338,0.34067,-0,0.340975,-2000,-31001.7,-0,31066.2,1.2607e+06
step02_gravity_refstate-crust.xmf,804,1.03588e-05,-2.04341e-05,0,5.16385e-06,-8.13182e+08,-8.15294e+08,-8.13892e+08,354240,-0.00821927,0.347874,-0,0.347971,-768.106,-29615,-0,29624.9,354240
step02_gravity_refstate-crust.xmf,805,1.05183e-05,-1.9495e-05,0,3.70943e-06,-8.03488e+08,-8.05547e+08,-8.0421e+08,254467,-0.00624926,0.342527,-0,0.342584,-582.626,-29264.2,-0,29270,254467
step02_gravity_refstate-crust.xmf,806,-2.81231e-07,3.76094e-06,0,1.2726e-05,-8.92006e+08,-8.91728e+08,-8.91986e+08,873001,-0.00761893,0.288307,-0,0.288408,-3452.4,-32479,-0,32662,873001
step02_gravity_refstate-crust.xmf,807,-1.46898e-06,4.8414e-06,0,7.73475e-06,-8.76353e+08,-8.7592e+08,-8.76252e+08,530604,-0.0101299,0.24787,-0,0.248077,-5048.97,-31906,-0,32303.1,530604
step02_gravity_refstate-crust.xmf,808,-1.9593e-06,5.21273e-06,0,4.92509e-06,-8.48146e+08,-8.47654e+08,-8.48012e+08,337861,-0.012114,0.214645,-0,0.214987,-7193.56,-30877.8,-0,31704.6,337861
step02_gravity_refstate-crust.xmf,809,-1.83844e-06,5.10461e-06,0,6.06627e-06,-8.62693e+08,-8.62217e+08,-8.62567e+08,416146,-0.0114449,0.229686,-0,0.229971,-6091.34,-31407.7,-0,31992.9,416146
step02_gravity_refstate-crust.xmf,810,-7.93237e-07,4.49513e-06,0,1.05075e-05,-8.90685e+08,-8.90323e+08,-8.90631e+08,720813,-0.00764259,0.270414,-0,0.270522,-4048.2,-32430,-0,32681.7,720813
step02_gravity_refstate-crust.xmf,811,-1.18113e-06,4.70113e-06,0,1.89095e-06,-7.82248e+08,-7.81845e+08,-7.82167e+08,129719,-0.00739934,0.154671,-0,0.154847,-15068.1,-28481,-0,32221.4,129719
step02_gravity_refstate-crust.xmf,812,-1.82343e-06,4.98556e-06,0,3.45629e-06,-8.06579e+08,-8.06112e+08,-8.06454e+08,237102,-0.0128501,0.190307,-0,0.19074,-9855.38,-29364.7,-0,30974.4,237102
step02_gravity_refstate-crust.xmf,813,-1.87736e-06,5.10677e-06,0,3.72566e-06,-8.203e+08,-8.19821e+08,-8.20171e+08,255581,-0.0125396,0.195349,-0,0.195751,-9133.51,-29864.2,-0,31229.6,255581
step02_gravity_refstate-crust.xmf,814,-1.81975e-06,5.45081e-06,0,4.20685e-06,-8.51653e+08,-8.51155e+08,-8.51528e+08,288590,-0.0101202,0.203762,-0,0.204013,-7929.5,-31006.4,-0,32004.2,288590
step02_gravity_refstate-crust.xmf,815,-8.88907e-07,4.21632e-06,0,1.44781e-06,-7.41245e+08,-7.40894e+08,-7.41184e+08,99319.6,-0.00595441,0.141168,-0,0.141293,-19042.4,-26988.7,-0,33030.3,99319.6
step02_gravity_refstate-crust.xmf,816,-9.25969e-07,4.36718e-06,0,1.50367e-06,-7.58542e+08,-7.58179e+08,-7.58478e+08,103152,-0.00584884,0.142762,-0,0.142882,-18087.5,-27618.5,-0,33014.2,103152
step02_gravity_refstate-crust.xmf,817,-4.99265e-07,4.06528e-06,0,9.73102e-07,-7.69222e+08,-7.68908e+08,-7.69187e+08,66754.8,-0.00198658,0.122798,-0,0.122814,-22818.5,-28008.6,-0,36127,66754.8
step02_gravity_refstate-crust.xmf,818,-1.27016e-08,3.28862e-06,0,7.66798e-08,-7.35873e+08,-7.35646e+08,-7.35872e+08,5260.23,-1.49937e-05,0.101646,-0,0.101646,-38504.7,-26795.2,-0,46910.5,5260.23
step02_gravity_refstate-crust.xmf,819,1.3358e-09,3.35654e-06,0,1.70009e-07,-7.49654e+08,-7.49424e+08,-7.49654e+08,11662.6,5.31e-05,0.100735,0,0.100735,-36631.2,-27297.1,-0,45683.4,11662.6
step02_gravity_refstate-crust.xmf,820,-3.08247e-07,3.72366e-06,0,7.19533e-07,-7.48036e+08,-7.47759e+08,-7.48015e+08,49359.9,-0.00117303,0.1146,-0,0.114606,-26907.6,-27237.5,-0,38287.1,49359.9
step02_gravity_refstate-crust.xmf,821,-4.11236e-09,3.42477e-06,0,2.55144e-07,-7.59322e+08,-7.59087e+08,-7.59322e+08,17502.8,0.000148563,0.100759,0,0.100759,-34886,-27649.2,-0,44514.1,17502.8
step02_gravity_refstate-crust.xmf,822,-1.70684e-07,3.56328e-06,0,5.28169e-07,-7.48557e+08,-7.48301e+08,-7.48546e+08,36232.4,-0.000424764,0.10829,-0,0.108291,-30017,-27256.8,-0,40545.7,36232.4
step02_gravity_refstate-crust.xmf,823,-3.19754e-07,3.88914e-06,0,7.72718e-07,-7.70748e+08,-7.70459e+08,-7.70726e+08,53008.4,-0.000842756,0.114912,-0,0.114915,-25489.7,-28064.6,-0,37912.4,53008.4
step02_gravity_refstate-crust.xmf,824,1.49143e-06,-3.5698e-07,0,-6.90539e-07,-8.39879e+07,-8.41147e+07,-8.40902e+07,-47370.9,0.0168233,0.227975,0,0.228595,8682.37,-3063.15,0,9206.87,47370.9
step02_gravity_refstate-crust.xmf,825,1.44726e-06,-4.10766e-07,0,-4.90295e-07,-5.1709e+07,-5.18365e+07,-5.18083e+07,-33634.2,0.0209063,0.223472,0,0.224447,10060.6,-1887.74,0,10236.1,33634.2
step02_gravity_refstate-crust.xmf,826,1.33826e-06,-2.28932e-07,0,-9.34274e-07,-1.23243e+08,-1.2335e+08,-1.23335e+08,-64091.2,0.0147947,0.228933,0,0.22941,8494.05,-4491.84,0,9608.62,64091.2
step02_gravity_refstate-crust.xmf,827,2.37296e-06,-1.81635e-06,0,-1.18226e-06,-4.65446e+08,-4.65734e+08,-4.65609e+08,-81103,0.00565673,0.251767,0,0.251831,2263.59,-16951.8,0,17102.3,81103
step02_gravity_refstate-crust.xmf,828,1.78143e-06,-9.24546e-07,0,-1.23009e-06,-3.77014e+08,-3.772e+08,-3.77136e+08,-84384.1,0.00668598,0.245105,0,0.245196,3444.02,-13731.3,0,14156.7,84384.1
step02_gravity_refstate-crust.xmf,829,1.93009e-06,-1.16406e-06,0,-1.38117e-06,-4.14217e+08,-4.14429e+08,-4.14349e+08,-94748,0.00711009,0.246696,0,0.246799,3360.51,-15086,0,15455.7,94748
step02_gravity_refstate-crust.xmf,830,2.17035e-06,-1.52512e-06,0,-1.27149e-06,-4.43234e+08,-4.43487e+08,-4.43383e+08,-87224.5,0.00626752,0.249549,0,0.249628,2700.1,-16142.8,0,16367,87224.5
step02_gravity_refstate-crust.xmf,831,1.44035e-06,-4.2397e-07,0,-1.25072e-06,-2.88622e+08,-2.8875e+08,-2.88721e+08,-85799.7,0.00813099,0.239727,0,0.239865,4939.91,-10512.7,0,11615.5,85799.7
step02_gravity_refstate-crust.xmf,832,2.54433e-06,-2.11507e-06,0,-1.36926e-06,-4.91954e+08,-4.92274e+08,-4.92128e+08,-93930.9,0.00627552,0.253538,0,0.253616,2320.14,-17917.1,0,18066.7,93930.9
step02_gravity_refstate-crust.xmf,833,3.10579e-06,-3.03942e-06,0,-1.70459e-06,-5.52346e+08,-5.52768e+08,-5.52559e+08,-116935,0.00707097,0.259579,0,0.259675,2124.37,-20116.6,0,20228.4,116935
step02_gravity_refstate-crust.xmf,834,2.79355e-06,-2.52858e-06,0,-1.57128e-06,-5.22832e+08,-5.23197e+08,-5.23023e+08,-107790,0.00687226,0.256169,0,0.256262,2298.03,-19041.6,0,19179.8,107790
step02_gravity_refstate-crust.xmf,835,6.24887e-06,-8.36709e-06,0,-1.74841e-06,-6.95423e+08,-6.96425e+08,-6.95851e+08,-119941,0.00480447,0.290556,0,0.290596,755.742,-25329.9,0,25341.2,119941
step02_gravity_refstate-crust.xmf,836,3.44486e-06,-3.56722e-06,0,-1.86567e-06,-5.79563e+08,-5.80044e+08,-5.79799e+08,-127985,0.0074246,0.26315,0,0.263254,2012.53,-21108,0,21203.7,127985
step02_gravity_refstate-crust.xmf,837,3.7958e-06,-4.19003e-06,0,-1.97041e-06,-6.01857e+08,-6.02405e+08,-6.02117e+08,-135170,0.00736407,0.266868,0,0.266969,1820.24,-21920.1,0,21995.5,135170
step02_gravity_refstate-crust.xmf,838,5.27281e-06,-6.60688e-06,0,-1.28617e-06,-6.59447e+08,-6.60262e+08,-6.59809e+08,-88231.5,0.00405901,0.280802,0,0.280831,759.99,-24018.9,0,24030.9,88231.5
step02_gravity_refstate-crust.xmf,839,4.21819e-06,-4.87861e-06,0,-1.91425e-06,-6.22108e+08,-6.22732e+08,-6.22398e+08,-131318,0.00678722,0.271074,0,0.271159,1530.29,-22658,0,22709.6,131318
step02_gravity_refstate-crust.xmf,840,4.71461e-06,-5.67739e-06,0,-1.65018e-06,-6.40424e+08,-6.41137e+08,-6.40747e+08,-113202,0.00553957,0.275675,0,0.275731,1141.14,-23325.5,0,23353.4,113202
step02_gravity_refstate-crust.xmf,841,7.51824e-06,-1.10164e-05,0,-2.30192e-06,-7.3113e+08,-7.32401e+08,-7.31646e+08,-157911,0.00545521,0.30313,0,0.303179,711.281,-26630.9,0,26640.4,157911
step02_gravity_refstate-crust.xmf,842,8.05268e-07,2.70801e-06,0,1.86752e-05,-8.99318e+08,-8.99188e+08,-8.99374e+08,1.28112e+06,-0.00551869,0.326999,-0,0.327045,-2407.2,-32748,-0,32836.4,1.28112e+06
step02_gravity_refstate-crust.xmf,843,2.79503e-06,-2.2159e-06,0,2.06165e-05,-8.78821e+08,-8.79165e+08,-8.79013e+08,1.41429e+06,-0.00917459,0.345667,-0,0.345789,-2000,-32002.2,-0,32064.7,1.41429e+06
step02_gravity_refstate-crust.xmf,844,8.34789e-06,-1.2813e-05,0,-2.59345e-06,-7.50605e+08,-7.52057e+08,-7.51178e+08,-177911,0.00556421,0.311705,0,0.311755,651.623,-27340.5,0,27348.2,177911
step02_gravity_refstate-crust.xmf,845,9.80244e-06,-1.60169e-05,0,-1.75274e-06,-7.75571e+08,-7.77342e+08,-7.76243e+08,-120238,0.00329778,0.325853,0,0.32587,336.256,-28250.3,0,28252.3,120238
step02_gravity_refstate-crust.xmf,846,9.76155e-06,-2.1163e-05,0,7.05979e-06,-8.23855e+08,-8.25977e+08,-8.24525e+08,484302,-0.010339,0.352921,-0,0.353072,-999.317,-30000,-0,30016.6,484302
step02_gravity_refstate-crust.xmf,847,1.04998e-05,-1.80704e-05,0,-4.13111e-07,-7.89203e+08,-7.91163e+08,-7.89923e+08,-28339.4,0.000707713,0.334773,0,0.334774,67.8573,-28746.2,0,28746.3,28339.4
step02_gravity_refstate-crust.xmf,848,1.08514e-05,-1.99704e-05,0,1.03941e-06,-8.02462e+08,-8.04576e+08,-8.03206e+08,71303.4,-0.00177906,0.343732,-0,0.343736,-164.566,-29227.4,-0,29227.9,71303.4
step02_gravity_refstate-crust.xmf,849,1.0837e-05,-2.14748e-05,0,1.91068e-06,-8.13764e+08,-8.1598e+08,-8.14507e+08,131073,-0.00310806,0.351809,-0,0.351822,-286.313,-29636.5,-0,29637.9,131073
step02_gravity_refstate-crust.xmf,850,-2.75916e-07,4.84226e-06,0,1.43959e-05,-9.05568e+08,-9.05217e+08,-9.05549e+08,987557,-0.00413936,0.295714,-0,0.295743,-3175.31,-32974.5,-0,33127,987557
step02_gravity_refstate-crust.xmf,851,-1.1476e-06,5.23966e-06,0,8.63692e-06,-8.91362e+08,-8.90924e+08,-8.91284e+08,592492,-0.00683652,0.253641,-0,0.253733,-4682.73,-32454.4,-0,32790.5,592492
step02_gravity_refstate-crust.xmf,852,-1.81091e-06,5.4561e-06,0,5.18103e-06,-8.64482e+08,-8.63984e+08,-8.64358e+08,355418,-0.0098448,0.217895,-0,0.218117,-6772.26,-31473.5,-0,32193.8,355418
step02_gravity_refstate-crust.xmf,853,-1.586e-06,5.39442e-06,0,6.51008e-06,-8.78018e+08,-8.77539e+08,-8.77909e+08,446591,-0.00873609,0.234024,-0,0.234187,-5701.45,-31967,-0,32471.5,446591
step02_gravity_refstate-crust.xmf,854,-9.52737e-07,4.53156e-06,0,1.55385e-06,-7.77899e+08,-7.77523e+08,-7.77834e+08,106594,-0.00552522,0.144234,-0,0.144339,-17128.8,-28323.4,-0,33100,106594
step02_gravity_refstate-crust.xmf,855,-9.78077e-07,4.70254e-06,0,1.61896e-06,-7.96896e+08,-7.96506e+08,-7.96829e+08,111061,-0.005142,0.146271,-0,0.146362,-16114.7,-29015.1,-0,33189.8,111061
step02_gravity_refstate-crust.xmf,856,-1.58029e-06,4.67347e-06,0,2.74877e-06,-7.69497e+08,-7.69067e+08,-7.69388e+08,188565,-0.0122835,0.175844,-0,0.176272,-12254.3,-28015.1,-0,30578,188565
step02_gravity_refstate-crust.xmf,857,-1.68356e-06,4.76892e-06,0,2.99439e-06,-7.8111e+08,-7.80667e+08,-7.80994e+08,205415,-0.0127552,0.181013,-0,0.181462,-11362.8,-28437.7,-0,30623.7,205415
step02_gravity_refstate-crust.xmf,858,-1.75605e-06,4.86552e-06,0,3.22377e-06,-7.93115e+08,-7.92661e+08,-7.92995e+08,221151,-0.0129611,0.185724,-0,0.186175,-10586.4,-28874.6,-0,30754.1,221151
step02_gravity_refstate-crust.xmf,859,-1.22127e-06,4.87245e-06,0,1.98243e-06,-8.00061e+08,-7.99643e+08,-7.99977e+08,135995,-0.00705692,0.157357,-0,0.157515,-14126,-29129.6,-0,32374,135995
step02_gravity_refstate-crust.xmf,860,-1.42106e-06,4.82117e-06,0,2.3315e-06,-7.85532e+08,-7.85103e+08,-7.85434e+08,159941,-0.00960718,0.166464,-0,0.166741,-13151.6,-28599.8,-0,31478.8,159941
step02_gravity_refstate-crust.xmf,861,-1.75812e-06,5.45112e-06,0,3.77773e-06,-8.47475e+08,-8.4698e+08,-8.47354e+08,259152,-0.00967977,0.19668,-0,0.196918,-8561.28,-30854.5,-0,32020.2,259152
step02_gravity_refstate-crust.xmf,862,-7.27174e-07,4.24979e-06,0,1.24451e-06,-7.64537e+08,-7.64196e+08,-7.64488e+08,85373.7,-0.00389598,0.133399,-0,0.133456,-20045.8,-27837.4,-0,34303.9,85373.7
step02_gravity_refstate-crust.xmf,863,-3.26173e-07,4.04508e-06,0,8.18488e-07,-7.91794e+08,-7.91494e+08,-7.91771e+08,56148.3,-0.000430304,0.115303,-0,0.115304,-24209.8,-28831,-0,37647.6,56148.3
step02_gravity_refstate-crust.xmf,864,-4.68491e-07,4.22358e-06,0,9.80893e-07,-7.95527e+08,-7.95205e+08,-7.95495e+08,67289.3,-0.00116369,0.121791,-0,0.121797,-21912.2,-28966.6,-0,36320.9,67289.3
step02_gravity_refstate-crust.xmf,865,7.83829e-08,3.40652e-06,0,1.78702e-09,-7.73032e+08,-7.72804e+08,-7.73038e+08,122.59,4.66371e-20,0.0969323,0,0.0969323,-40000,-28148.6,-0,48911.6,122.59
step02_gravity_refstate-crust.xmf,866,-4.66909e-08,3.57452e-06,0,4.06336e-07,-7.74017e+08,-7.73768e+08,-7.74013e+08,27874.6,0.000313826,0.102343,0,0.102344,-31739.8,-28184.2,-0,42447.2,27874.6
step02_gravity_refstate-crust.xmf,867,6.90303e-08,3.58838e-06,0,2.89468e-07,-7.99396e+08,-7.99154e+08,-7.994e+08,19857.5,0.000732342,0.0967333,0,0.096736,-33698.3,-29108.6,-0,44529.7,19857.5
step02_gravity_refstate-crust.xmf,868,-1.61515e-07,3.7309e-06,0,5.83132e-07,-7.75101e+08,-7.74834e+08,-7.7509e+08,40002.9,5.42284e-06,0.107665,0,0.107665,-28435.3,-28223.4,-0,40064,40002.9
step02_gravity_refstate-crust.xmf,869,1.51504e-06,-5.79857e-07,0,-9.27072e-09,143706,-3.13057,39775,-635.971,0.0272199,0.219426,0,0.221108,11080.7,0,0,11080.7,635.971
step02_gravity_refstate-crust.xmf,870,1.21705e-06,-1.98384e-07,0,-8.74212e-07,-1.02268e+08,-1.02365e+08,-1.02352e+08,-59970.9,0.0177015,0.224103,0,0.224801,10034.3,-3727.79,0,10704.4,59970.9
step02_gravity_refstate-crust.xmf,871,1.49474e-06,-5.34029e-07,0,-1.36906e-06,-3.2654e+08,-3.26679e+08,-3.26642e+08,-93917.8,0.00815976,0.240847,0,0.240985,4740.51,-11893.2,0,12803.2,93917.8
step02_gravity_refstate-crust.xmf,872,1.57244e-06,-6.72626e-07,0,-1.50685e-06,-3.62986e+08,-3.6314e+08,-3.63094e+08,-103370,0.00841509,0.241989,0,0.242135,4598.27,-13220.2,0,13997,103370
step02_gravity_refstate-crust.xmf,873,1.33269e-06,-2.14145e-07,0,-1.12002e-06,-1.87059e+08,-1.87165e+08,-1.87151e+08,-76833.7,0.0110253,0.233936,0,0.234196,6857.19,-6815.14,0,9667.84,76833.7
step02_gravity_refstate-crust.xmf,874,1.272e-06,-1.95006e-07,0,-1.30072e-06,-2.3222e+08,-2.32321e+08,-2.32308e+08,-89229.1,0.0103498,0.234817,0,0.235045,6647.03,-8459.06,0,10758.2,89229.1
step02_gravity_refstate-crust.xmf,875,1.27558e-06,-2.36785e-07,0,-1.44053e-06,-2.74517e+08,-2.74621e+08,-2.74605e+08,-98820.3,0.00988834,0.236123,0,0.23633,6285.21,-9998.87,0,11810.2,98820.3
step02_gravity_refstate-crust.xmf,876,1.20266e-06,-1.16604e-07,0,-1.17735e-06,-1.68258e+08,-1.68349e+08,-1.68341e+08,-80766.1,0.0132919,0.229581,0,0.229966,8369.4,-6130.29,0,10374.4,80766.1
step02_gravity_refstate-crust.xmf,877,6.51826e-06,-9.14586e-06,0,-2.90865e-06,-7.12575e+08,-7.1365e+08,-7.13022e+08,-199534,0.00756633,0.294713,0,0.29481,1105.57,-25954.2,0,25977.8,199534
step02_gravity_refstate-crust.xmf,878,5.53758e-06,-7.14327e-06,0,-2.18935e-06,-6.7758e+08,-6.7845e+08,-6.7796e+08,-150189,0.00650015,0.284329,0,0.284404,1129.54,-24679.3,0,24705.1,150189
step02_gravity_refstate-crust.xmf,879,3.07386e-06,-3.04095e-06,0,-2.25669e-06,-5.69067e+08,-5.69487e+08,-5.69278e+08,-154809,0.00924639,0.259704,0,0.259869,2670.33,-20725.2,0,20896.5,154809
step02_gravity_refstate-crust.xmf,880,1.02311e-07,4.28871e-06,0,1.67411e-05,-9.05568e+08,-9.05281e+08,-9.05575e+08,1.14844e+06,-0.00418363,0.312018,-0,0.312046,-2745.84,-32975.2,-0,33089.3,1.14844e+06
step02_gravity_refstate-crust.xmf,881,1.7848e-06,5.76068e-07,0,2.13229e-05,-8.92533e+08,-8.92616e+08,-8.92656e+08,1.46275e+06,-0.00644682,0.346078,-0,0.346138,-2000,-32501.7,-0,32563.2,1.46275e+06
step02_gravity_refstate-crust.xmf,882,8.99319e-06,-1.42496e-05,0,-2.81876e-06,-7.6415e+08,-7.65744e+08,-7.64766e+08,-193367,0.00562477,0.318505,0,0.318555,612.222,-27833.9,0,27840.7,193367
step02_gravity_refstate-crust.xmf,883,1.04599e-05,-2.25672e-05,0,3.53094e-06,-8.23837e+08,-8.26103e+08,-8.24555e+08,242223,-0.00528574,0.358578,-0,0.358617,-499.831,-30000,-0,30004.2,242223
step02_gravity_refstate-crust.xmf,884,-6.73055e-07,5.51136e-06,0,1.18307e-05,-9.05726e+08,-9.05302e+08,-9.0568e+08,811588,-0.00383348,0.277275,-0,0.277302,-3725.78,-32979.7,-0,33189.5,811588
step02_gravity_refstate-crust.xmf,885,-1.30429e-06,5.72605e-06,0,7.17783e-06,-8.92518e+08,-8.92036e+08,-8.92428e+08,492399,-0.00576511,0.239155,-0,0.239225,-5306.58,-32496.6,-0,32927,492399
step02_gravity_refstate-crust.xmf,886,-1.74289e-06,5.5737e-06,0,4.55854e-06,-8.63702e+08,-8.632e+08,-8.63582e+08,312716,-0.00892372,0.208905,-0,0.209095,-7378.25,-31445.5,-0,32299.5,312716
step02_gravity_refstate-crust.xmf,887,-1.59187e-06,5.68456e-06,0,5.53043e-06,-8.79098e+08,-8.78599e+08,-8.78989e+08,379388,-0.00742361,0.221559,-0,0.221684,-6370.75,-32006.8,-0,32634.7,379388
step02_gravity_refstate-crust.xmf,888,-9.16631e-07,5.92578e-06,0,9.75535e-06,-9.06073e+08,-9.05604e+08,-9.06011e+08,669217,-0.00326427,0.259961,-0,0.259981,-4320.49,-32992,-0,33273.7,669217
step02_gravity_refstate-crust.xmf,889,-1.00698e-06,4.86904e-06,0,1.69689e-06,-8.14499e+08,-8.14096e+08,-8.1443e+08,116407,-0.0046833,0.148692,-0,0.148765,-15129,-29656.1,-0,33292.2,116407
step02_gravity_refstate-crust.xmf,890,-1.64161e-06,5.16439e-06,0,2.94931e-06,-8.17922e+08,-8.17455e+08,-8.17809e+08,202322,-0.0101872,0.180733,-0,0.18102,-10636.2,-29778.6,-0,31621.1,202322
step02_gravity_refstate-crust.xmf,891,-1.66915e-06,5.3118e-06,0,3.15191e-06,-8.31739e+08,-8.3126e+08,-8.31624e+08,216221,-0.00966295,0.185063,-0,0.185315,-9907.64,-30281.8,-0,31861.4,216221
step02_gravity_refstate-crust.xmf,892,-1.67561e-06,5.46456e-06,0,3.41595e-06,-8.45542e+08,-8.45052e+08,-8.45427e+08,234334,-0.00897321,0.190341,-0,0.190552,-9146.61,-30784.5,-0,32114.6,234334
step02_gravity_refstate-crust.xmf,893,-1.56252e-06,5.67034e-06,0,3.62096e-06,-8.63283e+08,-8.62787e+08,-8.63176e+08,248398,-0.00710298,0.193969,-0,0.194099,-8519.92,-31431.1,-0,32565.4,248398
step02_gravity_refstate-crust.xmf,894,-7.97688e-07,4.35909e-06,0,1.33658e-06,-7.71383e+08,-7.71029e+08,-7.71328e+08,91689.6,-0.00430091,0.136628,-0,0.136696,-19003.9,-28086.5,-0,33911.6,91689.6
step02_gravity_refstate-crust.xmf,895,-7.84867e-07,4.50168e-06,0,1.35121e-06,-7.9074e+08,-7.90377e+08,-7.90686e+08,92693.2,-0.00371555,0.13692,-0,0.136971,-18227.4,-28791.5,-0,34076.2,92693.2
step02_gravity_refstate-crust.xmf,896,-5.82706e-07,4.28128e-06,0,1.09997e-06,-7.87099e+08,-7.86765e+08,-7.87059e+08,75458.2,-0.00220104,0.127117,-0,0.127136,-20770.2,-28659.4,-0,35394.4,75458.2
step02_gravity_refstate-crust.xmf,897,-3.25512e-07,4.19803e-06,0,8.58387e-07,-8.13476e+08,-8.13166e+08,-8.13454e+08,58885.3,0.000155139,0.115453,0,0.115453,-23038.8,-29620.6,-0,37525.5,58885.3
step02_gravity_refstate-crust.xmf,898,1.37628e-07,3.50841e-06,0,9.32229e-08,-8.01632e+08,-8.01401e+08,-8.01641e+08,6395.09,0.000290498,0.0936598,0,0.0936602,-37959.7,-29190.2,-0,47885.3,6395.09
step02_gravity_refstate-crust.xmf,899,1.02973e-07,3.52725e-06,0,1.93728e-07,-7.97259e+08,-7.97024e+08,-7.97266e+08,13289.7,0.000525018,0.0952982,0,0.0952996,-35760.2,-29030.9,-0,46060.7,13289.7
step02_gravity_refstate-crust.xmf,900,-1.72941e-07,3.88251e-06,0,6.44414e-07,-7.9525e+08,-7.94972e+08,-7.95238e+08,44206.8,0.000372722,0.108056,0,0.108057,-26909.1,-28957.2,-0,39529.9,44206.8
step02_gravity_refstate-crust.xmf,901,-2.65125e-08,3.73947e-06,0,4.64738e-07,-8.02811e+08,-8.02553e+08,-8.02809e+08,31881,0.000895694,0.100997,0,0.101001,-30064,-29232.8,-0,41933.3,31881
step02_gravity_refstate-crust.xmf,902,-1.79949e-07,4.02157e-06,0,6.95464e-07,-8.13166e+08,-8.12878e+08,-8.13154e+08,47708.9,0.000778404,0.108552,0,0.108555,-25589.2,-29609.6,-0,39134.8,47708.9
step02_gravity_refstate-crust.xmf,903,1.08822e-06,-2.80001e-07,0,-4.81576e-07,-4.65621e+07,-4.6656e+07,-4.66367e+07,-33036.1,0.0240418,0.216554,0,0.217884,12200.2,-1699.11,0,12318,33036.1
step02_gravity_refstate-crust.xmf,904,1.06458e-06,-4.7727e-08,0,-1.16818e-06,-1.48005e+08,-1.48081e+08,-1.48078e+08,-80137.2,0.0156444,0.224641,0,0.225185,9930.02,-5392.51,0,11299.8,80137.2
step02_gravity_refstate-crust.xmf,905,2.22163e-06,-1.6656e-06,0,-1.71047e-06,-4.73967e+08,-4.74234e+08,-4.7412e+08,-117338,0.00811659,0.249977,0,0.250109,3258.72,-17261.7,0,17566.6,117338
step02_gravity_refstate-crust.xmf,906,1.67638e-06,-8.27405e-07,0,-1.66227e-06,-3.98633e+08,-3.98805e+08,-3.98748e+08,-114032,0.00885393,0.243242,0,0.243403,4491.43,-14518.1,0,15197,114032
step02_gravity_refstate-crust.xmf,907,2.00963e-06,-1.33251e-06,0,-1.68816e-06,-4.47701e+08,-4.4793e+08,-4.47839e+08,-115808,0.00834453,0.247472,0,0.247613,3653.19,-16305.1,0,16709.3,115808
step02_gravity_refstate-crust.xmf,908,1.31281e-06,-3.11844e-07,0,-1.56014e-06,-3.11914e+08,-3.12025e+08,-3.12004e+08,-107025,0.00973397,0.237371,0,0.23757,5969.28,-11360.4,0,12833.2,107025
step02_gravity_refstate-crust.xmf,909,2.42322e-06,-2.00795e-06,0,-1.9957e-06,-5.09394e+08,-5.09698e+08,-5.0956e+08,-136905,0.00903157,0.252312,0,0.252474,3259.51,-18551.7,0,18835.9,136905
step02_gravity_refstate-crust.xmf,910,2.67728e-06,-2.43716e-06,0,-2.32135e-06,-5.44615e+08,-5.44966e+08,-5.44799e+08,-159245,0.0099276,0.255373,0,0.255566,3190.07,-19834.3,0,20089.2,159245
step02_gravity_refstate-crust.xmf,911,5.70175e-06,-7.63596e-06,0,-3.22184e-06,-6.95471e+08,-6.96386e+08,-6.95862e+08,-221018,0.00908355,0.287686,0,0.28783,1471.47,-25330.6,0,25373.3,221018
step02_gravity_refstate-crust.xmf,912,3.27856e-06,-3.45945e-06,0,-2.67965e-06,-5.94662e+08,-5.95124e+08,-5.94886e+08,-183824,0.0104159,0.262387,0,0.262593,2753.59,-21657.2,0,21831.5,183824
step02_gravity_refstate-crust.xmf,913,3.75273e-06,-4.26056e-06,0,-2.76784e-06,-6.203e+08,-6.2085e+08,-6.20557e+08,-189874,0.0100555,0.26764,0,0.267829,2365.26,-22591.2,0,22714.7,189874
step02_gravity_refstate-crust.xmf,914,4.87817e-06,-6.09068e-06,0,-2.48778e-06,-6.59144e+08,-6.59897e+08,-6.59479e+08,-170661,0.00796214,0.278393,0,0.278507,1530.53,-24007.1,0,24055.8,170661
step02_gravity_refstate-crust.xmf,915,4.26913e-06,-5.09868e-06,0,-2.7043e-06,-6.40204e+08,-6.40847e+08,-6.40497e+08,-185515,0.00924274,0.272746,0,0.272903,1966.87,-23316.6,0,23399.5,185515
step02_gravity_refstate-crust.xmf,916,6.58045e-09,5.07905e-06,0,1.90183e-05,-9.12633e+08,-9.12285e+08,-9.12633e+08,1.30465e+06,-0.00249704,0.325024,-0,0.325033,-2409.15,-33233.2,-0,33320.4,1.30465e+06
step02_gravity_refstate-crust.xmf,917,6.50499e-06,-9.54097e-06,0,-4.36636e-06,-7.28521e+08,-7.29622e+08,-7.28967e+08,-299532,0.0107721,0.297847,0,0.298042,1484.83,-26534.1,0,26575.6,299532
step02_gravity_refstate-crust.xmf,918,7.32629e-07,3.37486e-06,0,2.17935e-05,-9.06241e+08,-9.0606e+08,-9.06292e+08,1.49504e+06,-0.00371734,0.345093,-0,0.345113,-2000,-33000.8,-0,33061.4,1.49504e+06
step02_gravity_refstate-crust.xmf,919,7.37367e-06,-1.12728e-05,0,-4.43467e-06,-7.45562e+08,-7.46841e+08,-7.46068e+08,-304218,0.00996652,0.306032,0,0.306194,1237.57,-27155.3,0,27183.5,304218
step02_gravity_refstate-crust.xmf,920,8.1992e-06,-1.30285e-05,0,-4.62574e-06,-7.6134e+08,-7.62796e+08,-7.61902e+08,-317325,0.009518,0.314145,0,0.314289,1078.08,-27730.3,0,27751.3,317325
step02_gravity_refstate-crust.xmf,921,9.08906e-06,-1.49868e-05,0,-4.47508e-06,-7.75187e+08,-7.76839e+08,-7.75811e+08,-306990,0.00851127,0.322611,0,0.322724,889.444,-28235,0,28249,306990
step02_gravity_refstate-crust.xmf,922,9.99901e-06,-1.721e-05,0,-3.78014e-06,-7.88198e+08,-7.90064e+08,-7.88884e+08,-259318,0.00670954,0.331894,0,0.331962,654.628,-28708.9,0,28716.4,259318
step02_gravity_refstate-crust.xmf,923,1.06804e-05,-1.94799e-05,0,-2.60301e-06,-8.00889e+08,-8.02958e+08,-8.01622e+08,-178567,0.0043634,0.341769,0,0.341797,406.414,-29170.2,0,29173,178567
step02_gravity_refstate-crust.xmf,924,1.06799e-05,-2.30094e-05,0,1.53231e-08,-8.23832e+08,-8.26143e+08,-8.24564e+08,1051.16,5.16852e-07,0.360464,0,0.360464,-2.07592e-10,-30000,-0,30000,1051.16
step02_gravity_refstate-crust.xmf,925,1.08926e-05,-2.14622e-05,0,-1.36035e-06,-8.13037e+08,-8.15256e+08,-8.13784e+08,-93319.9,0.00214864,0.351542,0,0.351549,197.502,-29610.3,0,29610.9,93319.9
step02_gravity_refstate-crust.xmf,926,-4.97339e-07,6.22727e-06,0,1.62866e-05,-9.17465e+08,-9.17004e+08,-9.17431e+08,1.11726e+06,-0.00121387,0.305273,-0,0.305275,-2857.95,-33408.9,-0,33530.9,1.11726e+06
step02_gravity_refstate-crust.xmf,927,-7.41074e-07,6.74999e-06,0,1.34794e-05,-9.19663e+08,-9.19149e+08,-9.19612e+08,924687,-0.000297732,0.284973,-0,0.284973,-3396.14,-33488.7,-0,33660.5,924687
step02_gravity_refstate-crust.xmf,928,-1.04376e-06,6.23632e-06,0,8.07665e-06,-9.06738e+08,-9.06239e+08,-9.06667e+08,554058,-0.00249319,0.244798,-0,0.244811,-4917.02,-33016.1,-0,33380.3,554058
step02_gravity_refstate-crust.xmf,929,-1.50312e-06,5.8021e-06,0,3.98784e-06,-8.73976e+08,-8.73474e+08,-8.73872e+08,273566,-0.00612253,0.199788,-0,0.199882,-7883.38,-31820.9,-0,32782.8,273566
step02_gravity_refstate-crust.xmf,930,-1.45734e-06,5.90347e-06,0,4.57703e-06,-8.82417e+08,-8.81912e+08,-8.82317e+08,313984,-0.0055162,0.208445,-0,0.208518,-7142.83,-32128.5,-0,32912.9,313984
step02_gravity_refstate-crust.xmf,931,-1.27008e-06,6.06705e-06,0,6.00732e-06,-8.96416e+08,-8.95913e+08,-8.96329e+08,412102,-0.00394443,0.225298,-0,0.225332,-5956.22,-32639.2,-0,33178.2,412102
step02_gravity_refstate-crust.xmf,932,-7.86182e-07,4.66662e-06,0,1.3999e-06,-8.10528e+08,-8.10154e+08,-8.10474e+08,96033.3,-0.00314289,0.138347,-0,0.138383,-17214.4,-29512.1,-0,34165.8,96033.3
step02_gravity_refstate-crust.xmf,933,-7.77441e-07,4.83222e-06,0,1.4614e-06,-8.29347e+08,-8.28962e+08,-8.29294e+08,100252,-0.00248343,0.140278,-0,0.1403,-16182.1,-30197.6,-0,34260.1,100252
step02_gravity_refstate-crust.xmf,934,-1.50371e-06,5.00451e-06,0,2.50895e-06,-8.03294e+08,-8.02848e+08,-8.03191e+08,172114,-0.00942109,0.170751,-0,0.171011,-12142.4,-29246.4,-0,31666.8,172114
step02_gravity_refstate-crust.xmf,935,-1.61351e-06,5.02883e-06,0,2.81386e-06,-8.04638e+08,-8.04183e+08,-8.04528e+08,193031,-0.010667,0.17778,-0,0.1781,-11249.1,-29294.9,-0,31380.5,193031
step02_gravity_refstate-crust.xmf,936,-1.01106e-06,5.03755e-06,0,1.78354e-06,-8.31768e+08,-8.31353e+08,-8.31699e+08,122351,-0.00405747,0.151404,-0,0.151458,-14162,-30285.1,-0,33432.7,122351
step02_gravity_refstate-crust.xmf,937,-1.25043e-06,5.05152e-06,0,2.08786e-06,-8.17911e+08,-8.17479e+08,-8.17825e+08,143227,-0.00653232,0.160419,-0,0.160552,-13183.3,-29779.6,-0,32567.3,143227
step02_gravity_refstate-crust.xmf,938,-6.37309e-07,4.428e-06,0,1.17936e-06,-7.9962e+08,-7.99273e+08,-7.99576e+08,80904.3,-0.00223249,0.12991,-0,0.129929,-19532.4,-29115.2,-0,35060.1,80904.3
step02_gravity_refstate-crust.xmf,939,-1.70666e-07,4.16644e-06,0,7.39312e-07,-8.33442e+08,-8.33144e+08,-8.3343e+08,50716.8,0.00137779,0.10869,0,0.108699,-24350.7,-30348,-0,38909.6,50716.8
step02_gravity_refstate-crust.xmf,940,-4.5556e-07,4.39358e-06,0,1.01882e-06,-8.18816e+08,-8.18483e+08,-8.18785e+08,69890.7,-0.000454521,0.12225,-0,0.122251,-20730.5,-29814.8,-0,36313.5,69890.7
step02_gravity_refstate-crust.xmf,941,-3.0426e-07,4.35119e-06,0,8.95583e-07,-8.35524e+08,-8.35205e+08,-8.35503e+08,61437,0.000902489,0.115558,0,0.115561,-21908.1,-30423.6,-0,37490.8,61437
step02_gravity_refstate-crust.xmf,942,2.32174e-07,3.61326e-06,0,1.12268e-09,-8.38129e+08,-8.37897e+08,-8.38145e+08,77.0161,9.73515e-20,0.0886111,0,0.0886111,-40000,-30519.5,-0,50313.4,77.0161
step02_gravity_refstate-crust.xmf,943,1.85616e-07,3.66949e-06,0,2.1381e-07,-8.36378e+08,-8.36139e+08,-8.3639e+08,14667.4,0.00107561,0.0907452,0,0.0907515,-34955.2,-30455.6,-0,46361.7,14667.4
step02_gravity_refstate-crust.xmf,944,9.79509e-08,3.74892e-06,0,3.5894e-07,-8.29304e+08,-8.29054e+08,-8.29311e+08,24623.3,0.00142307,0.0949135,0,0.0949242,-31782.6,-30197.9,-0,43841.2,24623.3
step02_gravity_refstate-crust.xmf,945,-3.33e-09,3.92118e-06,0,5.2335e-07,-8.33062e+08,-8.32792e+08,-8.33061e+08,35901.8,0.00169568,0.099823,0,0.0998374,-28311.7,-30334.5,-0,41493.8,35901.8
step02_gravity_refstate-crust.xmf,946,1.07552e-06,-1.71238e-07,0,-7.96054e-07,-8.52589e+07,-8.53444e+07,-8.53327e+07,-54609.3,0.0202514,0.219557,0,0.220489,11395.9,-3108.02,0,11812.2,54609.3
step02_gravity_refstate-crust.xmf,947,1.04879e-06,-4.03236e-07,0,-9.65731e-09,99404.1,-205.177,27456.8,-662.491,0.0299033,0.212771,0,0.214862,13162.3,0,0,13162.3,662.491
step02_gravity_refstate-crust.xmf,948,9.15887e-07,2.06111e-09,0,-1.09943e-06,-1.27978e+08,-1.2804e+08,-1.28041e+08,-75420.8,0.0180264,0.219271,0,0.220011,11518.2,-4662.86,0,12426.2,75420.8
step02_gravity_refstate-crust.xmf,949,1.35963e-06,-4.0267e-07,0,-1.71022e-06,-3.47867e+08,-3.47988e+08,-3.4796e+08,-117321,0.00993659,0.238348,0,0.238555,5791.72,-12669.3,0,13930.4,117321
step02_gravity_refstate-crust.xmf,950,1.42587e-06,-5.20731e-07,0,-1.8819e-06,-3.83861e+08,-3.83994e+08,-3.83959e+08,-129098,0.0103291,0.239441,0,0.239664,5630.95,-13979.8,0,15071.2,129098
step02_gravity_refstate-crust.xmf,951,1.77645e-06,-1.00027e-06,0,-1.86593e-06,-4.32365e+08,-4.32555e+08,-4.32487e+08,-128003,0.0095195,0.244451,0,0.244636,4461.87,-15746.3,0,16366.3,128003
step02_gravity_refstate-crust.xmf,952,1.15666e-06,-1.23061e-07,0,-1.68025e-06,-2.99114e+08,-2.99202e+08,-2.99194e+08,-115265,0.0109589,0.234025,0,0.234281,7049.16,-10894,0,12975.8,115265
step02_gravity_refstate-crust.xmf,953,1.11503e-06,-5.05756e-08,0,-1.40086e-06,-2.1465e+08,-2.1473e+08,-2.14726e+08,-96098.8,0.0123112,0.23028,0,0.230608,8183.67,-7818.97,0,11318.5,96098.8
step02_gravity_refstate-crust.xmf,954,1.06993e-06,-2.09808e-08,0,-1.62819e-06,-2.65596e+08,-2.65671e+08,-2.65669e+08,-111694,0.011749,0.231268,0,0.231566,7887.42,-9673.59,0,12481.6,111694
step02_gravity_refstate-crust.xmf,955,9.59401e-07,6.76366e-08,0,-1.42259e-06,-1.94371e+08,-1.94432e+08,-1.94437e+08,-97589.3,0.0142353,0.225235,0,0.225685,9745.96,-7080.27,0,12046.3,97589.3
step02_gravity_refstate-crust.xmf,956,5.69889e-06,-8.02747e-06,0,-4.37733e-06,-7.1235e+08,-7.13291e+08,-7.12741e+08,-300285,0.0117611,0.290499,0,0.290737,1794.35,-25944.4,0,26006.4,300285
step02_gravity_refstate-crust.xmf,957,2.75954e-06,-2.65138e-06,0,-2.84255e-06,-5.73997e+08,-5.74368e+08,-5.74186e+08,-194999,0.0117072,0.256995,0,0.257261,3453.9,-20904,0,21187.4,194999
step02_gravity_refstate-crust.xmf,958,4.98007e-06,-6.39552e-06,0,-3.40798e-06,-6.77886e+08,-6.78666e+08,-6.78227e+08,-233787,0.0103307,0.281126,0,0.281316,1855.94,-24689.3,0,24759,233787
step02_gravity_refstate-crust.xmf,959,-8.68982e-07,7.02161e-06,0,1.09408e-05,-9.20386e+08,-9.19845e+08,-9.20327e+08,750536,0.000376491,0.266254,0,0.266254,-3979.04,-33514.9,-0,33750.3,750536
step02_gravity_refstate-crust.xmf,960,-1.0758e-06,6.36394e-06,0,6.91117e-06,-9.07035e+08,-9.06525e+08,-9.06962e+08,474107,-0.00186161,0.233207,-0,0.233215,-5436.12,-33027,-0,33471.4,474107
step02_gravity_refstate-crust.xmf,961,-1.31111e-06,6.08966e-06,0,5.10457e-06,-8.93254e+08,-8.92746e+08,-8.93164e+08,350174,-0.00383968,0.214333,-0,0.214368,-6618.78,-32523.9,-0,33190.6,350174
step02_gravity_refstate-crust.xmf,962,-8.79725e-07,7.09527e-06,0,8.98112e-06,-9.21768e+08,-9.21221e+08,-9.21708e+08,616105,0.00128687,0.249309,0,0.249313,-4583.95,-33565.3,-0,33876.9,616105
step02_gravity_refstate-crust.xmf,963,-8.43664e-07,7.53641e-06,0,1.88818e-05,-9.26372e+08,-9.25797e+08,-9.26314e+08,1.29529e+06,0.000645596,0.32008,0,0.320081,-2449.59,-33733.7,-0,33822.6,1.29529e+06
step02_gravity_refstate-crust.xmf,964,-7.71143e-07,4.99273e-06,0,1.53792e-06,-8.46751e+08,-8.46355e+08,-8.46698e+08,105501,-0.00172649,0.142594,-0,0.142605,-15181.8,-30831.4,-0,34366.6,105501
step02_gravity_refstate-crust.xmf,965,-1.43336e-06,5.23291e-06,0,2.53528e-06,-8.27488e+08,-8.27031e+08,-8.2739e+08,173920,-0.00781769,0.171907,-0,0.172085,-11438.7,-30127.8,-0,32226.2,173920
step02_gravity_refstate-crust.xmf,966,-1.41924e-06,5.39935e-06,0,2.67665e-06,-8.42959e+08,-8.42491e+08,-8.42862e+08,183618,-0.00692096,0.17527,-0,0.175406,-10706.8,-30691.4,-0,32505.3,183618
step02_gravity_refstate-crust.xmf,967,-1.39063e-06,5.56347e-06,0,2.87259e-06,-8.56984e+08,-8.56507e+08,-8.56888e+08,197060,-0.00599161,0.179578,-0,0.179678,-9955.79,-31202.3,-0,32752.2,197060
step02_gravity_refstate-crust.xmf,968,-1.3403e-06,5.73686e-06,0,3.10737e-06,-8.71145e+08,-8.70659e+08,-8.71053e+08,213166,-0.00471464,0.184135,-0,0.184195,-9235.71,-31718.4,-0,33035.6,213166
step02_gravity_refstate-crust.xmf,969,-1.2023e-06,5.9194e-06,0,3.4044e-06,-8.84524e+08,-8.84035e+08,-8.84442e+08,233542,-0.00321181,0.189195,-0,0.189222,-8543.37,-32206.3,-0,33320.2,233542
step02_gravity_refstate-crust.xmf,970,-6.04665e-07,4.61233e-06,0,1.22041e-06,-8.24011e+08,-8.23653e+08,-8.23969e+08,83720.4,-0.00137764,0.130805,-0,0.130812,-18360.9,-30003.6,-0,35175.8,83720.4
step02_gravity_refstate-crust.xmf,971,-1.58455e-07,4.31366e-06,0,7.8705e-07,-8.54135e+08,-8.53828e+08,-8.54124e+08,53991.6,0.00211221,0.108868,0,0.108888,-23134.1,-31101.7,-0,38762.1,53991.6
step02_gravity_refstate-crust.xmf,972,2.31542e-07,3.66883e-06,0,1.46196e-07,-8.46501e+08,-8.46265e+08,-8.46517e+08,10029.1,0.000860446,0.0884184,0,0.0884225,-36479.7,-30824.3,-0,47758.8,10029.1
step02_gravity_refstate-crust.xmf,973,3.05334e-07,3.7233e-06,0,7.11413e-08,-8.7143e+08,-8.71195e+08,-8.71451e+08,4880.3,0.000549327,0.0843939,0,0.0843957,-38216,-31732.3,-0,49672.9,4880.3
step02_gravity_refstate-crust.xmf,974,-5.5258e-08,4.01238e-06,0,5.98084e-07,-8.35174e+08,-8.34895e+08,-8.3517e+08,41028.6,0.00172288,0.102472,0,0.102486,-26837.9,-30411.3,-0,40560.1,41028.6
step02_gravity_refstate-crust.xmf,975,2.10804e-07,3.77703e-06,0,2.68218e-07,-8.57635e+08,-8.5739e+08,-8.57649e+08,18399.8,0.00166847,0.0891564,0,0.089172,-33459.5,-31229.8,-0,45769.4,18399.8
step02_gravity_refstate-crust.xmf,976,1.26328e-07,3.90592e-06,0,4.16077e-07,-8.57319e+08,-8.5706e+08,-8.57328e+08,28542.9,0.00223831,0.0933301,0,0.0933569,-30113.5,-31218.1,-0,43375,28542.9
step02_gravity_refstate-crust.xmf,977,-3.97788e-08,4.13218e-06,0,6.36941e-07,-8.52592e+08,-8.52306e+08,-8.52589e+08,43694.2,0.00229949,0.102344,0,0.102369,-25737.7,-31045.7,-0,40327,43694.2
step02_gravity_refstate-crust.xmf,978,7.63523e-07,-1.20966e-09,0,-9.12519e-07,-9.77731e+07,-9.78255e+07,-9.78254e+07,-62598.8,0.0210768,0.213461,0,0.214499,13166.4,-3562.61,0,13639.9,62598.8
step02_gravity_refstate-crust.xmf,979,7.08298e-07,-1.28637e-07,0,-4.90684e-07,-4.69653e+07,-4.70227e+07,-4.70139e+07,-33661,0.0258469,0.209513,0,0.211101,14246.6,-1712.48,0,14349.2,33661
step02_gravity_refstate-crust.xmf,980,7.96701e-07,1.55732e-07,0,-1.39448e-06,-1.75212e+08,-1.75256e+08,-1.75266e+08,-95661.1,0.0161161,0.219723,0,0.220313,11351.3,-6382.22,0,13022.5,95661.1
step02_gravity_refstate-crust.xmf,981,1.90147e-06,-1.23282e-06,0,-2.0766e-06,-4.64643e+08,-4.64858e+08,-4.64773e+08,-142455,0.0101378,0.246099,0,0.246308,4355.07,-16921.6,0,17473,142455
step02_gravity_refstate-crust.xmf,982,2.04153e-06,-1.47699e-06,0,-2.31088e-06,-4.95389e+08,-4.95631e+08,-4.95529e+08,-158526,0.0108406,0.247948,0,0.248185,4257.67,-18041.1,0,18536.7,158526
step02_gravity_refstate-crust.xmf,983,1.50372e-06,-6.39411e-07,0,-2.06993e-06,-4.17857e+08,-4.18004e+08,-4.1796e+08,-141997,0.0109069,0.240517,0,0.240764,5522.49,-15217.6,0,16188.7,141997
step02_gravity_refstate-crust.xmf,984,1.1594e-06,-1.55134e-07,0,-1.84422e-06,-3.32173e+08,-3.32264e+08,-3.32253e+08,-126513,0.0112074,0.234437,0,0.234704,6974.17,-12097.6,0,13963.9,126513
step02_gravity_refstate-crust.xmf,985,2.18156e-06,-1.73635e-06,0,-2.63037e-06,-5.27435e+08,-5.27704e+08,-5.27585e+08,-180443,0.0118266,0.249959,0,0.250239,4219.18,-19207.9,0,19665.9,180443
step02_gravity_refstate-crust.xmf,986,4.93676e-06,-6.65286e-06,0,-4.49425e-06,-6.97714e+08,-6.98509e+08,-6.98053e+08,-308305,0.0129892,0.283762,0,0.284059,2183.61,-25410.7,0,25504.3,308305
step02_gravity_refstate-crust.xmf,987,2.30623e-06,-1.9928e-06,0,-3.00382e-06,-5.57465e+08,-5.5776e+08,-5.57623e+08,-206062,0.0129378,0.252042,0,0.252374,4206.12,-20301.3,0,20732.5,206062
step02_gravity_refstate-crust.xmf,988,2.73901e-06,-2.7596e-06,0,-3.38608e-06,-5.97711e+08,-5.98088e+08,-5.97898e+08,-232285,0.0134505,0.257978,0,0.258328,3720.61,-21767.1,0,22082.8,232285
step02_gravity_refstate-crust.xmf,989,3.17657e-06,-3.48554e-06,0,-3.47632e-06,-6.19139e+08,-6.19596e+08,-6.19357e+08,-238476,0.0130142,0.26309,0,0.263412,3233.72,-22547.8,0,22778.5,238476
step02_gravity_refstate-crust.xmf,990,3.66888e-06,-4.30945e-06,0,-3.56869e-06,-6.40074e+08,-6.40622e+08,-6.40326e+08,-244812,0.01252,0.26853,0,0.268821,2793.98,-23310.7,0,23477.6,244812
step02_gravity_refstate-crust.xmf,991,4.26158e-06,-5.29195e-06,0,-3.56622e-06,-6.59457e+08,-6.60112e+08,-6.59749e+08,-244643,0.0116758,0.274491,0,0.274739,2340.6,-24017.2,0,24131,244643
step02_gravity_refstate-crust.xmf,992,-3.51234e-07,6.18644e-06,0,2.20484e-05,-9.19967e+08,-9.19519e+08,-9.19943e+08,1.51252e+06,-0.00099981,0.342707,-0,0.342709,-2000,-33500.5,-0,33560.1,1.51252e+06
step02_gravity_refstate-crust.xmf,993,5.41042e-06,-7.9827e-06,0,-5.67272e-06,-7.27488e+08,-7.28407e+08,-7.27859e+08,-389148,0.0145698,0.292063,0,0.292426,2133.51,-26494.5,0,26580.2,389148
step02_gravity_refstate-crust.xmf,994,6.11501e-06,-9.42102e-06,0,-6.02098e-06,-7.43367e+08,-7.44433e+08,-7.43787e+08,-413039,0.0141657,0.29952,0,0.299855,1879.65,-27073.2,0,27138.4,413039
step02_gravity_refstate-crust.xmf,995,6.92963e-06,-1.1139e-05,0,-6.39745e-06,-7.59278e+08,-7.60518e+08,-7.59754e+08,-438865,0.0136835,0.307873,0,0.308177,1644.3,-27653.1,0,27701.9,438865
step02_gravity_refstate-crust.xmf,996,7.84195e-06,-1.31098e-05,0,-6.65437e-06,-7.73817e+08,-7.75255e+08,-7.74355e+08,-456490,0.0129669,0.316683,0,0.316948,1423.96,-28183,0,28219,456490
step02_gravity_refstate-crust.xmf,997,8.86566e-06,-1.54202e-05,0,-6.60383e-06,-7.87362e+08,-7.89028e+08,-7.87971e+08,-453023,0.0118018,0.326285,0,0.326498,1197.56,-28676.7,0,28701.7,453023
step02_gravity_refstate-crust.xmf,998,9.8541e-06,-1.80005e-05,0,-6.00775e-06,-8.00176e+08,-8.02086e+08,-8.00852e+08,-412131,0.0100211,0.336774,0,0.336923,958.501,-29143.2,0,29158.9,412131
step02_gravity_refstate-crust.xmf,999,1.04395e-05,-2.04735e-05,0,-4.90684e-06,-8.12358e+08,-8.14479e+08,-8.13074e+08,-336609,0.00777168,0.34771,0,0.347797,724.561,-29585.2,0,29594.1,336609
step02_gravity_refstate-crust.xmf,1000,1.04637e-05,-2.25718e-05,0,-3.49485e-06,-8.23837e+08,-8.26103e+08,-8.24555e+08,-239746,0.00528659,0.358578,0,0.358617,499.831,-30000,0,30004.2,239746
step02_gravity_refstate-crust.xmf,1001,-1.20463e-06,8.60749e-06,0,1.55899e-05,-9.33815e+08,-9.33142e+08,-9.33732e+08,1.06947e+06,0.00301635,0.295641,0,0.295656,-2992.06,-34004.9,-0,34136.3,1.06947e+06
step02_gravity_refstate-crust.xmf,1002,-1.03521e-06,8.3978e-06,0,1.23701e-05,-9.34337e+08,-9.3369e+08,-9.34266e+08,848589,0.00387601,0.272809,0,0.272837,-3640.11,-34024.3,-0,34218.5,848589
step02_gravity_refstate-crust.xmf,1003,-8.42571e-07,6.98229e-06,0,7.45091e-06,-9.21104e+08,-9.20567e+08,-9.21046e+08,511132,0.00161697,0.235467,0,0.235473,-5172.78,-33541.1,-0,33937.6,511132
step02_gravity_refstate-crust.xmf,1004,-1.08703e-06,6.10913e-06,0,3.82297e-06,-8.95709e+08,-8.95215e+08,-8.95634e+08,262256,-0.00181467,0.19552,-0,0.195529,-7848.96,-32614.2,-0,33545.4,262256
step02_gravity_refstate-crust.xmf,1005,-9.6246e-07,6.36375e-06,0,4.43196e-06,-9.07299e+08,-9.06796e+08,-9.07233e+08,304032,-6.32001e-05,0.20329,-0,0.20329,-7115.21,-33037.1,-0,33794.6,304032
step02_gravity_refstate-crust.xmf,1006,-8.436e-07,6.81784e-06,0,6.1107e-06,-9.18392e+08,-9.17866e+08,-9.18334e+08,419194,0.00146268,0.222581,0,0.222585,-5827.98,-33442.1,-0,33946.1,419194
step02_gravity_refstate-crust.xmf,1007,-1.03923e-06,6.41544e-06,0,5.22644e-06,-9.07059e+08,-9.06547e+08,-9.06987e+08,358533,-0.000778868,0.21407,-0,0.214072,-6447.01,-33028.1,-0,33651.4,358533
step02_gravity_refstate-crust.xmf,1008,-5.75061e-07,4.7769e-06,0,1.27598e-06,-8.44271e+08,-8.43904e+08,-8.44232e+08,87532.6,-0.00054094,0.132265,-0,0.132266,-17272.4,-30741.6,-0,35261.6,87532.6
step02_gravity_refstate-crust.xmf,1009,-5.30126e-07,4.93206e-06,0,1.34503e-06,-8.62502e+08,-8.62128e+08,-8.62466e+08,92268.9,0.000368831,0.134115,0,0.134116,-16233.4,-31405.7,-0,35353.1,92268.9
step02_gravity_refstate-crust.xmf,1010,-7.23961e-07,5.15293e-06,0,1.6255e-06,-8.63964e+08,-8.63561e+08,-8.63914e+08,111509,-0.000747279,0.1451,-0,0.145102,-14214.4,-31458.5,-0,34520.9,111509
step02_gravity_refstate-crust.xmf,1011,-9.76478e-07,5.20643e-06,0,1.87119e-06,-8.49582e+08,-8.49158e+08,-8.49515e+08,128364,-0.00308738,0.153962,-0,0.153993,-13261.2,-30934,-0,33656.7,128364
step02_gravity_refstate-crust.xmf,1012,-1.22953e-06,5.23027e-06,0,2.17788e-06,-8.36513e+08,-8.3607e+08,-8.36429e+08,149402,-0.00555047,0.162943,-0,0.163037,-12353,-30457.2,-0,32867,149402
step02_gravity_refstate-crust.xmf,1013,-4.427e-07,4.55528e-06,0,1.07099e-06,-8.39065e+08,-8.38722e+08,-8.39035e+08,73469.7,0.000243042,0.123406,0,0.123406,-19544.8,-30552.3,-0,36269,73469.7
step02_gravity_refstate-crust.xmf,1014,-1.66495e-08,4.27147e-06,0,6.84334e-07,-8.72955e+08,-8.72661e+08,-8.72954e+08,46945.3,0.00307399,0.102172,0,0.102218,-24522.6,-31787.3,-0,40147.1,46945.3
step02_gravity_refstate-crust.xmf,1015,-2.79179e-07,4.50362e-06,0,9.44805e-07,-8.55954e+08,-8.55626e+08,-8.55935e+08,64813.6,0.00169818,0.116199,0,0.116212,-20739.5,-31167.7,-0,37437.3,64813.6
step02_gravity_refstate-crust.xmf,1016,-1.27835e-07,4.46054e-06,0,8.38603e-07,-8.7465e+08,-8.74335e+08,-8.74641e+08,57528.1,0.00297091,0.109146,0,0.109186,-21949.7,-31848.9,-0,38680,57528.1
step02_gravity_refstate-crust.xmf,1017,3.83741e-07,3.81241e-06,0,1.17224e-09,-9.03198e+08,-9.02963e+08,-9.03224e+08,80.4153,1.48636e-19,0.0798121,0,0.0798121,-40000,-32889.3,-0,51785.2,80.4153
step02_gravity_refstate-crust.xmf,1018,3.01173e-07,3.81098e-06,0,1.9316e-07,-8.83171e+08,-8.8293e+08,-8.83191e+08,13250.7,0.00160647,0.0842996,0,0.0843149,-35052.8,-32159.8,-0,47570.5,13250.7
step02_gravity_refstate-crust.xmf,1019,2.42653e-07,3.91811e-06,0,3.27383e-07,-8.84448e+08,-8.84196e+08,-8.84465e+08,22458.5,0.00252839,0.0872324,0,0.087269,-31767.7,-32206.3,-0,45237.5,22458.5
step02_gravity_refstate-crust.xmf,1020,6.74434e-08,4.09347e-06,0,5.4662e-07,-8.69413e+08,-8.69137e+08,-8.69417e+08,37498.1,0.00287372,0.096665,0,0.0967077,-27201.3,-31658.5,-0,41739.3,37498.1
step02_gravity_refstate-crust.xmf,1021,1.6371e-07,4.06088e-06,0,4.64879e-07,-8.85426e+08,-8.85159e+08,-8.85437e+08,31890.7,0.00318827,0.0915605,0,0.091616,-28675.6,-32241.8,-0,43148.8,31890.7
step02_gravity_refstate-crust.xmf,1022,5.7327e-07,-2.22789e-07,0,-1.06444e-08,54233,-376.631,14906.7,-730.207,0.0316358,0.205609,0,0.208029,15281,0,0,15281,730.207
step02_gravity_refstate-crust.xmf,1023,6.32437e-07,2.16631e-07,0,-1.3011e-06,-1.54474e+08,-1.54502e+08,-1.54517e+08,-89255.1,0.0180229,0.213849,0,0.214607,12997.8,-5626.66,0,14163.4,89255.1
step02_gravity_refstate-crust.xmf,1024,1.18425e-06,-2.13557e-07,0,-2.03391e-06,-3.68797e+08,-3.68893e+08,-3.68878e+08,-139526,0.0116108,0.235161,0,0.235447,6833.28,-13430.9,0,15069.3,139526
step02_gravity_refstate-crust.xmf,1025,1.22734e-06,-2.956e-07,0,-2.23012e-06,-4.03743e+08,-4.03847e+08,-4.03827e+08,-152986,0.0121276,0.2361,0,0.236411,6664.01,-14703.2,0,16142.9,152986
step02_gravity_refstate-crust.xmf,1026,1.59243e-06,-7.9383e-07,0,-2.28526e-06,-4.50929e+08,-4.51093e+08,-4.51039e+08,-156769,0.0115744,0.241829,0,0.242106,5398.88,-16421.7,0,17286.5,156769
step02_gravity_refstate-crust.xmf,1027,9.85765e-07,5.12925e-08,0,-1.89341e-06,-3.11371e+08,-3.11435e+08,-3.11439e+08,-129888,0.0122184,0.230424,0,0.230748,8129.74,-11339.8,0,13953,129888
step02_gravity_refstate-crust.xmf,1028,8.88641e-07,1.467e-07,0,-1.66225e-06,-2.4206e+08,-2.42111e+08,-2.42121e+08,-114030,0.0133973,0.225884,0,0.226281,9501.94,-8816.26,0,12962,114030
step02_gravity_refstate-crust.xmf,1029,7.18527e-07,2.78934e-07,0,-1.65244e-06,-2.2322e+08,-2.2325e+08,-2.23269e+08,-113357,0.0148505,0.220415,0,0.220915,11057.2,-8129.88,0,13724.3,113357
step02_gravity_refstate-crust.xmf,1030,4.9179e-06,-6.95758e-06,0,-5.3536e-06,-7.13823e+08,-7.14637e+08,-7.1416e+08,-367257,0.0147557,0.286451,0,0.28683,2343.18,-25996.6,0,26101.9,367257
step02_gravity_refstate-crust.xmf,1031,2.39428e-06,-2.20554e-06,0,-3.33242e-06,-5.80071e+08,-5.80387e+08,-5.80235e+08,-228604,0.0138531,0.253846,0,0.254224,4188.83,-21124.3,0,21535.7,228604
step02_gravity_refstate-crust.xmf,1032,4.01672e-06,-5.14676e-06,0,-4.66044e-06,-6.80853e+08,-6.81482e+08,-6.81129e+08,-319706,0.0146273,0.275692,0,0.27608,2772.04,-24795.4,0,24949.9,319706
step02_gravity_refstate-crust.xmf,1033,-8.67609e-07,8.21611e-06,0,1.00196e-05,-9.35367e+08,-9.34744e+08,-9.35307e+08,687342,0.00472157,0.254933,0,0.254976,-4229.77,-34062.2,-0,34323.8,687342
step02_gravity_refstate-crust.xmf,1034,-6.65264e-07,8.03539e-06,0,8.15537e-06,-9.38587e+08,-9.3799e+08,-9.38542e+08,559459,0.00607813,0.238013,0,0.238091,-4853.77,-34180,-0,34522.9,559459
step02_gravity_refstate-crust.xmf,1035,-1.44466e-06,9.00258e-06,0,2.21006e-05,-9.33711e+08,-9.32995e+08,-9.33612e+08,1.5161e+06,0.0016988,0.338914,0,0.338918,-2000,-34000.8,-0,34059.6,1.5161e+06
step02_gravity_refstate-crust.xmf,1036,-1.69422e-06,1.00396e-05,0,1.88832e-05,-9.40559e+08,-9.39754e+08,-9.40443e+08,1.29539e+06,0.00384351,0.315963,0,0.315986,-2439.94,-34250.7,-0,34337.5,1.29539e+06
step02_gravity_refstate-crust.xmf,1037,-4.84429e-07,5.08275e-06,0,1.43223e-06,-8.7957e+08,-8.79188e+08,-8.79536e+08,98250.8,0.00140664,0.136295,0,0.136302,-15230.9,-32027.5,-0,35464.7,98250.8
step02_gravity_refstate-crust.xmf,1038,-1.16144e-06,5.40758e-06,0,2.29514e-06,-8.53726e+08,-8.53276e+08,-8.53647e+08,157447,-0.00443307,0.166083,-0,0.166142,-11527.7,-31084.4,-0,33153.1,157447
step02_gravity_refstate-crust.xmf,1039,-1.09734e-06,5.57228e-06,0,2.4511e-06,-8.68494e+08,-8.68036e+08,-8.68418e+08,168145,-0.00328347,0.169715,-0,0.169747,-10756.5,-31622.6,-0,33401.9,168145
step02_gravity_refstate-crust.xmf,1040,-1.01799e-06,5.74119e-06,0,2.66178e-06,-8.81591e+08,-8.81127e+08,-8.81521e+08,182598,-0.00209525,0.174119,-0,0.174131,-9994.95,-32100,-0,33620,182598
step02_gravity_refstate-crust.xmf,1041,-9.23475e-07,5.92544e-06,0,2.92281e-06,-8.94606e+08,-8.94136e+08,-8.94542e+08,200505,-0.000605675,0.178834,-0,0.178835,-9264.18,-32574.5,-0,33866.2,200505
step02_gravity_refstate-crust.xmf,1042,-7.39675e-07,6.13571e-06,0,3.25819e-06,-9.07025e+08,-9.06553e+08,-9.06974e+08,223512,0.0011054,0.184097,0,0.184101,-8555.63,-33027.6,-0,34117.8,223512
step02_gravity_refstate-crust.xmf,1043,-3.90423e-07,4.71515e-06,0,1.12653e-06,-8.59741e+08,-8.59391e+08,-8.59714e+08,77279.9,0.00116389,0.124534,0,0.12454,-18407.3,-31305.5,-0,36316.1,77279.9
step02_gravity_refstate-crust.xmf,1044,7.15927e-09,4.4153e-06,0,7.41444e-07,-8.93334e+08,-8.93032e+08,-8.93335e+08,50863,0.00396146,0.102201,0,0.102278,-23288.3,-32529.6,-0,40006.5,50863
step02_gravity_refstate-crust.xmf,1045,3.73235e-07,3.84855e-06,0,1.27679e-07,-9.05879e+08,-9.0564e+08,-9.05904e+08,8758.79,0.00129938,0.080226,0,0.0802365,-36608.4,-32986.9,-0,49277.9,8758.79
step02_gravity_refstate-crust.xmf,1046,4.50043e-07,3.91853e-06,0,6.44884e-08,-9.35403e+08,-9.35165e+08,-9.35434e+08,4423.91,0.000809233,0.0754929,0,0.0754972,-38210.6,-34062.2,-0,51188.7,4423.91
step02_gravity_refstate-crust.xmf,1047,3.48283e-07,3.94436e-06,0,2.45335e-07,-9.12974e+08,-9.12727e+08,-9.12998e+08,16830,0.00250313,0.0813317,0,0.0813702,-33506.2,-33245.2,-0,47200.7,16830
step02_gravity_refstate-crust.xmf,1048,2.71106e-07,4.0569e-06,0,3.82656e-07,-9.09043e+08,-9.08783e+08,-9.09061e+08,26250.2,0.0034484,0.0856453,0,0.0857147,-30239.9,-33102,-0,44835.2,26250.2
step02_gravity_refstate-crust.xmf,1049,1.01337e-07,4.23441e-06,0,5.93845e-07,-8.91717e+08,-8.91434e+08,-8.91724e+08,40737.8,0.00374952,0.0958963,0,0.0959696,-25953.2,-32470.8,-0,41568.3,40737.8
step02_gravity_refstate-crust.xmf,1050,3.16787e-07,2.76188e-08,0,-4.85448e-07,-4.79116e+07,-4.79314e+07,-4.79333e+07,-33301.7,0.026849,0.201948,0,0.203725,16370.6,-1745.59,0,16463.4,33301.7
step02_gravity_refstate-crust.xmf,1051,4.41082e-07,1.13932e-07,0,-8.49254e-07,-8.97004e+07,-8.97228e+07,-8.97306e+07,-58258.8,0.0229192,0.205726,0,0.206999,15299.2,-3267.59,0,15644.2,58258.8
step02_gravity_refstate-crust.xmf,1052,5.09439e-07,4.03937e-07,0,-1.61937e-06,-2.07388e+08,-2.07395e+08,-2.07423e+08,-111089,0.0163146,0.21346,0,0.214083,12942.1,-7552.86,0,14984.8,111089
step02_gravity_refstate-crust.xmf,1053,1.68024e-06,-9.78074e-07,0,-2.54067e-06,-4.82937e+08,-4.83119e+08,-4.83052e+08,-174290,0.0123409,0.243337,0,0.24365,5278.16,-17587.1,0,18362,174290
step02_gravity_refstate-crust.xmf,1054,1.76218e-06,-1.14763e-06,0,-2.83433e-06,-5.13769e+08,-5.13968e+08,-5.1389e+08,-194435,0.0132701,0.244845,0,0.245204,5204.45,-18709.6,0,19420,194435
step02_gravity_refstate-crust.xmf,1055,1.28479e-06,-3.85571e-07,0,-2.43585e-06,-4.37055e+08,-4.37169e+08,-4.37143e+08,-167099,0.0127635,0.237155,0,0.237498,6501.19,-15916,0,17192.6,167099
step02_gravity_refstate-crust.xmf,1056,9.6335e-07,6.01186e-08,0,-2.1222e-06,-3.53453e+08,-3.53515e+08,-3.53519e+08,-145583,0.0126487,0.230652,0,0.230999,8044,-12871.8,0,15178.6,145583
step02_gravity_refstate-crust.xmf,1057,8.29849e-07,2.15239e-07,0,-1.8937e-06,-2.88032e+08,-2.88074e+08,-2.88089e+08,-129908,0.0131825,0.22613,0,0.226514,9347.71,-10489.8,0,14050.5,129908
step02_gravity_refstate-crust.xmf,1058,1.8349e-06,-1.32117e-06,0,-3.17747e-06,-5.44103e+08,-5.4432e+08,-5.44229e+08,-217975,0.0143148,0.246534,0,0.246949,5136.68,-19814,0,20469,217975
step02_gravity_refstate-crust.xmf,1059,4.03025e-06,-5.62291e-06,0,-5.70355e-06,-7.05868e+08,-7.0653e+08,-7.06144e+08,-391264,0.0166258,0.279675,0,0.280169,2880.19,-25705.4,0,25866.3,391264
step02_gravity_refstate-crust.xmf,1060,1.90946e-06,-1.52694e-06,0,-3.58321e-06,-5.74603e+08,-5.74839e+08,-5.74734e+08,-245808,0.0154601,0.248566,0,0.249046,5052.84,-20924.4,0,21525.8,245808
step02_gravity_refstate-crust.xmf,1061,2.19293e-06,-2.0333e-06,0,-3.8198e-06,-5.98713e+08,-5.99003e+08,-5.98863e+08,-262038,0.0156159,0.252984,0,0.253465,4580.16,-21802.5,0,22278.4,262038
step02_gravity_refstate-crust.xmf,1062,2.5403e-06,-2.63024e-06,0,-4.0236e-06,-6.19688e+08,-6.20043e+08,-6.19862e+08,-276019,0.015555,0.257746,0,0.258215,4113.45,-22566.6,0,22938.4,276019
step02_gravity_refstate-crust.xmf,1063,2.94747e-06,-3.33784e-06,0,-4.23321e-06,-6.40169e+08,-6.406e+08,-6.40371e+08,-290398,0.0153871,0.263017,0,0.263467,3659.14,-23312.7,0,23598.2,290398
step02_gravity_refstate-crust.xmf,1064,3.44933e-06,-4.20252e-06,0,-4.40407e-06,-6.59398e+08,-6.59923e+08,-6.59635e+08,-302119,0.0149679,0.268903,0,0.269319,3195.41,-24013.5,0,24225.2,302119
step02_gravity_refstate-crust.xmf,1065,4.31915e-06,-6.40399e-06,0,-6.42549e-06,-7.25712e+08,-7.26447e+08,-7.26008e+08,-440789,0.0173143,0.285552,0,0.286077,2724.23,-26427.8,0,26567.8,440789
step02_gravity_refstate-crust.xmf,1066,4.79158e-06,-7.49452e-06,0,-7.02524e-06,-7.42181e+08,-7.43024e+08,-7.4251e+08,-481931,0.0173994,0.292359,0,0.292877,2488.65,-27027.6,0,27142,481931
step02_gravity_refstate-crust.xmf,1067,5.41674e-06,-8.90513e-06,0,-7.64236e-06,-7.57973e+08,-7.58955e+08,-7.58345e+08,-524266,0.0172068,0.300266,0,0.300759,2230.01,-27602.9,0,27692.8,524266
step02_gravity_refstate-crust.xmf,1068,6.17068e-06,-1.06149e-05,0,-8.26487e-06,-7.72824e+08,-7.73975e+08,-7.73247e+08,-566970,0.0168081,0.308902,0,0.309359,1981.58,-28143.9,0,28213.6,566970
step02_gravity_refstate-crust.xmf,1069,7.10541e-06,-1.27412e-05,0,-8.80643e-06,-7.86757e+08,-7.88118e+08,-7.87244e+08,-604121,0.0161008,0.31839,0,0.318797,1739.77,-28651.7,0,28704.5,604121
step02_gravity_refstate-crust.xmf,1070,8.29671e-06,-1.54498e-05,0,-8.93407e-06,-7.99624e+08,-8.01253e+08,-8.00193e+08,-612877,0.0148102,0.328976,0,0.329309,1487.76,-29120.8,0,29158.7,612877
step02_gravity_refstate-crust.xmf,1071,9.3516e-06,-1.84113e-05,0,-8.38759e-06,-8.12019e+08,-8.13923e+08,-8.1266e+08,-575389,0.0129497,0.340521,0,0.340767,1247.62,-29571.7,0,29598,575389
step02_gravity_refstate-crust.xmf,1072,9.77859e-06,-2.11835e-05,0,-7.0176e-06,-8.23854e+08,-8.25978e+08,-8.24525e+08,-481407,0.0103394,0.352921,0,0.353072,999.317,-30000,0,30016.6,481407
step02_gravity_refstate-crust.xmf,1073,-1.43795e-06,1.01954e-05,0,1.36845e-05,-9.4788e+08,-9.47082e+08,-9.47781e+08,938754,0.0070787,0.278618,0,0.278708,-3327.76,-34518.5,-0,34678.5,938754
step02_gravity_refstate-crust.xmf,1074,-1.06767e-06,9.59032e-06,0,1.1246e-05,-9.4836e+08,-9.47629e+08,-9.48287e+08,771473,0.00789982,0.260698,0,0.260817,-3882.42,-34536.5,-0,34754.1,771473
step02_gravity_refstate-crust.xmf,1075,-5.95147e-07,7.48193e-06,0,6.84516e-06,-9.33466e+08,-9.32912e+08,-9.33426e+08,469578,0.00508647,0.226634,0,0.226691,-5430.72,-33993,-0,34424,469578
step02_gravity_refstate-crust.xmf,1076,-5.67093e-07,6.3939e-06,0,3.71084e-06,-9.18583e+08,-9.18105e+08,-9.18544e+08,254564,0.00295952,0.190251,0,0.190274,-7852.55,-33449.5,-0,34358.9,254564
step02_gravity_refstate-crust.xmf,1077,-6.27739e-07,6.82825e-06,0,5.08373e-06,-9.24447e+08,-9.23935e+08,-9.24404e+08,348744,0.00346825,0.208815,0,0.208843,-6508.98,-33663.4,-0,34286.9,348744
step02_gravity_refstate-crust.xmf,1078,-1.78764e-06,1.07592e-05,0,1.63157e-05,-9.47425e+08,-9.46564e+08,-9.47302e+08,1.11926e+06,0.00616051,0.296937,0,0.297001,-2834.42,-34501.4,-0,34617.6,1.11926e+06
step02_gravity_refstate-crust.xmf,1079,-3.31529e-07,4.86722e-06,0,1.19711e-06,-8.78872e+08,-8.78516e+08,-8.7885e+08,82122,0.00219061,0.125971,0,0.12599,-17318.6,-32002.4,-0,36388,82122
step02_gravity_refstate-crust.xmf,1080,-2.57851e-07,5.01275e-06,0,1.28775e-06,-8.95971e+08,-8.95609e+08,-8.95953e+08,88339.9,0.00326883,0.12789,0,0.127932,-16265.3,-32625.4,-0,36455.2,88339.9
step02_gravity_refstate-crust.xmf,1081,-3.85574e-07,5.23299e-06,0,1.53773e-06,-8.96686e+08,-8.96301e+08,-8.9666e+08,105489,0.0027009,0.138567,0,0.138593,-14270.5,-32651.3,-0,35633.6,105489
step02_gravity_refstate-crust.xmf,1082,-6.33536e-07,5.31033e-06,0,1.7255e-06,-8.81323e+08,-8.80915e+08,-8.8128e+08,118369,0.000547808,0.147528,0,0.147529,-13313.3,-32091.1,-0,34743.1,118369
step02_gravity_refstate-crust.xmf,1083,-9.07179e-07,5.37107e-06,0,1.97424e-06,-8.66554e+08,-8.66123e+08,-8.66492e+08,135433,-0.00189419,0.156702,-0,0.156713,-12411.4,-31552.4,-0,33905.7,135433
step02_gravity_refstate-crust.xmf,1084,-5.89222e-07,5.87552e-06,0,2.55199e-06,-9.05849e+08,-9.05405e+08,-9.05808e+08,175067,0.00186607,0.169,0,0.169011,-9992.66,-32985,-0,34465.4,175067
step02_gravity_refstate-crust.xmf,1085,-2.35757e-07,4.65672e-06,0,1.00449e-06,-8.76434e+08,-8.76099e+08,-8.76418e+08,68908.1,0.00265746,0.117012,0,0.117042,-19576.6,-31913.7,-0,37439.7,68908.1
step02_gravity_refstate-crust.xmf,1086,1.31926e-07,4.37545e-06,0,6.52153e-07,-9.12377e+08,-9.12086e+08,-9.12386e+08,44737.7,0.00467421,0.0955381,0,0.0956523,-24695.6,-33223.3,-0,41396.4,44737.7
step02_gravity_refstate-crust.xmf,1087,-8.38548e-08,4.60724e-06,0,9.01565e-07,-8.94718e+08,-8.94396e+08,-8.94713e+08,61847.3,0.00394677,0.109636,0,0.109707,-20777.2,-32579.9,-0,38641.2,61847.3
step02_gravity_refstate-crust.xmf,1088,4.83327e-08,4.5649e-06,0,8.11674e-07,-9.13735e+08,-9.13425e+08,-9.13739e+08,55680.8,0.00497371,0.102473,0,0.102594,-22030.3,-33272.7,-0,39905,55680.8
step02_gravity_refstate-crust.xmf,1089,5.24437e-07,4.01075e-06,0,1.56075e-09,-9.68268e+08,-9.68029e+08,-9.68304e+08,107.067,2.36938e-19,0.0705417,0,0.0705417,-40000,-35259.1,-0,53321.7,107.067
step02_gravity_refstate-crust.xmf,1090,4.30634e-07,3.97911e-06,0,1.79031e-07,-9.3853e+08,-9.38287e+08,-9.3856e+08,12281.6,0.00221272,0.0764252,0,0.0764573,-35083.8,-34176,-0,48978.3,12281.6
step02_gravity_refstate-crust.xmf,1091,3.7716e-07,4.07921e-06,0,3.06026e-07,-9.37871e+08,-9.37617e+08,-9.37897e+08,20993.4,0.00352673,0.0793906,0,0.0794689,-31820.8,-34152,-0,46678.9,20993.4
step02_gravity_refstate-crust.xmf,1092,2.0433e-07,4.21168e-06,0,5.13477e-07,-9.12094e+08,-9.11819e+08,-9.12108e+08,35224.5,0.00421604,0.089869,0,0.0899679,-27376.8,-33213,-0,43041.8,35224.5
step02_gravity_refstate-crust.xmf,1093,3.01383e-07,4.19769e-06,0,4.37722e-07,-9.3306e+08,-9.32793e+08,-9.33081e+08,30027.7,0.00443759,0.0841248,0,0.0842418,-28840.6,-33976.7,-0,44566.7,30027.7
step02_gravity_refstate-crust.xmf,1094,4.76345e-07,2.33173e-07,0,-1.16309e-06,-1.32213e+08,-1.32229e+08,-1.32245e+08,-79787.9,0.0198915,0.208457,0,0.209404,14490.1,-4815.63,0,15269.4,79787.9
step02_gravity_refstate-crust.xmf,1095,1.05478e-07,-4.47616e-08,0,-1.0973e-08,9818.15,-488.267,2582.38,-752.75,0.0323829,0.198156,0,0.200785,17443.5,0,0,17443.5,752.75
step02_gravity_refstate-crust.xmf,1096,3.62582e-07,4.29768e-07,0,-1.42865e-06,-1.75704e+08,-1.757e+08,-1.75729e+08,-98005.4,0.0180261,0.207282,0,0.208064,14661.5,-6398.83,0,15997,98005.4
step02_gravity_refstate-crust.xmf,1097,9.70491e-07,3.33824e-08,0,-2.32411e-06,-3.89387e+08,-3.89451e+08,-3.89454e+08,-159434,0.0131327,0.231279,0,0.231651,7868.38,-14180,0,16216.8,159434
step02_gravity_refstate-crust.xmf,1098,9.97055e-07,-2.03921e-08,0,-2.53081e-06,-4.2372e+08,-4.23789e+08,-4.23788e+08,-173613,0.0136967,0.232249,0,0.232653,7634.41,-15429.9,0,17215.3,173613
step02_gravity_refstate-crust.xmf,1099,1.34037e-06,-4.95744e-07,0,-2.67671e-06,-4.69625e+08,-4.69751e+08,-4.69717e+08,-183622,0.0135209,0.238343,0,0.238726,6346.42,-17101.8,0,18241.4,183622
step02_gravity_refstate-crust.xmf,1100,7.72102e-07,2.8296e-07,0,-2.13323e-06,-3.33086e+08,-3.33119e+08,-3.33139e+08,-146340,0.0134434,0.225992,0,0.226391,9276.12,-12129.9,0,15270.2,146340
step02_gravity_refstate-crust.xmf,1101,6.56614e-07,3.7682e-07,0,-1.89334e-06,-2.70568e+08,-2.70587e+08,-2.70613e+08,-129883,0.0142373,0.220943,0,0.221401,10767.8,-9853.54,0,14595.8,129883
step02_gravity_refstate-crust.xmf,1102,4.97498e-07,5.07395e-07,0,-1.86599e-06,-2.56584e+08,-2.56583e+08,-2.56618e+08,-128007,0.015124,0.215726,0,0.216255,12153.9,-9343.98,0,15330.6,128007
step02_gravity_refstate-crust.xmf,1103,3.34751e-06,-4.36294e-06,0,-5.5233e-06,-6.91181e+08,-6.9171e+08,-6.9141e+08,-378899,0.0174264,0.272546,0,0.273102,3356.74,-25169.9,0,25392.8,378899
step02_gravity_refstate-crust.xmf,1104,-7.73665e-07,9.06618e-06,0,9.48314e-06,-9.48688e+08,-9.48013e+08,-9.48635e+08,650544,0.00844227,0.246673,0,0.246817,-4380.52,-34548.8,-0,34825.4,650544
step02_gravity_refstate-crust.xmf,1105,-3.96931e-07,7.40897e-06,0,5.87672e-06,-9.3784e+08,-9.37304e+08,-9.37812e+08,403143,0.0064594,0.215327,0,0.215424,-5944.02,-34152.9,-0,34666.2,403143
step02_gravity_refstate-crust.xmf,1106,-3.63622e-07,6.75502e-06,0,4.29123e-06,-9.31552e+08,-9.31064e+08,-9.31527e+08,294379,0.0054424,0.196363,0,0.196438,-7190.05,-33923.1,-0,34676.7,294379
step02_gravity_refstate-crust.xmf,1107,-3.06359e-07,8.15093e-06,0,6.8464e-06,-9.48957e+08,-9.48377e+08,-9.48936e+08,469663,0.00905039,0.222818,0,0.223002,-5401.37,-34559.1,-0,34978.7,469663
step02_gravity_refstate-crust.xmf,1108,-2.5141e-06,1.18068e-05,0,2.19454e-05,-9.47453e+08,-9.4647e+08,-9.4728e+08,1.50546e+06,0.00437027,0.333715,0,0.333744,-2000,-34501.1,-0,34559,1.50546e+06
step02_gravity_refstate-crust.xmf,1109,-2.5014e-06,1.24823e-05,0,1.86689e-05,-9.54285e+08,-9.53257e+08,-9.54113e+08,1.28068e+06,0.00688724,0.31066,0,0.310736,-2432.41,-34750.9,-0,34835.9,1.28068e+06
step02_gravity_refstate-crust.xmf,1110,-1.78854e-07,5.15671e-06,0,1.40145e-06,-9.12347e+08,-9.11981e+08,-9.12334e+08,96139.6,0.00450071,0.130053,0,0.130131,-15254,-33222.2,-0,36556.8,96139.6
step02_gravity_refstate-crust.xmf,1111,-8.0827e-07,5.52625e-06,0,2.11614e-06,-8.80197e+08,-8.79763e+08,-8.80142e+08,145167,-0.000829248,0.160298,-0,0.1603,-11590.2,-32049.7,-0,34081.1,145167
step02_gravity_refstate-crust.xmf,1112,-6.96924e-07,5.70415e-06,0,2.32377e-06,-8.94853e+08,-8.94414e+08,-8.94805e+08,159411,0.000622962,0.16445,0,0.164451,-10738.6,-32584,-0,34308,159411
step02_gravity_refstate-crust.xmf,1113,-4.46211e-07,6.07205e-06,0,2.83212e-06,-9.18111e+08,-9.17664e+08,-9.1808e+08,194283,0.0035943,0.173398,0,0.173435,-9291.44,-33432.3,-0,34699.5,194283
step02_gravity_refstate-crust.xmf,1114,-2.17226e-07,6.32061e-06,0,3.20439e-06,-9.30134e+08,-9.29685e+08,-9.30119e+08,219821,0.00555496,0.178558,0,0.178644,-8579.81,-33871.4,-0,34941.1,219821
step02_gravity_refstate-crust.xmf,1115,-1.60902e-07,4.80632e-06,0,1.0803e-06,-8.95746e+08,-8.95405e+08,-8.95735e+08,74108.8,0.00372245,0.118171,0,0.11823,-18435.5,-32617.3,-0,37466.7,74108.8
step02_gravity_refstate-crust.xmf,1116,1.60711e-07,4.52817e-06,0,7.29151e-07,-9.32814e+08,-9.32514e+08,-9.32825e+08,50019.8,0.00571044,0.0956279,0,0.0957983,-23341.2,-33967.7,-0,41214.3,50019.8
step02_gravity_refstate-crust.xmf,1117,4.94538e-07,4.01349e-06,0,1.20032e-07,-9.60239e+08,-9.59998e+08,-9.60273e+08,8234.21,0.00170068,0.0724422,0,0.0724622,-36607.6,-34966.7,-0,50623.9,8234.21
step02_gravity_refstate-crust.xmf,1118,5.8198e-07,4.12149e-06,0,7.25709e-08,-1.00105e+09,-1.00081e+09,-1.00109e+09,4978.36,0.00126612,0.065972,0,0.0659842,-37833.5,-36453,-0,52537.5,4978.36
step02_gravity_refstate-crust.xmf,1119,4.69762e-07,4.11159e-06,0,2.37608e-07,-9.66575e+08,-9.66325e+08,-9.66607e+08,16299.9,0.00329925,0.073536,0,0.07361,-33428.4,-35197.4,-0,48541.9,16299.9
step02_gravity_refstate-crust.xmf,1120,3.94909e-07,4.20435e-06,0,3.67386e-07,-9.57676e+08,-9.57415e+08,-9.57703e+08,25202.7,0.00450182,0.0782445,0,0.0783739,-30301.7,-34873.3,-0,46198.9,25202.7
step02_gravity_refstate-crust.xmf,1121,2.38648e-07,4.35407e-06,0,5.73299e-07,-9.33681e+08,-9.33399e+08,-9.33698e+08,39328.3,0.00520143,0.0890897,0,0.0892414,-26067.1,-33999.3,-0,42842.1,39328.3
step02_gravity_refstate-crust.xmf,1122,2.01098e-07,4.0442e-07,0,-1.19281e-06,-1.42151e+08,-1.42137e+08,-1.42164e+08,-81827.1,0.0200148,0.20115,0,0.202143,16388,-5176.57,0,17186.2,81827.1
step02_gravity_refstate-crust.xmf,1123,-6.35402e-08,1.80472e-07,0,-4.64186e-07,-4.90926e+07,-4.90758e+07,-4.90882e+07,-31843.2,0.0270143,0.19415,0,0.19602,18555.6,-1787.29,0,18641.5,31843.2
step02_gravity_refstate-crust.xmf,1124,1.05328e-07,2.70877e-07,0,-8.39102e-07,-9.36925e+07,-9.36811e+07,-9.36997e+07,-57562.4,0.0232177,0.19779,0,0.199148,17444.3,-3411.81,0,17774.8,57562.4
step02_gravity_refstate-crust.xmf,1125,2.4559e-07,6.25545e-07,0,-1.67957e-06,-2.20645e+08,-2.20619e+08,-2.20662e+08,-115219,0.0167011,0.205905,0,0.206581,14792.5,-8034.76,0,16833.7,115219
step02_gravity_refstate-crust.xmf,1126,1.37581e-06,-6.06766e-07,0,-2.96168e-06,-5.01118e+08,-5.01254e+08,-5.01212e+08,-203171,0.0144122,0.239541,0,0.239974,6225.76,-18248.3,0,19281.1,203171
step02_gravity_refstate-crust.xmf,1127,1.40884e-06,-7.13625e-07,0,-3.27484e-06,-5.31634e+08,-5.31779e+08,-5.3173e+08,-224654,0.0153879,0.240874,0,0.241365,6109.24,-19359.3,0,20300.3,224654
step02_gravity_refstate-crust.xmf,1128,1.02478e-06,-7.08085e-08,0,-2.7527e-06,-4.56458e+08,-4.56533e+08,-4.56529e+08,-188835,0.0144013,0.233176,0,0.23362,7440.96,-16621.9,0,18211.4,188835
step02_gravity_refstate-crust.xmf,1129,7.41033e-07,3.18292e-07,0,-2.35863e-06,-3.74156e+08,-3.74185e+08,-3.74207e+08,-161802,0.0138955,0.226245,0,0.226671,9103.61,-13625,0,16386.5,161802
step02_gravity_refstate-crust.xmf,1130,5.93087e-07,4.73901e-07,0,-2.11993e-06,-3.14965e+08,-3.14973e+08,-3.15005e+08,-145427,0.0141861,0.220964,0,0.221419,10588.8,-11469.7,0,15610.2,145427
step02_gravity_refstate-crust.xmf,1131,3.3129e-07,6.28096e-07,0,-1.82212e-06,-2.46335e+08,-2.46315e+08,-2.46358e+08,-124998,0.0158591,0.210027,0,0.210625,13623.9,-8970.39,0,16311.9,124998
step02_gravity_refstate-crust.xmf,1132,1.44471e-06,-8.38075e-07,0,-3.60509e-06,-5.59966e+08,-5.60122e+08,-5.60065e+08,-247309,0.0163293,0.242528,0,0.243077,5959.37,-20390.7,0,21243.7,247309
step02_gravity_refstate-crust.xmf,1133,3.20664e-06,-4.75532e-06,0,-6.80095e-06,-7.22738e+08,-7.23284e+08,-7.22958e+08,-466545,0.0194729,0.277824,0,0.278505,3352.78,-26317.6,0,26530.3,466545
step02_gravity_refstate-crust.xmf,1134,1.66401e-06,-1.30814e-06,0,-4.09864e-06,-5.99854e+08,-6.00058e+08,-5.99968e+08,-281167,0.0172777,0.247555,0,0.248157,5413.87,-21843,0,22503.9,281167
step02_gravity_refstate-crust.xmf,1135,2.87907e-06,-3.98736e-06,0,-6.26217e-06,-7.06248e+08,-7.06719e+08,-7.06446e+08,-429585,0.019308,0.271895,0,0.272579,3650.72,-25717.2,0,25975,429585
step02_gravity_refstate-crust.xmf,1136,3.03626e-06,-3.7174e-06,0,-5.15512e-06,-6.74932e+08,-6.75396e+08,-6.75141e+08,-353641,0.0172391,0.267852,0,0.268406,3612.52,-24578.1,0,24842.2,353641
step02_gravity_refstate-crust.xmf,1137,1.89875e-06,-1.74772e-06,0,-4.36862e-06,-6.20223e+08,-6.20473e+08,-6.20353e+08,-299687,0.0175156,0.251702,0,0.252311,4985.01,-22584.8,0,23128.4,299687
step02_gravity_refstate-crust.xmf,1138,2.19822e-06,-2.30426e-06,0,-4.66245e-06,-6.40373e+08,-6.40682e+08,-6.40524e+08,-319844,0.0176508,0.256556,0,0.257163,4534.96,-23318.8,0,23755.6,319844
step02_gravity_refstate-crust.xmf,1139,2.57692e-06,-2.98873e-06,0,-4.92261e-06,-6.58234e+08,-6.58616e+08,-6.58411e+08,-337691,0.0175431,0.261952,0,0.262539,4072.08,-23969.5,0,24312.9,337691
step02_gravity_refstate-crust.xmf,1140,3.51223e-06,-5.59423e-06,0,-7.52325e-06,-7.40769e+08,-7.41394e+08,-7.4101e+08,-516095,0.0197869,0.284448,0,0.285135,3088.52,-26974,0,27150.2,516095
step02_gravity_refstate-crust.xmf,1141,3.88904e-06,-6.61797e-06,0,-8.30856e-06,-7.57389e+08,-7.5811e+08,-7.57656e+08,-569967,0.0199113,0.291803,0,0.292482,2820.88,-27579,0,27722.9,569967
step02_gravity_refstate-crust.xmf,1142,4.38523e-06,-7.9086e-06,0,-9.1217e-06,-7.7226e+08,-7.73104e+08,-7.72561e+08,-625749,0.0197578,0.299898,0,0.300548,2548.13,-28120.4,0,28235.6,625749
step02_gravity_refstate-crust.xmf,1143,5.01257e-06,-9.52566e-06,0,-1.0012e-05,-7.86237e+08,-7.87235e+08,-7.86581e+08,-686826,0.0193714,0.308795,0,0.309402,2284.93,-28629.3,0,28720.3,686826
step02_gravity_refstate-crust.xmf,1144,5.94113e-06,-1.1813e-05,0,-1.09333e-05,-7.9944e+08,-8.00658e+08,-7.99847e+08,-750026,0.0185574,0.31901,0,0.319549,2014.42,-29110.2,0,29179.8,750026
step02_gravity_refstate-crust.xmf,1145,7.30943e-06,-1.50666e-05,0,-1.15872e-05,-8.11887e+08,-8.13422e+08,-8.12389e+08,-794879,0.017199,0.330444,0,0.330891,1755.64,-29563.8,0,29615.9,794879
step02_gravity_refstate-crust.xmf,1146,8.44589e-06,-1.84768e-05,0,-1.06093e-05,-8.23887e+08,-8.25734e+08,-8.24467e+08,-727800,0.0148927,0.343461,0,0.343784,1499.28,-30000,0,30037.4,727800
step02_gravity_refstate-crust.xmf,1147,-2.23348e-06,1.2616e-05,0,1.53626e-05,-9.61518e+08,-9.60499e+08,-9.61365e+08,1.05388e+06,0.00979208,0.286718,0,0.286885,-2944.1,-35015.5,-0,35139.1,1.05388e+06
step02_gravity_refstate-crust.xmf,1148,-1.47443e-06,1.14519e-05,0,1.23223e-05,-9.62219e+08,-9.61332e+08,-9.62117e+08,845311,0.0110954,0.265255,0,0.265487,-3560.74,-35042.3,-0,35222.7,845311
step02_gravity_refstate-crust.xmf,1149,-8.58852e-07,1.03151e-05,0,1.01004e-05,-9.61636e+08,-9.6087e+08,-9.61577e+08,692884,0.0116245,0.248329,0,0.248601,-4146.83,-35021.8,-0,35266.5,692884
step02_gravity_refstate-crust.xmf,1150,-4.2676e-07,9.28509e-06,0,8.24843e-06,-9.59488e+08,-9.58821e+08,-9.59458e+08,565843,0.0114849,0.232911,0,0.233194,-4789.81,-34943.8,-0,35270.5,565843
step02_gravity_refstate-crust.xmf,1151,-1.24153e-08,6.64072e-06,0,3.69104e-06,-9.41402e+08,-9.40946e+08,-9.41401e+08,253205,0.00764723,0.184428,0,0.184586,-7882.54,-34282.9,-0,35177.5,253205
step02_gravity_refstate-crust.xmf,1152,-1.30472e-07,7.26265e-06,0,4.99862e-06,-9.44559e+08,-9.44052e+08,-9.4455e+08,342906,0.00822896,0.202642,0,0.202809,-6569.12,-34398.3,-0,35020,342906
step02_gravity_refstate-crust.xmf,1153,-8.3393e-08,4.95135e-06,0,1.17778e-06,-9.1329e+08,-9.12945e+08,-9.13284e+08,80795.9,0.00484896,0.119797,0,0.119895,-17322.1,-33256.6,-0,37497.4,80795.9
step02_gravity_refstate-crust.xmf,1154,7.60411e-09,5.09461e-06,0,1.30307e-06,-9.28873e+08,-9.28524e+08,-9.28874e+08,89390.4,0.00601028,0.121999,0,0.122147,-16230.5,-33824.5,-0,37517,89390.4
step02_gravity_refstate-crust.xmf,1155,-3.60568e-08,5.30413e-06,0,1.54485e-06,-9.2962e+08,-9.29254e+08,-9.29618e+08,105977,0.00604682,0.132052,0,0.13219,-14302.9,-33851.8,-0,36749.4,105977
step02_gravity_refstate-crust.xmf,1156,-2.46255e-07,5.38532e-06,0,1.6749e-06,-9.1365e+08,-9.13263e+08,-9.13633e+08,114898,0.00425195,0.141003,0,0.141067,-13347.1,-33269.7,-0,35847.1,114898
step02_gravity_refstate-crust.xmf,1157,-5.11016e-07,5.47271e-06,0,1.8598e-06,-8.97973e+08,-8.97562e+08,-8.97938e+08,127583,0.00205369,0.150406,0,0.15042,-12422.9,-32698,-0,34978.4,127583
step02_gravity_refstate-crust.xmf,1158,-3.55362e-07,5.81559e-06,0,2.3226e-06,-9.16822e+08,-9.16399e+08,-9.16798e+08,159330,0.0038904,0.161001,0,0.161048,-10606.5,-33385.4,-0,35029.7,159330
step02_gravity_refstate-crust.xmf,1159,-1.40836e-07,5.97119e-06,0,2.52089e-06,-9.29188e+08,-9.28769e+08,-9.29179e+08,172933,0.00566802,0.163599,0,0.163698,-10030,-33836.7,-0,35292,172933
step02_gravity_refstate-crust.xmf,1160,-2.4484e-08,4.75645e-06,0,9.83851e-07,-9.14222e+08,-9.13894e+08,-9.14221e+08,67492.2,0.00503945,0.110489,0,0.110603,-19588.3,-33290.4,-0,38625.8,67492.2
step02_gravity_refstate-crust.xmf,1161,2.66864e-07,4.50239e-06,0,6.51135e-07,-9.53416e+08,-9.53125e+08,-9.53434e+08,44667.8,0.00623187,0.0889139,0,0.089132,-24690.6,-34718.1,-0,42602.5,44667.8
step02_gravity_refstate-crust.xmf,1162,1.03703e-07,4.71679e-06,0,9.00536e-07,-9.33689e+08,-9.33372e+08,-9.33696e+08,61776.8,0.00609408,0.102975,0,0.103155,-20790,-33999.6,-0,39852.2,61776.8
step02_gravity_refstate-crust.xmf,1163,2.08452e-07,4.68516e-06,0,8.23183e-07,-9.53208e+08,-9.52901e+08,-9.53222e+08,56470.3,0.00684797,0.0958079,0,0.0960523,-22035.6,-34710.6,-0,41114.4,56470.3
step02_gravity_refstate-crust.xmf,1164,6.44544e-07,4.21502e-06,0,3.4274e-10,-1.03334e+09,-1.03309e+09,-1.03338e+09,23.512,2.14295e-19,0.0607962,0,0.0607962,-40000,-37628.9,-0,54917.5,23.512
step02_gravity_refstate-crust.xmf,1165,5.62405e-07,4.1603e-06,0,1.63026e-07,-9.99054e+08,-9.98807e+08,-9.99093e+08,11183.6,0.00269635,0.0673187,0,0.0673727,-35303.5,-36380.3,-0,50693.8,11183.6
step02_gravity_refstate-crust.xmf,1166,5.0897e-07,4.269e-06,0,3.05298e-07,-9.96514e+08,-9.96256e+08,-9.96549e+08,20943.4,0.00459536,0.0706262,0,0.0707756,-31680.7,-36287.8,-0,48171.2,20943.4
step02_gravity_refstate-crust.xmf,1167,4.1674e-07,4.33617e-06,0,4.28909e-07,-9.78163e+08,-9.77894e+08,-9.78192e+08,29423.2,0.00550655,0.0769724,0,0.0771691,-28933.5,-35619.4,-0,45890,29423.2
step02_gravity_refstate-crust.xmf,1168,3.31362e-07,4.34013e-06,0,4.97263e-07,-9.55963e+08,-9.55688e+08,-9.55986e+08,34112.2,0.00547372,0.0827838,0,0.0829645,-27515.7,-34810.9,-0,44372.4,34112.2
step02_gravity_refstate-crust.xmf,1169,-3.38917e-07,1.2544e-07,0,-9.56769e-09,-32329.4,-474.479,-9079.63,-656.344,0.0321369,0.19063,0,0.19332,19656.4,0,0,19656.4,656.344
step02_gravity_refstate-crust.xmf,1170,1.1123e-07,6.47852e-07,0,-1.51052e-06,-1.97358e+08,-1.97321e+08,-1.97366e+08,-103622,0.0176593,0.200211,0,0.200989,16358.5,-7186.47,0,17867.5,103622
step02_gravity_refstate-crust.xmf,1171,7.4043e-07,3.12508e-07,0,-2.56566e-06,-4.10332e+08,-4.10362e+08,-4.10383e+08,-176004,0.0144043,0.227059,0,0.227516,8821.12,-14942,0,17351.6,176004
step02_gravity_refstate-crust.xmf,1172,7.40399e-07,3.01325e-07,0,-2.77489e-06,-4.4319e+08,-4.4322e+08,-4.43241e+08,-190357,0.0150184,0.227866,0,0.22836,8568.7,-16138.2,0,18272,190357
step02_gravity_refstate-crust.xmf,1173,1.03659e-06,-1.21993e-07,0,-3.00882e-06,-4.88275e+08,-4.88355e+08,-4.88346e+08,-206405,0.0152281,0.234102,0,0.234597,7274.64,-17780.2,0,19210.8,206405
step02_gravity_refstate-crust.xmf,1174,5.34213e-07,5.62328e-07,0,-2.35041e-06,-3.58962e+08,-3.5896e+08,-3.58999e+08,-161238,0.0144891,0.220929,0,0.221403,10399.4,-13071.4,0,16703.5,161238
step02_gravity_refstate-crust.xmf,1175,4.24575e-07,6.35202e-07,0,-2.0794e-06,-2.98872e+08,-2.98857e+08,-2.98901e+08,-142647,0.014849,0.215552,0,0.216063,11980.7,-10883.4,0,16186,142647
step02_gravity_refstate-crust.xmf,1176,2.74233e-07,7.54238e-07,0,-2.00783e-06,-2.83187e+08,-2.83154e+08,-2.83206e+08,-137737,0.0153918,0.210099,0,0.210662,13381.7,-10312,0,16894,137737
step02_gravity_refstate-crust.xmf,1177,1.41843e-07,8.25234e-07,0,-1.88906e-06,-2.63872e+08,-2.63825e+08,-2.63881e+08,-129589,0.0158979,0.204532,0,0.205149,14849.4,-9608.36,0,17686.9,129589
step02_gravity_refstate-crust.xmf,1178,1.4619e-06,-9.39826e-07,0,-3.89833e-06,-5.82127e+08,-5.82292e+08,-5.82227e+08,-267425,0.0171292,0.243957,0,0.244557,5844.74,-21197.4,0,21988.4,267425
step02_gravity_refstate-crust.xmf,1179,2.51384e-06,-3.16807e-06,0,-5.83316e-06,-6.90442e+08,-6.90832e+08,-6.90615e+08,-400155,0.019292,0.266137,0,0.266835,4009.33,-25141.5,0,25459.2,400155
step02_gravity_refstate-crust.xmf,1180,4.09886e-08,7.93499e-06,0,5.79672e-06,-9.56303e+08,-9.55761e+08,-9.56305e+08,397655,0.0109105,0.209237,0,0.209521,-5993.99,-34827.6,-0,35339.6,397655
step02_gravity_refstate-crust.xmf,1181,1.78329e-07,7.07649e-06,0,4.30296e-06,-9.53249e+08,-9.52775e+08,-9.53261e+08,295183,0.0100924,0.190334,0,0.190601,-7227.83,-34715.6,-0,35460.1,295183
step02_gravity_refstate-crust.xmf,1182,6.73977e-08,8.85247e-06,0,6.77744e-06,-9.66993e+08,-9.66391e+08,-9.66998e+08,464932,0.0134037,0.216817,0,0.217231,-5420.98,-35218.3,-0,35633.1,464932
step02_gravity_refstate-crust.xmf,1183,-3.552e-06,1.46085e-05,0,2.1577e-05,-9.61174e+08,-9.59928e+08,-9.6093e+08,1.48019e+06,0.00700597,0.32712,0,0.327195,-2000,-35000.7,-0,35057.8,1.48019e+06
step02_gravity_refstate-crust.xmf,1184,-3.23392e-06,1.48581e-05,0,1.81923e-05,-9.67983e+08,-9.66741e+08,-9.67761e+08,1.24799e+06,0.00987778,0.303838,0,0.303999,-2432.25,-35250.3,-0,35334.1,1.24799e+06
step02_gravity_refstate-crust.xmf,1185,9.79972e-08,5.23514e-06,0,1.45087e-06,-9.43038e+08,-9.42685e+08,-9.43044e+08,99529.4,0.00723294,0.124405,0,0.124615,-15222.8,-34340.7,-0,37563.5,99529.4
step02_gravity_refstate-crust.xmf,1186,-2.77583e-07,5.66026e-06,0,2.05712e-06,-9.15983e+08,-9.15575e+08,-9.15964e+08,141119,0.00404982,0.153888,0,0.153941,-11478.2,-33354.9,-0,35274.6,141119
step02_gravity_refstate-crust.xmf,1187,4.4261e-08,6.19824e-06,0,2.85355e-06,-9.41441e+08,-9.41019e+08,-9.41444e+08,195754,0.00762834,0.167965,0,0.168138,-9311.35,-34283.9,-0,35525.9,195754
step02_gravity_refstate-crust.xmf,1188,3.1349e-07,6.49855e-06,0,3.27609e-06,-9.53702e+08,-9.53278e+08,-9.53724e+08,224740,0.00983921,0.172916,0,0.173196,-8590.75,-34731.8,-0,35778.5,224740
step02_gravity_refstate-crust.xmf,1189,6.26262e-08,4.90231e-06,0,1.08865e-06,-9.31726e+08,-9.31394e+08,-9.31731e+08,74681.1,0.00616501,0.111902,0,0.112071,-18411.8,-33928.3,-0,38602.1,74681.1
step02_gravity_refstate-crust.xmf,1190,2.89781e-07,4.65318e-06,0,7.45575e-07,-9.71052e+08,-9.70753e+08,-9.71072e+08,51146.4,0.00726484,0.089278,0,0.0895731,-23324.1,-35360.5,-0,42360.1,51146.4
step02_gravity_refstate-crust.xmf,1191,6.71614e-07,4.28363e-06,0,5.4972e-08,-1.05278e+09,-1.05253e+09,-1.05282e+09,3771.08,0.00112513,0.0579423,0,0.0579532,-38330.1,-38336.8,-0,54211.7,3771.08
step02_gravity_refstate-crust.xmf,1192,5.65877e-07,4.26895e-06,0,2.39468e-07,-1.01461e+09,-1.01436e+09,-1.01465e+09,16427.5,0.00400108,0.0663359,0,0.0664565,-33269.1,-36946.9,-0,49718.3,16427.5
step02_gravity_refstate-crust.xmf,1193,4.81512e-07,4.34247e-06,0,3.72396e-07,-9.97907e+08,-9.97642e+08,-9.9794e+08,25546.4,0.00537243,0.0721743,0,0.0723739,-30153.6,-36338.5,-0,47219.9,25546.4
step02_gravity_refstate-crust.xmf,1194,3.63396e-07,4.49447e-06,0,5.7609e-07,-9.77708e+08,-9.77425e+08,-9.77733e+08,39519.8,0.00659789,0.081968,0,0.0822331,-26080,-35602.9,-0,44133.1,39519.8
step02_gravity_refstate-crust.xmf,1195,-5.22367e-08,4.8451e-07,0,-1.06571e-06,-1.31762e+08,-1.31725e+08,-1.31758e+08,-73108,0.0207452,0.193825,0,0.194932,18373.6,-4797.47,0,18989.6,73108
step02_gravity_refstate-crust.xmf,1196,-4.24303e-07,3.13218e-07,0,-3.99869e-07,-4.65432e+07,-4.64926e+07,-4.65141e+07,-27431,0.0267229,0.186555,0,0.188459,20759.2,-1693.22,0,20828.2,27431
step02_gravity_refstate-crust.xmf,1197,-2.17716e-07,4.25551e-07,0,-7.92748e-07,-9.78091e+07,-9.7765e+07,-9.77942e+07,-54382.5,0.0227846,0.189397,0,0.190762,19742.1,-3560.62,0,20060.6,54382.5
step02_gravity_refstate-crust.xmf,1198,1.76769e-08,8.6012e-07,0,-1.7418e-06,-2.43589e+08,-2.43531e+08,-2.4359e+08,-119487,0.0163864,0.198932,0,0.199606,16362.1,-8869.5,0,18611.4,119487
step02_gravity_refstate-crust.xmf,1199,1.01889e-06,-1.54272e-07,0,-3.30472e-06,-5.19438e+08,-5.19519e+08,-5.19508e+08,-226704,0.0161767,0.234961,0,0.235517,7143.4,-18914.6,0,20218.5,226704
step02_gravity_refstate-crust.xmf,1200,1.01172e-06,-2.15956e-07,0,-3.62866e-06,-5.50303e+08,-5.50387e+08,-5.50372e+08,-248926,0.0171474,0.23629,0,0.236912,6951.92,-20038.1,0,21209.8,248926
step02_gravity_refstate-crust.xmf,1201,7.32056e-07,2.98165e-07,0,-3.00389e-06,-4.75222e+08,-4.75251e+08,-4.75272e+08,-206067,0.0157645,0.228569,0,0.229112,8358.09,-17304.3,0,19217.1,206067
step02_gravity_refstate-crust.xmf,1202,5.12045e-07,5.98315e-07,0,-2.56036e-06,-3.9764e+08,-3.97634e+08,-3.97675e+08,-175641,0.0149105,0.221682,0,0.222183,10047,-14479.5,0,17623.8,175641
step02_gravity_refstate-crust.xmf,1203,3.47296e-07,7.68024e-07,0,-2.29672e-06,-3.42439e+08,-3.4241e+08,-3.42463e+08,-157555,0.0149356,0.215229,0,0.215747,11796.2,-12469.4,0,17165,157555
step02_gravity_refstate-crust.xmf,1204,1.05109e-06,-3.49387e-07,0,-3.93412e-06,-5.76751e+08,-5.76847e+08,-5.76823e+08,-269880,0.017911,0.238457,0,0.239129,6655.53,-21000.9,0,22030.3,269880
step02_gravity_refstate-crust.xmf,1205,2.31185e-06,-3.76583e-06,0,-7.68397e-06,-7.40091e+08,-7.40508e+08,-7.4025e+08,-527120,0.0215705,0.275875,0,0.276717,3716.33,-26947.3,0,27202.3,527120
step02_gravity_refstate-crust.xmf,1206,1.13499e-06,-5.57346e-07,0,-4.2312e-06,-5.99643e+08,-5.99759e+08,-5.99721e+08,-290260,0.0185038,0.241301,0,0.242009,6298.96,-21834.3,0,22724.8,290260
step02_gravity_refstate-crust.xmf,1207,2.13812e-06,-3.16435e-06,0,-7.00041e-06,-7.22768e+08,-7.23131e+08,-7.22914e+08,-480228,0.0212426,0.269829,0,0.270663,4015.07,-26316.8,0,26621.3,480228
step02_gravity_refstate-crust.xmf,1208,1.28245e-06,-8.7433e-07,0,-4.53952e-06,-6.20705e+08,-6.20853e+08,-6.20793e+08,-311411,0.0189439,0.24505,0,0.245781,5869,-22601.2,0,23350.8,311411
step02_gravity_refstate-crust.xmf,1209,1.93573e-06,-2.58759e-06,0,-6.43516e-06,-7.05949e+08,-7.06259e+08,-7.06081e+08,-441452,0.020952,0.264227,0,0.265056,4342.64,-25704.6,0,26068.8,441452
step02_gravity_refstate-crust.xmf,1210,2.08687e-06,-2.37326e-06,0,-5.49332e-06,-6.7416e+08,-6.74466e+08,-6.74303e+08,-376842,0.0194309,0.259865,0,0.26059,4486.08,-24548.2,0,24954.8,376842
step02_gravity_refstate-crust.xmf,1211,1.4756e-06,-1.28043e-06,0,-4.88226e-06,-6.41201e+08,-6.4139e+08,-6.41302e+08,-334923,0.0193162,0.249455,0,0.250201,5418.59,-23347.6,0,23968.1,334923
step02_gravity_refstate-crust.xmf,1212,1.71754e-06,-1.78016e-06,0,-5.25917e-06,-6.60811e+08,-6.61051e+08,-6.60929e+08,-360779,0.0196041,0.254453,0,0.255207,4965.05,-24061.7,0,24568.6,360779
step02_gravity_refstate-crust.xmf,1213,-7.47673e-07,2.81011e-07,0,-8.66194e-09,-71138.4,-570.746,-19848.1,-594.209,0.0309126,0.183243,0,0.185832,21926.5,0,0,21926.5,594.209
step02_gravity_refstate-crust.xmf,1214,2.49697e-06,-4.45265e-06,0,-8.45165e-06,-7.56505e+08,-7.56982e+08,-7.56676e+08,-579783,0.0217931,0.282476,0,0.283315,3428.27,-27544.5,0,27757.1,579783
step02_gravity_refstate-crust.xmf,1215,2.72526e-06,-5.29286e-06,0,-9.32563e-06,-7.72216e+08,-7.72766e+08,-7.72403e+08,-639739,0.0218445,0.289964,0,0.290786,3136.36,-28116.1,0,28290.5,639739
step02_gravity_refstate-crust.xmf,1216,3.00631e-06,-6.29151e-06,0,-1.02679e-05,-7.86303e+08,-7.86941e+08,-7.86509e+08,-704379,0.0216719,0.297963,0,0.29875,2858.32,-28628.6,0,28770.9,704379
step02_gravity_refstate-crust.xmf,1217,3.40229e-06,-7.60437e-06,0,-1.13577e-05,-7.99752e+08,-8.00507e+08,-7.99985e+08,-779135,0.0211846,0.307151,0,0.307881,2574.37,-29117.8,0,29231.3,779135
step02_gravity_refstate-crust.xmf,1218,4.04645e-06,-9.50757e-06,0,-1.266e-05,-8.12464e+08,-8.13394e+08,-8.12741e+08,-868477,0.0201963,0.317964,0,0.318605,2279.62,-29580.2,0,29667.9,868477
step02_gravity_refstate-crust.xmf,1219,5.55859e-06,-1.29713e-05,0,-1.41465e-05,-8.23974e+08,-8.25245e+08,-8.24355e+08,-970448,0.0184752,0.330207,0,0.330724,2000,-30000,0,30066.6,970448
step02_gravity_refstate-crust.xmf,1220,-2.06564e-06,1.37178e-05,0,1.33776e-05,-9.75977e+08,-9.74894e+08,-9.75835e+08,917705,0.0138833,0.269438,0,0.269796,-3236.48,-35544.3,-0,35691.3,917705
step02_gravity_refstate-crust.xmf,1221,-1.13221e-06,1.22835e-05,0,1.0766e-05,-9.7795e+08,-9.7703e+08,-9.77873e+08,738547,0.0153125,0.250098,0,0.250566,-3839.82,-35617.7,-0,35824.1,738547
step02_gravity_refstate-crust.xmf,1222,-5.02824e-07,1.0669e-05,0,9.09586e-06,-9.73255e+08,-9.72489e+08,-9.7322e+08,623976,0.014674,0.237018,0,0.237471,-4410.72,-35446.8,-0,35720.2,623976
step02_gravity_refstate-crust.xmf,1223,5.26788e-07,6.88247e-06,0,3.81273e-06,-9.64435e+08,-9.63999e+08,-9.64471e+08,261553,0.0119937,0.178568,0,0.178971,-7895.89,-35124,-0,36000.6,261553
step02_gravity_refstate-crust.xmf,1224,3.58335e-07,7.65348e-06,0,5.01143e-06,-9.64392e+08,-9.63892e+08,-9.64417e+08,343784,0.0125562,0.196501,0,0.196902,-6615.12,-35123,-0,35740.5,343784
step02_gravity_refstate-crust.xmf,1225,-5.28472e-08,1.00485e-05,0,7.884e-06,-9.77555e+08,-9.76862e+08,-9.77551e+08,540843,0.0157941,0.224272,0,0.224827,-4889.42,-35604.2,-0,35938.4,540843
step02_gravity_refstate-crust.xmf,1226,-2.86603e-06,1.49283e-05,0,1.57368e-05,-9.74826e+08,-9.73605e+08,-9.74629e+08,1.07955e+06,0.0124897,0.286012,0,0.286285,-2784.64,-35501,-0,35610.1,1.07955e+06
step02_gravity_refstate-crust.xmf,1227,1.57659e-07,5.05565e-06,0,1.23094e-06,-9.48911e+08,-9.48575e+08,-9.48922e+08,84442.2,0.00743225,0.113729,0,0.113972,-17224.6,-34554.5,-0,38609.6,84442.2
step02_gravity_refstate-crust.xmf,1228,2.35685e-07,5.20004e-06,0,1.39499e-06,-9.59727e+08,-9.59386e+08,-9.59743e+08,95696.6,0.00841244,0.117081,0,0.117383,-16049.5,-34948.8,-0,38457.8,95696.6
step02_gravity_refstate-crust.xmf,1229,2.54464e-07,5.38656e-06,0,1.63637e-06,-9.59482e+08,-9.5913e+08,-9.595e+08,112255,0.00880932,0.126195,0,0.126502,-14309.8,-34940.3,-0,37757,112255
step02_gravity_refstate-crust.xmf,1230,1.36828e-07,5.45877e-06,0,1.73349e-06,-9.4605e+08,-9.45685e+08,-9.4606e+08,118917,0.00773888,0.134368,0,0.134591,-13383.3,-34450.9,-0,36959.2,118917
step02_gravity_refstate-crust.xmf,1231,-6.0218e-08,5.5452e-06,0,1.8577e-06,-9.30485e+08,-9.301e+08,-9.30481e+08,127438,0.00607303,0.143584,0,0.143712,-12463.8,-33883.6,-0,36103.2,127438
step02_gravity_refstate-crust.xmf,1232,2.64378e-08,5.84845e-06,0,2.29072e-06,-9.38228e+08,-9.37829e+08,-9.3823e+08,157144,0.00706266,0.154835,0,0.154996,-10793,-34166.3,-0,35830.5,157144
step02_gravity_refstate-crust.xmf,1233,2.97138e-07,6.06034e-06,0,2.59187e-06,-9.5248e+08,-9.52085e+08,-9.52501e+08,177802,0.00921647,0.158133,0,0.158402,-10068,-34686.6,-0,36118.2,177802
step02_gravity_refstate-crust.xmf,1234,1.74325e-07,4.87005e-06,0,1.01128e-06,-9.53157e+08,-9.52835e+08,-9.53169e+08,69374,0.0073135,0.103614,0,0.103872,-19601.4,-34708.9,-0,39861.3,69374
step02_gravity_refstate-crust.xmf,1235,3.7379e-07,4.65018e-06,0,6.81387e-07,-9.92998e+08,-9.92705e+08,-9.93024e+08,46743.1,0.00764788,0.0827718,0,0.0831244,-24489.4,-36159.8,-0,43672.2,46743.1
step02_gravity_refstate-crust.xmf,1236,2.64625e-07,4.83796e-06,0,9.3279e-07,-9.72295e+08,-9.71981e+08,-9.72313e+08,63989.4,0.00800006,0.0960662,0,0.0963987,-20849.6,-35405.9,-0,41088.7,63989.4
step02_gravity_refstate-crust.xmf,1237,3.33746e-07,4.80974e-06,0,8.5211e-07,-9.90534e+08,-9.90227e+08,-9.90557e+08,58454.8,0.00838579,0.0890886,0,0.0894824,-22129.4,-36070.2,-0,42317.5,58454.8
step02_gravity_refstate-crust.xmf,1238,6.55649e-07,4.29457e-06,0,1.17333e-07,-1.0488e+09,-1.04855e+09,-1.04884e+09,8049.04,0.00233136,0.0590907,0,0.0591367,-36488.7,-38191.9,-0,52820.9,8049.04
step02_gravity_refstate-crust.xmf,1239,6.43749e-07,4.35827e-06,0,1.97297e-07,-1.05209e+09,-1.05183e+09,-1.05213e+09,13534.6,0.0037498,0.0596762,0,0.0597939,-34335.9,-38311.6,-0,51446.4,13534.6
step02_gravity_refstate-crust.xmf,1240,6.1789e-07,4.43437e-06,0,2.80161e-07,-1.05302e+09,-1.05275e+09,-1.05306e+09,19219.1,0.00505839,0.0611057,0,0.0613147,-32262.6,-38345.4,-0,50112.4,19219.1
step02_gravity_refstate-crust.xmf,1241,5.70211e-07,4.4902e-06,0,3.62601e-07,-1.04511e+09,-1.04484e+09,-1.04515e+09,24874.4,0.00607703,0.0643316,0,0.064618,-30359.2,-38057.5,-0,48683.2,24874.4
step02_gravity_refstate-crust.xmf,1242,5.00917e-07,4.45658e-06,0,4.20403e-07,-1.0171e+09,-1.01683e+09,-1.01714e+09,28839.6,0.00625229,0.0704719,0,0.0707487,-29117.4,-37037.6,-0,47112.6,28839.6
step02_gravity_refstate-crust.xmf,1243,4.6509e-07,4.514e-06,0,4.99835e-07,-1.00967e+09,-1.00939e+09,-1.0097e+09,34288.7,0.00681286,0.0739528,0,0.074266,-27616.3,-36766.9,-0,45983.3,34288.7
step02_gravity_refstate-crust.xmf,1244,-5.12696e-08,6.54638e-07,0,-1.32173e-06,-1.74709e+08,-1.7466e+08,-1.74705e+08,-90670.4,0.0185858,0.194035,0,0.194923,18082.9,-6361.25,0,19169.2,90670.4
step02_gravity_refstate-crust.xmf,1245,-1.04494e-07,8.72487e-07,0,-1.56518e-06,-2.22625e+08,-2.22558e+08,-2.22618e+08,-107372,0.016861,0.193223,0,0.193957,17950.8,-8105.81,0,19696,107372
step02_gravity_refstate-crust.xmf,1246,5.01896e-07,6.17225e-07,0,-2.75174e-06,-4.30755e+08,-4.30748e+08,-4.3079e+08,-188769,0.0154187,0.222549,0,0.223082,9708.51,-15685.1,0,18446.6,188769
step02_gravity_refstate-crust.xmf,1247,4.72583e-07,6.51055e-07,0,-2.95471e-06,-4.61942e+08,-4.61929e+08,-4.61974e+08,-202693,0.0160522,0.223083,0,0.22366,9459.37,-16820.4,0,19297.8,202693
step02_gravity_refstate-crust.xmf,1248,6.82412e-07,3.29242e-07,0,-3.26689e-06,-5.0668e+08,-5.06705e+08,-5.06727e+08,-224109,0.0166512,0.22893,0,0.229535,8224.88,-18449.5,0,20199.8,224109
step02_gravity_refstate-crust.xmf,1249,2.70104e-07,8.94341e-07,0,-2.54566e-06,-3.90405e+08,-3.90362e+08,-3.90424e+08,-174632,0.0153551,0.215153,0,0.2157,11491.9,-14215.6,0,18279.7,174632
step02_gravity_refstate-crust.xmf,1250,1.88167e-07,9.22957e-07,0,-2.21219e-06,-3.26577e+08,-3.26526e+08,-3.2659e+08,-151756,0.0152452,0.209501,0,0.210055,13212.9,-11891.5,0,17776.1,151756
step02_gravity_refstate-crust.xmf,1251,5.13627e-08,1.01987e-06,0,-2.0932e-06,-3.08471e+08,-3.08405e+08,-3.08475e+08,-143594,0.0154593,0.203706,0,0.204291,14691.1,-11232,0,18492.9,143594
step02_gravity_refstate-crust.xmf,1252,-6.50733e-08,1.07268e-06,0,-1.94222e-06,-2.88797e+08,-2.88719e+08,-2.88792e+08,-133236,0.015627,0.197964,0,0.19858,16212.1,-10515.3,0,19323.7,133236
step02_gravity_refstate-crust.xmf,1253,1.76244e-06,-2.11216e-06,0,-6.00311e-06,-6.91704e+08,-6.91969e+08,-6.91825e+08,-411813,0.0207172,0.259743,0,0.260568,4643.69,-25186,0,25610.5,411813
step02_gravity_refstate-crust.xmf,1254,-7.4493e-07,4.36592e-07,0,-3.61364e-07,-4.71771e+07,-4.70961e+07,-4.7126e+07,-24789.6,0.0253975,0.179447,0,0.181236,22939.2,-1715.19,0,23003.2,24789.6
step02_gravity_refstate-crust.xmf,1255,4.75445e-07,8.4278e-06,0,5.81715e-06,-9.74854e+08,-9.74309e+08,-9.74887e+08,399057,0.0149494,0.203236,0,0.203785,-6019.74,-35505.5,-0,36012.2,399057
step02_gravity_refstate-crust.xmf,1256,6.62999e-07,7.37572e-06,0,4.43262e-06,-9.7393e+08,-9.7347e+08,-9.73976e+08,304077,0.0140535,0.184547,0,0.185081,-7251.3,-35471,-0,36204.6,304077
step02_gravity_refstate-crust.xmf,1257,4.5548e-07,9.43904e-06,0,6.7452e-06,-9.84712e+08,-9.84096e+08,-9.84744e+08,462721,0.0171782,0.210326,0,0.211026,-5450.29,-35865.9,-0,36277.7,462721
step02_gravity_refstate-crust.xmf,1258,-4.53066e-06,1.74015e-05,0,2.0986e-05,-9.74874e+08,-9.73369e+08,-9.74563e+08,1.43964e+06,0.00959339,0.319135,0,0.319279,-2000,-35499.9,-0,35556.2,1.43964e+06
step02_gravity_refstate-crust.xmf,1259,-3.90138e-06,1.72151e-05,0,1.76025e-05,-9.81535e+08,-9.80086e+08,-9.81267e+08,1.20753e+06,0.012704,0.296401,0,0.296673,-2420.46,-35744.6,-0,35826.5,1.20753e+06
step02_gravity_refstate-crust.xmf,1260,3.0841e-07,5.32317e-06,0,1.55571e-06,-9.67729e+08,-9.67385e+08,-9.6775e+08,106722,0.00925449,0.120231,0,0.120587,-15112.1,-35240.6,-0,38344.2,106722
step02_gravity_refstate-crust.xmf,1261,2.03853e-07,5.72273e-06,0,2.09622e-06,-9.47583e+08,-9.47205e+08,-9.47597e+08,143801,0.00819999,0.146133,0,0.146363,-11632,-34507.4,-0,36415.2,143801
step02_gravity_refstate-crust.xmf,1262,5.06468e-07,6.33125e-06,0,3.0002e-06,-9.64485e+08,-9.64085e+08,-9.6452e+08,205814,0.0112726,0.162668,0,0.163058,-9314.05,-35124.9,-0,36338.8,205814
step02_gravity_refstate-crust.xmf,1263,8.19965e-07,6.74439e-06,0,3.54067e-06,-9.80155e+08,-9.79748e+08,-9.80211e+08,242890,0.0140489,0.166814,0,0.167404,-8565.23,-35697.3,-0,36710.5,242890
step02_gravity_refstate-crust.xmf,1264,2.87843e-07,5.05259e-06,0,1.17854e-06,-9.74941e+08,-9.74614e+08,-9.74961e+08,80848,0.00882018,0.104554,0,0.104926,-18287.7,-35502.7,-0,39936,80848
step02_gravity_refstate-crust.xmf,1265,3.7995e-07,4.77473e-06,0,7.79828e-07,-1.00287e+09,-1.00256e+09,-1.00289e+09,53496.2,0.00843449,0.084018,0,0.0844403,-23243,-36519.3,-0,43288.5,53496.2
step02_gravity_refstate-crust.xmf,1266,4.54443e-07,4.67902e-06,0,6.21417e-07,-1.02164e+09,-1.02135e+09,-1.02167e+09,42629.2,0.00799244,0.0754515,0,0.0758737,-25660.1,-37202.9,-0,45194,42629.2
step02_gravity_refstate-crust.xmf,1267,-2.33734e-07,6.44747e-07,0,-1.12285e-06,-1.51805e+08,-1.51744e+08,-1.51789e+08,-77027.2,0.019443,0.188147,0,0.189149,19797.8,-5526.65,0,20554.7,77027.2
step02_gravity_refstate-crust.xmf,1268,-4.94419e-07,4.79578e-07,0,-6.37551e-07,-8.37273e+07,-8.36604e+07,-8.36933e+07,-43736,0.0231513,0.182953,0,0.184412,21670.9,-3046.92,0,21884.1,43736
step02_gravity_refstate-crust.xmf,1269,-1.74265e-07,1.09268e-06,0,-1.77425e-06,-2.69149e+08,-2.69062e+08,-2.69137e+08,-121714,0.0157561,0.192246,0,0.192891,17780.1,-9799.64,0,20301.9,121714
step02_gravity_refstate-crust.xmf,1270,5.57904e-07,4.34373e-07,0,-3.58833e-06,-5.40935e+08,-5.40943e+08,-5.40973e+08,-246159,0.0177673,0.228672,0,0.229361,8187.3,-19696.2,0,21330.1,246159
step02_gravity_refstate-crust.xmf,1271,6.05295e-07,3.03285e-07,0,-3.90312e-06,-5.71256e+08,-5.71277e+08,-5.71298e+08,-267754,0.018537,0.231573,0,0.232314,7675.42,-20800.1,0,22171,267754
step02_gravity_refstate-crust.xmf,1272,4.22172e-07,7.05641e-07,0,-3.17375e-06,-4.92485e+08,-4.92465e+08,-4.92514e+08,-217719,0.0167912,0.22335,0,0.22398,9269.68,-17932.2,0,20186.4,217719
step02_gravity_refstate-crust.xmf,1273,3.1323e-07,8.61611e-07,0,-2.70772e-06,-4.208e+08,-4.20762e+08,-4.20821e+08,-185749,0.0156376,0.217721,0,0.218282,10751.6,-15322.2,0,18718.1,185749
step02_gravity_refstate-crust.xmf,1274,1.09477e-07,1.07712e-06,0,-2.41957e-06,-3.70306e+08,-3.70239e+08,-3.70313e+08,-165983,0.0154026,0.209275,0,0.209841,12910,-13483.5,0,18667.4,165983
step02_gravity_refstate-crust.xmf,1275,6.56985e-07,1.47628e-07,0,-4.22013e-06,-5.9723e+08,-5.97265e+08,-5.97275e+08,-289501,0.0192269,0.234557,0,0.235343,7220.78,-21745.7,0,22913.2,289501
step02_gravity_refstate-crust.xmf,1276,1.30966e-06,-2.52881e-06,0,-8.2662e-06,-7.56321e+08,-7.56584e+08,-7.56411e+08,-567062,0.0229778,0.272768,0,0.273735,4056.01,-27536,0,27833.1,567062
step02_gravity_refstate-crust.xmf,1277,1.25597e-06,-2.09196e-06,0,-7.55749e-06,-7.39712e+08,-7.39941e+08,-7.39798e+08,-518444,0.0227233,0.266731,0,0.267697,4373.94,-26931.8,0,27284.7,518444
step02_gravity_refstate-crust.xmf,1278,7.20755e-07,-4.86699e-08,0,-4.5553e-06,-6.20586e+08,-6.20639e+08,-6.20635e+08,-312494,0.0198481,0.237885,0,0.238711,6778.54,-22595.9,0,23590.7,312494
step02_gravity_refstate-crust.xmf,1279,1.17704e-06,-1.6757e-06,0,-6.93217e-06,-7.22712e+08,-7.22908e+08,-7.22793e+08,-475547,0.0223928,0.261121,0,0.26208,4711.42,-26313.2,0,26731.7,475547
step02_gravity_refstate-crust.xmf,1280,8.21194e-07,-3.18519e-07,0,-4.91692e-06,-6.42021e+08,-6.42099e+08,-6.42078e+08,-337301,0.0203831,0.241851,0,0.242708,6315.24,-23376.3,0,24214.3,337301
step02_gravity_refstate-crust.xmf,1281,1.09334e-06,-1.28808e-06,0,-6.367e-06,-7.04827e+08,-7.0499e+08,-7.04902e+08,-436776,0.0219918,0.255866,0,0.256809,5070.89,-25662.3,0,26158.6,436776
step02_gravity_refstate-crust.xmf,1282,1.15977e-06,-1.16232e-06,0,-5.81406e-06,-6.83144e+08,-6.83303e+08,-6.83223e+08,-398845,0.0212484,0.25233,0,0.253223,5309.52,-24873.4,0,25433.8,398845
step02_gravity_refstate-crust.xmf,1283,9.55367e-07,-6.67152e-07,0,-5.32196e-06,-6.62432e+08,-6.62544e+08,-6.62498e+08,-365087,0.0208554,0.246448,0,0.247329,5842.1,-24119.3,0,24816.8,365087
step02_gravity_refstate-crust.xmf,1284,-1.11219e-06,4.1838e-07,0,-1.08029e-08,-105805,-808.234,-29509.1,-741.077,0.0287454,0.176206,0,0.178535,24260.6,0,0,24260.6,741.077
step02_gravity_refstate-crust.xmf,1285,1.36515e-06,-3.02758e-06,0,-9.05276e-06,-7.72042e+08,-7.72343e+08,-7.72136e+08,-621020,0.0230804,0.279429,0,0.280381,3744.48,-28107.8,0,28356.1,621020
step02_gravity_refstate-crust.xmf,1286,1.41799e-06,-3.56652e-06,0,-9.89607e-06,-7.86562e+08,-7.86904e+08,-7.86659e+08,-678871,0.0229926,0.286492,0,0.287413,3452.41,-28635.8,0,28843.1,678871
step02_gravity_refstate-crust.xmf,1287,1.49828e-06,-4.19172e-06,0,-1.0819e-05,-8.00349e+08,-8.00739e+08,-8.00452e+08,-742181,0.0226347,0.294342,0,0.295211,3164.12,-29137.1,0,29308.4,742181
step02_gravity_refstate-crust.xmf,1288,1.67571e-06,-4.96569e-06,0,-1.18452e-05,-8.13871e+08,-8.14326e+08,-8.13986e+08,-812584,0.0218442,0.30348,0,0.304266,2868.56,-29628.9,0,29767.4,812584
step02_gravity_refstate-crust.xmf,1289,2.34726e-06,-6.12264e-06,0,-1.32422e-05,-8.2871e+08,-8.29291e+08,-8.28871e+08,-908418,0.0200298,0.315704,0,0.316339,2530.81,-30170,0,30276,908418
step02_gravity_refstate-crust.xmf,1290,5.2618e-06,-1.01548e-05,0,-1.65037e-05,-8.37672e+08,-8.38729e+08,-8.38033e+08,-1.13215e+06,0.016744,0.33611,0,0.336527,2000,-30501.8,0,30567.3,1.13215e+06
step02_gravity_refstate-crust.xmf,1291,-3.0135e-06,1.63639e-05,0,1.47377e-05,-9.87e+08,-9.8567e+08,-9.86793e+08,1.01101e+06,0.0153898,0.276511,0,0.276939,-2854.17,-35945.8,-0,36059,1.01101e+06
step02_gravity_refstate-crust.xmf,1292,-1.96619e-06,1.49461e-05,0,1.23576e-05,-9.90626e+08,-9.89466e+08,-9.90491e+08,847731,0.0173714,0.258726,0,0.259308,-3331.74,-36079.9,-0,36233.4,847731
step02_gravity_refstate-crust.xmf,1293,-3.52778e-07,1.15726e-05,0,9.00281e-06,-9.86916e+08,-9.86098e+08,-9.86892e+08,617593,0.0177151,0.232466,0,0.23314,-4369.5,-35946.2,-0,36210.8,617593
step02_gravity_refstate-crust.xmf,1294,8.94794e-07,7.14045e-06,0,4.06632e-06,-9.83877e+08,-9.83448e+08,-9.83938e+08,278949,0.0151998,0.174107,0,0.174769,-7854.27,-35833.7,-0,36684.4,278949
step02_gravity_refstate-crust.xmf,1295,7.99714e-07,8.01731e-06,0,5.12786e-06,-9.83954e+08,-9.83459e+08,-9.84009e+08,351771,0.0162556,0.190381,0,0.191074,-6649.06,-35837.5,-0,36449.1,351771
step02_gravity_refstate-crust.xmf,1296,2.71545e-07,1.07428e-05,0,7.79192e-06,-9.94251e+08,-9.93532e+08,-9.94269e+08,534526,0.0191877,0.217602,0,0.218447,-4904.72,-36214.4,-0,36545.1,534526
step02_gravity_refstate-crust.xmf,1297,3.48141e-07,5.20549e-06,0,1.36859e-06,-9.81771e+08,-9.81438e+08,-9.81795e+08,93885.2,0.00965031,0.109201,0,0.109627,-16855,-35751.8,-0,39525.7,93885.2
step02_gravity_refstate-crust.xmf,1298,4.21675e-07,5.34934e-06,0,1.56459e-06,-9.88045e+08,-9.87707e+08,-9.88074e+08,107331,0.0104808,0.113559,0,0.114042,-15651.9,-35980.7,-0,39237.7,107331
step02_gravity_refstate-crust.xmf,1299,4.70159e-07,5.48382e-06,0,1.76621e-06,-9.89204e+08,-9.8886e+08,-9.89236e+08,121162,0.0110862,0.119547,0,0.12006,-14446.4,-36023.3,-0,38812.1,121162
step02_gravity_refstate-crust.xmf,1300,4.2355e-07,5.54855e-06,0,1.86846e-06,-9.74764e+08,-9.74413e+08,-9.74793e+08,128176,0.0104319,0.128348,0,0.128771,-13425.2,-35497.6,-0,37951.5,128176
step02_gravity_refstate-crust.xmf,1301,3.28194e-07,5.6244e-06,0,1.96852e-06,-9.61082e+08,-9.60719e+08,-9.61105e+08,135041,0.00948946,0.136974,0,0.137302,-12518.7,-34999.2,-0,37170.7,135041
step02_gravity_refstate-crust.xmf,1302,4.32683e-07,5.92931e-06,0,2.4074e-06,-9.63664e+08,-9.63286e+08,-9.63693e+08,165148,0.0104233,0.148838,0,0.149202,-10856.8,-35094.1,-0,36735.1,165148
step02_gravity_refstate-crust.xmf,1303,6.90067e-07,6.17232e-06,0,2.77364e-06,-9.76183e+08,-9.75806e+08,-9.7623e+08,190272,0.0123874,0.152632,0,0.153134,-10091.1,-35551.2,-0,36955.7,190272
step02_gravity_refstate-crust.xmf,1304,3.33787e-07,5.00588e-06,0,1.07524e-06,-9.92144e+08,-9.91824e+08,-9.92167e+08,73761.5,0.00926463,0.096364,0,0.0968083,-19669.7,-36129.1,-0,41136.5,73761.5
step02_gravity_refstate-crust.xmf,1305,4.44309e-07,4.83622e-06,0,7.53494e-07,-1.03015e+09,-1.02985e+09,-1.03018e+09,51689.7,0.00899463,0.0776618,0,0.0781809,-23909.2,-37512.8,-0,44484.4,51689.7
step02_gravity_refstate-crust.xmf,1306,3.81319e-07,4.97889e-06,0,9.85224e-07,-1.01012e+09,-1.0098e+09,-1.01015e+09,67586.4,0.00955048,0.0889813,0,0.0894924,-20954.7,-36783.6,-0,42333.6,67586.4
step02_gravity_refstate-crust.xmf,1307,4.23021e-07,4.94969e-06,0,8.81006e-07,-1.0296e+09,-1.02929e+09,-1.02963e+09,60437,0.00964311,0.0815174,0,0.0820858,-22362.8,-37493,-0,43655.7,60437
step02_gravity_refstate-crust.xmf,1308,5.51779e-07,4.62623e-06,0,4.59282e-07,-1.05502e+09,-1.05474e+09,-1.05506e+09,31506.7,0.00728375,0.065062,0,0.0654684,-28497.7,-38418.4,-0,47834,31506.7
step02_gravity_refstate-crust.xmf,1309,-2.43292e-07,8.63035e-07,0,-1.37078e-06,-2.00914e+08,-2.00838e+08,-2.00898e+08,-94035.4,0.0172974,0.187384,0,0.188181,19641.4,-7314.84,0,20959.2,94035.4
step02_gravity_refstate-crust.xmf,1310,-4.23724e-07,6.31606e-07,0,-8.98272e-07,-1.27698e+08,-1.27625e+08,-1.27669e+08,-61621.5,0.0202301,0.182521,0,0.183638,21537.3,-4648.23,0,22033.2,61621.5
step02_gravity_refstate-crust.xmf,1311,-6.73802e-07,6.0934e-07,0,-6.65361e-07,-9.94097e+07,-9.93216e+07,-9.93634e+07,-45643.8,0.0210387,0.177075,0,0.178321,23376.9,-3617.33,0,23655.2,45643.8
step02_gravity_refstate-crust.xmf,1312,-2.78617e-07,1.08723e-06,0,-1.58212e-06,-2.48473e+08,-2.48379e+08,-2.48454e+08,-108534,0.0158572,0.186546,0,0.187219,19420.6,-9046.46,0,21424.3,108534
step02_gravity_refstate-crust.xmf,1313,2.51856e-07,9.52557e-07,0,-2.88436e-06,-4.50913e+08,-4.50865e+08,-4.5093e+08,-197867,0.0161978,0.217556,0,0.218158,10587.2,-16418.4,0,19536,197867
step02_gravity_refstate-crust.xmf,1314,1.98179e-07,1.02156e-06,0,-3.0807e-06,-4.81588e+08,-4.81531e+08,-4.81601e+08,-211336,0.0168294,0.217896,0,0.218545,10317.1,-17535.1,0,20345.1,211336
step02_gravity_refstate-crust.xmf,1315,3.10938e-07,8.26951e-07,0,-3.40659e-06,-5.21906e+08,-5.21871e+08,-5.21928e+08,-233692,0.017613,0.222845,0,0.22354,9215.11,-19003.1,0,21119.5,233692
step02_gravity_refstate-crust.xmf,1316,6.15337e-08,1.19541e-06,0,-2.76806e-06,-4.35655e+08,-4.35577e+08,-4.35659e+08,-189889,0.0161068,0.211703,0,0.212315,11846.2,-15862.5,0,19797.8,189889
step02_gravity_refstate-crust.xmf,1317,3.31258e-08,1.21441e-06,0,-2.59068e-06,-4.06635e+08,-4.06554e+08,-4.06637e+08,-177721,0.0157405,0.208874,0,0.209466,12674.2,-14806,0,19489.8,177721
step02_gravity_refstate-crust.xmf,1318,-6.44096e-08,1.24781e-06,0,-2.29582e-06,-3.56845e+08,-3.56755e+08,-3.56841e+08,-157493,0.015376,0.202308,0,0.202891,14555.5,-12993,0,19511,157493
step02_gravity_refstate-crust.xmf,1319,-1.55642e-07,1.29088e-06,0,-2.11674e-06,-3.32821e+08,-3.32722e+08,-3.3281e+08,-145208,0.0152622,0.196792,0,0.197383,16044.1,-12118,0,20106.2,145208
step02_gravity_refstate-crust.xmf,1320,-2.55133e-07,1.3304e-06,0,-1.94987e-06,-3.15419e+08,-3.1531e+08,-3.15402e+08,-133761,0.0150946,0.190964,0,0.19156,17597.1,-11484.2,0,21013,133761
step02_gravity_refstate-crust.xmf,1321,-9.92413e-07,5.79788e-07,0,-3.75476e-07,-5.9581e+07,-5.94732e+07,-5.95129e+07,-25757.7,0.0222979,0.172085,0,0.173524,25330.1,-2165.99,0,25422.5,25757.7
step02_gravity_refstate-crust.xmf,1322,4.57663e-06,-7.75571e-06,0,-1.83558e-05,-8.51377e+08,-8.52223e+08,-8.51691e+08,-1.25921e+06,0.0144345,0.340672,0,0.340977,2000,-31001.7,0,31066.2,1.25921e+06
step02_gravity_refstate-crust.xmf,1323,2.81623e-06,-5.44913e-06,0,-1.47719e-05,-8.44532e+08,-8.45099e+08,-8.44725e+08,-1.01335e+06,0.0174037,0.321676,0,0.322146,2454.28,-30749,0,30846.8,1.01335e+06
step02_gravity_refstate-crust.xmf,1324,-9.20595e-07,1.35677e-05,0,1.02727e-05,-9.96078e+08,-9.95084e+08,-9.96015e+08,704705,0.0192507,0.241186,0,0.241953,-3852.52,-36280.5,-0,36484.5,704705
step02_gravity_refstate-crust.xmf,1325,8.69981e-07,8.88231e-06,0,5.94972e-06,-9.93214e+08,-9.92664e+08,-9.93273e+08,408151,0.018335,0.19728,0,0.198131,-6028.48,-36176.2,-0,36675.1,408151
step02_gravity_refstate-crust.xmf,1326,1.0422e-06,7.60126e-06,0,4.59633e-06,-9.92514e+08,-9.92064e+08,-9.92585e+08,315308,0.0169724,0.178484,0,0.17929,-7324.26,-36149.4,-0,36884,315308
step02_gravity_refstate-crust.xmf,1327,7.87473e-07,9.98168e-06,0,6.8353e-06,-1.0019e+09,-1.00126e+09,-1.00195e+09,468902,0.0201781,0.204123,0,0.205118,-5456.17,-36493.7,-0,36899.3,468902
step02_gravity_refstate-crust.xmf,1328,-5.43227e-06,2.01874e-05,0,2.01557e-05,-9.88575e+08,-9.86817e+08,-9.88202e+08,1.38268e+06,0.0121117,0.309751,0,0.309987,-2000,-35999.3,-0,36054.8,1.38268e+06
step02_gravity_refstate-crust.xmf,1329,-4.37092e-06,1.93584e-05,0,1.66485e-05,-9.94945e+08,-9.93317e+08,-9.94645e+08,1.14209e+06,0.0154541,0.287009,0,0.287424,-2431.47,-36234.2,-0,36315.7,1.14209e+06
step02_gravity_refstate-crust.xmf,1330,5.67685e-07,5.82262e-06,0,2.27138e-06,-9.76078e+08,-9.75717e+08,-9.76117e+08,155816,0.0114053,0.139762,0,0.140227,-11681.8,-35546.4,-0,37416.7,155816
step02_gravity_refstate-crust.xmf,1331,1.20078e-06,7.20979e-06,0,4.14867e-06,-1.00135e+09,-1.00094e+09,-1.00143e+09,284599,0.0172503,0.166789,0,0.167678,-8086.46,-36471.2,-0,37356.9,284599
step02_gravity_refstate-crust.xmf,1332,8.56724e-07,6.43959e-06,0,3.1711e-06,-9.84334e+08,-9.83951e+08,-9.84392e+08,217538,0.0139094,0.157214,0,0.157828,-9397.54,-35849.1,-0,37060.4,217538
step02_gravity_refstate-crust.xmf,1333,4.2967e-07,5.25802e-06,0,1.37027e-06,-1.00774e+09,-1.00741e+09,-1.00777e+09,94000.9,0.0107643,0.1012,0,0.101771,-17579.8,-36697.5,-0,40691,94000.9
step02_gravity_refstate-crust.xmf,1334,5.29604e-07,4.74688e-06,0,5.6873e-07,-1.05732e+09,-1.05703e+09,-1.05735e+09,39014.9,0.00825946,0.0673339,0,0.0678386,-26761.6,-38502.1,-0,46889.2,39014.9
step02_gravity_refstate-crust.xmf,1335,5.03308e-07,4.89384e-06,0,6.99464e-07,-1.06168e+09,-1.06138e+09,-1.06172e+09,47983.2,0.00926928,0.0698578,0,0.0704701,-24953.8,-38661.3,-0,46015.1,47983.2
step02_gravity_refstate-crust.xmf,1336,-4.01876e-07,8.34248e-07,0,-1.16704e-06,-1.7803e+08,-1.77945e+08,-1.78002e+08,-80058.7,0.0176816,0.181729,0,0.182587,21380.4,-6481.01,0,22341.1,80058.7
step02_gravity_refstate-crust.xmf,1337,-3.36341e-07,1.31694e-06,0,-1.76519e-06,-2.94849e+08,-2.94736e+08,-2.94826e+08,-121092,0.0149352,0.185531,0,0.186131,19163.7,-10735,0,21965.6,121092
step02_gravity_refstate-crust.xmf,1338,1.92999e-07,9.22687e-07,0,-3.81378e-06,-5.68473e+08,-5.68423e+08,-5.68486e+08,-261625,0.0188849,0.224126,0,0.224921,8781.25,-20698,0,22483.7,261625
step02_gravity_refstate-crust.xmf,1339,2.20373e-07,8.14558e-07,0,-4.10122e-06,-5.93422e+08,-5.93381e+08,-5.93437e+08,-281344,0.0195418,0.22707,0,0.22791,8250.07,-21606.3,0,23127.8,281344
step02_gravity_refstate-crust.xmf,1340,1.42343e-07,1.08682e-06,0,-3.26871e-06,-5.08771e+08,-5.08706e+08,-5.08781e+08,-224233,0.0174496,0.218266,0,0.218962,10067.5,-18524.6,0,21083.5,224233
step02_gravity_refstate-crust.xmf,1341,1.44047e-07,1.04924e-06,0,-3.58384e-06,-5.47316e+08,-5.47254e+08,-5.47326e+08,-245851,0.0183678,0.221183,0,0.221944,9343.34,-19927.8,0,22009.4,245851
step02_gravity_refstate-crust.xmf,1342,-1.13157e-07,1.39136e-06,0,-2.50219e-06,-4.00437e+08,-4.00334e+08,-4.00429e+08,-171650,0.0156332,0.20346,0,0.20406,13857.4,-14580,0,20114.8,171650
step02_gravity_refstate-crust.xmf,1343,2.37633e-07,6.91845e-07,0,-4.45759e-06,-6.20457e+08,-6.20426e+08,-6.20474e+08,-305791,0.0202854,0.230504,0,0.231394,7702.51,-22590.4,0,23867.4,305791
step02_gravity_refstate-crust.xmf,1344,3.11555e-07,-1.15806e-06,0,-8.52104e-06,-7.71992e+08,-7.72093e+08,-7.72014e+08,-584543,0.0236079,0.268674,0,0.269709,4374.85,-28104.6,0,28443.1,584543
step02_gravity_refstate-crust.xmf,1345,3.56764e-07,-8.91977e-07,0,-7.84552e-06,-7.56113e+08,-7.56198e+08,-7.56137e+08,-538203,0.0235154,0.262756,0,0.263806,4708.75,-27527.1,0,27926.9,538203
step02_gravity_refstate-crust.xmf,1346,3.76868e-07,-6.26937e-07,0,-7.22691e-06,-7.39728e+08,-7.39797e+08,-7.39754e+08,-495766,0.0232837,0.257248,0,0.2583,5059.94,-26931.1,0,27402.3,495766
step02_gravity_refstate-crust.xmf,1347,2.65169e-07,5.38041e-07,0,-4.80813e-06,-6.42662e+08,-6.42643e+08,-6.4268e+08,-329838,0.0208982,0.234019,0,0.23495,7219.35,-23398.6,0,24487.1,329838
step02_gravity_refstate-crust.xmf,1348,3.42031e-07,-2.82353e-07,0,-6.65433e-06,-7.23239e+08,-7.23282e+08,-7.23263e+08,-456487,0.022976,0.251828,0,0.252874,5453.23,-26331.2,0,26890,456487
step02_gravity_refstate-crust.xmf,1349,2.96063e-07,3.54346e-07,0,-5.19534e-06,-6.63714e+08,-6.6371e+08,-6.63735e+08,-356400,0.0214745,0.237899,0,0.238866,6750.97,-24164.9,0,25090.2,356400
step02_gravity_refstate-crust.xmf,1350,3.23681e-07,-5.82118e-08,0,-6.13132e-06,-7.04587e+08,-7.04613e+08,-7.04609e+08,-420608,0.0225497,0.246712,0,0.24774,5873.2,-25652.4,0,26316.2,420608
step02_gravity_refstate-crust.xmf,1351,3.34688e-07,1.27276e-07,0,-5.63526e-06,-6.84097e+08,-6.84111e+08,-6.8412e+08,-386579,0.0220144,0.242331,0,0.243329,6281.83,-24906.8,0,25686.8,386579
step02_gravity_refstate-crust.xmf,1352,-1.42985e-06,5.41143e-07,0,-7.78827e-09,-135887,-676.221,-37798.6,-534.275,0.0256975,0.169721,0,0.171656,26665.5,0,0,26665.5,534.275
step02_gravity_refstate-crust.xmf,1353,2.55245e-07,-1.42593e-06,0,-9.23334e-06,-7.86969e+08,-7.87084e+08,-7.86986e+08,-633407,0.0235028,0.274955,0,0.275958,4060.36,-28649.2,0,28935.5,633407
step02_gravity_refstate-crust.xmf,1354,2.18702e-07,-1.7114e-06,0,-9.9691e-06,-8.00957e+08,-8.01089e+08,-8.00972e+08,-683880,0.0231358,0.281655,0,0.282604,3761.85,-29157.9,0,29399.5,683880
step02_gravity_refstate-crust.xmf,1355,2.55558e-07,-2.04037e-06,0,-1.07433e-05,-8.14517e+08,-8.14675e+08,-8.14535e+08,-736993,0.022387,0.289047,0,0.289913,3469.6,-29651.2,0,29853.5,736993
step02_gravity_refstate-crust.xmf,1356,4.98399e-07,-2.45618e-06,0,-1.15965e-05,-8.27884e+08,-8.28087e+08,-8.27918e+08,-795521,0.0210548,0.297209,0,0.297953,3186.29,-30138.2,0,30306.1,795521
step02_gravity_refstate-crust.xmf,1357,2.6863e-06,-4.11178e-06,0,-1.6249e-05,-8.57951e+08,-8.58417e+08,-8.58135e+08,-1.11468e+06,0.0146619,0.32562,0,0.32595,2412.02,-31239.1,0,31332,1.11468e+06
step02_gravity_refstate-crust.xmf,1358,1.07697e-06,-2.86563e-06,0,-1.27291e-05,-8.40873e+08,-8.41144e+08,-8.40947e+08,-873217,0.0189809,0.305606,0,0.306195,2934.89,-30612.8,0,30753.1,873217
step02_gravity_refstate-crust.xmf,1359,3.7709e-06,-4.99266e-06,0,-1.96127e-05,-8.65095e+08,-8.65696e+08,-8.65353e+08,-1.34543e+06,0.0118622,0.343864,0,0.344069,2000,-31502.2,0,31565.6,1.34543e+06
step02_gravity_refstate-crust.xmf,1360,-3.08946e-06,1.78867e-05,0,1.38068e-05,-1.00057e+09,-9.99132e+08,-1.00036e+09,947148,0.0182539,0.267123,0,0.267746,-2880.23,-36442,-0,36555.6,947148
step02_gravity_refstate-crust.xmf,1361,-1.77786e-06,1.61146e-05,0,1.16035e-05,-1.00592e+09,-1.00469e+09,-1.0058e+09,796001,0.0204271,0.24917,0,0.250006,-3361.35,-36639.2,-0,36793.1,796001
step02_gravity_refstate-crust.xmf,1362,-6.18879e-08,1.24105e-05,0,8.82437e-06,-1.00325e+09,-1.0024e+09,-1.00325e+09,605352,0.0208253,0.225308,0,0.226268,-4369.29,-36543.4,-0,36803.7,605352
step02_gravity_refstate-crust.xmf,1363,1.22157e-06,8.40307e-06,0,5.4064e-06,-1.00479e+09,-1.0043e+09,-1.00488e+09,370879,0.0193649,0.184039,0,0.185055,-6654.93,-36598.5,-0,37198.6,370879
step02_gravity_refstate-crust.xmf,1364,5.79901e-07,1.13545e-05,0,7.80717e-06,-1.01105e+09,-1.01031e+09,-1.01109e+09,535572,0.021856,0.210651,0,0.211782,-4913.24,-36828.1,-0,37154.4,535572
step02_gravity_refstate-crust.xmf,1365,4.91461e-07,5.40451e-06,0,1.57968e-06,-1.01237e+09,-1.01203e+09,-1.0124e+09,108366,0.0115429,0.105656,0,0.106284,-16322.1,-36866.5,-0,40318.1,108366
step02_gravity_refstate-crust.xmf,1366,5.67106e-07,5.55097e-06,0,1.81094e-06,-1.01524e+09,-1.01489e+09,-1.01528e+09,124230,0.0122929,0.110753,0,0.111433,-15126.6,-36971.6,-0,39946.4,124230
step02_gravity_refstate-crust.xmf,1367,6.2842e-07,5.69644e-06,0,2.08327e-06,-1.00293e+09,-1.00259e+09,-1.00298e+09,142912,0.0125958,0.122739,0,0.123384,-13398.1,-36524.2,-0,38904,142912
step02_gravity_refstate-crust.xmf,1368,6.11313e-07,5.7465e-06,0,2.17151e-06,-9.89586e+08,-9.89234e+08,-9.89628e+08,148966,0.0121451,0.130938,0,0.1315,-12537.8,-36038.2,-0,38156.9,148966
step02_gravity_refstate-crust.xmf,1369,7.65925e-07,6.06586e-06,0,2.64764e-06,-9.89687e+08,-9.89323e+08,-9.89739e+08,181628,0.0133101,0.143089,0,0.143707,-10863.8,-36043,-0,37644.7,181628
step02_gravity_refstate-crust.xmf,1370,1.08775e-06,6.75951e-06,0,3.59067e-06,-1.00116e+09,-1.00077e+09,-1.00124e+09,246320,0.0161852,0.156989,0,0.157822,-9009.4,-36463.2,-0,37559.7,246320
step02_gravity_refstate-crust.xmf,1371,1.01055e-06,6.41344e-06,0,3.16134e-06,-1.00253e+09,-1.00216e+09,-1.0026e+09,216868,0.0153344,0.147852,0,0.148645,-9948.46,-36512.1,-0,37843.1,216868
step02_gravity_refstate-crust.xmf,1372,4.03195e-07,5.16304e-06,0,1.22837e-06,-1.0091e+09,-1.00878e+09,-1.00913e+09,84266.2,0.0103759,0.09667,0,0.0972252,-18692.4,-36747,-0,41228,84266.2
step02_gravity_refstate-crust.xmf,1373,4.41933e-07,5.19619e-06,0,1.17647e-06,-1.03321e+09,-1.03288e+09,-1.03324e+09,80706,0.0108875,0.0886627,0,0.0893287,-19691.3,-37624.9,-0,42466.2,80706
step02_gravity_refstate-crust.xmf,1374,4.81843e-07,5.03234e-06,0,8.36878e-07,-1.06412e+09,-1.0638e+09,-1.06415e+09,57409.9,0.0100946,0.0728035,0,0.0735,-23361.2,-38749.9,-0,45247.1,57409.9
step02_gravity_refstate-crust.xmf,1375,4.42646e-07,5.12157e-06,0,1.03517e-06,-1.04254e+09,-1.04222e+09,-1.04257e+09,71012.5,0.0105836,0.0826762,0,0.0833508,-21070.5,-37964.4,-0,43419.6,71012.5
step02_gravity_refstate-crust.xmf,1376,-4.00504e-07,1.07116e-06,0,-1.38512e-06,-2.29011e+08,-2.2891e+08,-2.28983e+08,-95019.5,0.0158291,0.180712,0,0.181404,21172.7,-8337.4,0,22755.1,95019.5
step02_gravity_refstate-crust.xmf,1377,-5.75976e-07,8.04431e-07,0,-9.37176e-07,-1.53177e+08,-1.53082e+08,-1.53137e+08,-64290.3,0.0179645,0.176134,0,0.177048,23240.3,-5575.47,0,23899.7,64290.3
step02_gravity_refstate-crust.xmf,1378,-8.02266e-07,7.79809e-07,0,-7.09487e-07,-1.27778e+08,-1.2767e+08,-1.27723e+08,-48670.8,0.0178156,0.17021,0,0.171139,25397.6,-4649.85,0,25819.7,48670.8
step02_gravity_refstate-crust.xmf,1379,-4.14657e-07,1.27731e-06,0,-1.56138e-06,-2.72475e+08,-2.72359e+08,-2.72446e+08,-107111,0.0147802,0.180208,0,0.180813,20808.1,-9920.01,0,23051.7,107111
step02_gravity_refstate-crust.xmf,1380,-1.19147e-08,1.31798e-06,0,-2.98094e-06,-4.741e+08,-4.74009e+08,-4.741e+08,-204492,0.0167731,0.212019,0,0.212682,11450.4,-17262.1,0,20714.5,204492
step02_gravity_refstate-crust.xmf,1381,-8.08784e-08,1.41482e-06,0,-3.18117e-06,-5.06741e+08,-5.06638e+08,-5.06735e+08,-218228,0.0174321,0.212575,0,0.213288,11061.5,-18450.3,0,21512,218228
step02_gravity_refstate-crust.xmf,1382,-7.32433e-08,1.38073e-06,0,-3.41975e-06,-5.35698e+08,-5.35598e+08,-5.35693e+08,-234595,0.0181085,0.215373,0,0.216133,10347.5,-19504.5,0,22079.3,234595
step02_gravity_refstate-crust.xmf,1383,-1.60664e-07,1.50243e-06,0,-2.68101e-06,-4.36372e+08,-4.36258e+08,-4.36361e+08,-183918,0.0160459,0.204475,0,0.205103,13265.3,-15888.2,0,20698,183918
step02_gravity_refstate-crust.xmf,1384,-2.72013e-07,1.59133e-06,0,-2.38705e-06,-3.98867e+08,-3.98739e+08,-3.98848e+08,-163751,0.0153482,0.196703,0,0.197301,15298.7,-14522.5,0,21093.9,163751
step02_gravity_refstate-crust.xmf,1385,-2.45607e-07,1.49189e-06,0,-2.23472e-06,-3.68798e+08,-3.68679e+08,-3.68782e+08,-153302,0.015152,0.195192,0,0.19578,15994,-13427.8,0,20883.3,153302
step02_gravity_refstate-crust.xmf,1386,-3.34386e-07,1.56553e-06,0,-2.10368e-06,-3.60116e+08,-3.59986e+08,-3.60093e+08,-144312,0.0148048,0.189891,0,0.190467,17297.9,-13111.5,0,21705.5,144312
step02_gravity_refstate-crust.xmf,1387,-4.26664e-07,1.61323e-06,0,-1.90996e-06,-3.46779e+08,-3.46639e+08,-3.4675e+08,-131023,0.014236,0.183085,0,0.183637,19084.7,-12625.6,0,22883,131023
step02_gravity_refstate-crust.xmf,1388,-1.00119e-06,7.09239e-07,0,-4.86543e-07,-9.20786e+07,-9.19613e+07,-9.201e+07,-33376.9,0.0188347,0.167927,0,0.16898,26566,-3349.26,0,26776.3,33376.9
step02_gravity_refstate-crust.xmf,1389,-1.26305e-06,6.7182e-07,0,-3.006e-07,-5.67749e+07,-5.66421e+07,-5.66882e+07,-20621.2,0.0196755,0.165603,0,0.166768,27833.7,-2062.88,0,27910,20621.2
step02_gravity_refstate-crust.xmf,1390,1.62553e-06,-2.93812e-06,0,-1.39954e-05,-8.51682e+08,-8.51995e+08,-8.51794e+08,-960086,0.0167209,0.312203,0,0.31265,2764.29,-31008.4,0,31131.3,960086
step02_gravity_refstate-crust.xmf,1391,2.12232e-06,-1.8461e-06,0,-1.71078e-05,-8.72012e+08,-8.72284e+08,-8.72158e+08,-1.17359e+06,0.0116992,0.326326,0,0.326535,2432.8,-31752.2,0,31845.3,1.17359e+06
step02_gravity_refstate-crust.xmf,1392,2.82832e-06,-2.21519e-06,0,-2.05765e-05,-8.78817e+08,-8.79163e+08,-8.79011e+08,-1.41155e+06,0.0091738,0.345668,0,0.34579,2000,-32002.2,0,32064.7,1.41155e+06
step02_gravity_refstate-crust.xmf,1393,-6.30738e-07,1.44946e-05,0,9.91704e-06,-1.01209e+09,-1.01105e+09,-1.01205e+09,680309,0.0220314,0.23291,0,0.23395,-3854.84,-36866.1,-0,37067.1,680309
step02_gravity_refstate-crust.xmf,1394,1.10145e-06,9.36886e-06,0,6.26041e-06,-1.00887e+09,-1.00831e+09,-1.00895e+09,429464,0.0206614,0.193117,0,0.194219,-5963.11,-36748,-0,37228.6,429464
step02_gravity_refstate-crust.xmf,1395,1.30617e-06,7.80872e-06,0,4.80419e-06,-1.00968e+09,-1.00923e+09,-1.00977e+09,329568,0.0189801,0.172551,0,0.173591,-7410.86,-36775.7,-0,37514.9,329568
step02_gravity_refstate-crust.xmf,1396,1.06578e-06,1.04225e-05,0,6.96807e-06,-1.01889e+09,-1.01824e+09,-1.01896e+09,478010,0.0222815,0.197229,0,0.198484,-5488.79,-37114,-0,37517.7,478010
step02_gravity_refstate-crust.xmf,1397,-6.22758e-06,2.2951e-05,0,1.90571e-05,-1.00228e+09,-1.00028e+09,-1.00185e+09,1.30731e+06,0.0145118,0.298968,0,0.29932,-2000,-36499.4,-0,36554.2,1.30731e+06
step02_gravity_refstate-crust.xmf,1398,-4.64853e-06,2.13709e-05,0,1.54801e-05,-1.00867e+09,-1.00688e+09,-1.00835e+09,1.06193e+06,0.018033,0.276516,0,0.277103,-2438.88,-36735.9,-0,36816.7,1.06193e+06
step02_gravity_refstate-crust.xmf,1399,6.24024e-07,5.68257e-06,0,2.02241e-06,-1.01629e+09,-1.01594e+09,-1.01633e+09,138737,0.0129043,0.115552,0,0.11627,-14169.6,-37010.3,-0,39630,138737
step02_gravity_refstate-crust.xmf,1400,8.1012e-07,5.97946e-06,0,2.5331e-06,-1.00277e+09,-1.00241e+09,-1.00282e+09,173771,0.0137964,0.133989,0,0.134698,-11686.1,-36519.3,-0,38343.5,173771
step02_gravity_refstate-crust.xmf,1401,1.32576e-06,7.17311e-06,0,4.14874e-06,-1.02005e+09,-1.01965e+09,-1.02014e+09,284604,0.0182956,0.156198,0,0.157266,-8613.15,-37152.3,-0,38137.6,284604
step02_gravity_refstate-crust.xmf,1402,4.69932e-07,5.35419e-06,0,1.3809e-06,-1.03739e+09,-1.03706e+09,-1.03742e+09,94729.8,0.0116537,0.0927835,0,0.0935125,-18274.8,-37777.5,-0,41965.5,94729.8
step02_gravity_refstate-crust.xmf,1403,5.09916e-07,5.50154e-06,0,1.59594e-06,-1.03949e+09,-1.03914e+09,-1.03952e+09,109481,0.0123273,0.0973302,0,0.0981077,-17003.6,-37854.1,-0,41497.7,109481
step02_gravity_refstate-crust.xmf,1404,4.58454e-07,5.17243e-06,0,9.86155e-07,-1.0664e+09,-1.06607e+09,-1.06643e+09,67650.2,0.0108477,0.0760495,0,0.0768193,-21856.5,-38833.1,-0,44561.4,67650.2
step02_gravity_refstate-crust.xmf,1405,-5.29241e-07,1.03291e-06,0,-1.19006e-06,-2.08711e+08,-2.08604e+08,-2.08674e+08,-81638,0.0157277,0.175387,0,0.17609,22907.7,-7597.78,0,24134.8,81638
step02_gravity_refstate-crust.xmf,1406,-4.46831e-07,1.50107e-06,0,-1.72007e-06,-3.16796e+08,-3.16663e+08,-3.16766e+08,-117997,0.0140971,0.179707,0,0.180259,20353.1,-11533.8,0,23394,117997
step02_gravity_refstate-crust.xmf,1407,-1.40352e-07,1.44642e-06,0,-3.65407e-06,-5.65039e+08,-5.6493e+08,-5.65029e+08,-250669,0.0188203,0.216527,0,0.217343,9932.52,-20572.5,0,22844.7,250669
step02_gravity_refstate-crust.xmf,1408,-1.60435e-07,1.41451e-06,0,-3.92952e-06,-5.917e+08,-5.91592e+08,-5.91689e+08,-269565,0.0195261,0.219236,0,0.220104,9339.31,-21543,0,23480.3,269565
step02_gravity_refstate-crust.xmf,1409,-1.62667e-07,1.33978e-06,0,-4.25052e-06,-6.18125e+08,-6.18021e+08,-6.18113e+08,-291586,0.0202553,0.22268,0,0.223599,8702.12,-22504.9,0,24128.7,291586
step02_gravity_refstate-crust.xmf,1410,-2.14686e-07,1.60818e-06,0,-2.86149e-06,-4.70247e+08,-4.70122e+08,-4.70232e+08,-196298,0.0165675,0.205437,0,0.206103,12710.2,-17121.4,0,21323.5,196298
step02_gravity_refstate-crust.xmf,1411,-3.2157e-07,1.72545e-06,0,-2.55841e-06,-4.34935e+08,-4.34794e+08,-4.34913e+08,-175507,0.0157106,0.197862,0,0.198485,14605.5,-15835.6,0,21542.7,175507
step02_gravity_refstate-crust.xmf,1412,-1.89144e-07,1.27889e-06,0,-4.58885e-06,-6.42386e+08,-6.42286e+08,-6.42374e+08,-314795,0.0209254,0.225933,0,0.226899,8160.91,-23387.9,0,24770.9,314795
step02_gravity_refstate-crust.xmf,1413,-5.90378e-07,2.70211e-07,0,-8.44073e-06,-7.87511e+08,-7.87452e+08,-7.87471e+08,-579034,0.0233853,0.263369,0,0.264406,4696.29,-28668.2,0,29050.3,579034
step02_gravity_refstate-crust.xmf,1414,-4.83931e-07,3.6647e-07,0,-7.85417e-06,-7.7215e+08,-7.72092e+08,-7.72117e+08,-538796,0.0235509,0.257814,0,0.258888,5035.3,-28109.5,0,28556.9,538796
step02_gravity_refstate-crust.xmf,1415,-2.68856e-07,5.45501e-07,0,-6.79726e-06,-7.40343e+08,-7.40287e+08,-7.40325e+08,-466292,0.0233281,0.248303,0,0.249396,5720.84,-26952.7,0,27553.1,466292
step02_gravity_refstate-crust.xmf,1416,-3.85366e-07,4.78124e-07,0,-7.29173e-06,-7.56232e+08,-7.56173e+08,-7.56206e+08,-500212,0.0235067,0.252604,0,0.253695,5391.46,-27530.6,0,28053.5,500212
step02_gravity_refstate-crust.xmf,1417,-2.19398e-07,1.20234e-06,0,-4.94946e-06,-6.646e+08,-6.64503e+08,-6.64585e+08,-339533,0.0215343,0.229424,0,0.230432,7654.13,-24196.4,0,25378.2,339533
step02_gravity_refstate-crust.xmf,1418,-4.12173e-07,9.82549e-07,0,-6.25934e-06,-7.26224e+08,-7.26128e+08,-7.26196e+08,-429390,0.0230055,0.241555,0,0.242648,6280.48,-26438.8,0,27174.5,429390
step02_gravity_refstate-crust.xmf,1419,-2.57009e-07,1.11505e-06,0,-5.33793e-06,-6.8534e+08,-6.85246e+08,-6.85323e+08,-366182,0.0220832,0.233156,0,0.234199,7177.37,-24951.2,0,25963,366182
step02_gravity_refstate-crust.xmf,1420,-3.1417e-07,1.02985e-06,0,-5.76927e-06,-7.05601e+08,-7.05509e+08,-7.05579e+08,-395772,0.0225792,0.237192,0,0.238264,6720.41,-25688.4,0,26553,395772
step02_gravity_refstate-crust.xmf,1421,-9.98685e-07,8.46971e-07,0,-5.78856e-07,-1.26112e+08,-1.25985e+08,-1.26044e+08,-39709.5,0.0157838,0.163943,0,0.164701,27733.8,-4588.51,0,28110.8,39709.5
step02_gravity_refstate-crust.xmf,1422,-1.69226e-06,6.42839e-07,0,-8.75532e-09,-160724,-535.419,-44634.2,-600.615,0.0218277,0.163984,0,0.16543,29148.2,0,0,29148.2,600.615
step02_gravity_refstate-crust.xmf,1423,-6.59456e-07,1.42937e-07,0,-9.04534e-06,-8.01725e+08,-8.0167e+08,-8.0168e+08,-620510,0.0229673,0.269355,0,0.270332,4370.52,-29185.2,0,29510.6,620510
step02_gravity_refstate-crust.xmf,1424,-6.63233e-07,2.01994e-09,0,-9.65942e-06,-8.15177e+08,-8.15132e+08,-8.15132e+08,-662636,0.0222136,0.275662,0,0.276556,4064.07,-29674.7,0,29951.7,662636
step02_gravity_refstate-crust.xmf,1425,-5.38064e-07,-1.57246e-07,0,-1.03217e-05,-8.28529e+08,-8.28503e+08,-8.28492e+08,-708070,0.0209627,0.282386,0,0.283163,3773.17,-30161,0,30396.1,708070
step02_gravity_refstate-crust.xmf,1426,-1.61262e-07,-4.0365e-07,0,-1.11994e-05,-8.41842e+08,-8.41859e+08,-8.41831e+08,-768277,0.0190671,0.290069,0,0.290695,3479.67,-30646.8,0,30843.7,768277
step02_gravity_refstate-crust.xmf,1427,1.28092e-06,-1.34406e-06,0,-1.44403e-05,-8.63416e+08,-8.63596e+08,-8.63503e+08,-990605,0.0143194,0.310944,0,0.311274,2827.8,-31436.6,0,31563.5,990605
step02_gravity_refstate-crust.xmf,1428,4.64211e-07,-7.22701e-07,0,-1.24938e-05,-8.54164e+08,-8.54245e+08,-8.54196e+08,-857076,0.016654,0.298922,0,0.299385,3183.05,-31097.4,0,31259.9,857076
step02_gravity_refstate-crust.xmf,1429,1.81873e-06,6.04719e-07,0,-2.12896e-05,-8.92528e+08,-8.92612e+08,-8.92653e+08,-1.46047e+06,0.00644669,0.346078,0,0.346138,2000,-32501.7,0,32563.2,1.46047e+06
step02_gravity_refstate-crust.xmf,1430,1.20655e-06,1.05134e-06,0,-1.7415e-05,-8.87298e+08,-8.87309e+08,-8.87381e+08,-1.19467e+06,0.00839349,0.322944,0,0.323054,2521.37,-32309.5,0,32407.7,1.19467e+06
step02_gravity_refstate-crust.xmf,1431,-2.95268e-06,1.92054e-05,0,1.28427e-05,-1.01473e+09,-1.01321e+09,-1.01453e+09,881011,0.0207932,0.257077,0,0.257916,-2894.01,-36960.1,-0,37073.3,881011
step02_gravity_refstate-crust.xmf,1432,-1.48469e-06,1.7037e-05,0,1.10455e-05,-1.02079e+09,-1.01952e+09,-1.02069e+09,757722,0.0226909,0.23999,0,0.24106,-3367.35,-37183.2,-0,37335.4,757722
step02_gravity_refstate-crust.xmf,1433,2.33038e-07,1.30971e-05,0,8.75396e-06,-1.01959e+09,-1.01871e+09,-1.01961e+09,600522,0.0231101,0.217638,0,0.218861,-4371.75,-37140.5,-0,37396.9,600522
step02_gravity_refstate-crust.xmf,1434,1.41373e-06,7.69668e-06,0,4.72065e-06,-1.02207e+09,-1.02164e+09,-1.02216e+09,323836,0.0194845,0.164092,0,0.165245,-7828.06,-37227,-0,38041.1,323836
step02_gravity_refstate-crust.xmf,1435,1.44575e-06,8.40804e-06,0,5.40313e-06,-1.02417e+09,-1.02369e+09,-1.02427e+09,370655,0.0207276,0.172918,0,0.174156,-7039.78,-37304.7,-0,37963.1,370655
step02_gravity_refstate-crust.xmf,1436,1.37752e-06,9.4342e-06,0,6.24497e-06,-1.02571e+09,-1.02516e+09,-1.02581e+09,428405,0.0219846,0.183699,0,0.18501,-6203.45,-37362.3,-0,37873.8,428405
step02_gravity_refstate-crust.xmf,1437,8.03735e-07,1.19283e-05,0,7.95769e-06,-1.028e+09,-1.02724e+09,-1.02806e+09,545898,0.0235768,0.203433,0,0.204794,-4913.82,-37447.2,-0,37768.2,545898
step02_gravity_refstate-crust.xmf,1438,5.68155e-07,5.66703e-06,0,1.85102e-06,-1.04194e+09,-1.04159e+09,-1.04197e+09,126980,0.0130626,0.102311,0,0.103142,-15747.4,-37943.8,-0,41081.7,126980
step02_gravity_refstate-crust.xmf,1439,6.33415e-07,5.84975e-06,0,2.15584e-06,-1.0435e+09,-1.04314e+09,-1.04355e+09,147890,0.0138759,0.108339,0,0.109224,-14449.2,-38001.3,-0,40655.7,147890
step02_gravity_refstate-crust.xmf,1440,7.20527e-07,5.90012e-06,0,2.3237e-06,-1.03057e+09,-1.03021e+09,-1.03062e+09,159406,0.0140823,0.116728,0,0.117575,-13427.5,-37531,-0,39860.6,159406
step02_gravity_refstate-crust.xmf,1441,7.74738e-07,5.93102e-06,0,2.43357e-06,-1.01694e+09,-1.01659e+09,-1.017e+09,166943,0.0140655,0.1251,0,0.125888,-12540.5,-37035.1,-0,39100.7,166943
step02_gravity_refstate-crust.xmf,1442,9.84051e-07,6.27927e-06,0,2.98654e-06,-1.01553e+09,-1.01517e+09,-1.0156e+09,204876,0.0154564,0.137436,0,0.138302,-10843.2,-36985.1,-0,38541.8,204876
step02_gravity_refstate-crust.xmf,1443,1.21007e-06,6.79653e-06,0,3.68528e-06,-1.01863e+09,-1.01825e+09,-1.01871e+09,252810,0.017253,0.149169,0,0.150163,-9373.73,-37099.6,-0,38265.5,252810
step02_gravity_refstate-crust.xmf,1444,4.59877e-07,5.32587e-06,0,1.16891e-06,-1.06793e+09,-1.0676e+09,-1.06796e+09,80187.2,0.0115424,0.0797942,0,0.0806247,-20402.1,-38889.2,-0,43916,80187.2
step02_gravity_refstate-crust.xmf,1445,-5.33984e-07,1.3005e-06,0,-1.3792e-06,-2.63765e+08,-2.63639e+08,-2.63728e+08,-94613.4,0.0140921,0.173669,0,0.17424,22727.2,-9602.48,0,24672.5,94613.4
step02_gravity_refstate-crust.xmf,1446,-6.63175e-07,1.00856e-06,0,-9.94851e-07,-1.90624e+08,-1.90509e+08,-1.90578e+08,-68246.8,0.0153493,0.1702,0,0.170891,24718.8,-6938.73,0,25674.3,68246.8
step02_gravity_refstate-crust.xmf,1447,-5.07996e-07,1.50824e-06,0,-1.58485e-06,-3.08681e+08,-3.08543e+08,-3.08646e+08,-108721,0.0136255,0.175252,0,0.175781,21644.9,-11238.1,0,24388.5,108721
step02_gravity_refstate-crust.xmf,1448,-5.34462e-07,1.7396e-06,0,-1.74396e-06,-3.53421e+08,-3.53265e+08,-3.53384e+08,-119636,0.0132763,0.175429,0,0.175931,20898.6,-12867.2,0,24542.1,119636
step02_gravity_refstate-crust.xmf,1449,-2.90021e-07,1.73433e-06,0,-3.04132e-06,-5.03464e+08,-5.03325e+08,-5.03444e+08,-208634,0.0171532,0.205957,0,0.20667,12248.2,-18330.6,0,22046.1,208634
step02_gravity_refstate-crust.xmf,1450,-3.54292e-07,1.82667e-06,0,-3.23364e-06,-5.33791e+08,-5.33641e+08,-5.33766e+08,-221828,0.0177783,0.20712,0,0.207881,11713.3,-19434.6,0,22691.5,221828
step02_gravity_refstate-crust.xmf,1451,-4.10148e-07,1.88925e-06,0,-3.46188e-06,-5.63688e+08,-5.6353e+08,-5.6366e+08,-237485,0.0184797,0.209086,0,0.209901,11076.1,-20522.9,0,23321,237485
step02_gravity_refstate-crust.xmf,1452,-3.86698e-07,1.86668e-06,0,-2.72518e-06,-4.69995e+08,-4.6984e+08,-4.69968e+08,-186947,0.0161791,0.198677,0,0.199334,13993.2,-17112,0,22104.9,186947
step02_gravity_refstate-crust.xmf,1453,-3.96858e-07,1.75069e-06,0,-2.25066e-06,-3.98061e+08,-3.97914e+08,-3.98034e+08,-154395,0.0148622,0.190044,0,0.190624,16749.3,-14492.9,0,22149.1,154395
step02_gravity_refstate-crust.xmf,1454,-4.53256e-07,1.91222e-06,0,-2.40714e-06,-4.3412e+08,-4.33958e+08,-4.34089e+08,-165130,0.0151556,0.190988,0,0.191588,16030.7,-15805.7,0,22512.3,165130
step02_gravity_refstate-crust.xmf,1455,-4.92578e-07,1.86405e-06,0,-2.08061e-06,-3.95015e+08,-3.94854e+08,-3.94982e+08,-142730,0.0141648,0.183181,0,0.183727,18339.7,-14381.8,0,23306.3,142730
step02_gravity_refstate-crust.xmf,1456,-6.93381e-07,1.31891e-06,0,-6.45013e-06,-7.42013e+08,-7.41875e+08,-7.41965e+08,-442479,0.0230804,0.241455,0,0.242556,6236.58,-27013,0,27723.5,442479
step02_gravity_refstate-crust.xmf,1457,-8.05342e-07,1.01715e-06,0,-8.2224e-07,-1.80549e+08,-1.80424e+08,-1.80494e+08,-56405.7,0.0142515,0.164669,0,0.165285,26750.5,-6571.39,0,27545.9,56405.7
step02_gravity_refstate-crust.xmf,1458,-1.47498e-06,7.61124e-07,0,-2.28901e-07,-5.92853e+07,-5.91319e+07,-5.91841e+07,-15702.6,0.0156354,0.159432,0,0.160197,30677.2,-2153.55,0,30752.7,15702.6
step02_gravity_refstate-crust.xmf,1459,-1.15332e-06,8.94407e-07,0,-4.57502e-07,-1.24085e+08,-1.23944e+08,-1.24006e+08,-31384.6,0.0134346,0.158826,0,0.159393,30001,-4514.15,0,30338.7,31384.6
step02_gravity_refstate-crust.xmf,1460,-1.89999e-06,7.23118e-07,0,-7.6342e-09,-180394,-448.644,-50054.6,-523.706,0.0172231,0.159189,0,0.160118,31715.7,0,0,31715.7,523.706
step02_gravity_refstate-crust.xmf,1461,7.96009e-07,2.7627e-06,0,-1.90148e-05,-8.99978e+08,-8.99843e+08,-9.00033e+08,-1.30442e+06,0.00532754,0.329181,0,0.329225,2355.97,-32772.1,0,32856.7,1.30442e+06
step02_gravity_refstate-crust.xmf,1462,7.57549e-07,3.37444e-06,0,-2.17791e-05,-9.06239e+08,-9.06059e+08,-9.06291e+08,-1.49405e+06,0.00371642,0.345093,0,0.345113,2000,-33000.8,0,33061.4,1.49405e+06
step02_gravity_refstate-crust.xmf,1463,9.11028e-07,3.96516e-07,0,-1.48509e-05,-8.75576e+08,-8.75611e+08,-8.75638e+08,-1.01877e+06,0.0115643,0.309579,0,0.309795,2872.46,-31880.5,0,32009.7,1.01877e+06
step02_gravity_refstate-crust.xmf,1464,-3.35739e-07,1.51956e-05,0,9.72394e-06,-1.02769e+09,-1.02663e+09,-1.02767e+09,667062,0.0238475,0.22434,0,0.225604,-3859.32,-37436.4,-0,37634.8,667062
step02_gravity_refstate-crust.xmf,1465,1.19283e-06,1.08993e-05,0,7.25858e-06,-1.03682e+09,-1.03616e+09,-1.0369e+09,497938,0.0233998,0.189802,0,0.191239,-5517.21,-37768.3,-0,38169.1,497938
step02_gravity_refstate-crust.xmf,1466,-6.88513e-06,2.56807e-05,0,1.76338e-05,-1.01598e+09,-1.01375e+09,-1.01551e+09,1.20968e+06,0.0167028,0.286806,0,0.287292,-2000,-36999.8,-0,37053.8,1.20968e+06
step02_gravity_refstate-crust.xmf,1467,-4.64169e-06,2.30916e-05,0,1.41386e-05,-1.02245e+09,-1.02054e+09,-1.02213e+09,969910,0.02021,0.265234,0,0.266003,-2440.81,-37240.1,-0,37320,969910
step02_gravity_refstate-crust.xmf,1468,1.40224e-06,7.71948e-06,0,4.77701e-06,-1.03959e+09,-1.03916e+09,-1.03969e+09,327703,0.0197061,0.154459,0,0.155711,-8264.44,-37865.1,-0,38756.5,327703
step02_gravity_refstate-crust.xmf,1469,9.28683e-07,6.21511e-06,0,2.85884e-06,-1.02868e+09,-1.02832e+09,-1.02875e+09,196116,0.0154333,0.128518,0,0.129442,-11645.2,-37463.7,-0,39231.8,196116
step02_gravity_refstate-crust.xmf,1470,1.17641e-06,6.71892e-06,0,3.59536e-06,-1.03214e+09,-1.03176e+09,-1.03222e+09,246642,0.0172317,0.140047,0,0.141104,-10032,-37591.1,-0,38906.7,246642
step02_gravity_refstate-crust.xmf,1471,1.30148e-06,7.19833e-06,0,4.19436e-06,-1.03764e+09,-1.03723e+09,-1.03773e+09,287733,0.0185548,0.146852,0,0.14802,-9099.97,-37792.6,-0,38872.8,287733
step02_gravity_refstate-crust.xmf,1472,4.64878e-07,5.46864e-06,0,1.36612e-06,-1.0673e+09,-1.06696e+09,-1.06733e+09,93716.1,0.0121534,0.0842815,0,0.0851533,-19015.6,-38866.5,-0,43268.9,93716.1
step02_gravity_refstate-crust.xmf,1473,4.80921e-07,5.63121e-06,0,1.59483e-06,-1.06834e+09,-1.06798e+09,-1.06837e+09,109405,0.0127849,0.0887859,0,0.0897017,-17686.9,-38904.5,-0,42736.3,109405
step02_gravity_refstate-crust.xmf,1474,5.08012e-07,5.80837e-06,0,1.85624e-06,-1.06959e+09,-1.06923e+09,-1.06963e+09,127338,0.0134136,0.0935549,0,0.0945116,-16422.3,-38950.6,-0,42271,127338
step02_gravity_refstate-crust.xmf,1475,-6.05687e-07,1.21339e-06,0,-1.18895e-06,-2.38832e+08,-2.38707e+08,-2.3879e+08,-81562.3,0.0139919,0.169984,0,0.170558,24169,-8694.33,0,25685.3,81562.3
step02_gravity_refstate-crust.xmf,1476,-5.66932e-07,1.94243e-06,0,-1.89721e-06,-3.92467e+08,-3.92295e+08,-3.92428e+08,-130149,0.0132993,0.176351,0,0.176852,20007,-14288.9,0,24585.6,130149
step02_gravity_refstate-crust.xmf,1477,-5.04505e-07,1.99927e-06,0,-3.7241e-06,-5.96136e+08,-5.95965e+08,-5.96102e+08,-255474,0.0192316,0.210859,0,0.211735,10475.4,-21704,0,24099.7,255474
step02_gravity_refstate-crust.xmf,1478,-4.7352e-07,1.86345e-06,0,-4.02542e-06,-6.17894e+08,-6.17734e+08,-6.17861e+08,-276144,0.0199492,0.215334,0,0.216256,9655.35,-22496,0,24480.5,276144
step02_gravity_refstate-crust.xmf,1479,-5.44203e-07,1.89475e-06,0,-4.31987e-06,-6.42883e+08,-6.42716e+08,-6.42846e+08,-296343,0.0205888,0.217987,0,0.218957,9104.59,-23405.5,0,25114,296343
step02_gravity_refstate-crust.xmf,1480,-4.59553e-07,2.00369e-06,0,-2.88222e-06,-5.01892e+08,-5.01723e+08,-5.0186e+08,-197720,0.0166809,0.199299,0,0.199996,13458,-18273.1,0,22694.1,197720
step02_gravity_refstate-crust.xmf,1481,-5.19878e-07,2.07427e-06,0,-2.56062e-06,-4.69291e+08,-4.69113e+08,-4.69256e+08,-175659,0.0155652,0.191825,0,0.192456,15339.4,-17086.1,0,22961.5,175659
step02_gravity_refstate-crust.xmf,1482,-6.20406e-07,1.91265e-06,0,-4.62932e-06,-6.6557e+08,-6.65396e+08,-6.65527e+08,-317571,0.0211594,0.220879,0,0.22189,8585.34,-24231.2,0,25707.2,317571
step02_gravity_refstate-crust.xmf,1483,-1.2795e-06,1.60887e-06,0,-8.08601e-06,-8.02782e+08,-8.02583e+08,-8.02694e+08,-554700,0.0222688,0.257053,0,0.258016,5018.17,-29223.4,0,29651.1,554700
step02_gravity_refstate-crust.xmf,1484,-9.61177e-07,1.63077e-06,0,-6.6269e-06,-7.55967e+08,-7.55789e+08,-7.55901e+08,-454605,0.0229948,0.241786,0,0.242877,6156.01,-27520.4,0,28200.5,454605
step02_gravity_refstate-crust.xmf,1485,-1.18475e-06,1.6e-06,0,-7.60882e-06,-7.88227e+08,-7.88036e+08,-7.88146e+08,-521965,0.0227675,0.251951,0,0.252978,5358.91,-28693.9,0,29190,521965
step02_gravity_refstate-crust.xmf,1486,-1.06442e-06,1.59589e-06,0,-7.12213e-06,-7.72506e+08,-7.72323e+08,-7.72433e+08,-488578,0.0230021,0.246906,0,0.247975,5733.88,-28122,0,28700.6,488578
step02_gravity_refstate-crust.xmf,1487,-6.98991e-07,1.9147e-06,0,-4.96245e-06,-6.86544e+08,-6.86365e+08,-6.86496e+08,-340424,0.0216673,0.224114,0,0.225159,8082.15,-24994.5,0,26268.7,340424
step02_gravity_refstate-crust.xmf,1488,-1.09694e-06,2.09102e-06,0,-6.05931e-06,-7.46018e+08,-7.45799e+08,-7.45942e+08,-415669,0.0225343,0.23408,0,0.235162,6792.72,-27158.3,0,27994.9,415669
step02_gravity_refstate-crust.xmf,1489,-9.2709e-07,1.97032e-06,0,-5.71799e-06,-7.27453e+08,-7.27255e+08,-7.2739e+08,-392254,0.0224327,0.231242,0,0.232328,7139.89,-26483,0,27428.6,392254
step02_gravity_refstate-crust.xmf,1490,-7.9057e-07,1.91564e-06,0,-5.32987e-06,-7.06871e+08,-7.06685e+08,-7.06816e+08,-365629,0.0221125,0.227718,0,0.228789,7587.97,-25734.1,0,26829.5,365629
step02_gravity_refstate-crust.xmf,1491,-9.41442e-07,1.05169e-06,0,-6.69996e-07,-1.78035e+08,-1.77898e+08,-1.77971e+08,-45961.7,0.0124279,0.15925,0,0.159734,28938,-6479.37,0,29654.5,45961.7
step02_gravity_refstate-crust.xmf,1492,-1.62603e-06,8.13611e-07,0,-1.63085e-07,-5.83513e+07,-5.81839e+07,-5.82397e+07,-11187.6,0.0117911,0.155341,0,0.155788,33185.6,-2119.02,0,33253.2,11187.6
step02_gravity_refstate-crust.xmf,1493,-2.05044e-06,7.79716e-07,0,-6.83918e-09,-194707,-558.041,-54046.5,-469.168,0.0119733,0.155522,0,0.155983,34375.2,0,0,34375.2,469.168
step02_gravity_refstate-crust.xmf,1494,-1.27348e-06,1.489e-06,0,-8.65238e-06,-8.16032e+08,-8.15843e+08,-8.15945e+08,-593554,0.0215602,0.263273,0,0.264154,4655.23,-29705.6,0,30068.2,593554
step02_gravity_refstate-crust.xmf,1495,-1.20667e-06,1.47863e-06,0,-9.17217e-06,-8.29251e+08,-8.29067e+08,-8.29168e+08,-629211,0.0203604,0.268927,0,0.269697,4354.05,-30187.1,0,30499.5,629211
step02_gravity_refstate-crust.xmf,1496,-9.93836e-07,1.47328e-06,0,-9.80237e-06,-8.42837e+08,-8.42668e+08,-8.42769e+08,-672443,0.0185561,0.274947,0,0.275572,4064.96,-30682.6,0,30950.7,672443
step02_gravity_refstate-crust.xmf,1497,-8.92006e-07,7.57974e-06,0,-1.97998e-05,-9.26901e+08,-9.2632e+08,-9.2684e+08,-1.35827e+06,-0.000640475,0.32614,-0,0.32614,2311.25,-33752.9,0,33831.9,1.35827e+06
step02_gravity_refstate-crust.xmf,1498,-1.40766e-06,8.97109e-06,0,-2.20827e-05,-9.33708e+08,-9.32997e+08,-9.33612e+08,-1.51487e+06,-0.00169975,0.338913,-0,0.338917,2000,-34000.8,0,34059.6,1.51487e+06
step02_gravity_refstate-crust.xmf,1499,-3.19691e-07,6.19131e-06,0,-2.20369e-05,-9.19964e+08,-9.19517e+08,-9.19942e+08,-1.51173e+06,0.000999072,0.342706,0,0.342708,2000,-33500.5,0,33560.1,1.51173e+06
step02_gravity_refstate-crust.xmf,1500,-1.4e-07,5.4256e-06,0,-1.86746e-05,-9.13843e+08,-9.13461e+08,-9.13833e+08,-1.28108e+06,0.00221766,0.322723,0,0.322731,2456.24,-33277.2,0,33367.7,1.28108e+06
step02_gravity_refstate-crust.xmf,1501,-5.60472e-07,1.42186e-06,0,-1.08034e-05,-8.56801e+08,-8.56665e+08,-8.56762e+08,-741114,0.0160756,0.282666,0,0.283123,3740.48,-31192.6,0,31416.1,741114
step02_gravity_refstate-crust.xmf,1502,5.5258e-08,1.40751e-06,0,-1.25193e-05,-8.7071e+08,-8.70618e+08,-8.70714e+08,-858822,0.0129832,0.293657,0,0.293943,3346.17,-31701.5,0,31877.6,858822
step02_gravity_refstate-crust.xmf,1503,2.03436e-07,3.79046e-06,0,-1.62662e-05,-9.01218e+08,-9.00972e+08,-9.01232e+08,-1.11586e+06,0.0052603,0.310638,0,0.310683,2796.49,-32816.4,0,32935.4,1.11586e+06
step02_gravity_refstate-crust.xmf,1504,2.45511e-07,2.49805e-06,0,-1.41493e-05,-8.87035e+08,-8.8688e+08,-8.87052e+08,-970641,0.00889698,0.300516,0,0.300647,3109.37,-32298.2,0,32447.6,970641
step02_gravity_refstate-crust.xmf,1505,-2.60859e-06,2.01612e-05,0,1.2034e-05,-1.02878e+09,-1.02722e+09,-1.0286e+09,825529,0.0226137,0.246868,0,0.247902,-2896.88,-37474.5,-0,37586.3,825529
step02_gravity_refstate-crust.xmf,1506,-1.15868e-06,1.77141e-05,0,1.07107e-05,-1.03561e+09,-1.03431e+09,-1.03553e+09,734755,0.0239942,0.23046,0,0.231706,-3372.08,-37725,-0,37875.4,734755
step02_gravity_refstate-crust.xmf,1507,4.10499e-07,1.37373e-05,0,8.85534e-06,-1.03579e+09,-1.03487e+09,-1.03581e+09,607477,0.0243221,0.209946,0,0.21135,-4359.34,-37731.8,-0,37982.8,607477
step02_gravity_refstate-crust.xmf,1508,1.46345e-06,8.37255e-06,0,5.41811e-06,-1.04107e+09,-1.04059e+09,-1.04117e+09,371682,0.0208472,0.162632,0,0.163963,-7466.09,-37920,-0,38648,371682
step02_gravity_refstate-crust.xmf,1509,1.46159e-06,9.20531e-06,0,6.12713e-06,-1.04192e+09,-1.04139e+09,-1.04202e+09,420321,0.0219582,0.171634,0,0.173033,-6690.11,-37952.4,-0,38537.5,420321
step02_gravity_refstate-crust.xmf,1510,8.51196e-07,1.25292e-05,0,8.2342e-06,-1.04572e+09,-1.04492e+09,-1.04578e+09,564866,0.0241071,0.195573,0,0.197053,-4911.33,-38093.4,-0,38408.7,564866
step02_gravity_refstate-crust.xmf,1511,5.267e-07,5.99825e-06,0,2.14512e-06,-1.07096e+09,-1.07059e+09,-1.071e+09,147155,0.0140533,0.0986546,0,0.0996505,-15208,-39000.9,-0,41861.1,147155
step02_gravity_refstate-crust.xmf,1512,6.99386e-07,6.11848e-06,0,2.51207e-06,-1.05438e+09,-1.05401e+09,-1.05443e+09,172328,0.0147743,0.110955,0,0.111935,-13525.4,-38398,-0,40710.4,172328
step02_gravity_refstate-crust.xmf,1513,7.95161e-07,6.22309e-06,0,2.76147e-06,-1.04707e+09,-1.04669e+09,-1.04712e+09,189437,0.0153533,0.11864,0,0.119629,-12506.8,-38132.3,-0,40131,189437
step02_gravity_refstate-crust.xmf,1514,1.03471e-06,6.51656e-06,0,3.28204e-06,-1.03739e+09,-1.03701e+09,-1.03746e+09,225148,0.0165225,0.132029,0,0.133059,-10883.3,-37781.5,-0,39317.8,225148
step02_gravity_refstate-crust.xmf,1515,-5.74474e-07,1.54034e-06,0,-1.44009e-06,-3.06472e+08,-3.06327e+08,-3.06433e+08,-98790.2,0.0128735,0.170113,0,0.1706,23116.5,-11157.5,0,25668.3,98790.2
step02_gravity_refstate-crust.xmf,1516,-6.99183e-07,1.23256e-06,0,-1.04282e-06,-2.34699e+08,-2.34567e+08,-2.34651e+08,-71537.5,0.0130236,0.165006,0,0.165519,25847.9,-8543.54,0,27223.3,71537.5
step02_gravity_refstate-crust.xmf,1517,-6.32607e-07,1.45512e-06,0,-1.25595e-06,-2.84336e+08,-2.84193e+08,-2.84293e+08,-86158.2,0.0124281,0.166124,0,0.166588,24685.5,-10351.2,0,26767.9,86158.2
step02_gravity_refstate-crust.xmf,1518,-5.88393e-07,1.75827e-06,0,-1.57453e-06,-3.48099e+08,-3.47938e+08,-3.48059e+08,-108013,0.012463,0.169826,0,0.170282,22490.3,-12673.2,0,25815.2,108013
step02_gravity_refstate-crust.xmf,1519,-6.22249e-07,2.00177e-06,0,-1.70903e-06,-3.92408e+08,-3.92228e+08,-3.92365e+08,-117239,0.0122822,0.169655,0,0.170099,21714.6,-14286.6,0,25992.9,117239
step02_gravity_refstate-crust.xmf,1520,-5.40504e-07,2.14071e-06,0,-3.04472e-06,-5.32736e+08,-5.32552e+08,-5.32699e+08,-208868,0.0172232,0.200001,0,0.200742,12924.1,-19395.9,0,23307.4,208868
step02_gravity_refstate-crust.xmf,1521,-6.18035e-07,2.25629e-06,0,-3.22707e-06,-5.61929e+08,-5.61731e+08,-5.61886e+08,-221377,0.0178184,0.201302,0,0.202089,12321.1,-20458.6,0,23882.3,221377
step02_gravity_refstate-crust.xmf,1522,-7.08423e-07,2.37966e-06,0,-3.43104e-06,-5.91246e+08,-5.91034e+08,-5.91197e+08,-235369,0.0184382,0.202826,0,0.203662,11702,-21525.7,0,24500.9,235369
step02_gravity_refstate-crust.xmf,1523,-5.94541e-07,2.23214e-06,0,-2.70183e-06,-5.01622e+08,-5.01428e+08,-5.01581e+08,-185345,0.0160076,0.192429,0,0.193094,14732.2,-18263.1,0,23464.4,185345
step02_gravity_refstate-crust.xmf,1524,-5.54109e-07,2.05703e-06,0,-2.22914e-06,-4.33087e+08,-4.32908e+08,-4.33049e+08,-152919,0.0143824,0.183891,0,0.184453,17567.9,-15767.9,0,23606.3,152919
step02_gravity_refstate-crust.xmf,1525,-6.21431e-07,2.24226e-06,0,-2.37056e-06,-4.691e+08,-4.68904e+08,-4.69058e+08,-162620,0.0147299,0.184648,0,0.185235,16802.6,-17079,0,23958.7,162620
step02_gravity_refstate-crust.xmf,1526,-6.24515e-07,2.16627e-06,0,-2.03553e-06,-4.33239e+08,-4.33048e+08,-4.33196e+08,-139638,0.0134279,0.176745,0,0.177254,19182.8,-15773.3,0,24835,139638
step02_gravity_refstate-crust.xmf,1527,-7.91744e-07,1.24903e-06,0,-8.71141e-07,-2.31202e+08,-2.31062e+08,-2.31148e+08,-59760.3,0.0115955,0.159558,0,0.159979,27896,-8415.88,0,29137.8,59760.3
step02_gravity_refstate-crust.xmf,1528,-1.29266e-06,9.21593e-07,0,-3.36846e-07,-1.18836e+08,-1.18684e+08,-1.18747e+08,-23107.6,0.0108446,0.154794,0,0.155174,32283.4,-4322.53,0,32571.5,23107.6
step02_gravity_refstate-crust.xmf,1529,-1.04888e-06,1.07755e-06,0,-5.21598e-07,-1.76066e+08,-1.7592e+08,-1.75994e+08,-35781.6,0.0102594,0.154634,0,0.154974,31182,-6407.27,0,31833.4,35781.6
step02_gravity_refstate-crust.xmf,1530,-1.71447e-06,8.5188e-07,0,-1.03419e-07,-5.99974e+07,-5.98214e+07,-5.98798e+07,-7094.53,0.00738975,0.152342,0,0.152521,35787.5,-2178.65,0,35853.7,7094.53
step02_gravity_refstate-crust.xmf,1531,-2.14287e-06,8.15135e-07,0,-2.4429e-09,-203472,-553.042,-56471.3,-167.583,0.00618935,0.15318,0,0.153305,37134.2,0,0,37134.2,167.583
step02_gravity_refstate-crust.xmf,1532,-1.63022e-06,9.69552e-06,0,-1.89056e-05,-9.38956e+08,-9.38179e+08,-9.38844e+08,-1.29692e+06,-0.00347309,0.316837,-0,0.316856,2433.25,-34192,0,34278.5,1.29692e+06
step02_gravity_refstate-crust.xmf,1533,-2.48273e-06,1.17922e-05,0,-2.19068e-05,-9.4745e+08,-9.4647e+08,-9.47279e+08,-1.50281e+06,-0.00437031,0.333715,-0,0.333743,2000,-34501.1,0,34559,1.50281e+06
step02_gravity_refstate-crust.xmf,1534,-2.13482e-07,1.58748e-05,0,9.74888e-06,-1.0433e+09,-1.0422e+09,-1.04329e+09,668773,0.0245038,0.215781,0,0.217168,-3845.08,-38006.1,-0,38200.1,668773
step02_gravity_refstate-crust.xmf,1535,1.35062e-06,1.01529e-05,0,6.84243e-06,-1.04465e+09,-1.04405e+09,-1.04475e+09,469390,0.0228271,0.178863,0,0.180314,-6065.39,-38052.8,-0,38533.2,469390
step02_gravity_refstate-crust.xmf,1536,1.09633e-06,1.15416e-05,0,7.7624e-06,-1.05801e+09,-1.05729e+09,-1.05808e+09,532501,0.0230833,0.181083,0,0.182548,-5520.48,-38540.1,-0,38933.4,532501
step02_gravity_refstate-crust.xmf,1537,-7.37013e-06,2.83766e-05,0,1.57232e-05,-1.02965e+09,-1.0272e+09,-1.02915e+09,1.07861e+06,0.0185281,0.273313,0,0.273941,-2000,-37499.7,-0,37553,1.07861e+06
step02_gravity_refstate-crust.xmf,1538,-4.06654e-06,2.41294e-05,0,1.28979e-05,-1.0362e+09,-1.03427e+09,-1.03592e+09,884798,0.0216936,0.253225,0,0.254153,-2443.22,-37744.9,-0,37823.9,884798
step02_gravity_refstate-crust.xmf,1539,1.28262e-06,8.46038e-06,0,5.50325e-06,-1.05934e+09,-1.05884e+09,-1.05942e+09,377523,0.0201894,0.152552,0,0.153882,-7882.11,-38584.5,-0,39381.3,377523
step02_gravity_refstate-crust.xmf,1540,5.65339e-07,6.22604e-06,0,2.48212e-06,-1.07359e+09,-1.0732e+09,-1.07363e+09,170274,0.0146884,0.103543,0,0.104579,-14097.9,-39097,-0,41561.2,170274
step02_gravity_refstate-crust.xmf,1541,1.21971e-06,7.83326e-06,0,4.86259e-06,-1.05837e+09,-1.05791e+09,-1.05845e+09,333573,0.0192144,0.144783,0,0.146052,-8711.04,-38548,-0,39520,333573
step02_gravity_refstate-crust.xmf,1542,9.26487e-07,6.60191e-06,0,3.30289e-06,-1.05364e+09,-1.05325e+09,-1.0537e+09,226578,0.0164496,0.124627,0,0.125708,-11368.3,-38372.8,-0,40021.3,226578
step02_gravity_refstate-crust.xmf,1543,1.02312e-06,6.93865e-06,0,3.76668e-06,-1.05607e+09,-1.05567e+09,-1.05614e+09,258394,0.0173241,0.13063,0,0.131774,-10464.5,-38462.2,-0,39860.3,258394
step02_gravity_refstate-crust.xmf,1544,1.13456e-06,7.3162e-06,0,4.26582e-06,-1.0566e+09,-1.05618e+09,-1.05668e+09,292635,0.0182406,0.137546,0,0.13875,-9585.65,-38482.5,-0,39658.4,292635
step02_gravity_refstate-crust.xmf,1545,6.44178e-07,6.47768e-06,0,2.86812e-06,-1.0744e+09,-1.07399e+09,-1.07444e+09,196753,0.0153252,0.109202,0,0.110272,-13025.2,-39127.1,-0,41238.1,196753
step02_gravity_refstate-crust.xmf,1546,-6.31211e-07,1.74403e-06,0,-1.39849e-06,-3.40076e+08,-3.39913e+08,-3.40033e+08,-95936.3,0.0116025,0.164679,0,0.165088,24130.3,-12381,0,27121.2,95936.3
step02_gravity_refstate-crust.xmf,1547,-6.67914e-07,2.23057e-06,0,-1.83658e-06,-4.3283e+08,-4.32631e+08,-4.32784e+08,-125990,0.0123567,0.169921,0,0.170369,20843.1,-15758.4,0,26129.7,125990
step02_gravity_refstate-crust.xmf,1548,-7.16817e-07,2.31013e-06,0,-3.84223e-06,-6.24903e+08,-6.24696e+08,-6.24854e+08,-263577,0.0195598,0.208878,0,0.209791,10439,-22750.9,0,25031.5,263577
step02_gravity_refstate-crust.xmf,1549,-8.10422e-07,2.39647e-06,0,-4.02921e-06,-6.44408e+08,-6.44188e+08,-6.44352e+08,-276404,0.0199701,0.210301,0,0.211247,10038.2,-23460.7,0,25518.1,276404
step02_gravity_refstate-crust.xmf,1550,-9.15892e-07,2.48946e-06,0,-4.27252e-06,-6.66864e+08,-6.6663e+08,-6.66801e+08,-293095,0.0204337,0.212425,0,0.213406,9538.62,-24278,0,26084.6,293095
step02_gravity_refstate-crust.xmf,1551,-8.44309e-07,2.57456e-06,0,-3.60194e-06,-6.20477e+08,-6.20242e+08,-6.20419e+08,-247093,0.0188899,0.203186,0,0.204062,11270.1,-22589.7,0,25244.9,247093
step02_gravity_refstate-crust.xmf,1552,-6.76889e-07,2.38933e-06,0,-2.84276e-06,-5.32469e+08,-5.32258e+08,-5.32422e+08,-195014,0.0164796,0.193049,0,0.193751,14142.9,-19386,0,23996.6,195014
step02_gravity_refstate-crust.xmf,1553,-6.92514e-07,2.41325e-06,0,-2.50518e-06,-5.01938e+08,-5.01725e+08,-5.01891e+08,-171855,0.0151484,0.185485,0,0.186102,16067.7,-18274.5,0,24333.7,171855
step02_gravity_refstate-crust.xmf,1554,-1.01938e-06,2.55939e-06,0,-4.54943e-06,-6.88222e+08,-6.87976e+08,-6.88152e+08,-312091,0.0208722,0.215183,0,0.216193,9008.42,-25055.2,0,26625.5,312091
step02_gravity_refstate-crust.xmf,1555,-1.74456e-06,2.82377e-06,0,-7.56938e-06,-8.19485e+08,-8.19171e+08,-8.19365e+08,-519260,0.0201288,0.249687,0,0.250497,5345.61,-29831.5,0,30306.6,519260
step02_gravity_refstate-crust.xmf,1556,-1.67211e-06,2.70106e-06,0,-7.17048e-06,-8.03604e+08,-8.03304e+08,-8.03489e+08,-491895,0.0212079,0.245212,0,0.246127,5689.95,-29253.4,0,29801.7,491895
step02_gravity_refstate-crust.xmf,1557,-1.36597e-06,2.52062e-06,0,-6.07775e-06,-7.6093e+08,-7.60663e+08,-7.60836e+08,-416934,0.0221144,0.232819,0,0.233867,6793.56,-27700.8,0,28521.7,416934
step02_gravity_refstate-crust.xmf,1558,-1.58014e-06,2.62628e-06,0,-6.78166e-06,-7.89001e+08,-7.88713e+08,-7.88893e+08,-465222,0.0217572,0.240722,0,0.241704,6055.83,-28722,0,29353.5,465222
step02_gravity_refstate-crust.xmf,1559,-1.4536e-06,2.5348e-06,0,-6.41383e-06,-7.73423e+08,-7.7315e+08,-7.73324e+08,-439989,0.0220924,0.23667,0,0.237699,6428.15,-28155.3,0,28879.8,439989
step02_gravity_refstate-crust.xmf,1560,-1.12955e-06,2.62528e-06,0,-4.8535e-06,-7.08651e+08,-7.08394e+08,-7.08574e+08,-332950,0.021247,0.218359,0,0.21939,8479.68,-25798.7,0,27156.5,332950
step02_gravity_refstate-crust.xmf,1561,-1.46087e-06,2.92408e-06,0,-5.50585e-06,-7.51895e+08,-7.51594e+08,-7.51795e+08,-377701,0.0214662,0.224863,0,0.225885,7495.44,-27372.1,0,28379.8,377701
step02_gravity_refstate-crust.xmf,1562,-1.27013e-06,2.73298e-06,0,-5.16734e-06,-7.29153e+08,-7.28878e+08,-7.29066e+08,-354479,0.0214755,0.221513,0,0.222552,7989.06,-26544.6,0,27720.8,354479
step02_gravity_refstate-crust.xmf,1563,-8.82212e-07,1.26646e-06,0,-7.02817e-07,-2.29598e+08,-2.2945e+08,-2.29537e+08,-48213.2,0.00982863,0.154605,0,0.154917,30052.3,-8357.13,0,31192.6,48213.2
step02_gravity_refstate-crust.xmf,1564,-1.39266e-06,9.50313e-07,0,-2.26252e-07,-1.17307e+08,-1.17146e+08,-1.17211e+08,-15520.9,0.00765643,0.151553,0,0.151747,34693.1,-4266.5,0,34954.4,15520.9
step02_gravity_refstate-crust.xmf,1565,-1.782e-06,8.68172e-07,0,-4.2896e-08,-5.64388e+07,-5.6257e+07,-5.63165e+07,-2942.66,0.0037022,0.151063,0,0.151109,37933.9,-2048.84,0,37989.2,2942.66
step02_gravity_refstate-crust.xmf,1566,-2.152e-06,8.16855e-07,0,4.88255e-09,-204413,-750.078,-56786.3,334.943,2.73972e-19,0.152353,0,0.152353,40000,0,0,40000,334.943
step02_gravity_refstate-crust.xmf,1567,-1.60874e-06,2.53894e-06,0,-8.25019e-06,-8.29722e+08,-8.29437e+08,-8.29612e+08,-565963,0.0195546,0.257648,0,0.258389,4883.43,-30204.3,0,30596.5,565963
step02_gravity_refstate-crust.xmf,1568,-1.53139e-06,2.83341e-06,0,-8.51181e-06,-8.43107e+08,-8.42808e+08,-8.43002e+08,-583910,0.0177208,0.260468,0,0.26107,4688.79,-30692.3,0,31048.4,583910
step02_gravity_refstate-crust.xmf,1569,-1.2402e-06,2.92754e-06,0,-9.23099e-06,-8.5755e+08,-8.57264e+08,-8.57465e+08,-633246,0.0153628,0.266645,0,0.267088,4357.03,-31219.5,0,31522.1,633246
step02_gravity_refstate-crust.xmf,1570,-3.51735e-06,1.46456e-05,0,-2.1529e-05,-9.61168e+08,-9.59922e+08,-9.60927e+08,-1.47689e+06,-0.00700457,0.327119,-0,0.327194,2000,-35000.7,0,35057.8,1.47689e+06
step02_gravity_refstate-crust.xmf,1571,-2.46465e-06,1.25992e-05,0,-1.77906e-05,-9.55499e+08,-9.54466e+08,-9.5533e+08,-1.22044e+06,-0.00745685,0.305033,-0,0.305124,2551.21,-34795.4,0,34888.8,1.22044e+06
step02_gravity_refstate-crust.xmf,1572,-9.6621e-07,7.70006e-06,0,-1.69305e-05,-9.27856e+08,-9.27261e+08,-9.2779e+08,-1.16143e+06,-0.00127117,0.306971,-0,0.306974,2749.49,-33787.5,0,33899.2,1.16143e+06
step02_gravity_refstate-crust.xmf,1573,-8.47673e-07,3.13877e-06,0,-1.02696e-05,-8.72009e+08,-8.71736e+08,-8.71951e+08,-704491,0.0124111,0.273785,0,0.274067,4019.23,-31747.8,0,32001.2,704491
step02_gravity_refstate-crust.xmf,1574,-5.15897e-07,6.0716e-06,0,-1.52197e-05,-9.15069e+08,-9.14617e+08,-9.15034e+08,-1.04407e+06,0.00173477,0.299104,0,0.299109,3032.15,-33321.3,0,33459,1.04407e+06
step02_gravity_refstate-crust.xmf,1575,-3.65433e-07,4.67593e-06,0,-1.33084e-05,-9.01475e+08,-9.0113e+08,-9.0145e+08,-912954,0.00515448,0.289703,0,0.289749,3367.76,-32824.9,0,32997.2,912954
step02_gravity_refstate-crust.xmf,1576,-4.85172e-07,3.6062e-06,0,-1.16823e-05,-8.86192e+08,-8.85911e+08,-8.86159e+08,-801404,0.00905396,0.281925,0,0.28207,3678.54,-32266.3,0,32475.3,801404
step02_gravity_refstate-crust.xmf,1577,-2.19786e-06,2.07914e-05,0,1.15565e-05,-1.04332e+09,-1.04175e+09,-1.04317e+09,792775,0.0234072,0.235914,0,0.237072,-2899.21,-38006.6,-0,38117,792775
step02_gravity_refstate-crust.xmf,1578,-1.03355e-06,1.83081e-05,0,1.05902e-05,-1.05096e+09,-1.04964e+09,-1.05089e+09,726485,0.0240308,0.220207,0,0.221514,-3379.48,-38285.6,-0,38434.4,726485
step02_gravity_refstate-crust.xmf,1579,3.16052e-07,1.45714e-05,0,9.1676e-06,-1.05274e+09,-1.05176e+09,-1.05276e+09,628897,0.0242513,0.202349,0,0.203797,-4294.7,-38349.9,-0,38589.6,628897
step02_gravity_refstate-crust.xmf,1580,1.30072e-06,9.23691e-06,0,6.19169e-06,-1.05999e+09,-1.05944e+09,-1.06008e+09,424750,0.0211392,0.160747,0,0.162131,-7095.1,-38609.5,-0,39256,424750
step02_gravity_refstate-crust.xmf,1581,1.24652e-06,1.02324e-05,0,6.94827e-06,-1.0605e+09,-1.05988e+09,-1.06058e+09,476652,0.0220437,0.169578,0,0.171005,-6327.12,-38629.4,-0,39144.1,476652
step02_gravity_refstate-crust.xmf,1582,4.90974e-07,1.37223e-05,0,8.85195e-06,-1.06431e+09,-1.0634e+09,-1.06434e+09,607244,0.0231803,0.189656,0,0.191067,-4720.18,-38770.5,-0,39056.8,607244
step02_gravity_refstate-crust.xmf,1583,6.85461e-07,6.74956e-06,0,3.28226e-06,-1.0747e+09,-1.07429e+09,-1.07475e+09,225163,0.0160111,0.115472,0,0.116577,-11973.3,-39138.9,-0,40929.4,225163
step02_gravity_refstate-crust.xmf,1584,-7.12846e-07,1.47499e-06,0,-1.05656e-06,-2.82498e+08,-2.82348e+08,-2.82449e+08,-72479.7,0.0110028,0.159742,0,0.160121,26869.4,-10284,0,28770.2,72479.7
step02_gravity_refstate-crust.xmf,1585,-6.5244e-07,2.01455e-06,0,-1.52162e-06,-3.89289e+08,-3.89106e+08,-3.89244e+08,-104383,0.0112465,0.163759,0,0.164145,23407.6,-14172.9,0,27364,104383
step02_gravity_refstate-crust.xmf,1586,-6.87988e-07,2.26091e-06,0,-1.63673e-06,-4.32114e+08,-4.31912e+08,-4.32067e+08,-112279,0.0112167,0.163525,0,0.163909,22536.4,-15732.3,0,27484.4,112279
step02_gravity_refstate-crust.xmf,1587,-9.87051e-07,2.77505e-06,0,-3.75189e-06,-6.46448e+08,-6.46189e+08,-6.4638e+08,-257380,0.019189,0.203361,0,0.204264,10904.9,-23534.9,0,25938.5,257380
step02_gravity_refstate-crust.xmf,1588,-7.65611e-07,2.5438e-06,0,-2.98821e-06,-5.61867e+08,-5.6164e+08,-5.61814e+08,-204991,0.0169655,0.193813,0,0.194555,13553.2,-20456.2,0,24538.6,204991
step02_gravity_refstate-crust.xmf,1589,-8.60364e-07,2.69439e-06,0,-3.14923e-06,-5.90382e+08,-5.90139e+08,-5.90323e+08,-216037,0.0174764,0.194945,0,0.195727,12925.8,-21494.2,0,25081.4,216037
step02_gravity_refstate-crust.xmf,1590,-9.77178e-07,2.87726e-06,0,-3.3001e-06,-6.18988e+08,-6.18724e+08,-6.18921e+08,-226387,0.0178854,0.195645,0,0.19646,12376,-22535.4,0,25710.1,226387
step02_gravity_refstate-crust.xmf,1591,-7.70782e-07,2.58208e-06,0,-2.62983e-06,-5.32547e+08,-5.32317e+08,-5.32494e+08,-180407,0.015567,0.18615,0,0.1868,15403.6,-19388.8,0,24762.8,180407
step02_gravity_refstate-crust.xmf,1592,-7.59445e-07,2.55428e-06,0,-2.30109e-06,-5.0361e+08,-5.03382e+08,-5.03558e+08,-157855,0.0141349,0.17851,0,0.179069,17455.6,-18335.3,0,25315.6,157855
step02_gravity_refstate-crust.xmf,1593,-6.91519e-07,2.37209e-06,0,-2.16497e-06,-4.7017e+08,-4.6996e+08,-4.70123e+08,-148517,0.0137038,0.177321,0,0.17785,18357.7,-17117.9,0,25100.4,148517
step02_gravity_refstate-crust.xmf,1594,-7.2942e-07,2.46233e-06,0,-1.95072e-06,-4.72045e+08,-4.71826e+08,-4.71995e+08,-133819,0.0125313,0.170076,0,0.170537,19984.9,-17186.1,0,26358.3,133819
step02_gravity_refstate-crust.xmf,1595,-1.6959e-06,3.23397e-06,0,-5.72638e-06,-7.73447e+08,-7.73109e+08,-7.73331e+08,-392830,0.0209292,0.226583,0,0.227547,7168.06,-28156.3,0,29054.4,392830
step02_gravity_refstate-crust.xmf,1596,-7.69437e-07,1.48198e-06,0,-8.71553e-07,-2.8113e+08,-2.80976e+08,-2.81077e+08,-59788.5,0.0094816,0.154474,0,0.154765,28958,-10234,0,30713.2,59788.5
step02_gravity_refstate-crust.xmf,1597,-1.13653e-06,1.09601e-06,0,-3.71958e-07,-1.74297e+08,-1.74144e+08,-1.74219e+08,-25516.3,0.00768322,0.150818,0,0.151014,33581.3,-6342.55,0,34175.1,25516.3
step02_gravity_refstate-crust.xmf,1598,-9.51573e-07,1.28088e-06,0,-5.29244e-07,-2.29248e+08,-2.29095e+08,-2.29183e+08,-36306.2,0.00769674,0.150239,0,0.150436,32387.1,-8344.13,0,33444.7,36306.2
step02_gravity_refstate-crust.xmf,1599,-1.4413e-06,9.71268e-07,0,-1.07289e-07,-1.19498e+08,-1.19332e+08,-1.19399e+08,-7360,0.00360232,0.149149,0,0.149192,37521.8,-4346.1,0,37772.7,7360
step02_gravity_refstate-crust.xmf,1600,-1.66199e-06,8.96874e-07,0,2.65564e-09,-7.84136e+07,-7.8238e+07,-7.82996e+07,182.177,2.59164e-19,0.149907,0,0.149907,40000,-2849.39,0,40101.4,182.177
step02_gravity_refstate-crust.xmf,1601,-4.49477e-06,1.74115e-05,0,-2.09592e-05,-9.74869e+08,-9.73366e+08,-9.74561e+08,-1.4378e+06,-0.00959318,0.319135,-0,0.319279,2000,-35499.9,0,35556.2,1.4378e+06
step02_gravity_refstate-crust.xmf,1602,-3.37743e-06,1.51494e-05,0,-1.84429e-05,-9.68861e+08,-9.6759e+08,-9.68629e+08,-1.26518e+06,-0.00990963,0.305362,-0,0.305522,2385.17,-35282.1,0,35362.7,1.26518e+06
step02_gravity_refstate-crust.xmf,1603,-1.5307e-06,9.79143e-06,0,-1.55755e-05,-9.42435e+08,-9.41658e+08,-9.4233e+08,-1.06848e+06,-0.0051488,0.293686,-0,0.293731,2967.04,-34319.2,0,34447.3,1.06848e+06
step02_gravity_refstate-crust.xmf,1604,-3.32857e-07,1.65041e-05,0,9.90562e-06,-1.05766e+09,-1.0565e+09,-1.05764e+09,679526,0.023907,0.207719,0,0.20909,-3822.64,-38529.3,-0,38718.5,679526
step02_gravity_refstate-crust.xmf,1605,5.04416e-07,1.28951e-05,0,8.49877e-06,-1.07457e+09,-1.07372e+09,-1.07461e+09,583016,0.0216582,0.178076,0,0.179388,-5197.01,-39142.9,-0,39486.4,583016
step02_gravity_refstate-crust.xmf,1606,-6.48499e-06,2.98698e-05,0,1.26925e-05,-1.04323e+09,-1.04074e+09,-1.04279e+09,870707,0.0197183,0.258522,0,0.259273,-2000,-38000,-0,38052.6,870707
step02_gravity_refstate-crust.xmf,1607,-3.8385e-06,2.47573e-05,0,1.2126e-05,-1.05098e+09,-1.04902e+09,-1.05072e+09,831842,0.0218429,0.240208,0,0.241199,-2437.11,-38284.8,-0,38362.3,831842
step02_gravity_refstate-crust.xmf,1608,9.04969e-07,9.40315e-06,0,6.26962e-06,-1.07887e+09,-1.07828e+09,-1.07893e+09,430096,0.019428,0.150104,0,0.151356,-7495.82,-39295.4,-0,40004,430096
step02_gravity_refstate-crust.xmf,1609,9.07338e-07,8.65151e-06,0,5.57155e-06,-1.07856e+09,-1.07803e+09,-1.07862e+09,382208,0.0187601,0.142432,0,0.143662,-8309.34,-39283.1,-0,40152.3,382208
step02_gravity_refstate-crust.xmf,1610,8.79072e-07,8.03894e-06,0,4.92458e-06,-1.07801e+09,-1.07752e+09,-1.07807e+09,337826,0.0180757,0.135163,0,0.136366,-9157.96,-39262.1,-0,40316,337826
step02_gravity_refstate-crust.xmf,1611,7.72467e-07,7.12374e-06,0,3.79864e-06,-1.07639e+09,-1.07595e+09,-1.07644e+09,260586,0.0166998,0.121718,0,0.122858,-10971.3,-39201.1,-0,40707.5,260586
step02_gravity_refstate-crust.xmf,1612,8.30634e-07,7.53507e-06,0,4.33037e-06,-1.07728e+09,-1.07682e+09,-1.07734e+09,297063,0.0173809,0.128223,0,0.129395,-10049.6,-39234.6,-0,40501.2,297063
step02_gravity_refstate-crust.xmf,1613,-6.74778e-07,1.71743e-06,0,-1.21059e-06,-3.31794e+08,-3.3163e+08,-3.31748e+08,-83046.3,0.0105671,0.159491,0,0.159841,25956.3,-12079.2,0,28629.3,83046.3
step02_gravity_refstate-crust.xmf,1614,-6.70543e-07,1.98174e-06,0,-1.33518e-06,-3.81353e+08,-3.81171e+08,-3.81307e+08,-91593.2,0.0102313,0.158662,0,0.158991,25132.2,-13883.9,0,28712.2,91593.2
step02_gravity_refstate-crust.xmf,1615,-7.37764e-07,2.49966e-06,0,-1.73654e-06,-4.72103e+08,-4.71881e+08,-4.72052e+08,-119127,0.0112909,0.163285,0,0.163675,21675.4,-17188.3,0,27663.3,119127
step02_gravity_refstate-crust.xmf,1616,-1.12126e-06,2.94197e-06,0,-3.92161e-06,-6.69544e+08,-6.69265e+08,-6.69467e+08,-269022,0.0194716,0.204403,0,0.205328,10468,-24375.4,0,26528.1,269022
step02_gravity_refstate-crust.xmf,1617,-1.24013e-06,3.07229e-06,0,-4.11882e-06,-6.90381e+08,-6.90085e+08,-6.90296e+08,-282551,0.0197458,0.206209,0,0.207152,9982.76,-25133.7,0,27043.7,282551
step02_gravity_refstate-crust.xmf,1618,-1.11098e-06,3.08648e-06,0,-3.43453e-06,-6.46565e+08,-6.46277e+08,-6.46489e+08,-235609,0.0181503,0.196032,0,0.196871,11892.5,-23539.1,0,26372.7,235609
step02_gravity_refstate-crust.xmf,1619,-8.59753e-07,2.75787e-06,0,-2.75029e-06,-5.62318e+08,-5.62069e+08,-5.62259e+08,-188670,0.0159682,0.186679,0,0.187361,14779.4,-20472.5,0,25249.9,188670
step02_gravity_refstate-crust.xmf,1620,-8.2595e-07,2.72017e-06,0,-2.41724e-06,-5.32781e+08,-5.32538e+08,-5.32725e+08,-165823,0.0145455,0.179505,0,0.180094,16681.8,-19397.3,0,25583.9,165823
step02_gravity_refstate-crust.xmf,1621,-1.84553e-06,3.67035e-06,0,-7.39109e-06,-8.39943e+08,-8.39565e+08,-8.39817e+08,-507029,0.0171677,0.247373,0,0.247968,5340.76,-30577.2,0,31040.1,507029
step02_gravity_refstate-crust.xmf,1622,-1.33826e-06,3.15074e-06,0,-4.38463e-06,-7.10114e+08,-7.09806e+08,-7.10022e+08,-300786,0.0201194,0.209517,0,0.210481,9371.5,-25851.9,0,27498.1,300786
step02_gravity_refstate-crust.xmf,1623,-1.92318e-06,3.5047e-06,0,-6.70378e-06,-8.15904e+08,-8.15532e+08,-8.15772e+08,-459880,0.0193776,0.238779,0,0.239564,5991.2,-29701.5,0,30299.7,459880
step02_gravity_refstate-crust.xmf,1624,-1.91428e-06,3.52727e-06,0,-6.33252e-06,-8.05938e+08,-8.05564e+08,-8.05806e+08,-434411,0.0197653,0.234014,0,0.234848,6366.79,-29338.7,0,30021.6,434411
step02_gravity_refstate-crust.xmf,1625,-1.81833e-06,3.39778e-06,0,-6.00479e-06,-7.89813e+08,-7.89455e+08,-7.89688e+08,-411928,0.0204843,0.230058,0,0.230968,6769.64,-28751.8,0,29538,411928
step02_gravity_refstate-crust.xmf,1626,-1.47223e-06,3.2915e-06,0,-4.62891e-06,-7.30093e+08,-7.29766e+08,-7.29992e+08,-317543,0.0202532,0.212191,0,0.213155,8861.04,-26578.9,0,28017.1,317543
step02_gravity_refstate-crust.xmf,1627,-1.63054e-06,3.48762e-06,0,-4.86369e-06,-7.50813e+08,-7.50462e+08,-7.50702e+08,-333649,0.0201371,0.214704,0,0.215646,8385.24,-27332.9,0,28590.2,333649
step02_gravity_refstate-crust.xmf,1628,-1.79436e-06,3.73102e-06,0,-5.07072e-06,-7.71391e+08,-7.71012e+08,-7.71268e+08,-347852,0.0196974,0.217025,0,0.217917,7950.78,-28081.8,0,29185.6,347852
step02_gravity_refstate-crust.xmf,1629,-8.23751e-07,1.48555e-06,0,-6.86009e-07,-2.80398e+08,-2.8024e+08,-2.80342e+08,-47060.2,0.00773757,0.149833,0,0.150033,31160.8,-10207.1,0,32790,47060.2
step02_gravity_refstate-crust.xmf,1630,-1.20219e-06,1.10343e-06,0,-2.31428e-07,-1.70856e+08,-1.70698e+08,-1.70773e+08,-15876,0.00510919,0.148402,0,0.14849,35839,-6217.02,0,36374.2,15876
step02_gravity_refstate-crust.xmf,1631,-1.63337e-06,3.96599e-06,0,-7.88541e-06,-8.57879e+08,-8.57495e+08,-8.57767e+08,-540939,0.0143777,0.252012,0,0.252422,4993.92,-31231.5,0,31628.2,540939
step02_gravity_refstate-crust.xmf,1632,-1.33007e-06,4.24294e-06,0,-8.60441e-06,-8.73085e+08,-8.72703e+08,-8.72994e+08,-590263,0.0114633,0.257485,0,0.25774,4653.48,-31786.7,0,32125.5,590263
step02_gravity_refstate-crust.xmf,1633,-5.38766e-06,2.01794e-05,0,-2.01283e-05,-9.8857e+08,-9.86816e+08,-9.882e+08,-1.3808e+06,-0.012113,0.30975,-0,0.309987,2000,-35999.3,0,36054.8,1.3808e+06
step02_gravity_refstate-crust.xmf,1634,-3.90355e-06,1.71443e-05,0,-1.75162e-05,-9.81674e+08,-9.80231e+08,-9.81407e+08,-1.20161e+06,-0.0127598,0.296039,-0,0.296314,2427.27,-35749.6,0,35831.9,1.20161e+06
step02_gravity_refstate-crust.xmf,1635,-2.62217e-06,1.42534e-05,0,-1.53648e-05,-9.71573e+08,-9.70415e+08,-9.71393e+08,-1.05403e+06,-0.0119691,0.284799,-0,0.28505,2863.27,-35382.5,0,35498.2,1.05403e+06
step02_gravity_refstate-crust.xmf,1636,-1.7957e-06,1.17115e-05,0,-1.40789e-05,-9.57693e+08,-9.56766e+08,-9.5757e+08,-965810,-0.00935231,0.279453,-0,0.279609,3191.57,-34876.6,0,35022.4,965810
step02_gravity_refstate-crust.xmf,1637,-1.01109e-06,7.89963e-06,0,-1.38843e-05,-9.29851e+08,-9.29239e+08,-9.29781e+08,-952462,-0.0023282,0.285489,-0,0.285499,3302.46,-33860.3,0,34021,952462
step02_gravity_refstate-crust.xmf,1638,-1.01143e-06,4.68198e-06,0,-9.59466e-06,-8.87769e+08,-8.87378e+08,-8.877e+08,-658194,0.00817456,0.263717,0,0.263844,4311.42,-32323.3,0,32609.5,658194
step02_gravity_refstate-crust.xmf,1639,-7.74216e-07,6.57824e-06,0,-1.23234e-05,-9.16642e+08,-9.16138e+08,-9.16589e+08,-845386,0.000934245,0.277907,0,0.277909,3630.95,-33378.3,0,33575.2,845386
step02_gravity_refstate-crust.xmf,1640,-7.88897e-07,5.44209e-06,0,-1.08552e-05,-9.02468e+08,-9.0204e+08,-9.02414e+08,-744665,0.00454473,0.270538,0,0.270576,3970.26,-32860.5,0,33099.5,744665
step02_gravity_refstate-crust.xmf,1641,-2.27576e-06,2.13718e-05,0,1.12233e-05,-1.05814e+09,-1.05652e+09,-1.05799e+09,769917,0.0227096,0.22457,0,0.225716,-2896.96,-38546.6,-0,38655.3,769917
step02_gravity_refstate-crust.xmf,1642,-1.12822e-06,1.85741e-05,0,1.03333e-05,-1.06763e+09,-1.06628e+09,-1.06755e+09,708863,0.0224623,0.20777,0,0.20898,-3447.36,-38892.4,-0,39044.9,708863
step02_gravity_refstate-crust.xmf,1643,-1.60178e-07,1.58323e-05,0,9.63493e-06,-1.06966e+09,-1.06856e+09,-1.06965e+09,660956,0.022597,0.195908,0,0.197207,-4112.72,-38966,-0,39182.4,660956
step02_gravity_refstate-crust.xmf,1644,6.61349e-07,1.17084e-05,0,7.90944e-06,-1.07954e+09,-1.07878e+09,-1.07958e+09,542587,0.0205782,0.167699,0,0.168957,-5854.04,-39322.5,-0,39755.9,542587
step02_gravity_refstate-crust.xmf,1645,8.4737e-07,1.03504e-05,0,7.02437e-06,-1.07906e+09,-1.07841e+09,-1.07912e+09,481872,0.0200525,0.158269,0,0.159534,-6703.74,-39303.8,-0,39871.4,481872
step02_gravity_refstate-crust.xmf,1646,-7.28944e-08,1.46814e-05,0,9.32964e-06,-1.08287e+09,-1.08186e+09,-1.08286e+09,640013,0.0203257,0.181345,0,0.182481,-4627.93,-39445.3,-0,39715.9,640013
step02_gravity_refstate-crust.xmf,1647,-6.24839e-06,2.91062e-05,0,1.11904e-05,-1.05735e+09,-1.05492e+09,-1.05692e+09,767660,0.0191294,0.24355,0,0.244301,-1992.31,-38513.5,-0,38565,767660
step02_gravity_refstate-crust.xmf,1648,-9.07623e-06,3.55047e-05,0,9.72033e-06,-1.04328e+09,-1.04022e+09,-1.04266e+09,666815,0.0158821,0.27018,0,0.270646,-1499.83,-38000,-0,38029.6,666815
step02_gravity_refstate-crust.xmf,1649,-9.73051e-06,3.58945e-05,0,7.52254e-06,-1.05399e+09,-1.05086e+09,-1.05332e+09,516046,0.0128911,0.261335,0,0.261653,-1201.14,-38387.7,-0,38406.5,516046
step02_gravity_refstate-crust.xmf,1650,-1.05181e-05,3.85533e-05,0,6.52786e-06,-1.04331e+09,-1.03995e+09,-1.04259e+09,447811,0.011034,0.278504,0,0.278723,-1000,-38000,-0,38013.2,447811
step02_gravity_refstate-crust.xmf,1651,-1.0795e-05,3.7757e-05,0,4.78006e-06,-1.05527e+09,-1.05194e+09,-1.05453e+09,327912,0.00823628,0.264717,0,0.264846,-750.086,-38432.9,-0,38440.2,327912
step02_gravity_refstate-crust.xmf,1652,-1.12377e-05,4.01508e-05,0,3.25238e-06,-1.04333e+09,-1.0398e+09,-1.04255e+09,223113,0.00564229,0.283476,0,0.283533,-500.172,-38000,-0,38003.3,223113
step02_gravity_refstate-crust.xmf,1653,-1.12404e-05,3.92539e-05,0,1.93582e-06,-1.05146e+09,-1.04799e+09,-1.05068e+09,132797,0.00348266,0.272768,0,0.272791,-309.225,-38294.6,-0,38295.8,132797
step02_gravity_refstate-crust.xmf,1654,-1.14375e-05,4.06171e-05,0,-3.41159e-08,-1.04333e+09,-1.03976e+09,-1.04254e+09,-2340.35,7.59533e-07,0.28513,0,0.28513,0,-38000,0,38000,2340.35
step02_gravity_refstate-crust.xmf,1655,-7.1203e-07,1.7211e-06,0,-1.02145e-06,-3.31335e+08,-3.31168e+08,-3.31286e+08,-70071.6,0.00920507,0.154068,0,0.154343,27933.1,-12062.4,0,30426.2,70071.6
step02_gravity_refstate-crust.xmf,1656,-6.91391e-07,2.26463e-06,0,-1.44318e-06,-4.31259e+08,-4.31057e+08,-4.31212e+08,-99001.9,0.0100524,0.15767,0,0.157991,24241.5,-15701.1,0,28882.1,99001.9
step02_gravity_refstate-crust.xmf,1657,-7.25753e-07,2.50857e-06,0,-1.53098e-06,-4.72224e+08,-4.72003e+08,-4.72175e+08,-105025,0.0100521,0.157083,0,0.157404,23366.6,-17192.7,0,29010.2,105025
step02_gravity_refstate-crust.xmf,1658,-1.25755e-06,3.30584e-06,0,-3.57287e-06,-6.73453e+08,-6.7314e+08,-6.73366e+08,-245099,0.0182982,0.196549,0,0.197399,11403.9,-24517.8,0,27040.1,245099
step02_gravity_refstate-crust.xmf,1659,-9.56686e-07,2.93701e-06,0,-2.86885e-06,-5.90871e+08,-5.90604e+08,-5.90806e+08,-196803,0.0163367,0.187209,0,0.187921,14177.5,-21511.9,0,25763.6,196803
step02_gravity_refstate-crust.xmf,1660,-1.06205e-06,3.12057e-06,0,-2.99621e-06,-6.18816e+08,-6.18529e+08,-6.18743e+08,-205540,0.0166908,0.187991,0,0.188731,13549.3,-22529.2,0,26289.7,205540
step02_gravity_refstate-crust.xmf,1661,-1.17935e-06,3.3221e-06,0,-3.11793e-06,-6.4639e+08,-6.46082e+08,-6.4631e+08,-213890,0.0169406,0.188672,0,0.189431,12951.7,-23532.9,0,26861.5,213890
step02_gravity_refstate-crust.xmf,1662,-9.08602e-07,2.9059e-06,0,-2.51261e-06,-5.62093e+08,-5.61832e+08,-5.62031e+08,-172365,0.0148485,0.179782,0,0.180394,16047.3,-20464.4,0,26005.9,172365
step02_gravity_refstate-crust.xmf,1663,-8.49919e-07,2.80839e-06,0,-2.23256e-06,-5.3337e+08,-5.33119e+08,-5.33312e+08,-153154,0.0135885,0.173875,0,0.174405,17819,-19418.8,0,26355.4,153154
step02_gravity_refstate-crust.xmf,1664,-8.1302e-07,2.71295e-06,0,-2.07163e-06,-5.13343e+08,-5.13101e+08,-5.13288e+08,-142114,0.0128164,0.170343,0,0.170825,19022.7,-18689.7,0,26667.7,142114
step02_gravity_refstate-crust.xmf,1665,-7.99214e-07,2.73951e-06,0,-1.82063e-06,-5.10482e+08,-5.1024e+08,-5.10427e+08,-124895,0.011398,0.162934,0,0.163332,20835.8,-18585.6,0,27920.6,124895
step02_gravity_refstate-crust.xmf,1666,-1.95067e-06,3.76612e-06,0,-6.79662e-06,-8.28511e+08,-8.28118e+08,-8.28377e+08,-466248,0.0180578,0.240142,0,0.24082,5814.61,-30160.7,0,30716.1,466248
step02_gravity_refstate-crust.xmf,1667,-1.95984e-06,3.98714e-06,0,-5.26809e-06,-7.91126e+08,-7.90718e+08,-7.90992e+08,-361391,0.0189063,0.219278,0,0.220092,7549.51,-28800,0,29773,361391
step02_gravity_refstate-crust.xmf,1668,-7.37956e-07,1.71158e-06,0,-8.29796e-07,-3.30308e+08,-3.3014e+08,-3.30257e+08,-56924,0.00771288,0.149246,0,0.149446,30013,-12024.9,0,32332.3,56924
step02_gravity_refstate-crust.xmf,1669,-8.54607e-07,1.49396e-06,0,-4.96268e-07,-2.82872e+08,-2.82711e+08,-2.82814e+08,-34044,0.00575373,0.145874,0,0.145988,33472.9,-10297.1,0,35020.9,34044
step02_gravity_refstate-crust.xmf,1670,-1.00156e-06,1.29638e-06,0,-3.33633e-07,-2.31128e+08,-2.3097e+08,-2.31059e+08,-22887.2,0.00496986,0.146445,0,0.14653,35145.2,-8412.41,0,36138,22887.2
step02_gravity_refstate-crust.xmf,1671,-1.12514e-06,1.19875e-06,0,-1.32356e-07,-2.00519e+08,-2.00359e+08,-2.00441e+08,-9079.63,0.00241437,0.145782,0,0.145802,37865.5,-7297.38,0,38562.3,9079.63
step02_gravity_refstate-crust.xmf,1672,-1.29838e-06,1.06162e-06,0,1.13648e-09,-1.54427e+08,-1.54265e+08,-1.54338e+08,77.9627,1.74807e-19,0.147191,0,0.147191,40000,-5618.47,0,40392.7,77.9627
step02_gravity_refstate-crust.xmf,1673,-6.22179e-06,2.2939e-05,0,-1.9076e-05,-1.00228e+09,-1.00028e+09,-1.00185e+09,-1.30861e+06,-0.0145139,0.298968,-0,0.29932,2000,-36499.4,0,36554.2,1.30861e+06
step02_gravity_refstate-crust.xmf,1674,-4.46788e-06,1.94232e-05,0,-1.6775e-05,-9.94872e+08,-9.93233e+08,-9.94565e+08,-1.15076e+06,-0.0153352,0.287964,-0,0.288372,2408.34,-36231.3,0,36311.2,1.15076e+06
step02_gravity_refstate-crust.xmf,1675,-1.23891e-06,9.52682e-06,0,-1.26579e-05,-9.44939e+08,-9.442e+08,-9.44854e+08,-868333,-0.00659412,0.272557,-0,0.272637,3540.43,-34411.2,0,34592.8,868333
step02_gravity_refstate-crust.xmf,1676,5.92235e-08,1.33002e-05,0,8.75807e-06,-1.08816e+09,-1.08725e+09,-1.08816e+09,600804,0.0192658,0.170799,0,0.171882,-5262.43,-39636.3,-0,39984.1,600804
step02_gravity_refstate-crust.xmf,1677,-4.2304e-06,2.54221e-05,0,1.10469e-05,-1.06802e+09,-1.06598e+09,-1.06773e+09,757814,0.0197668,0.225557,0,0.226422,-2394.76,-38904.5,-0,38978.2,757814
step02_gravity_refstate-crust.xmf,1678,-8.42898e-06,3.30236e-05,0,9.14993e-06,-1.05894e+09,-1.0561e+09,-1.05836e+09,627685,0.0155983,0.250085,0,0.250571,-1534.35,-38568.8,-0,38599.3,627685
step02_gravity_refstate-crust.xmf,1679,-1.11626e-05,3.87122e-05,0,-2.90354e-08,-1.05621e+09,-1.05279e+09,-1.05545e+09,-1991.83,2.93659e-08,0.266594,0,0.266594,0,-38467.3,0,38467.3,1991.83
step02_gravity_refstate-crust.xmf,1680,-1.08926e-05,3.78778e-05,0,2.10495e-06,-1.06048e+09,-1.05713e+09,-1.05973e+09,144400,0.00373805,0.260011,0,0.260038,-343.983,-38622.3,-0,38623.9,144400
step02_gravity_refstate-crust.xmf,1681,-6.86039e-07,1.96842e-06,0,-1.14531e-06,-3.79159e+08,-3.78977e+08,-3.79112e+08,-78568.4,0.00901067,0.153377,0,0.153641,26985.7,-13803.9,0,30311.3,78568.4
step02_gravity_refstate-crust.xmf,1682,-6.84799e-07,2.22948e-06,0,-1.24842e-06,-4.26593e+08,-4.26393e+08,-4.26546e+08,-85641.6,0.00887598,0.152398,0,0.152656,26055.8,-15531.2,0,30333.5,85641.6
step02_gravity_refstate-crust.xmf,1683,-7.7256e-07,2.74479e-06,0,-1.60822e-06,-5.10708e+08,-5.10467e+08,-5.10655e+08,-110324,0.0100999,0.156546,0,0.156872,22488.1,-18594,0,29179.6,110324
step02_gravity_refstate-crust.xmf,1684,-1.42986e-06,3.46437e-06,0,-4.00861e-06,-7.09702e+08,-7.09366e+08,-7.09604e+08,-274991,0.0190757,0.202575,0,0.203471,10135,-25837,0,27753.7,274991
step02_gravity_refstate-crust.xmf,1685,-1.40464e-06,3.53881e-06,0,-3.7216e-06,-6.99381e+08,-6.99041e+08,-6.99284e+08,-255302,0.0183793,0.197735,0,0.198587,10852.3,-25461.4,0,27677.7,255302
step02_gravity_refstate-crust.xmf,1686,-1.30793e-06,3.55687e-06,0,-3.20602e-06,-6.73682e+08,-6.73349e+08,-6.73593e+08,-219933,0.0169455,0.188723,0,0.189483,12454.2,-24526.3,0,27507.2,219933
step02_gravity_refstate-crust.xmf,1687,-1.00052e-06,3.09994e-06,0,-2.6056e-06,-5.9114e+08,-5.90859e+08,-5.91072e+08,-178744,0.0151184,0.180023,0,0.180657,15419.4,-21521.8,0,26475.4,178744
step02_gravity_refstate-crust.xmf,1688,-9.20829e-07,2.99299e-06,0,-2.28983e-06,-5.6086e+08,-5.60591e+08,-5.60797e+08,-157082,0.0137056,0.173438,0,0.173979,17312.4,-20419.6,0,26770.8,157082
step02_gravity_refstate-crust.xmf,1689,-2.0507e-06,4.19718e-06,0,-6.08351e-06,-8.24977e+08,-8.24548e+08,-8.24836e+08,-417329,0.0173861,0.230777,0,0.231431,6402.96,-30032.3,0,30707.3,417329
step02_gravity_refstate-crust.xmf,1690,-1.98706e-06,4.44707e-06,0,-6.33585e-06,-8.42142e+08,-8.41701e+08,-8.42006e+08,-434639,0.0154469,0.234137,0,0.234646,6041.28,-30657.9,0,31247.4,434639
step02_gravity_refstate-crust.xmf,1691,-1.5648e-06,3.66521e-06,0,-4.15145e-06,-7.29929e+08,-7.2957e+08,-7.29822e+08,-284789,0.0189677,0.203846,0,0.204726,9711.57,-26573.1,0,28292.2,284789
step02_gravity_refstate-crust.xmf,1692,-2.04316e-06,4.30346e-06,0,-5.44251e-06,-8.1147e+08,-8.11034e+08,-8.11329e+08,-373356,0.0176606,0.222093,0,0.222794,7117.41,-29540.8,0,30386.1,373356
step02_gravity_refstate-crust.xmf,1693,-1.70793e-06,3.8861e-06,0,-4.31134e-06,-7.50838e+08,-7.50454e+08,-7.50721e+08,-295758,0.0187061,0.205605,0,0.206454,9241.41,-27334.1,0,28854.1,295758
step02_gravity_refstate-crust.xmf,1694,-1.84345e-06,4.12586e-06,0,-4.46244e-06,-7.71293e+08,-7.70883e+08,-7.71166e+08,-306123,0.0181915,0.207497,0,0.208293,8781.89,-28078.6,0,29419.9,306123
step02_gravity_refstate-crust.xmf,1695,-1.9556e-06,4.38649e-06,0,-4.59e-06,-7.91108e+08,-7.90673e+08,-7.90974e+08,-314874,0.0173416,0.20933,0,0.210047,8352.74,-28800,0,29986.8,314874
step02_gravity_refstate-crust.xmf,1696,-7.61171e-07,1.70312e-06,0,-6.41366e-07,-3.30179e+08,-3.3001e+08,-3.30127e+08,-43997.7,0.00610857,0.145166,0,0.145294,32152.7,-12020.1,0,34326,43997.7
step02_gravity_refstate-crust.xmf,1697,-4.82764e-06,2.15886e-05,0,-1.56514e-05,-1.00845e+09,-1.00664e+09,-1.00812e+09,-1.07369e+06,-0.0178109,0.278066,-0,0.278635,2400.77,-36727.5,0,36805.9,1.07369e+06
step02_gravity_refstate-crust.xmf,1698,-1.82998e-06,4.67093e-06,0,-6.73076e-06,-8.57963e+08,-8.57517e+08,-8.57837e+08,-461730,0.0132064,0.238502,0,0.238868,5658.98,-31234.8,0,31743.3,461730
step02_gravity_refstate-crust.xmf,1699,-1.57766e-06,4.97231e-06,0,-7.23162e-06,-8.73814e+08,-8.73365e+08,-8.73706e+08,-496089,0.0103412,0.242797,0,0.243017,5305.94,-31813.4,0,32252.8,496089
step02_gravity_refstate-crust.xmf,1700,-1.28265e-06,5.3782e-06,0,-7.94267e-06,-8.89069e+08,-8.88613e+08,-8.88982e+08,-544867,0.00710656,0.247755,0,0.247857,4949.9,-32370.6,0,32746.9,544867
step02_gravity_refstate-crust.xmf,1701,-2.93788e-06,1.63125e-05,0,-1.44978e-05,-9.86892e+08,-9.85571e+08,-9.8669e+08,-994547,-0.0154532,0.275551,-0,0.275984,2883.17,-35942.2,0,36057.6,994547
step02_gravity_refstate-crust.xmf,1702,-1.70211e-06,1.28138e-05,0,-1.25191e-05,-9.72436e+08,-9.7144e+08,-9.72319e+08,-858810,-0.0134132,0.264816,-0,0.265155,3431.75,-35415.5,0,35581.3,858810
step02_gravity_refstate-crust.xmf,1703,-1.22926e-06,1.08745e-05,0,-1.15521e-05,-9.59366e+08,-9.58536e+08,-9.59282e+08,-792475,-0.010621,0.260704,-0,0.26092,3745.61,-34938.5,0,35138.7,792475
step02_gravity_refstate-crust.xmf,1704,-9.40064e-07,7.92404e-06,0,-1.12363e-05,-9.31696e+08,-9.31088e+08,-9.31632e+08,-770807,-0.00341225,0.265546,-0,0.265567,3899.28,-33927.8,0,34151.1,770807
step02_gravity_refstate-crust.xmf,1705,-1.0257e-06,5.9812e-06,0,-8.86581e-06,-9.03769e+08,-9.03288e+08,-9.03699e+08,-608194,0.00362437,0.253245,0,0.25327,4597.12,-32907.7,0,33227.3,608194
step02_gravity_refstate-crust.xmf,1706,-8.92119e-07,6.87255e-06,0,-9.95751e-06,-9.18025e+08,-9.17493e+08,-9.17964e+08,-683085,3.71063e-05,0.259019,0,0.259019,4253.43,-33428.7,0,33698.2,683085
step02_gravity_refstate-crust.xmf,1707,-2.47073e-06,2.15435e-05,0,1.07179e-05,-1.07202e+09,-1.07037e+09,-1.07185e+09,735249,0.0208073,0.21315,0,0.214163,-2929.76,-39051.3,-0,39161,735249
step02_gravity_refstate-crust.xmf,1708,-8.89512e-07,1.73048e-05,0,1.00653e-05,-1.08434e+09,-1.08309e+09,-1.08428e+09,690481,0.0196036,0.190621,0,0.191626,-3864.88,-39499.6,-0,39688.3,690481
step02_gravity_refstate-crust.xmf,1709,-6.86986e-06,3.00972e-05,0,9.29919e-06,-1.07075e+09,-1.06821e+09,-1.07028e+09,637924,0.0157635,0.233249,0,0.233781,-1748.38,-39000.5,-0,39039.7,637924
step02_gravity_refstate-crust.xmf,1710,-8.99243e-06,3.39156e-05,0,6.87689e-06,-1.06824e+09,-1.0653e+09,-1.06762e+09,471755,0.0116926,0.243405,0,0.243685,-1188.38,-38906.4,-0,38924.6,471755
step02_gravity_refstate-crust.xmf,1711,-1.12255e-05,3.92397e-05,0,-2.00509e-06,-1.05145e+09,-1.04799e+09,-1.05068e+09,-137549,-0.00348269,0.272769,-0,0.272791,309.225,-38294.6,0,38295.8,137549
step02_gravity_refstate-crust.xmf,1712,-1.11757e-05,4.01715e-05,0,-3.21429e-06,-1.04332e+09,-1.03979e+09,-1.04255e+09,-220500,-0.00564141,0.283476,-0,0.283532,500.172,-38000,0,38003.3,220500
step02_gravity_refstate-crust.xmf,1713,-9.93825e-06,3.58301e-05,0,3.62844e-06,-1.06986e+09,-1.06672e+09,-1.06918e+09,248911,0.00613211,0.24616,0,0.246237,-610.648,-38964.6,-0,38969.4,248911
step02_gravity_refstate-crust.xmf,1714,-6.93375e-07,1.95769e-06,0,-9.53607e-07,-3.79514e+08,-3.79332e+08,-3.79466e+08,-65417.5,0.00765104,0.148349,0,0.148546,28948.3,-13816.8,0,32076.6,65417.5
step02_gravity_refstate-crust.xmf,1715,-7.02177e-07,2.48776e-06,0,-1.33241e-06,-4.71189e+08,-4.7097e+08,-4.71141e+08,-91403.6,0.00881249,0.151383,0,0.151639,25125.2,-17155.1,0,30423.2,91403.6
step02_gravity_refstate-crust.xmf,1716,-7.31111e-07,2.73162e-06,0,-1.39796e-06,-5.11532e+08,-5.11294e+08,-5.11482e+08,-95900.1,0.00877963,0.150422,0,0.150678,24227.6,-18624.1,0,30558.7,95900.1
step02_gravity_refstate-crust.xmf,1717,-1.44394e-06,3.78613e-06,0,-3.29979e-06,-6.9937e+08,-6.99011e+08,-6.99271e+08,-226366,0.0168189,0.189013,0,0.18976,11951,-25461.3,0,28126.6,226366
step02_gravity_refstate-crust.xmf,1718,-1.09999e-06,3.3023e-06,0,-2.69577e-06,-6.19673e+08,-6.19371e+08,-6.19597e+08,-184930,0.0153317,0.180287,0,0.180938,14794.3,-22560.5,0,26978.6,184930
step02_gravity_refstate-crust.xmf,1719,-1.20575e-06,3.51477e-06,0,-2.78129e-06,-6.4767e+08,-6.47346e+08,-6.47587e+08,-190796,0.0154526,0.180569,0,0.181229,14176.2,-23579.6,0,27513,190796
step02_gravity_refstate-crust.xmf,1720,-1.31364e-06,3.73787e-06,0,-2.85337e-06,-6.74904e+08,-6.74557e+08,-6.74813e+08,-195741,0.0154162,0.180734,0,0.18139,13592.2,-24571,0,28079.9,195741
step02_gravity_refstate-crust.xmf,1721,-1.00513e-06,3.19953e-06,0,-2.35667e-06,-5.90716e+08,-5.90427e+08,-5.90647e+08,-161667,0.0138478,0.17322,0,0.173773,16692.7,-21506.5,0,27224.5,161667
step02_gravity_refstate-crust.xmf,1722,-8.99088e-07,3.00516e-06,0,-2.08339e-06,-5.54734e+08,-5.54466e+08,-5.54672e+08,-142920,0.0126032,0.167853,0,0.168326,18622.3,-20196.7,0,27471.7,142920
step02_gravity_refstate-crust.xmf,1723,-8.6825e-07,2.98829e-06,0,-1.8792e-06,-5.4881e+08,-5.48546e+08,-5.48751e+08,-128913,0.0114127,0.162051,0,0.162452,20083.5,-19981.1,0,28330,128913
step02_gravity_refstate-crust.xmf,1724,-8.25604e-07,2.98553e-06,0,-1.66393e-06,-5.48347e+08,-5.48086e+08,-5.48291e+08,-114145,0.0100917,0.155734,0,0.156061,21660.1,-19964.4,0,29457.4,114145
step02_gravity_refstate-crust.xmf,1725,-2.05315e-06,4.62626e-06,0,-4.72697e-06,-8.09507e+08,-8.09049e+08,-8.09366e+08,-324270,0.0161855,0.211175,0,0.211794,7956.08,-29469.8,0,30524.8,324270
step02_gravity_refstate-crust.xmf,1726,-6.9448e-07,1.93622e-06,0,-7.61701e-07,-3.79262e+08,-3.79082e+08,-3.79215e+08,-52252.7,0.00622046,0.143967,0,0.144101,31013.7,-13807.6,0,33948.5,52252.7
step02_gravity_refstate-crust.xmf,1727,-7.68821e-07,1.70551e-06,0,-4.58927e-07,-3.33198e+08,-3.33028e+08,-3.33145e+08,-31482.4,0.00441078,0.141824,0,0.141892,34320.8,-12129.9,0,36401.2,31482.4
step02_gravity_refstate-crust.xmf,1728,-8.54382e-07,1.53494e-06,0,-3.31104e-07,-2.93084e+08,-2.92921e+08,-2.93026e+08,-22713.7,0.00374564,0.142729,0,0.142778,35670.9,-10669,0,37232.2,22713.7
step02_gravity_refstate-crust.xmf,1729,-9.33911e-07,1.42229e-06,0,-1.67542e-07,-2.64839e+08,-2.64677e+08,-2.64775e+08,-11493.4,0.00215572,0.14279,0,0.142806,37704.1,-9640.15,0,38917,11493.4
step02_gravity_refstate-crust.xmf,1730,-1.04046e-06,1.29148e-06,0,4.81923e-10,-2.28457e+08,-2.28297e+08,-2.28386e+08,33.0599,1.53235e-19,0.144018,0,0.144018,40000,-8315,0,40855.1,33.0599
step02_gravity_refstate-crust.xmf,1731,-6.80934e-06,2.55843e-05,0,-1.76107e-05,-1.01598e+09,-1.01376e+09,-1.01551e+09,-1.20809e+06,-0.0167048,0.286806,-0,0.287292,2000,-36999.8,0,37053.8,1.20809e+06
step02_gravity_refstate-crust.xmf,1732,-3.53913e-06,1.87052e-05,0,-1.43791e-05,-1.00116e+09,-9.99639e+08,-1.00092e+09,-986407,-0.0178833,0.271554,-0,0.272143,2736.54,-36463.1,0,36565.6,986407
step02_gravity_refstate-crust.xmf,1733,-9.21071e-07,9.08541e-06,0,-1.03939e-05,-9.46224e+08,-9.45538e+08,-9.46161e+08,-713021,-0.00755121,0.254952,-0,0.255064,4106.2,-34458.6,0,34702.4,713021
step02_gravity_refstate-crust.xmf,1734,-1.85004e-06,1.99744e-05,0,1.04131e-05,-1.08364e+09,-1.08215e+09,-1.08352e+09,714336,0.0189228,0.199559,0,0.200454,-3248.89,-39474.5,-0,39608,714336
step02_gravity_refstate-crust.xmf,1735,-3.19132e-06,2.30663e-05,0,1.03398e-05,-1.08419e+09,-1.08239e+09,-1.08397e+09,709312,0.0173436,0.207097,0,0.207822,-2673.12,-39493.9,-0,39584.3,709312
step02_gravity_refstate-crust.xmf,1736,-1.07943e-05,3.77563e-05,0,-4.7805e-06,-1.05527e+09,-1.05194e+09,-1.05453e+09,-327943,-0.00823616,0.264718,-0,0.264846,750.086,-38432.9,0,38440.2,327943
step02_gravity_refstate-crust.xmf,1737,-1.05198e-05,3.85537e-05,0,-6.52667e-06,-1.04331e+09,-1.03995e+09,-1.04259e+09,-447730,-0.0110336,0.278505,-0,0.278723,1000,-38000,0,38013.2,447730
step02_gravity_refstate-crust.xmf,1738,-1.0337e-05,3.66141e-05,0,-8.68884e-08,-1.06961e+09,-1.06639e+09,-1.06891e+09,-5960.54,7.36919e-07,0.248227,0,0.248227,0,-38955.3,0,38955.3,5960.54
step02_gravity_refstate-crust.xmf,1739,-1.08924e-05,3.78776e-05,0,-2.10531e-06,-1.06048e+09,-1.05713e+09,-1.05973e+09,-144424,-0.00373793,0.260011,-0,0.260038,343.983,-38622.3,0,38623.9,144424
step02_gravity_refstate-crust.xmf,1740,-6.73167e-07,2.20843e-06,0,-1.05433e-06,-4.26638e+08,-4.26441e+08,-4.26592e+08,-72326.8,0.0075873,0.14721,0,0.147406,27952.5,-15532.9,0,31978.3,72326.8
step02_gravity_refstate-crust.xmf,1741,-6.72158e-07,2.45736e-06,0,-1.13718e-06,-4.71111e+08,-4.70896e+08,-4.71065e+08,-78010.3,0.00754791,0.146026,0,0.146221,26966.9,-17152.3,0,31959.6,78010.3
step02_gravity_refstate-crust.xmf,1742,-7.74239e-07,2.96604e-06,0,-1.4679e-06,-5.49119e+08,-5.48862e+08,-5.49065e+08,-100698,0.00883196,0.149926,0,0.150186,23222.2,-19992.7,0,30642.7,100698
step02_gravity_refstate-crust.xmf,1743,-1.58606e-06,3.90338e-06,0,-3.73769e-06,-7.2829e+08,-7.27914e+08,-7.28182e+08,-256405,0.0177238,0.196437,0,0.197235,10548,-26513.8,0,28534.9,256405
step02_gravity_refstate-crust.xmf,1744,-1.41407e-06,3.94701e-06,0,-2.92435e-06,-6.99158e+08,-6.9879e+08,-6.99061e+08,-200610,0.0152956,0.181204,0,0.181848,13025.4,-25453.9,0,28593.1,200610
step02_gravity_refstate-crust.xmf,1745,-1.09448e-06,3.41128e-06,0,-2.42157e-06,-6.20002e+08,-6.19693e+08,-6.19927e+08,-166120,0.0139481,0.17313,0,0.173691,16049.1,-22572.6,0,27696.5,166120
step02_gravity_refstate-crust.xmf,1746,-9.79781e-07,3.24443e-06,0,-2.12369e-06,-5.89056e+08,-5.88766e+08,-5.88989e+08,-145685,0.0125658,0.16681,0,0.167282,18015.4,-21446.2,0,28008.9,145685
step02_gravity_refstate-crust.xmf,1747,-2.00852e-06,4.8869e-06,0,-5.51956e-06,-8.43028e+08,-8.42555e+08,-8.4289e+08,-378642,0.0139922,0.223216,0,0.223654,6691.18,-30690.7,0,31411.7,378642
step02_gravity_refstate-crust.xmf,1748,-1.88165e-06,5.14118e-06,0,-5.76974e-06,-8.58715e+08,-8.58233e+08,-8.58586e+08,-395804,0.0118073,0.226267,0,0.226575,6330.37,-31262.7,0,31897.2,395804
step02_gravity_refstate-crust.xmf,1749,-1.71511e-06,4.15597e-06,0,-3.82188e-06,-7.50529e+08,-7.50126e+08,-7.50411e+08,-262181,0.0172328,0.197139,0,0.197891,10112.5,-27323.2,0,29134.6,262181
step02_gravity_refstate-crust.xmf,1750,-2.05636e-06,4.75632e-06,0,-5.26944e-06,-8.30654e+08,-8.30187e+08,-8.30513e+08,-361483,0.0152187,0.219792,0,0.220318,7058.93,-30239.8,0,31052.8,361483
step02_gravity_refstate-crust.xmf,1751,-1.9117e-06,4.65656e-06,0,-4.00496e-06,-7.9206e+08,-7.91609e+08,-7.91929e+08,-274740,0.0156544,0.199895,0,0.200507,9176.62,-28835.2,0,30260.2,274740
step02_gravity_refstate-crust.xmf,1752,-1.82692e-06,4.4042e-06,0,-3.91663e-06,-7.71713e+08,-7.71285e+08,-7.71588e+08,-268681,0.01658,0.198413,0,0.199104,9641.69,-28094.4,0,29702.8,268681
step02_gravity_refstate-crust.xmf,1753,-1.95133e-06,4.90423e-06,0,-4.06826e-06,-8.10847e+08,-8.10376e+08,-8.10713e+08,-279083,0.0144103,0.201173,0,0.201689,8767.51,-29519.4,0,30793.9,279083
step02_gravity_refstate-crust.xmf,1754,-6.94147e-07,1.9175e-06,0,-5.67443e-07,-3.79573e+08,-3.79394e+08,-3.79526e+08,-38926.6,0.00470608,0.140284,0,0.140363,33187.6,-13818.9,0,35949.7,38926.6
step02_gravity_refstate-crust.xmf,1755,-7.70841e-07,1.70786e-06,0,-3.28709e-07,-3.35323e+08,-3.35153e+08,-3.3527e+08,-22549.5,0.00317648,0.14003,0,0.140066,35897,-12207.3,0,37915.9,22549.5
step02_gravity_refstate-crust.xmf,1756,-7.19835e-06,2.80333e-05,0,-1.56785e-05,-1.02965e+09,-1.02723e+09,-1.02916e+09,-1.07554e+06,-0.0185292,0.273313,-0,0.27394,2000,-37499.7,0,37553,1.07554e+06
step02_gravity_refstate-crust.xmf,1757,-4.75412e-06,2.29705e-05,0,-1.42298e-05,-1.02198e+09,-1.02008e+09,-1.02166e+09,-976163,-0.0200509,0.26627,-0,0.267024,2421.18,-37222.7,0,37301.3,976163
step02_gravity_refstate-crust.xmf,1758,-3.17818e-06,1.95428e-05,0,-1.30902e-05,-1.01336e+09,-1.0118e+09,-1.01314e+09,-897985,-0.0203471,0.260268,-0,0.261062,2821.13,-36909.6,0,37017.3,897985
step02_gravity_refstate-crust.xmf,1759,-1.66691e-06,5.43462e-06,0,-6.08566e-06,-8.74314e+08,-8.73827e+08,-8.742e+08,-417476,0.00911903,0.22934,0,0.229521,5987.59,-31832,0,32390.2,417476
step02_gravity_refstate-crust.xmf,1760,-1.38814e-06,5.79807e-06,0,-6.59274e-06,-8.89992e+08,-8.89499e+08,-8.89897e+08,-452262,0.00598573,0.233317,0,0.233394,5614.33,-32404.4,0,32887.2,452262
step02_gravity_refstate-crust.xmf,1761,-1.1089e-06,6.29362e-06,0,-7.25633e-06,-9.05041e+08,-9.04534e+08,-9.04965e+08,-497784,0.00258348,0.237589,0,0.237603,5252.61,-32954.2,0,33370.2,497784
step02_gravity_refstate-crust.xmf,1762,-2.28195e-06,1.67149e-05,0,-1.23987e-05,-1.00188e+09,-1.00058e+09,-1.00173e+09,-850551,-0.0192813,0.25731,-0,0.258031,3164.69,-36491.2,0,36628.2,850551
step02_gravity_refstate-crust.xmf,1763,-1.66256e-06,1.4234e-05,0,-1.17894e-05,-9.87931e+08,-9.86841e+08,-9.87817e+08,-808755,-0.0170605,0.255713,-0,0.256282,3479.22,-35981.9,0,36149.8,808755
step02_gravity_refstate-crust.xmf,1764,-1.0302e-06,1.18488e-05,0,-1.05583e-05,-9.74829e+08,-9.73946e+08,-9.74759e+08,-724298,-0.0146677,0.249107,-0,0.249539,3924.4,-35503.8,0,35720.1,724298
step02_gravity_refstate-crust.xmf,1765,-7.62149e-07,1.00597e-05,0,-9.65875e-06,-9.60016e+08,-9.59274e+08,-9.59964e+08,-662590,-0.0113153,0.245539,-0,0.2458,4273.48,-34962.8,0,35223,662590
step02_gravity_refstate-crust.xmf,1766,-7.85491e-07,7.92672e-06,0,-8.969e-06,-9.33808e+08,-9.33211e+08,-9.33754e+08,-615273,-0.00457073,0.246591,-0,0.246633,4561.41,-34005.3,0,34309.9,615273
step02_gravity_refstate-crust.xmf,1767,-8.96574e-07,6.9564e-06,0,-8.10284e-06,-9.18995e+08,-9.18457e+08,-9.18934e+08,-555855,-0.000797716,0.242575,-0,0.242576,4886.67,-33464.1,0,33819,555855
step02_gravity_refstate-crust.xmf,1768,-4.87435e-06,2.68281e-05,0,9.6283e-06,-1.08399e+09,-1.08181e+09,-1.08365e+09,660501,0.0150413,0.215025,0,0.21555,-2084.96,-39485.5,-0,39540.5,660501
step02_gravity_refstate-crust.xmf,1769,-6.67857e-06,3.0153e-05,0,7.62431e-06,-1.08391e+09,-1.08138e+09,-1.08345e+09,523027,0.0116799,0.221881,0,0.222188,-1492.38,-39480.4,-0,39508.6,523027
step02_gravity_refstate-crust.xmf,1770,-7.92401e-06,3.25969e-05,0,5.05167e-06,-1.08385e+09,-1.08107e+09,-1.08331e+09,346545,0.00766628,0.226669,0,0.226798,-931.641,-39477,-0,39488,346545
step02_gravity_refstate-crust.xmf,1771,-9.80099e-06,3.58978e-05,0,-7.61171e-06,-1.054e+09,-1.05086e+09,-1.05332e+09,-522163,-0.0128907,0.261335,-0,0.261653,1201.14,-38387.7,0,38406.5,522163
step02_gravity_refstate-crust.xmf,1772,-9.14878e-06,3.54548e-05,0,-1.00628e-05,-1.04329e+09,-1.04023e+09,-1.04267e+09,-690309,-0.0158835,0.270177,-0,0.270644,1499.83,-38000,0,38029.6,690309
step02_gravity_refstate-crust.xmf,1773,-8.74564e-06,3.4129e-05,0,2.50553e-06,-1.08159e+09,-1.07865e+09,-1.08099e+09,171879,0.00392754,0.231874,0,0.231907,-449.795,-39393.9,-0,39396.4,171879
step02_gravity_refstate-crust.xmf,1774,-6.55291e-07,2.18801e-06,0,-8.60437e-07,-4.28468e+08,-4.28273e+08,-4.28423e+08,-59026,0.00623306,0.14242,0,0.142556,29949.7,-15599.6,0,33768.8,59026
step02_gravity_refstate-crust.xmf,1775,-6.83534e-07,2.693e-06,0,-1.20177e-06,-5.11572e+08,-5.1134e+08,-5.11525e+08,-82441.3,0.00750731,0.144877,0,0.145071,26024.7,-18625.7,0,32003.2,82441.3
step02_gravity_refstate-crust.xmf,1776,-7.03208e-07,2.93975e-06,0,-1.23654e-06,-5.53588e+08,-5.53338e+08,-5.5354e+08,-84826.6,0.00728609,0.143005,0,0.143191,25202,-20155.6,0,32270.6,84826.6
step02_gravity_refstate-crust.xmf,1777,-1.56169e-06,4.05717e-06,0,-3.35076e-06,-7.25126e+08,-7.2474e+08,-7.25019e+08,-229862,0.0164222,0.189105,0,0.189816,11471.9,-26398.9,0,28783.8,229862
step02_gravity_refstate-crust.xmf,1778,-1.5224e-06,4.17398e-06,0,-2.97882e-06,-7.23896e+08,-7.23505e+08,-7.23791e+08,-204347,0.0149062,0.181345,0,0.181956,12498.7,-26354.5,0,29168,204347
step02_gravity_refstate-crust.xmf,1779,-1.36151e-06,4.0432e-06,0,-2.59572e-06,-7.0016e+08,-6.99789e+08,-7.00067e+08,-178066,0.0137215,0.173668,0,0.17421,14127.4,-25490.8,0,29143.8,178066
step02_gravity_refstate-crust.xmf,1780,-1.18738e-06,3.63292e-06,0,-2.4776e-06,-6.48978e+08,-6.48648e+08,-6.48897e+08,-169964,0.0139396,0.172999,0,0.17356,15411,-23627.5,0,28209.2,169964
step02_gravity_refstate-crust.xmf,1781,-1.27752e-06,3.84832e-06,0,-2.53092e-06,-6.76028e+08,-6.75676e+08,-6.7594e+08,-173621,0.0138433,0.173081,0,0.173634,14775.4,-24612.3,0,28706.7,173621
step02_gravity_refstate-crust.xmf,1782,-1.05868e-06,3.46801e-06,0,-2.16725e-06,-6.20121e+08,-6.1981e+08,-6.20048e+08,-148673,0.0125435,0.166289,0,0.166761,17350.9,-22577.2,0,28474.3,148673
step02_gravity_refstate-crust.xmf,1783,-9.33603e-07,3.24408e-06,0,-1.90682e-06,-5.85987e+08,-5.85701e+08,-5.85923e+08,-130808,0.0112993,0.160766,0,0.161162,19406.1,-21334.7,0,28840.3,130808
step02_gravity_refstate-crust.xmf,1784,-8.80826e-07,3.22501e-06,0,-1.70112e-06,-5.847e+08,-5.84418e+08,-5.84639e+08,-116697,0.00999706,0.154713,0,0.155035,20876.5,-21288,0,29816.2,116697
step02_gravity_refstate-crust.xmf,1785,-8.14526e-07,3.19728e-06,0,-1.50258e-06,-5.852e+08,-5.84924e+08,-5.85144e+08,-103077,0.00870677,0.148837,0,0.149092,22392.6,-21306.4,0,30909.5,103077
step02_gravity_refstate-crust.xmf,1786,-1.94206e-06,5.21681e-06,0,-4.771e-06,-8.45778e+08,-8.45287e+08,-8.45645e+08,-327291,0.0121856,0.212609,0,0.212958,7365.84,-30791.6,0,31660.4,327291
step02_gravity_refstate-crust.xmf,1787,-2.01654e-06,4.96396e-06,0,-4.6701e-06,-8.28252e+08,-8.27773e+08,-8.28114e+08,-320369,0.0142247,0.211002,0,0.211481,7717.93,-30152.9,0,31124.9,320369
step02_gravity_refstate-crust.xmf,1788,-1.95249e-06,5.15661e-06,0,-4.11593e-06,-8.30053e+08,-8.29565e+08,-8.29919e+08,-282352,0.0126114,0.201954,0,0.202347,8403.34,-30219,0,31365.7,282352
step02_gravity_refstate-crust.xmf,1789,-6.35439e-07,2.16259e-06,0,-6.69959e-07,-4.30207e+08,-4.30015e+08,-4.30164e+08,-45959.2,0.00486504,0.138332,0,0.138417,32033.8,-15662.9,0,35658,45959.2
step02_gravity_refstate-crust.xmf,1790,-6.93442e-07,1.89565e-06,0,-3.60174e-07,-3.79099e+08,-3.78922e+08,-3.79052e+08,-24707.9,0.00302874,0.137416,0,0.137449,35614.5,-13801.6,0,38195.2,24707.9
step02_gravity_refstate-crust.xmf,1791,-7.73237e-07,1.70316e-06,0,-1.9714e-07,-3.35778e+08,-3.35608e+08,-3.35725e+08,-13523.8,0.00191183,0.138843,0,0.138856,37531.5,-12223.8,0,39472,13523.8
step02_gravity_refstate-crust.xmf,1792,-8.5022e-07,1.55925e-06,0,-2.45758e-10,-3.0071e+08,-3.00545e+08,-3.00652e+08,-16.859,1.35412e-19,0.140267,0,0.140267,40000,-10946.6,0,41470.8,16.859
step02_gravity_refstate-crust.xmf,1793,-6.47263e-06,2.99069e-05,0,-1.26382e-05,-1.04323e+09,-1.04074e+09,-1.04279e+09,-866981,-0.019718,0.258515,-0,0.259266,2000,-38000,0,38052.6,866981
step02_gravity_refstate-crust.xmf,1794,-4.23598e-06,2.38973e-05,0,-1.28205e-05,-1.0361e+09,-1.03417e+09,-1.03581e+09,-879484,-0.0216509,0.253558,-0,0.254481,2435.31,-37740.2,0,37818.7,879484
step02_gravity_refstate-crust.xmf,1795,-6.92134e-07,8.78459e-06,0,-8.85579e-06,-9.46837e+08,-9.46187e+08,-9.4679e+08,-607507,-0.00809464,0.242113,-0,0.242249,4581.79,-34481.4,0,34784.4,607507
step02_gravity_refstate-crust.xmf,1796,-8.4622e-06,3.31111e-05,0,-9.16057e-06,-1.05861e+09,-1.05575e+09,-1.05803e+09,-628415,-0.0155982,0.250541,-0,0.251026,1530.93,-38556.7,0,38587,628415
step02_gravity_refstate-crust.xmf,1797,-9.94821e-06,3.58321e-05,0,-3.62902e-06,-1.06986e+09,-1.06672e+09,-1.06918e+09,-248951,-0.00613211,0.24616,-0,0.246236,610.658,-38964.7,0,38969.4,248951
step02_gravity_refstate-crust.xmf,1798,-8.99524e-06,3.39209e-05,0,-6.87805e-06,-1.06824e+09,-1.0653e+09,-1.06762e+09,-471834,-0.0116931,0.243402,-0,0.243683,1188.45,-38906.5,0,38924.7,471834
step02_gravity_refstate-crust.xmf,1799,-8.50323e-06,3.41132e-05,0,2.97832e-08,-1.08354e+09,-1.08062e+09,-1.08296e+09,2043.13,2.77269e-06,0.230175,0,0.230175,0,-39465.8,0,39465.8,2043.13
step02_gravity_refstate-crust.xmf,1800,-7.35718e-06,3.27131e-05,0,1.52746e-06,-1.09081e+09,-1.08806e+09,-1.0903e+09,104784,0.0020061,0.220997,0,0.221006,-273.339,-39732.9,-0,39733.8,104784
step02_gravity_refstate-crust.xmf,1801,-6.35757e-07,2.43504e-06,0,-9.4163e-07,-4.74502e+08,-4.74292e+08,-4.74459e+08,-64595.9,0.00622286,0.140844,0,0.140981,28911.4,-17275.9,0,33679.8,64595.9
step02_gravity_refstate-crust.xmf,1802,-6.32134e-07,2.67348e-06,0,-1.01157e-06,-5.1697e+08,-5.16744e+08,-5.16927e+08,-69393.4,0.00621581,0.139455,0,0.139593,27845.1,-18822.4,0,33610,69393.4
step02_gravity_refstate-crust.xmf,1803,-7.41751e-07,3.15867e-06,0,-1.31493e-06,-5.86813e+08,-5.86545e+08,-5.86762e+08,-90204.5,0.00745114,0.143212,0,0.143406,23965.6,-21365.4,0,32106.6,90204.5
step02_gravity_refstate-crust.xmf,1804,-1.67411e-06,4.32538e-06,0,-3.39216e-06,-7.49539e+08,-7.49127e+08,-7.49424e+08,-232702,0.0157733,0.18924,0,0.189896,11010.3,-27287.6,0,29425.2,232702
step02_gravity_refstate-crust.xmf,1805,-1.43787e-06,4.2427e-06,0,-2.64442e-06,-7.2272e+08,-7.2233e+08,-7.22621e+08,-181407,0.013441,0.174189,0,0.174706,13534,-26312.1,0,29588.8,181407
step02_gravity_refstate-crust.xmf,1806,-1.137e-06,3.69303e-06,0,-2.20349e-06,-6.5011e+08,-6.49779e+08,-6.50032e+08,-151159,0.0124298,0.165848,0,0.166313,16680,-23669,0,28955.9,151159
step02_gravity_refstate-crust.xmf,1807,-1.00083e-06,3.48143e-06,0,-1.93317e-06,-6.19793e+08,-6.19485e+08,-6.19724e+08,-132615,0.0111529,0.15978,0,0.160169,18709.4,-22565.5,0,29312.8,132615
step02_gravity_refstate-crust.xmf,1808,-1.86617e-06,5.33516e-06,0,-5.1018e-06,-8.57874e+08,-8.5738e+08,-8.57746e+08,-349984,0.0108698,0.216929,0,0.217201,6917.09,-31232.5,0,31989.3,349984
step02_gravity_refstate-crust.xmf,1809,-1.66935e-06,5.67692e-06,0,-5.15055e-06,-8.73749e+08,-8.73245e+08,-8.73634e+08,-353328,0.00806312,0.217254,0,0.217404,6695.21,-31811.7,0,32508.6,353328
step02_gravity_refstate-crust.xmf,1810,-1.76125e-06,4.57728e-06,0,-3.43808e-06,-7.71808e+08,-7.71373e+08,-7.71687e+08,-235852,0.0149698,0.18986,0,0.19045,10534.1,-28098.4,0,30008.1,235852
step02_gravity_refstate-crust.xmf,1811,-1.83575e-06,5.05511e-06,0,-3.5265e-06,-8.12191e+08,-8.11718e+08,-8.12065e+08,-241918,0.012671,0.191877,0,0.192295,9600.2,-29569,0,31088.4,241918
step02_gravity_refstate-crust.xmf,1812,-1.81782e-06,4.82001e-06,0,-3.48305e-06,-7.92625e+08,-7.9217e+08,-7.925e+08,-238937,0.0139482,0.190773,0,0.191282,10060.4,-28856.4,0,30559.8,238937
step02_gravity_refstate-crust.xmf,1813,-1.79238e-06,5.29305e-06,0,-3.55168e-06,-8.31715e+08,-8.31229e+08,-8.31592e+08,-243645,0.0109322,0.192704,0,0.193014,9177.71,-30280.4,0,31640.7,243645
step02_gravity_refstate-crust.xmf,1814,-6.15936e-07,2.14209e-06,0,-4.84052e-07,-4.32013e+08,-4.31824e+08,-4.31971e+08,-33206,0.00352381,0.135122,0,0.135168,34146.1,-15728.7,0,37594.6,33206
step02_gravity_refstate-crust.xmf,1815,-6.55377e-06,2.97585e-05,0,-1.12173e-05,-1.05583e+09,-1.05334e+09,-1.05539e+09,-769509,-0.0189324,0.246222,-0,0.246949,1939.8,-38458.3,0,38507.2,769509
step02_gravity_refstate-crust.xmf,1816,-3.89745e-06,2.47006e-05,0,-1.19291e-05,-1.05027e+09,-1.04831e+09,-1.05e+09,-818335,-0.0218819,0.240827,-0,0.241819,2438.19,-38258.7,0,38336.3,818335
step02_gravity_refstate-crust.xmf,1817,-2.72364e-06,2.01385e-05,0,-1.21288e-05,-1.02805e+09,-1.02649e+09,-1.02787e+09,-832038,-0.0224597,0.248224,-0,0.249238,2866.75,-37447.5,0,37557.1,832038
step02_gravity_refstate-crust.xmf,1818,-1.56759e-06,1.70036e-05,0,-1.11375e-05,-1.01849e+09,-1.01721e+09,-1.01838e+09,-764030,-0.0223451,0.242268,-0,0.243296,3334.57,-37099,0,37248.6,764030
step02_gravity_refstate-crust.xmf,1819,-1.38388e-06,6.01547e-06,0,-5.46633e-06,-8.9053e+08,-8.90022e+08,-8.90435e+08,-374990,0.00486164,0.219825,0,0.219879,6330.44,-32424.3,0,33036.5,374990
step02_gravity_refstate-crust.xmf,1820,-1.07797e-06,6.44314e-06,0,-5.95726e-06,-9.06629e+08,-9.06113e+08,-9.06555e+08,-408668,0.00141806,0.223244,0,0.223248,5941.68,-33012.4,0,33542.8,408668
step02_gravity_refstate-crust.xmf,1821,-8.14406e-07,6.97486e-06,0,-6.5988e-06,-9.2115e+08,-9.20616e+08,-9.21094e+08,-452677,-0.0019505,0.227313,-0,0.227321,5554.83,-33542.9,0,33999.7,452677
step02_gravity_refstate-crust.xmf,1822,-1.0254e-06,1.44607e-05,0,-1.04732e-05,-1.00298e+09,-1.00192e+09,-1.00291e+09,-718459,-0.0204263,0.240895,-0,0.24176,3728.09,-36532.9,0,36722.6,718459
step02_gravity_refstate-crust.xmf,1823,-6.54419e-07,1.23789e-05,0,-9.71225e-06,-9.8853e+08,-9.87636e+08,-9.88485e+08,-666261,-0.0179152,0.238347,-0,0.239019,4101.81,-36004.9,0,36237.8,666261
step02_gravity_refstate-crust.xmf,1824,-4.57067e-07,1.06474e-05,0,-8.92766e-06,-9.7359e+08,-9.72829e+08,-9.73559e+08,-612437,-0.0147751,0.235689,-0,0.236152,4459.46,-35459.2,0,35738.5,612437
step02_gravity_refstate-crust.xmf,1825,-3.97076e-07,9.26397e-06,0,-8.1035e-06,-9.5926e+08,-9.58598e+08,-9.59233e+08,-555900,-0.0114414,0.232204,-0,0.232486,4823.43,-34935.6,0,35267,555900
step02_gravity_refstate-crust.xmf,1826,-5.14435e-07,8.27541e-06,0,-7.6188e-06,-9.44903e+08,-9.443e+08,-9.44867e+08,-522650,-0.0078663,0.231492,-0,0.231625,5054.96,-34410.9,0,34780.2,522650
step02_gravity_refstate-crust.xmf,1827,-6.98257e-07,7.47709e-06,0,-7.44831e-06,-9.30958e+08,-9.30397e+08,-9.3091e+08,-510954,-0.00424672,0.233152,-0,0.233191,5159.84,-33901.2,0,34291.6,510954
step02_gravity_refstate-crust.xmf,1828,-8.87898e-06,3.41906e-05,0,-2.4585e-06,-1.0816e+09,-1.07865e+09,-1.08099e+09,-168653,-0.00393276,0.231877,-0,0.23191,449.795,-39393.9,0,39396.4,168653
step02_gravity_refstate-crust.xmf,1829,-5.95867e-07,2.41184e-06,0,-7.50236e-07,-4.78843e+08,-4.78637e+08,-4.78802e+08,-51466.2,0.00491229,0.13623,0,0.136319,30937.6,-17434.1,0,35511.7,51466.2
step02_gravity_refstate-crust.xmf,1830,-6.45371e-07,2.85215e-06,0,-1.07782e-06,-5.46864e+08,-5.46624e+08,-5.4682e+08,-73938.2,0.00631628,0.139033,0,0.139176,26844.8,-19910.9,0,33422.9,73938.2
step02_gravity_refstate-crust.xmf,1831,-6.74248e-07,3.14058e-06,0,-1.16091e-06,-5.92444e+08,-5.92182e+08,-5.92398e+08,-79638.2,0.00639202,0.138471,0,0.138618,25280.4,-21570.6,0,33232.4,79638.2
step02_gravity_refstate-crust.xmf,1832,-1.59921e-06,4.4245e-06,0,-3.00282e-06,-7.48126e+08,-7.47713e+08,-7.48016e+08,-205993,0.014286,0.181549,0,0.18211,11975.1,-27236.7,0,29753,205993
step02_gravity_refstate-crust.xmf,1833,-1.51104e-06,4.45934e-06,0,-2.66165e-06,-7.46386e+08,-7.45976e+08,-7.46282e+08,-182589,0.0127855,0.174038,0,0.174507,13017.3,-27173.7,0,30130.7,182589
step02_gravity_refstate-crust.xmf,1834,-1.36679e-06,4.26822e-06,0,-2.4013e-06,-7.226e+08,-7.22213e+08,-7.22506e+08,-164729,0.0122106,0.168432,0,0.168874,14417,-26308,0,29999.4,164729
step02_gravity_refstate-crust.xmf,1835,-1.28223e-06,4.14126e-06,0,-2.25991e-06,-7.05981e+08,-7.05609e+08,-7.05893e+08,-155030,0.011876,0.165499,0,0.165924,15316.5,-25703.2,0,29920.7,155030
step02_gravity_refstate-crust.xmf,1836,-1.21059e-06,3.91636e-06,0,-2.22894e-06,-6.78466e+08,-6.78115e+08,-6.78383e+08,-152905,0.0121902,0.165456,0,0.165904,16029.1,-24701.4,0,29446.4,152905
step02_gravity_refstate-crust.xmf,1837,-1.06459e-06,3.71021e-06,0,-1.95404e-06,-6.51383e+08,-6.51055e+08,-6.5131e+08,-134047,0.0109344,0.159002,0,0.159377,18000.1,-23715.7,0,29773.1,134047
step02_gravity_refstate-crust.xmf,1838,-9.29138e-07,3.46422e-06,0,-1.7187e-06,-6.19506e+08,-6.19204e+08,-6.19442e+08,-117903,0.009801,0.153603,0,0.153915,20118.1,-22555.3,0,30223.8,117903
step02_gravity_refstate-crust.xmf,1839,-8.53327e-07,3.42651e-06,0,-1.52084e-06,-6.20297e+08,-6.20003e+08,-6.20238e+08,-104330,0.00846405,0.147574,0,0.147816,21597.3,-22584.4,0,31249,104330
step02_gravity_refstate-crust.xmf,1840,-7.67512e-07,3.37945e-06,0,-1.33595e-06,-6.21865e+08,-6.2158e+08,-6.21812e+08,-91646.2,0.00720663,0.141928,0,0.142111,23104,-22641.7,0,32348.7,91646.2
step02_gravity_refstate-crust.xmf,1841,-1.66739e-06,5.70354e-06,0,-4.39006e-06,-8.68023e+08,-8.67518e+08,-8.67909e+08,-301158,0.00793086,0.206682,0,0.206835,7471.85,-31603.3,0,32474.6,301158
step02_gravity_refstate-crust.xmf,1842,-1.81659e-06,5.45479e-06,0,-4.12553e-06,-8.50092e+08,-8.49593e+08,-8.49967e+08,-283011,0.0101916,0.202688,0,0.202944,8035.73,-30949.5,0,31975.7,283011
step02_gravity_refstate-crust.xmf,1843,-1.7173e-06,5.5057e-06,0,-3.61668e-06,-8.49935e+08,-8.4944e+08,-8.49817e+08,-248104,0.00892844,0.19375,0,0.193956,8768.06,-30944.3,0,32162.5,248104
step02_gravity_refstate-crust.xmf,1844,-5.60903e-07,2.38108e-06,0,-5.65397e-07,-4.81741e+08,-4.81539e+08,-4.81702e+08,-38786.2,0.00365951,0.132495,0,0.132546,33044.8,-17539.7,0,37411.2,38786.2
step02_gravity_refstate-crust.xmf,1845,-5.97654e-07,2.13634e-06,0,-3.1973e-07,-4.35912e+08,-4.35725e+08,-4.35871e+08,-21933.4,0.00231488,0.13283,0,0.13285,36085.8,-15870.7,0,39421.6,21933.4
step02_gravity_refstate-crust.xmf,1846,-6.42355e-07,1.99765e-06,0,-1.76517e-07,-4.06012e+08,-4.05831e+08,-4.05968e+08,-12109.1,0.00138855,0.13396,0,0.133967,37834.2,-14781.8,0,40619.3,12109.1
step02_gravity_refstate-crust.xmf,1847,-7.02799e-07,1.84687e-06,0,-7.24982e-10,-3.71378e+08,-3.71203e+08,-3.7133e+08,-49.7338,9.81925e-20,0.135884,0,0.135884,40000,-13520.4,0,42223.2,49.7338
step02_gravity_refstate-crust.xmf,1848,-2.29999e-06,2.07765e-05,0,-1.15181e-05,-1.04315e+09,-1.04156e+09,-1.04299e+09,-790143,-0.0233498,0.236619,-0,0.237768,2875,-37999.7,0,38108.3,790143
step02_gravity_refstate-crust.xmf,1849,-6.82586e-06,2.99645e-05,0,-9.42976e-06,-1.06994e+09,-1.06741e+09,-1.06947e+09,-646882,-0.0160856,0.233727,-0,0.234279,1776.84,-38970.8,0,39011.3,646882
step02_gravity_refstate-crust.xmf,1850,-7.93212e-06,3.25994e-05,0,-5.057e-06,-1.08385e+09,-1.08107e+09,-1.08331e+09,-346910,-0.00766666,0.226669,-0,0.226799,931.641,-39477,0,39488,346910
step02_gravity_refstate-crust.xmf,1851,-5.71994e-07,2.65757e-06,0,-8.1835e-07,-5.24982e+08,-5.2476e+08,-5.24943e+08,-56138.8,0.00489796,0.134186,0,0.134275,29816.7,-19114.3,0,35417.4,56138.8
step02_gravity_refstate-crust.xmf,1852,-6.24546e-07,3.04992e-06,0,-1.03999e-06,-5.85258e+08,-5.85006e+08,-5.85215e+08,-71343.2,0.00566694,0.135429,0,0.135547,26649.5,-21309.1,0,34121.5,71343.2
step02_gravity_refstate-crust.xmf,1853,-5.67401e-07,2.91424e-06,0,-8.88129e-07,-5.71317e+08,-5.71078e+08,-5.71278e+08,-60925.7,0.00484964,0.132338,0,0.132427,28508.6,-20801.6,0,35290.9,60925.7
step02_gravity_refstate-crust.xmf,1854,-6.81837e-07,3.33152e-06,0,-1.16723e-06,-6.25147e+08,-6.24871e+08,-6.251e+08,-80072.2,0.00603755,0.136661,0,0.136794,24603,-22761.5,0,33517.1,80072.2
step02_gravity_refstate-crust.xmf,1855,-1.66339e-06,4.67023e-06,0,-3.02179e-06,-7.71529e+08,-7.71095e+08,-7.71415e+08,-207295,0.0133948,0.18179,0,0.182283,11466.4,-28088.8,0,30339.1,207295
step02_gravity_refstate-crust.xmf,1856,-1.39657e-06,4.4634e-06,0,-2.37138e-06,-7.4451e+08,-7.44108e+08,-7.44415e+08,-162677,0.0114557,0.167502,0,0.167893,14019.9,-27105.9,0,30517,162677
step02_gravity_refstate-crust.xmf,1857,-1.12004e-06,3.92188e-06,0,-1.97006e-06,-6.79785e+08,-6.79439e+08,-6.79708e+08,-135146,0.010633,0.15843,0,0.158786,17319.2,-24749.8,0,30207.7,135146
step02_gravity_refstate-crust.xmf,1858,-9.76883e-07,3.69628e-06,0,-1.72566e-06,-6.52946e+08,-6.52625e+08,-6.52879e+08,-118380,0.00946819,0.152409,0,0.152702,19384.1,-23772.9,0,30674,118380
step02_gravity_refstate-crust.xmf,1859,-1.32466e-06,6.07602e-06,0,-4.56907e-06,-8.90039e+08,-8.89531e+08,-8.89948e+08,-313438,0.00395844,0.20776,0,0.207798,7078.21,-32406.8,0,33170.8,313438
step02_gravity_refstate-crust.xmf,1860,-1.69394e-06,4.90849e-06,0,-3.03089e-06,-7.93622e+08,-7.9317e+08,-7.93506e+08,-207919,0.0122388,0.182132,0,0.182543,10976.6,-28893.4,0,30908.1,207919
step02_gravity_refstate-crust.xmf,1861,-1.61884e-06,5.36064e-06,0,-3.05319e-06,-8.35086e+08,-8.34607e+08,-8.34975e+08,-209449,0.00903779,0.183355,0,0.183577,10014.3,-30403.9,0,32010.7,209449
step02_gravity_refstate-crust.xmf,1862,-1.68863e-06,5.13251e-06,0,-3.05337e-06,-8.14128e+08,-8.1366e+08,-8.14012e+08,-209461,0.0108986,0.182929,0,0.183253,10475.4,-29640.3,0,31436.9,209461
step02_gravity_refstate-crust.xmf,1863,-1.51102e-06,5.5524e-06,0,-3.11335e-06,-8.53152e+08,-8.52667e+08,-8.53048e+08,-213576,0.00717982,0.184584,0,0.184724,9540.21,-31062.3,0,32494.4,213576
step02_gravity_refstate-crust.xmf,1864,-5.30052e-07,2.35489e-06,0,-3.84491e-07,-4.83625e+08,-4.83427e+08,-4.83589e+08,-26376.1,0.00247676,0.129745,0,0.129768,35183.4,-17608.3,0,39343.7,26376.1
step02_gravity_refstate-crust.xmf,1865,-4.26979e-06,2.51634e-05,0,-1.07997e-05,-1.06802e+09,-1.066e+09,-1.06772e+09,-740859,-0.0197796,0.225535,-0,0.226401,2397.16,-38903.8,0,38977.6,740859
step02_gravity_refstate-crust.xmf,1866,-2.31011e-06,2.13975e-05,0,-1.10833e-05,-1.05815e+09,-1.05653e+09,-1.05799e+09,-760316,-0.0227074,0.224571,-0,0.225716,2896.63,-38546.9,0,38655.6,760316
step02_gravity_refstate-crust.xmf,1867,-1.35846e-06,1.80575e-05,0,-1.08667e-05,-1.03552e+09,-1.03419e+09,-1.03543e+09,-745453,-0.023872,0.232613,-0,0.233835,3280.74,-37721.6,0,37864,745453
step02_gravity_refstate-crust.xmf,1868,-3.70628e-07,1.43743e-05,0,-9.62251e-06,-1.01722e+09,-1.01621e+09,-1.01719e+09,-660104,-0.0227909,0.227835,-0,0.228972,3956.16,-37053.7,0,37264.3,660104
step02_gravity_refstate-crust.xmf,1869,-9.81129e-07,6.46085e-06,0,-4.92374e-06,-9.08177e+08,-9.07666e+08,-9.08109e+08,-337769,0.000294866,0.210184,0,0.210185,6663.6,-33069.1,0,33733.8,337769
step02_gravity_refstate-crust.xmf,1870,-6.62306e-07,6.93342e-06,0,-5.41868e-06,-9.24274e+08,-9.23753e+08,-9.24229e+08,-371722,-0.00325801,0.213367,-0,0.213391,6247.04,-33657.2,0,34232,371722
step02_gravity_refstate-crust.xmf,1871,-3.90609e-07,7.64505e-06,0,-6.19701e-06,-9.40305e+08,-9.39754e+08,-9.40278e+08,-425115,-0.00699476,0.218473,-0,0.218585,5742.77,-34243,0,34721.2,425115
step02_gravity_refstate-crust.xmf,1872,-1.05135e-07,1.25527e-05,0,-8.91289e-06,-1.00362e+09,-1.00275e+09,-1.00361e+09,-611424,-0.0208829,0.225981,-0,0.226944,4331.84,-36556.8,0,36812.6,611424
step02_gravity_refstate-crust.xmf,1873,2.90313e-08,1.09651e-05,0,-8.17475e-06,-9.8927e+08,-9.8852e+08,-9.89272e+08,-560788,-0.0182611,0.223757,-0,0.224501,4707.89,-36032.5,0,36338.7,560788
step02_gravity_refstate-crust.xmf,1874,3.67291e-08,9.62218e-06,0,-7.41811e-06,-9.74433e+08,-9.73776e+08,-9.74436e+08,-508882,-0.0151032,0.2211,-0,0.221615,5089.6,-35490.3,0,35853.4,508882
step02_gravity_refstate-crust.xmf,1875,-9.48714e-08,8.52577e-06,0,-6.71261e-06,-9.58586e+08,-9.57994e+08,-9.58579e+08,-460485,-0.0114306,0.218787,-0,0.219085,5455.54,-34911.1,0,35334.8,460485
step02_gravity_refstate-crust.xmf,1876,-6.67575e-06,3.01471e-05,0,-7.62661e-06,-1.08392e+09,-1.0814e+09,-1.08346e+09,-523185,-0.0116793,0.22186,-0,0.222167,1492.82,-39480.9,0,39509.1,523185
step02_gravity_refstate-crust.xmf,1877,-5.13798e-07,2.62639e-06,0,-6.29926e-07,-5.30794e+08,-5.30579e+08,-5.30759e+08,-43212.9,0.00366655,0.129729,0,0.129781,31930.2,-19326.1,0,37323.4,43212.9
step02_gravity_refstate-crust.xmf,1878,-5.96593e-07,3.25841e-06,0,-1.01207e-06,-6.24571e+08,-6.24307e+08,-6.2453e+08,-69427.7,0.00504427,0.132162,0,0.132258,26185.5,-22740.8,0,34681.8,69427.7
step02_gravity_refstate-crust.xmf,1879,-1.54384e-06,4.69779e-06,0,-2.65776e-06,-7.70436e+08,-7.70008e+08,-7.70331e+08,-182322,0.0118769,0.174064,0,0.174469,12467.3,-28049.5,0,30695.4,182322
step02_gravity_refstate-crust.xmf,1880,-1.42956e-06,4.67358e-06,0,-2.35937e-06,-7.68907e+08,-7.68489e+08,-7.68809e+08,-161853,0.0104653,0.166911,0,0.167239,13501.3,-27994.3,0,31080,161853
step02_gravity_refstate-crust.xmf,1881,-1.28834e-06,4.41149e-06,0,-2.13326e-06,-7.3962e+08,-7.39229e+08,-7.39532e+08,-146342,0.0103319,0.161631,0,0.161961,15087,-26928.2,0,30866.6,146342
step02_gravity_refstate-crust.xmf,1882,-1.16112e-06,4.13906e-06,0,-1.95535e-06,-7.07919e+08,-7.07555e+08,-7.07839e+08,-134137,0.0100488,0.157324,0,0.157645,16734.9,-25774.2,0,30730.6,134137
step02_gravity_refstate-crust.xmf,1883,-1.02067e-06,3.91434e-06,0,-1.73474e-06,-6.83546e+08,-6.83208e+08,-6.83476e+08,-119003,0.00909382,0.151646,0,0.151919,18612.7,-24887.1,0,31077.3,119003
step02_gravity_refstate-crust.xmf,1884,-8.80532e-07,3.65545e-06,0,-1.52092e-06,-6.54336e+08,-6.54024e+08,-6.54275e+08,-104335,0.00808757,0.146219,0,0.146443,20819.1,-23823.8,0,31638.7,104335
step02_gravity_refstate-crust.xmf,1885,-7.88017e-07,3.59477e-06,0,-1.34123e-06,-6.55744e+08,-6.55444e+08,-6.5569e+08,-92008.1,0.00681467,0.140467,0,0.140632,22293.6,-23875.4,0,32665.5,92008.1
step02_gravity_refstate-crust.xmf,1886,-6.90715e-07,3.52908e-06,0,-1.17629e-06,-6.5747e+08,-6.5718e+08,-6.57422e+08,-80693.6,0.00566835,0.135204,0,0.135322,23780.4,-23938.5,0,33742.5,80693.6
step02_gravity_refstate-crust.xmf,1887,-1.50729e-06,5.76903e-06,0,-3.68383e-06,-8.69466e+08,-8.68967e+08,-8.69362e+08,-252711,0.00629739,0.195037,0,0.195138,8327.44,-31656.6,0,32733.6,252711
step02_gravity_refstate-crust.xmf,1888,-1.3688e-06,5.73906e-06,0,-3.19181e-06,-8.70462e+08,-8.69975e+08,-8.70368e+08,-218958,0.00499032,0.185584,0,0.185651,9116.6,-31693.4,0,32978.5,218958
step02_gravity_refstate-crust.xmf,1889,-4.7129e-07,2.58802e-06,0,-4.57177e-07,-5.33397e+08,-5.33187e+08,-5.33365e+08,-31362.3,0.00259721,0.126508,0,0.126535,34044.6,-19421,0,39194.5,31362.3
step02_gravity_refstate-crust.xmf,1890,-5.19616e-07,2.30966e-06,0,-1.85684e-07,-4.78813e+08,-4.78619e+08,-4.78777e+08,-12738,0.00121227,0.128338,0,0.128343,37650.7,-17433.1,0,41490.8,12738
step02_gravity_refstate-crust.xmf,1891,-5.78355e-07,2.13942e-06,0,-1.39817e-09,-4.40645e+08,-4.40458e+08,-4.40605e+08,-95.9144,8.64159e-20,0.130856,0,0.130856,40000,-16043.1,0,43097.3,95.9144
step02_gravity_refstate-crust.xmf,1892,-1.12158e-06,1.83664e-05,0,-1.05994e-05,-1.05062e+09,-1.04929e+09,-1.05055e+09,-727116,-0.024004,0.221215,-0,0.222513,3340.53,-38272.9,0,38418.4,727116
step02_gravity_refstate-crust.xmf,1893,-5.89078e-07,1.58817e-05,0,-1.00128e-05,-1.02931e+09,-1.02818e+09,-1.02927e+09,-686876,-0.0238994,0.226697,-0,0.227953,3710.55,-37495.4,0,37678.6,686876
step02_gravity_refstate-crust.xmf,1894,-4.91517e-06,2.6654e-05,0,-9.48909e-06,-1.08409e+09,-1.08193e+09,-1.08376e+09,-650952,-0.0150319,0.214902,-0,0.215427,2087.57,-39488.9,0,39544,650952
step02_gravity_refstate-crust.xmf,1895,-4.78058e-07,2.86467e-06,0,-6.82241e-07,-5.7741e+08,-5.7718e+08,-5.77377e+08,-46801.7,0.00355308,0.127014,0,0.127064,30798.1,-21023.7,0,37289.7,46801.7
step02_gravity_refstate-crust.xmf,1896,-5.24272e-07,3.1732e-06,0,-8.66732e-07,-6.22876e+08,-6.22622e+08,-6.2284e+08,-59457.8,0.00413652,0.12807,0,0.128136,27884.4,-22679.2,0,35942.8,59457.8
step02_gravity_refstate-crust.xmf,1897,-5.89387e-07,3.4516e-06,0,-1.01276e-06,-6.59291e+08,-6.59014e+08,-6.59251e+08,-69475.3,0.00455827,0.129976,0,0.130056,25441.8,-24005.1,0,34979,69475.3
step02_gravity_refstate-crust.xmf,1898,-1.55326e-06,4.92633e-06,0,-2.64864e-06,-7.93765e+08,-7.93321e+08,-7.93659e+08,-181696,0.0106547,0.174041,0,0.174366,11942.6,-28899.2,0,31269.6,181696
step02_gravity_refstate-crust.xmf,1899,-1.29058e-06,4.63132e-06,0,-2.09198e-06,-7.6695e+08,-7.66544e+08,-7.66862e+08,-143510,0.0091798,0.160355,0,0.160617,14558.9,-27923.5,0,31491,143510
step02_gravity_refstate-crust.xmf,1900,-1.17133e-06,4.3593e-06,0,-1.90642e-06,-7.37573e+08,-7.37194e+08,-7.37493e+08,-130781,0.00906322,0.155517,0,0.155781,16216.9,-26854.1,0,31370.8,130781
step02_gravity_refstate-crust.xmf,1901,-1.06247e-06,4.08315e-06,0,-1.76625e-06,-7.06692e+08,-7.06339e+08,-7.06619e+08,-121165,0.00884093,0.151759,0,0.152017,17874.8,-25729.8,0,31329.4,121165
step02_gravity_refstate-crust.xmf,1902,-9.05448e-07,3.88116e-06,0,-1.51413e-06,-6.87841e+08,-6.87512e+08,-6.87778e+08,-103870,0.00755183,0.144833,0,0.14503,20030.6,-25043.9,0,32069,103870
step02_gravity_refstate-crust.xmf,1903,-1.23025e-06,6.03955e-06,0,-3.84099e-06,-8.88969e+08,-8.8847e+08,-8.88885e+08,-263492,0.00315655,0.196596,0,0.196621,7880.19,-32368.2,0,33313.6,263492
step02_gravity_refstate-crust.xmf,1904,-8.78797e-07,6.3569e-06,0,-4.09203e-06,-9.08188e+08,-9.07692e+08,-9.08128e+08,-280714,-0.000436951,0.198247,-0,0.198248,7445.42,-33069.8,0,33897.6,280714
step02_gravity_refstate-crust.xmf,1905,-1.5205e-06,5.14945e-06,0,-2.64044e-06,-8.1651e+08,-8.16052e+08,-8.16405e+08,-181134,0.00912092,0.174203,0,0.174441,11412.2,-29727.7,0,31842.9,181134
step02_gravity_refstate-crust.xmf,1906,-1.26153e-06,5.56442e-06,0,-2.64429e-06,-8.61166e+08,-8.60698e+08,-8.6108e+08,-181399,0.00479525,0.174586,0,0.174652,10386,-31355.1,0,33030.5,181399
step02_gravity_refstate-crust.xmf,1907,-1.43304e-06,5.35698e-06,0,-2.63631e-06,-8.38151e+08,-8.37685e+08,-8.38052e+08,-180851,0.007267,0.174428,0,0.174579,10906.1,-30516.2,0,32406.5,180851
step02_gravity_refstate-crust.xmf,1908,-1.21132e-06,5.69185e-06,0,-2.82578e-06,-8.71957e+08,-8.71484e+08,-8.71874e+08,-193849,0.00384976,0.177943,0,0.177985,9811.79,-31748.4,0,33230,193849
step02_gravity_refstate-crust.xmf,1909,-4.37225e-07,2.55959e-06,0,-2.92935e-07,-5.34812e+08,-5.34607e+08,-5.34782e+08,-20095.3,0.00164503,0.124339,0,0.12435,36119.3,-19472.6,0,41034,20095.3
step02_gravity_refstate-crust.xmf,1910,-2.36857e-06,2.13564e-05,0,-1.07623e-05,-1.07158e+09,-1.06995e+09,-1.07142e+09,-738297,-0.0209015,0.213406,-0,0.214427,2934.87,-39035.4,0,39145.6,738297
step02_gravity_refstate-crust.xmf,1911,-1.24033e-06,1.88841e-05,0,-1.0425e-05,-1.06581e+09,-1.06443e+09,-1.06572e+09,-715158,-0.0226443,0.21016,-0,0.211377,3379.34,-38826,0,38972.7,715158
step02_gravity_refstate-crust.xmf,1912,-3.15323e-07,1.6003e-05,0,-9.87085e-06,-1.04283e+09,-1.04171e+09,-1.04281e+09,-677140,-0.0244836,0.217277,-0,0.218652,3783.33,-37988.7,0,38176.6,677140
step02_gravity_refstate-crust.xmf,1913,1.93269e-07,1.41192e-05,0,-9.08634e-06,-1.03252e+09,-1.03156e+09,-1.03253e+09,-623323,-0.0242106,0.214462,-0,0.215824,4211.22,-37612.5,0,37847.5,623323
step02_gravity_refstate-crust.xmf,1914,4.39056e-07,1.24841e-05,0,-8.38112e-06,-1.01932e+09,-1.0185e+09,-1.01935e+09,-574945,-0.0230163,0.213449,-0,0.214686,4585.59,-37130.6,0,37412.7,574945
step02_gravity_refstate-crust.xmf,1915,-5.08453e-07,6.7459e-06,0,-4.46592e-06,-9.26103e+08,-9.25605e+08,-9.26068e+08,-306362,-0.00414128,0.200375,-0,0.200418,7011.38,-33724.1,0,34445.2,306362
step02_gravity_refstate-crust.xmf,1916,-1.60073e-07,7.25704e-06,0,-4.97326e-06,-9.42925e+08,-9.42416e+08,-9.42914e+08,-341166,-0.00785488,0.203051,-0,0.203203,6570.57,-34338.7,0,34961.7,341166
step02_gravity_refstate-crust.xmf,1917,5.43972e-07,1.10507e-05,0,-7.65241e-06,-1.00543e+09,-1.00471e+09,-1.00547e+09,-524955,-0.0210333,0.211896,-0,0.212937,4967.43,-36623.1,0,36958.4,524955
step02_gravity_refstate-crust.xmf,1918,5.29088e-07,9.81209e-06,0,-6.91894e-06,-9.90996e+08,-9.90359e+08,-9.91032e+08,-474639,-0.0184114,0.209823,-0,0.210629,5360.31,-36095.5,0,36491.4,474639
step02_gravity_refstate-crust.xmf,1919,3.97061e-07,8.77049e-06,0,-6.20983e-06,-9.75776e+08,-9.75202e+08,-9.75804e+08,-425994,-0.0152488,0.207562,-0,0.208122,5759.12,-35539.3,0,36002.9,425994
step02_gravity_refstate-crust.xmf,1920,1.58887e-07,7.92477e-06,0,-5.55932e-06,-9.59661e+08,-9.59129e+08,-9.59672e+08,-381369,-0.0116602,0.205394,-0,0.205725,6156.73,-34950.3,0,35488.5,381369
step02_gravity_refstate-crust.xmf,1921,-3.16046e-06,2.29772e-05,0,-1.03549e-05,-1.08405e+09,-1.08226e+09,-1.08383e+09,-710347,-0.0174338,0.206987,-0,0.20772,2690.08,-39488.8,0,39580.3,710347
step02_gravity_refstate-crust.xmf,1922,-4.4395e-07,3.0967e-06,0,-7.10975e-07,-6.23667e+08,-6.23424e+08,-6.23636e+08,-48772.9,0.00320603,0.123895,0,0.123937,29786.4,-22708.2,0,37455.2,48772.9
step02_gravity_refstate-crust.xmf,1923,-4.13746e-07,2.82205e-06,0,-5.11401e-07,-5.82292e+08,-5.8207e+08,-5.82263e+08,-35082.1,0.00254201,0.123155,0,0.123181,32907,-21201.6,0,39145.6,35082.1
step02_gravity_refstate-crust.xmf,1924,-4.93341e-07,3.37792e-06,0,-8.64499e-07,-6.61332e+08,-6.61067e+08,-6.61299e+08,-59304.6,0.0036145,0.125396,0,0.125448,27086.7,-24079.7,0,36242.5,59304.6
step02_gravity_refstate-crust.xmf,1925,-1.40807e-06,4.89704e-06,0,-2.32674e-06,-7.93371e+08,-7.92938e+08,-7.93274e+08,-159615,0.00919315,0.166486,0,0.16674,12953.5,-28885.3,0,31656.9,159615
step02_gravity_refstate-crust.xmf,1926,-1.28089e-06,4.83119e-06,0,-2.06887e-06,-7.92401e+08,-7.91981e+08,-7.92313e+08,-141924,0.00788763,0.159569,0,0.159764,13992.7,-28850.4,0,32064.7,141924
step02_gravity_refstate-crust.xmf,1927,-1.16096e-06,4.56709e-06,0,-1.86178e-06,-7.65712e+08,-7.65319e+08,-7.65632e+08,-127718,0.00790432,0.15398,0,0.154183,15670.5,-27878.9,0,31981.2,127718
step02_gravity_refstate-crust.xmf,1928,-1.02608e-06,4.29381e-06,0,-1.6515e-06,-7.38933e+08,-7.38568e+08,-7.38862e+08,-113293,0.0073993,0.147879,0,0.148064,17661,-26904.1,0,32182.9,113293
step02_gravity_refstate-crust.xmf,1929,-9.35592e-07,4.11118e-06,0,-1.51778e-06,-7.21665e+08,-7.21319e+08,-7.21601e+08,-104119,0.00689704,0.143873,0,0.144039,19102.5,-26275.5,0,32485.5,104119
step02_gravity_refstate-crust.xmf,1930,-7.89538e-07,3.81117e-06,0,-1.32556e-06,-6.89612e+08,-6.89296e+08,-6.89558e+08,-90933.2,0.00621899,0.138729,0,0.138868,21519.5,-25108.7,0,33068.7,90933.2
step02_gravity_refstate-crust.xmf,1931,-6.85717e-07,3.72845e-06,0,-1.16441e-06,-6.91024e+08,-6.90721e+08,-6.90977e+08,-79878.3,0.00505533,0.133216,0,0.133312,23031,-25160.4,0,34109.7,79878.3
step02_gravity_refstate-crust.xmf,1932,-5.81219e-07,3.64157e-06,0,-1.0157e-06,-6.91923e+08,-6.91633e+08,-6.91883e+08,-69676.7,0.00404657,0.128222,0,0.128286,24587.3,-25193.4,0,35202.9,69676.7
step02_gravity_refstate-crust.xmf,1933,-1.09402e-06,5.96978e-06,0,-3.26474e-06,-8.89304e+08,-8.88819e+08,-8.89229e+08,-223961,0.00213529,0.186297,0,0.18631,8700.68,-32380.8,0,33529.4,223961
step02_gravity_refstate-crust.xmf,1934,-9.66801e-07,5.85292e-06,0,-2.83007e-06,-8.89718e+08,-8.8925e+08,-8.89652e+08,-194143,0.00120605,0.177048,0,0.177053,9533,-32396.2,0,33769.7,194143
step02_gravity_refstate-crust.xmf,1935,-3.76669e-07,2.77001e-06,0,-3.61523e-07,-5.81393e+08,-5.81177e+08,-5.81367e+08,-24800.5,0.00175161,0.120854,0,0.120867,34939.2,-21169,0,40851.8,24800.5
step02_gravity_refstate-crust.xmf,1936,-4.02059e-07,2.58425e-06,0,-1.34242e-07,-5.45783e+08,-5.45578e+08,-5.45756e+08,-9209.03,0.00072589,0.122148,0,0.12215,38178.8,-19872.2,0,43040.9,9209.03
step02_gravity_refstate-crust.xmf,1937,-4.62442e-07,2.42634e-06,0,-1.0929e-09,-5.08713e+08,-5.08515e+08,-5.08681e+08,-74.9732,5.21676e-20,0.125198,0,0.125198,40000,-18522.1,0,44080.2,74.9732
step02_gravity_refstate-crust.xmf,1938,-3.27242e-07,1.6388e-05,0,-9.88385e-06,-1.05822e+09,-1.05708e+09,-1.0582e+09,-678032,-0.0238667,0.207056,-0,0.208427,3841.28,-38549.8,0,38740.7,678032
step02_gravity_refstate-crust.xmf,1939,-1.61736e-06,1.94312e-05,0,-1.04154e-05,-1.08274e+09,-1.0813e+09,-1.08263e+09,-714495,-0.0193273,0.198808,-0,0.199745,3348.73,-39441.8,0,39583.7,714495
step02_gravity_refstate-crust.xmf,1940,-3.683e-07,3.0357e-06,0,-5.53961e-07,-6.26171e+08,-6.25938e+08,-6.26146e+08,-38001.7,0.00235218,0.120113,0,0.120136,31789.1,-22799.6,0,39119.9,38001.7
step02_gravity_refstate-crust.xmf,1941,-3.90144e-07,3.32118e-06,0,-7.01752e-07,-6.69961e+08,-6.69706e+08,-6.69934e+08,-48140.2,0.00255483,0.120035,0,0.120062,29009.5,-24394.2,0,37902.9,48140.2
step02_gravity_refstate-crust.xmf,1942,-4.78193e-07,3.55782e-06,0,-8.71746e-07,-6.94345e+08,-6.94068e+08,-6.94312e+08,-59801.8,0.00310091,0.123348,0,0.123387,26241.8,-25281.9,0,36439.1,59801.8
step02_gravity_refstate-crust.xmf,1943,-1.35769e-06,5.10512e-06,0,-2.30506e-06,-8.17125e+08,-8.16682e+08,-8.17032e+08,-158127,0.00762767,0.166223,0,0.166398,12401.7,-29750.7,0,32232,158127
step02_gravity_refstate-crust.xmf,1944,-1.12927e-06,4.75948e-06,0,-1.83119e-06,-7.91725e+08,-7.91321e+08,-7.91647e+08,-125620,0.00664975,0.153022,0,0.153166,15071,-28826.3,0,32528.3,125620
step02_gravity_refstate-crust.xmf,1945,-1.0227e-06,4.49922e-06,0,-1.64668e-06,-7.67087e+08,-7.66708e+08,-7.67017e+08,-112963,0.00652135,0.147417,0,0.147561,16849.7,-27929.4,0,32618.5,112963
step02_gravity_refstate-crust.xmf,1946,-7.83349e-07,4.02513e-06,0,-1.30439e-06,-7.23711e+08,-7.23381e+08,-7.23658e+08,-89481.2,0.0054119,0.136883,0,0.13699,20725.3,-26350.5,0,33524.4,89481.2
step02_gravity_refstate-crust.xmf,1947,-7.59722e-07,6.22336e-06,0,-3.45285e-06,-9.08557e+08,-9.08078e+08,-9.08505e+08,-236866,-0.00117107,0.18753,-0,0.187534,8244.66,-33083.5,0,34095.3,236866
step02_gravity_refstate-crust.xmf,1948,-3.79578e-07,6.52923e-06,0,-3.74386e-06,-9.27279e+08,-9.26805e+08,-9.27253e+08,-256829,-0.00474709,0.18897,-0,0.18903,7794.5,-33767.1,0,34655,256829
step02_gravity_refstate-crust.xmf,1949,-1.25828e-06,5.2975e-06,0,-2.29284e-06,-8.39747e+08,-8.39298e+08,-8.39661e+08,-157289,0.00577689,0.166107,0,0.166207,11862.9,-30575,0,32795.7,157289
step02_gravity_refstate-crust.xmf,1950,-8.68424e-07,5.71711e-06,0,-2.43329e-06,-8.86832e+08,-8.8638e+08,-8.86772e+08,-166924,0.000803715,0.168395,0,0.168397,10485,-32291.3,0,33950.9,166924
step02_gravity_refstate-crust.xmf,1951,-1.09505e-06,5.48589e-06,0,-2.30604e-06,-8.62673e+08,-8.62221e+08,-8.62598e+08,-158194,0.00350974,0.166256,0,0.166293,11292.4,-31410.5,0,33378.7,158194
step02_gravity_refstate-crust.xmf,1952,-3.54649e-07,2.73275e-06,0,-2.35416e-07,-5.79256e+08,-5.79044e+08,-5.79231e+08,-16149.6,0.00113267,0.119656,0,0.119662,36685.6,-21091.2,0,42316.3,16149.6
step02_gravity_refstate-crust.xmf,1953,-5.68249e-07,1.68779e-05,0,-9.91848e-06,-1.07387e+09,-1.07267e+09,-1.07383e+09,-680408,-0.0218149,0.196828,-0,0.198033,3886.13,-39119.1,0,39311.6,680408
step02_gravity_refstate-crust.xmf,1954,4.1523e-07,1.41549e-05,0,-9.01725e-06,-1.05044e+09,-1.0495e+09,-1.05047e+09,-618583,-0.0243205,0.201925,-0,0.203384,4390.57,-38265.9,0,38517,618583
step02_gravity_refstate-crust.xmf,1955,9.51493e-07,1.10304e-05,0,-7.39417e-06,-1.02172e+09,-1.02103e+09,-1.02179e+09,-507240,-0.0228077,0.200592,-0,0.201885,5225.6,-37217.7,0,37582.8,507240
step02_gravity_refstate-crust.xmf,1956,8.00447e-07,1.23931e-05,0,-8.15905e-06,-1.03565e+09,-1.03486e+09,-1.03571e+09,-559711,-0.0240423,0.201479,-0,0.202908,4831.72,-37726.5,0,38034.6,559711
step02_gravity_refstate-crust.xmf,1957,7.84776e-10,6.92215e-06,0,-4.15507e-06,-9.44974e+08,-9.44499e+08,-9.44974e+08,-285038,-0.00836716,0.190862,-0,0.191045,7339.62,-34413.4,0,35187.4,285038
step02_gravity_refstate-crust.xmf,1958,3.51995e-07,7.42711e-06,0,-4.66247e-06,-9.61742e+08,-9.61257e+08,-9.61766e+08,-319845,-0.0119137,0.192869,-0,0.193237,6900.02,-35026.1,0,35699.3,319845
step02_gravity_refstate-crust.xmf,1959,9.68112e-07,9.87389e-06,0,-6.64604e-06,-1.0079e+09,-1.00729e+09,-1.00797e+09,-455918,-0.0208798,0.198913,-0,0.200005,5630.47,-36712.9,0,37142.1,455918
step02_gravity_refstate-crust.xmf,1960,8.65965e-07,8.89467e-06,0,-5.92849e-06,-9.93495e+08,-9.92944e+08,-9.93554e+08,-406695,-0.0183666,0.19691,-0,0.197765,6045.46,-36186.4,0,36688,406695
step02_gravity_refstate-crust.xmf,1961,6.50063e-07,8.07665e-06,0,-5.25722e-06,-9.77943e+08,-9.77433e+08,-9.77987e+08,-360646,-0.0153037,0.194883,-0,0.195483,6470.65,-35618.1,0,36201.1,360646
step02_gravity_refstate-crust.xmf,1962,-3.41904e-07,3.20272e-06,0,-5.93268e-07,-6.58913e+08,-6.5867e+08,-6.5889e+08,-40698.2,0.00215627,0.118114,0,0.118134,30734.5,-23992,0,38990.1,40698.2
step02_gravity_refstate-crust.xmf,1963,-3.05075e-07,2.98831e-06,0,-4.03304e-07,-6.30243e+08,-6.30017e+08,-6.30222e+08,-27666.6,0.00159178,0.11686,0,0.116871,33876.8,-22948,0,40917.6,27666.6
step02_gravity_refstate-crust.xmf,1964,-3.91953e-07,3.48681e-06,0,-7.52348e-07,-6.96953e+08,-6.96687e+08,-6.96926e+08,-51611.1,0.00237155,0.119371,0,0.119395,27756.9,-25377.1,0,37609.1,51611.1
step02_gravity_refstate-crust.xmf,1965,-1.20323e-06,5.03448e-06,0,-2.02962e-06,-8.17586e+08,-8.17158e+08,-8.17503e+08,-139232,0.00628057,0.158881,0,0.159005,13415.6,-29767.9,0,32651.3,139232
step02_gravity_refstate-crust.xmf,1966,-1.07258e-06,4.93998e-06,0,-1.80942e-06,-8.1742e+08,-8.17008e+08,-8.17347e+08,-124126,0.00510594,0.152124,0,0.152209,14465.9,-29762.3,0,33091.7,124126
step02_gravity_refstate-crust.xmf,1967,-9.85508e-07,4.68421e-06,0,-1.62287e-06,-7.93797e+08,-7.93408e+08,-7.9373e+08,-111329,0.00531371,0.146454,0,0.14655,16179.6,-28902.3,0,33122.8,111329
step02_gravity_refstate-crust.xmf,1968,-8.67921e-07,4.45649e-06,0,-1.43878e-06,-7.76141e+08,-7.75776e+08,-7.76082e+08,-98700.4,0.00483229,0.140276,0,0.140359,18014,-28259.6,0,33512.8,98700.4
step02_gravity_refstate-crust.xmf,1969,-8.61904e-07,4.30243e-06,0,-1.41168e-06,-7.55732e+08,-7.55377e+08,-7.55672e+08,-96841.5,0.00534092,0.139814,0,0.139916,18838.3,-27516.3,0,33347.1,96841.5
step02_gravity_refstate-crust.xmf,1970,-7.57957e-07,4.22127e-06,0,-1.2716e-06,-7.57317e+08,-7.56975e+08,-7.57265e+08,-87231.4,0.00429621,0.134591,0,0.13466,20026,-27574.4,0,34079.1,87231.4
step02_gravity_refstate-crust.xmf,1971,-6.61638e-07,3.93301e-06,0,-1.14158e-06,-7.25344e+08,-7.25028e+08,-7.25298e+08,-78312.6,0.00424801,0.131123,0,0.131191,22235.9,-26410.3,0,34524.5,78312.6
step02_gravity_refstate-crust.xmf,1972,-5.57851e-07,3.8339e-06,0,-1.00351e-06,-7.26046e+08,-7.25745e+08,-7.26008e+08,-68841.1,0.00328898,0.126035,0,0.126078,23769.2,-26436.1,0,35550.5,68841.1
step02_gravity_refstate-crust.xmf,1973,-4.52323e-07,3.73803e-06,0,-8.70417e-07,-7.27336e+08,-7.27048e+08,-7.27305e+08,-59710.6,0.00243814,0.121236,0,0.121261,25377.9,-26483.3,0,36679.7,59710.6
step02_gravity_refstate-crust.xmf,1974,-6.31015e-07,6.07141e-06,0,-2.94305e-06,-9.09472e+08,-9.09012e+08,-9.09428e+08,-201893,-0.00193658,0.177454,-0,0.177465,9091.56,-33117.1,0,34342.4,201893
step02_gravity_refstate-crust.xmf,1975,-5.22589e-07,5.89513e-06,0,-2.55017e-06,-9.10271e+08,-9.09831e+08,-9.10235e+08,-174942,-0.00259229,0.168053,-0,0.168073,9992.44,-33146.4,0,34619.8,174942
step02_gravity_refstate-crust.xmf,1976,-2.76277e-07,2.92388e-06,0,-2.59781e-07,-6.25713e+08,-6.25493e+08,-6.25694e+08,-17820.9,0.0010091,0.115309,0,0.115313,36048.8,-22783.1,0,42644.9,17820.9
step02_gravity_refstate-crust.xmf,1977,-2.85884e-07,2.83252e-06,0,-1.24362e-07,-6.08578e+08,-6.08364e+08,-6.08558e+08,-8531.24,0.000523003,0.115966,0,0.115967,38141.9,-22159.1,0,44111.6,8531.24
step02_gravity_refstate-crust.xmf,1978,-3.41944e-07,2.69822e-06,0,-1.47998e-09,-5.75784e+08,-5.75576e+08,-5.75761e+08,-101.527,3.76422e-20,0.118939,0,0.118939,40000,-20964.8,0,45161.1,101.527
step02_gravity_refstate-crust.xmf,1979,6.97696e-08,1.51121e-05,0,-9.41428e-06,-1.06543e+09,-1.0644e+09,-1.06544e+09,-645820,-0.0231736,0.195759,-0,0.197126,4277.85,-38811.9,0,39046.9,645820
step02_gravity_refstate-crust.xmf,1980,-2.40061e-07,3.21371e-06,0,-4.43097e-07,-6.7988e+08,-6.79643e+08,-6.79863e+08,-30396.4,0.00124098,0.112793,0,0.1128,32629.2,-24755.7,0,40957.4,30396.4
step02_gravity_refstate-crust.xmf,1981,-2.57422e-07,3.36422e-06,0,-5.45354e-07,-7.00771e+08,-7.00523e+08,-7.00754e+08,-37411.3,0.00134189,0.113197,0,0.113204,30682.5,-25516.4,0,39906.2,37411.3
step02_gravity_refstate-crust.xmf,1982,-3.54316e-07,3.64731e-06,0,-7.4559e-07,-7.29257e+08,-7.28983e+08,-7.29233e+08,-51147.5,0.00171181,0.116806,0,0.116819,27042.9,-26553.6,0,37900,51147.5
step02_gravity_refstate-crust.xmf,1983,-2.73984e-07,3.53154e-06,0,-6.26065e-07,-7.25001e+08,-7.2474e+08,-7.24982e+08,-42948.1,0.00124185,0.113299,0,0.113306,28942.9,-26398.8,0,39173.8,42948.1
step02_gravity_refstate-crust.xmf,1984,-1.09742e-06,5.21371e-06,0,-2.01528e-06,-8.41073e+08,-8.4064e+08,-8.40998e+08,-138249,0.00446778,0.158499,0,0.158562,12841.3,-30623.7,0,33207.1,138249
step02_gravity_refstate-crust.xmf,1985,-9.23051e-07,4.85232e-06,0,-1.61065e-06,-8.18521e+08,-8.18124e+08,-8.18457e+08,-110491,0.00396512,0.145785,0,0.145839,15515.2,-29802.8,0,33599.6,110491
step02_gravity_refstate-crust.xmf,1986,-8.41664e-07,4.61998e-06,0,-1.4407e-06,-7.99408e+08,-7.99034e+08,-7.99351e+08,-98832.1,0.00391783,0.140037,0,0.140092,17253.6,-29107,0,33836.4,98832.1
step02_gravity_refstate-crust.xmf,1987,-6.22279e-07,4.12974e-06,0,-1.11376e-06,-7.59931e+08,-7.59605e+08,-7.59888e+08,-76404.1,0.00318226,0.128785,0,0.128825,21456.2,-27669.9,0,35014.2,76404.1
step02_gravity_refstate-crust.xmf,1988,-2.5954e-07,6.31607e-06,0,-3.18649e-06,-9.28758e+08,-9.28307e+08,-9.2874e+08,-218593,-0.00530247,0.178548,-0,0.178626,8608.03,-33821.1,0,34899.4,218593
step02_gravity_refstate-crust.xmf,1989,1.10785e-07,6.62054e-06,0,-3.54058e-06,-9.46508e+08,-9.46062e+08,-9.46516e+08,-242884,-0.00863042,0.180186,-0,0.180392,8121.28,-34469.3,0,35413.1,242884
step02_gravity_refstate-crust.xmf,1990,-9.41094e-07,5.38461e-06,0,-2.02711e-06,-8.64011e+08,-8.63577e+08,-8.63946e+08,-139060,0.00236256,0.158436,0,0.158454,12245.1,-31459.7,0,33758.8,139060
step02_gravity_refstate-crust.xmf,1991,-7.17231e-07,5.57544e-06,0,-2.10642e-06,-8.88145e+08,-8.87713e+08,-8.88096e+08,-144500,-0.000204688,0.159317,-0,0.159317,11512.3,-32339.5,0,34327.5,144500
step02_gravity_refstate-crust.xmf,1992,-4.11754e-07,5.74095e-06,0,-2.21282e-06,-9.1116e+08,-9.10738e+08,-9.11132e+08,-151800,-0.00317296,0.15928,-0,0.159311,10943,-33178.9,0,34937,151800
step02_gravity_refstate-crust.xmf,1993,-9.37118e-07,1.70996e-05,0,-1.01087e-05,-1.0877e+09,-1.08646e+09,-1.08763e+09,-693459,-0.0188374,0.187551,-0,0.188495,3938.1,-39621.4,0,39816.6,693459
step02_gravity_refstate-crust.xmf,1994,-4.96736e-08,1.46708e-05,0,-9.33781e-06,-1.08053e+09,-1.07952e+09,-1.08053e+09,-640574,-0.0207882,0.183336,-0,0.184511,4572.08,-39360.3,0,39624.9,640574
step02_gravity_refstate-crust.xmf,1995,5.26042e-07,1.3596e-05,0,-8.7827e-06,-1.06352e+09,-1.06262e+09,-1.06355e+09,-602493,-0.0232578,0.189875,-0,0.191294,4731.96,-38741.6,0,39029.6,602493
step02_gravity_refstate-crust.xmf,1996,9.15444e-07,1.22933e-05,0,-8.11931e-06,-1.05178e+09,-1.051e+09,-1.05185e+09,-556985,-0.0238032,0.189992,-0,0.191477,5092.47,-38314,0,38650.9,556985
step02_gravity_refstate-crust.xmf,1997,1.25217e-06,9.89715e-06,0,-6.58308e-06,-1.02446e+09,-1.02387e+09,-1.02454e+09,-451599,-0.0222997,0.188792,-0,0.190104,5889.02,-37316.8,0,37778.6,451599
step02_gravity_refstate-crust.xmf,1998,1.16812e-06,1.09833e-05,0,-7.3291e-06,-1.03795e+09,-1.03728e+09,-1.03803e+09,-502776,-0.0234609,0.189747,-0,0.191192,5491.31,-37809.5,0,38206.2,502776
step02_gravity_refstate-crust.xmf,1999,4.71984e-07,7.01061e-06,0,-3.9875e-06,-9.63616e+08,-9.63167e+08,-9.63648e+08,-273542,-0.0119614,0.18181,-0,0.182203,7658.1,-35094.2,0,35920,273542
step02_gravity_refstate-crust.xmf,2000,7.97704e-07,7.50931e-06,0,-4.51847e-06,-9.80082e+08,-9.79622e+08,-9.80137e+08,-309967,-0.0151451,0.183411,-0,0.184036,7212.25,-35695.7,0,36417,309967
step02_gravity_refstate-crust.xmf,2001,1.2288e-06,8.97721e-06,0,-5.85635e-06,-1.01143e+09,-1.0109e+09,-1.01152e+09,-401746,-0.0205625,0.186934,-0,0.188061,6310.47,-36841.1,0,37377.7,401746
step02_gravity_refstate-crust.xmf,2002,1.07377e-06,8.17013e-06,0,-5.15495e-06,-9.96921e+08,-9.96434e+08,-9.96995e+08,-353629,-0.0181881,0.184824,-0,0.185717,6767.19,-36310.9,0,36936.1,353629
step02_gravity_refstate-crust.xmf,2003,-1.84306e-07,3.13417e-06,0,-2.92377e-07,-6.77077e+08,-6.7685e+08,-6.77065e+08,-20057.1,0.000761484,0.11042,0,0.110423,35083.1,-24653.8,0,42879.3,20057.1
step02_gravity_refstate-crust.xmf,2004,-9.51625e-07,5.11393e-06,0,-1.78647e-06,-8.41991e+08,-8.41575e+08,-8.41926e+08,-122552,0.00332015,0.151409,0,0.151445,13863.6,-30657.6,0,33646.5,122552
step02_gravity_refstate-crust.xmf,2005,-8.37161e-07,5.00503e-06,0,-1.60987e-06,-8.41983e+08,-8.41583e+08,-8.41926e+08,-110437,0.00240975,0.145161,0,0.145181,14885.6,-30657.6,0,34080.4,110437
step02_gravity_refstate-crust.xmf,2006,-7.76102e-07,4.78016e-06,0,-1.43513e-06,-8.24177e+08,-8.23796e+08,-8.24124e+08,-98450.1,0.00263494,0.139405,0,0.13943,16527.4,-30009.3,0,34259.4,98450.1
step02_gravity_refstate-crust.xmf,2007,-6.93016e-07,4.42869e-06,0,-1.23458e-06,-7.92874e+08,-7.92523e+08,-7.92827e+08,-84692,0.00285488,0.132308,0,0.132339,19212.3,-28869.4,0,34677.9,84692
step02_gravity_refstate-crust.xmf,2008,-7.27311e-07,4.55313e-06,0,-1.30296e-06,-8.0442e+08,-8.04057e+08,-8.0437e+08,-89382.8,0.00278796,0.134548,0,0.134577,18253.6,-29289.8,0,34512.1,89382.8
step02_gravity_refstate-crust.xmf,2009,-5.64891e-07,4.31528e-06,0,-1.08875e-06,-7.94363e+08,-7.94029e+08,-7.94325e+08,-74688.5,0.00185524,0.126317,0,0.12633,20679.1,-28924,0,35555.9,74688.5
step02_gravity_refstate-crust.xmf,2010,-5.06839e-07,4.02884e-06,0,-9.78807e-07,-7.61704e+08,-7.61393e+08,-7.61669e+08,-67146.2,0.00225595,0.123487,0,0.123508,22949.7,-27734.8,0,35998.7,67146.2
step02_gravity_refstate-crust.xmf,2011,-4.03503e-07,3.9265e-06,0,-8.56171e-07,-7.63686e+08,-7.63389e+08,-7.63658e+08,-58733.3,0.00146006,0.118503,0,0.118512,24524.3,-27807.2,0,37076.7,58733.3
step02_gravity_refstate-crust.xmf,2012,-2.99351e-07,3.83246e-06,0,-7.3728e-07,-7.66851e+08,-7.66568e+08,-7.66831e+08,-50577.4,0.000773199,0.113771,0,0.113773,26166.2,-27922.7,0,38266.8,50577.4
step02_gravity_refstate-crust.xmf,2013,-1.40447e-07,6.11364e-06,0,-2.74319e-06,-9.31239e+08,-9.3081e+08,-9.31229e+08,-188183,-0.00592136,0.168544,-0,0.168648,9478.47,-33911.6,0,35211.3,188183
step02_gravity_refstate-crust.xmf,2014,-4.74747e-08,5.90588e-06,0,-2.40484e-06,-9.33728e+08,-9.3332e+08,-9.33725e+08,-164972,-0.00640712,0.159104,-0,0.159233,10412.9,-34002.3,0,35561,164972
step02_gravity_refstate-crust.xmf,2015,-1.49619e-07,3.09313e-06,0,-1.40472e-07,-6.76847e+08,-6.76624e+08,-6.76836e+08,-9636.36,0.00034526,0.108812,0,0.108813,37593.8,-24645.5,0,44952.1,9636.36
step02_gravity_refstate-crust.xmf,2016,-2.11579e-07,2.95212e-06,0,-2.41319e-09,-6.42061e+08,-6.41844e+08,-6.42046e+08,-165.545,2.60828e-20,0.112118,0,0.112118,40000,-23378.6,0,46331,165.545
step02_gravity_refstate-crust.xmf,2017,-1.35871e-07,3.4162e-06,0,-4.21068e-07,-7.32109e+08,-7.31865e+08,-7.321e+08,-28885.2,0.000442268,0.107091,0,0.107092,32175.2,-26657.9,0,41783.8,28885.2
step02_gravity_refstate-crust.xmf,2018,-9.65366e-08,3.32821e-06,0,-3.11461e-07,-7.25753e+08,-7.25518e+08,-7.25747e+08,-21366.2,0.000308312,0.105502,0,0.105503,34212.4,-26426.5,0,43230.2,21366.2
step02_gravity_refstate-crust.xmf,2019,-1.69481e-07,3.50897e-06,0,-5.04737e-07,-7.40349e+08,-7.40096e+08,-7.40337e+08,-34625,0.000515907,0.108393,0,0.108394,30591.1,-26957.9,0,40774.3,34625
step02_gravity_refstate-crust.xmf,2020,-2.07871e-07,3.73796e-06,0,-6.26525e-07,-7.68678e+08,-7.68407e+08,-7.68663e+08,-42979.6,0.000282626,0.109633,0,0.109633,27893.1,-27989.4,0,39515,42979.6
step02_gravity_refstate-crust.xmf,2021,-7.98925e-07,5.27455e-06,0,-1.79791e-06,-8.65701e+08,-8.65284e+08,-8.65646e+08,-123337,0.00130012,0.151083,0,0.151089,13232,-31521.6,0,34186.2,123337
step02_gravity_refstate-crust.xmf,2022,-7.30797e-07,4.9096e-06,0,-1.47206e-06,-8.42015e+08,-8.41628e+08,-8.41965e+08,-100983,0.00168549,0.140003,0,0.140013,15808.7,-30659,0,34494.8,100983
step02_gravity_refstate-crust.xmf,2023,-6.28538e-07,4.71207e-06,0,-1.28057e-06,-8.32401e+08,-8.32035e+08,-8.32358e+08,-87847.4,0.0012602,0.132898,0,0.132904,17576.7,-30309.2,0,35036.9,87847.4
step02_gravity_refstate-crust.xmf,2024,-4.42751e-07,4.21041e-06,0,-9.58132e-07,-7.9638e+08,-7.96061e+08,-7.9635e+08,-65727.8,0.00101678,0.120897,0,0.120901,22142.1,-28997.7,0,36484.8,65727.8
step02_gravity_refstate-crust.xmf,2025,2.17144e-07,6.36312e-06,0,-3.0734e-06,-9.49218e+08,-9.48796e+08,-9.49233e+08,-210835,-0.00898951,0.170312,-0,0.170549,8920.63,-34567.9,0,35700.4,210835
step02_gravity_refstate-crust.xmf,2026,5.31416e-07,6.67093e-06,0,-3.47743e-06,-9.65127e+08,-9.64706e+08,-9.65164e+08,-238552,-0.0118413,0.172149,-0,0.172555,8417.62,-35148.9,0,36142.8,238552
step02_gravity_refstate-crust.xmf,2027,-5.84441e-07,5.4325e-06,0,-1.84803e-06,-8.89714e+08,-8.89301e+08,-8.89674e+08,-126775,-0.00110517,0.150939,-0,0.150943,12577.5,-32397,0,34752.8,126775
step02_gravity_refstate-crust.xmf,2028,-3.14293e-07,5.58252e-06,0,-1.94932e-06,-9.12808e+08,-9.12404e+08,-9.12787e+08,-133723,-0.00377135,0.150841,-0,0.150888,11957.5,-33239.1,0,35324.5,133723
step02_gravity_refstate-crust.xmf,2029,6.20131e-09,5.73847e-06,0,-2.12051e-06,-9.35495e+08,-9.35102e+08,-9.35496e+08,-145467,-0.00667801,0.150685,-0,0.150832,11370.7,-34066.5,0,35914.1,145467
step02_gravity_refstate-crust.xmf,2030,7.33394e-07,1.23282e-05,0,-8.23972e-06,-1.06931e+09,-1.06852e+09,-1.06936e+09,-565245,-0.0222573,0.178694,-0,0.180075,5333.66,-38951.4,0,39314.9,565245
step02_gravity_refstate-crust.xmf,2031,1.1615e-06,1.09708e-05,0,-7.37408e-06,-1.0538e+09,-1.05313e+09,-1.05388e+09,-505862,-0.0230303,0.179507,-0,0.180978,5760.71,-38386.5,0,38816.3,505862
step02_gravity_refstate-crust.xmf,2032,1.41294e-06,9.06823e-06,0,-5.97379e-06,-1.0276e+09,-1.02707e+09,-1.0277e+09,-409802,-0.0216753,0.178649,-0,0.179959,6519.39,-37430.5,0,37994,409802
step02_gravity_refstate-crust.xmf,2033,1.35048e-06,9.90421e-06,0,-6.61993e-06,-1.04017e+09,-1.03958e+09,-1.04026e+09,-454127,-0.022667,0.179253,-0,0.18068,6156.89,-37889.2,0,38386.2,454127
step02_gravity_refstate-crust.xmf,2034,8.56902e-07,7.05261e-06,0,-3.93979e-06,-9.81779e+08,-9.81354e+08,-9.81838e+08,-270270,-0.0147813,0.173195,-0,0.173825,7974.41,-35757,0,36635.5,270270
step02_gravity_refstate-crust.xmf,2035,1.15253e-06,7.57358e-06,0,-4.52761e-06,-9.99274e+08,-9.98833e+08,-9.99353e+08,-310594,-0.0176625,0.174128,-0,0.175022,7518.5,-36395.9,0,37164.4,310594
step02_gravity_refstate-crust.xmf,2036,1.37126e-06,8.29836e-06,0,-5.2767e-06,-1.01842e+09,-1.01795e+09,-1.01852e+09,-361981,-0.0202824,0.174583,-0,0.175758,7046.71,-37095.1,0,37758.5,361981
step02_gravity_refstate-crust.xmf,2037,-6.84393e-08,3.269e-06,0,-2.06002e-07,-7.21496e+08,-7.21267e+08,-7.21491e+08,-14131.7,0.000194662,0.104413,0,0.104413,36165.7,-26271.6,0,44700.7,14131.7
step02_gravity_refstate-crust.xmf,2038,-1.28163e-07,3.65286e-06,0,-5.22771e-07,-7.70422e+08,-7.70162e+08,-7.70413e+08,-35862.1,-5.59733e-05,0.106049,-0,0.106049,29650.4,-28053.1,0,40818.2,35862.1
step02_gravity_refstate-crust.xmf,2039,-5.50388e-08,3.58091e-06,0,-4.18952e-07,-7.7344e+08,-7.73191e+08,-7.73436e+08,-28740.1,-0.000290354,0.102743,-0,0.102744,31504.5,-28163.2,0,42257.5,28740.1
step02_gravity_refstate-crust.xmf,2040,-6.81803e-07,5.15328e-06,0,-1.60688e-06,-8.66093e+08,-8.65693e+08,-8.66046e+08,-110232,0.00047513,0.144252,0,0.144253,14287.8,-31536.2,0,34621.9,110232
step02_gravity_refstate-crust.xmf,2041,-5.95294e-07,5.02833e-06,0,-1.4555e-06,-8.64923e+08,-8.64537e+08,-8.64882e+08,-99847.3,-9.5339e-05,0.138261,-0,0.138261,15364.4,-31493.8,0,35041.7,99847.3
step02_gravity_refstate-crust.xmf,2042,-5.43044e-07,4.8844e-06,0,-1.31754e-06,-8.58539e+08,-8.58167e+08,-8.58502e+08,-90383,-0.000224322,0.133044,-0,0.133044,16589.2,-31261.3,0,35390.3,90383
step02_gravity_refstate-crust.xmf,2043,-5.52721e-07,4.60521e-06,0,-1.17387e-06,-8.30539e+08,-8.30185e+08,-8.30501e+08,-80527.6,0.000748502,0.128369,0,0.128371,18673.4,-30241.5,0,35542.2,80527.6
step02_gravity_refstate-crust.xmf,2044,-4.63222e-07,4.49072e-06,0,-1.06283e-06,-8.29017e+08,-8.28677e+08,-8.28985e+08,-72910.2,0.000212677,0.123557,0,0.123557,19934.1,-30186.3,0,36174.3,72910.2
step02_gravity_refstate-crust.xmf,2045,-3.59326e-07,4.37944e-06,0,-9.46983e-07,-8.30501e+08,-8.30176e+08,-8.30477e+08,-64963,-0.000448259,0.118225,-0,0.118225,21345.8,-30240.6,0,37015.3,64963
step02_gravity_refstate-crust.xmf,2046,-3.37851e-07,4.1051e-06,0,-8.42988e-07,-7.98154e+08,-7.97849e+08,-7.98131e+08,-57828.9,0.000341128,0.115939,0,0.115939,23656.4,-29062.6,0,37473.4,57828.9
step02_gravity_refstate-crust.xmf,2047,-1.33717e-07,3.92095e-06,0,-6.24372e-07,-8.0848e+08,-8.08202e+08,-8.08471e+08,-42831.9,-0.000825254,0.106064,-0,0.106068,26960,-29439.1,0,39918.7,42831.9
step02_gravity_refstate-crust.xmf,2048,-2.31342e-07,4.01193e-06,0,-7.30137e-07,-8.03992e+08,-8.03701e+08,-8.03976e+08,-50087.4,-0.00036014,0.110675,-0,0.110676,25275.2,-29275.4,0,38676.7,50087.4
step02_gravity_refstate-crust.xmf,2049,3.79628e-07,6.13807e-06,0,-2.71936e-06,-9.5676e+08,-9.56365e+08,-9.56786e+08,-186548,-0.00991621,0.159438,-0,0.159746,9825.64,-34842.8,0,36201.7,186548
step02_gravity_refstate-crust.xmf,2050,3.77028e-07,5.90437e-06,0,-2.37486e-06,-9.58474e+08,-9.58095e+08,-9.585e+08,-162916,-0.00977061,0.149879,-0,0.150197,10866.5,-34904.9,0,36557.2,162916
step02_gravity_refstate-crust.xmf,2051,-7.17726e-08,3.18863e-06,0,-1.40461e-09,-7.07743e+08,-7.07519e+08,-7.07738e+08,-96.3559,1.68694e-21,0.104775,0,0.104775,40000,-25770.7,0,47582.9,96.3559
step02_gravity_refstate-crust.xmf,2052,1.43452e-07,1.31782e-05,0,-8.72042e-06,-1.08577e+09,-1.08487e+09,-1.08578e+09,-598221,-0.0197432,0.17193,-0,0.17306,5264.09,-39549.5,0,39898.3,598221
step02_gravity_refstate-crust.xmf,2053,1.43009e-06,8.93805e-06,0,-5.88199e-06,-1.04081e+09,-1.04029e+09,-1.04091e+09,-403504,-0.0216236,0.169203,-0,0.170579,6915.62,-37911.3,0,38536.9,403504
step02_gravity_refstate-crust.xmf,2054,-3.49474e-09,3.50761e-06,0,-3.19653e-07,-7.72411e+08,-7.7217e+08,-7.7241e+08,-21928.2,-0.000325076,0.100485,-0,0.100485,33442.3,-28125.8,0,43697.2,21928.2
step02_gravity_refstate-crust.xmf,2055,4.31759e-08,3.44532e-06,0,-2.02338e-07,-7.71547e+08,-7.71313e+08,-7.7155e+08,-13880.4,-0.000265936,0.0985506,-0,0.0985509,35779,-28094.4,0,45491,13880.4
step02_gravity_refstate-crust.xmf,2056,-8.57832e-10,3.31553e-06,0,-1.0423e-07,-7.4222e+08,-7.41992e+08,-7.4222e+08,-7150.14,-6.65313e-06,0.101051,-0,0.101051,37936.4,-27026.4,0,46578.9,7150.14
step02_gravity_refstate-crust.xmf,2057,-5.06363e-08,3.83235e-06,0,-5.25705e-07,-8.11442e+08,-8.11176e+08,-8.11439e+08,-36063.4,-0.00107522,0.10213,-0,0.102136,28714.2,-29547.1,0,41201.2,36063.4
step02_gravity_refstate-crust.xmf,2058,-4.82147e-07,5.29671e-06,0,-1.64645e-06,-8.90602e+08,-8.90206e+08,-8.90569e+08,-112946,-0.00177986,0.143578,-0,0.143589,13645.5,-32429.5,0,35183.4,112946
step02_gravity_refstate-crust.xmf,2059,-4.16924e-07,4.76876e-06,0,-1.17111e-06,-8.61861e+08,-8.61505e+08,-8.61832e+08,-80338,-0.00111264,0.126342,-0,0.126347,17902.8,-31382.6,0,36130,80338
step02_gravity_refstate-crust.xmf,2060,-2.48752e-07,4.27828e-06,0,-8.33091e-07,-8.34392e+08,-8.34081e+08,-8.34375e+08,-57150.1,-0.00109904,0.112852,-0,0.112858,22830.5,-30382.5,0,38004.3,57150.1
step02_gravity_refstate-crust.xmf,2061,5.82662e-07,6.42576e-06,0,-3.14047e-06,-9.67596e+08,-9.67196e+08,-9.67636e+08,-215436,-0.0118588,0.164299,-0,0.164727,9083.27,-35238.6,0,36390.5,215436
step02_gravity_refstate-crust.xmf,2062,8.37221e-07,6.68141e-06,0,-3.46728e-06,-9.82052e+08,-9.81651e+08,-9.82109e+08,-237855,-0.0141605,0.164369,-0,0.164978,8748.05,-35766.3,0,36820.6,237855
step02_gravity_refstate-crust.xmf,2063,-2.3521e-07,5.43716e-06,0,-1.73895e-06,-9.1457e+08,-9.1418e+08,-9.14553e+08,-119292,-0.00427539,0.143115,-0,0.143179,12997.8,-33303.3,0,35749.9,119292
step02_gravity_refstate-crust.xmf,2064,3.61753e-07,5.73693e-06,0,-2.12445e-06,-9.60937e+08,-9.60568e+08,-9.60962e+08,-145737,-0.00970977,0.141783,-0,0.142115,11841.2,-34994.2,0,36943.3,145737
step02_gravity_refstate-crust.xmf,2065,5.14486e-08,5.57949e-06,0,-1.89468e-06,-9.37867e+08,-9.37487e+08,-9.3787e+08,-129975,-0.00694523,0.142618,-0,0.142787,12387.9,-34152.8,0,36330.1,129975
step02_gravity_refstate-crust.xmf,2066,5.07112e-07,1.17903e-05,0,-7.98144e-06,-1.08266e+09,-1.08189e+09,-1.0827e+09,-547527,-0.0200961,0.166134,-0,0.167345,5873.68,-39435.8,0,39870.8,547527
step02_gravity_refstate-crust.xmf,2067,1.01064e-06,1.09153e-05,0,-7.40753e-06,-1.06726e+09,-1.06658e+09,-1.06733e+09,-508157,-0.0218701,0.170605,-0,0.172001,6032.57,-38875.6,0,39340.9,508157
step02_gravity_refstate-crust.xmf,2068,1.25459e-06,9.96548e-06,0,-6.72186e-06,-1.05663e+09,-1.05603e+09,-1.05672e+09,-461119,-0.0220862,0.169501,-0,0.170934,6449.34,-38488.1,0,39024.7,461119
step02_gravity_refstate-crust.xmf,2069,1.14173e-06,7.09319e-06,0,-3.99464e-06,-1.00055e+09,-1.00014e+09,-1.00063e+09,-274032,-0.0169099,0.164569,-0,0.165435,8302.94,-36441.5,0,37375.4,274032
step02_gravity_refstate-crust.xmf,2070,1.35529e-06,7.64354e-06,0,-4.63683e-06,-1.01894e+09,-1.01851e+09,-1.01903e+09,-318086,-0.0192216,0.164675,-0,0.165793,7853.97,-37112.8,0,37934.8,318086
step02_gravity_refstate-crust.xmf,2071,1.43122e-06,8.20725e-06,0,-5.21547e-06,-1.03364e+09,-1.03317e+09,-1.03374e+09,-357781,-0.0205903,0.164572,-0,0.165855,7493,-37649.2,0,38387.6,357781
step02_gravity_refstate-crust.xmf,2072,1.90201e-08,3.74702e-06,0,-4.30459e-07,-8.12807e+08,-8.12551e+08,-8.12808e+08,-29529.5,-0.00113703,0.0988561,-0,0.0988627,30563.7,-29596.9,0,42545.5,29529.5
step02_gravity_refstate-crust.xmf,2073,8.0747e-08,3.67608e-06,0,-3.35763e-07,-8.15005e+08,-8.14759e+08,-8.15011e+08,-23033.3,-0.00108397,0.0959725,-0,0.0959786,32497.1,-29677.1,0,44009,23033.3
step02_gravity_refstate-crust.xmf,2074,-4.00762e-07,5.16892e-06,0,-1.4821e-06,-8.90983e+08,-8.906e+08,-8.90955e+08,-101672,-0.0022981,0.136978,-0,0.136998,14728.4,-32443.5,0,35630.1,101672
step02_gravity_refstate-crust.xmf,2075,-3.39682e-07,5.03739e-06,0,-1.33989e-06,-8.89921e+08,-8.89552e+08,-8.89898e+08,-91916.6,-0.00262594,0.130905,-0,0.130931,15886.5,-32404.9,0,36089.6,91916.6
step02_gravity_refstate-crust.xmf,2076,-2.71951e-07,4.91422e-06,0,-1.2095e-06,-8.89864e+08,-8.89509e+08,-8.89846e+08,-82971.8,-0.00299352,0.124976,-0,0.125011,17108.2,-32402.9,0,36642.1,82971.8
step02_gravity_refstate-crust.xmf,2077,-3.39505e-07,4.65389e-06,0,-1.0622e-06,-8.61749e+08,-8.61407e+08,-8.61726e+08,-72866.9,-0.00157327,0.12117,-0,0.121181,19145.9,-31378.7,0,36758.5,72866.9
step02_gravity_refstate-crust.xmf,2078,-2.45935e-07,4.53791e-06,0,-9.47602e-07,-8.63621e+08,-8.63292e+08,-8.63604e+08,-65005.5,-0.00210573,0.115514,-0,0.115533,20575.1,-31447,0,37579.9,65005.5
step02_gravity_refstate-crust.xmf,2079,-1.56293e-07,4.43342e-06,0,-8.44324e-07,-8.66865e+08,-8.6655e+08,-8.66855e+08,-57920.6,-0.00257184,0.110227,-0,0.110257,22007.2,-31565.3,0,38479.7,57920.6
step02_gravity_refstate-crust.xmf,2080,-1.40063e-07,4.18764e-06,0,-7.24637e-07,-8.41465e+08,-8.41169e+08,-8.41456e+08,-49710.1,-0.00172863,0.107341,-0,0.107355,24399.1,-30640.3,0,39168.2,49710.1
step02_gravity_refstate-crust.xmf,2081,3.62777e-08,4.00826e-06,0,-5.32653e-07,-8.5214e+08,-8.51868e+08,-8.52143e+08,-36540,-0.00228864,0.0980853,-0,0.098112,27775.7,-31029.4,0,41645.1,36540
step02_gravity_refstate-crust.xmf,2082,-4.56321e-08,4.09618e-06,0,-6.26482e-07,-8.47654e+08,-8.4737e+08,-8.47651e+08,-42976.7,-0.00212874,0.102359,-0,0.102381,26053.4,-30865.9,0,40391.6,42976.7
step02_gravity_refstate-crust.xmf,2083,7.50252e-07,6.32912e-06,0,-3.00743e-06,-9.77773e+08,-9.7739e+08,-9.77824e+08,-206310,-0.0129382,0.156926,-0,0.157458,9586.56,-35609.6,0,36877.5,206310
step02_gravity_refstate-crust.xmf,2084,7.26235e-07,6.11455e-06,0,-2.71253e-06,-9.80403e+08,-9.80034e+08,-9.80453e+08,-186079,-0.0126681,0.148915,-0,0.149453,10408.3,-35705,0,37191.1,186079
step02_gravity_refstate-crust.xmf,2085,6.78371e-07,5.9234e-06,0,-2.43961e-06,-9.83215e+08,-9.82855e+08,-9.83262e+08,-167358,-0.0123332,0.140808,-0,0.141347,11337.7,-35806.8,0,37558.9,167358
step02_gravity_refstate-crust.xmf,2086,7.81632e-08,3.40694e-06,0,-1.3406e-09,-7.73032e+08,-7.72804e+08,-7.73038e+08,-91.965,-1.89362e-20,0.0969328,-0,0.0969328,40000,-28148.6,0,48911.6,91.965
step02_gravity_refstate-crust.xmf,2087,1.38928e-06,8.45865e-06,0,-5.50334e-06,-1.04861e+09,-1.04812e+09,-1.0487e+09,-377529,-0.0207559,0.159087,-0,0.160436,7576.56,-38194.3,0,38938.5,377529
step02_gravity_refstate-crust.xmf,2088,1.31178e-07,3.62332e-06,0,-2.443e-07,-8.17777e+08,-8.17537e+08,-8.17786e+08,-16759,-0.000918974,0.0936224,-0,0.093627,34451.3,-29778.1,0,45537.1,16759
step02_gravity_refstate-crust.xmf,2089,1.40417e-07,3.51023e-06,0,-8.90147e-08,-8.02176e+08,-8.01945e+08,-8.02186e+08,-6106.41,-0.000290101,0.0935833,-0,0.0935837,37982.5,-29210,0,47915.5,6106.41
step02_gravity_refstate-crust.xmf,2090,1.06615e-07,3.92511e-06,0,-4.4331e-07,-8.55439e+08,-8.55177e+08,-8.55446e+08,-30411,-0.0022549,0.094452,-0,0.094479,29564.5,-31149.6,0,42946,30411
step02_gravity_refstate-crust.xmf,2091,-1.74736e-07,5.30232e-06,0,-1.56386e-06,-9.15993e+08,-9.15618e+08,-9.15981e+08,-107281,-0.0046529,0.136021,-0,0.136101,14075.7,-33355.2,0,36203.5,107281
step02_gravity_refstate-crust.xmf,2092,-1.98212e-07,4.80153e-06,0,-1.08919e-06,-8.91303e+08,-8.9096e+08,-8.91289e+08,-74718.2,-0.00339948,0.11919,-0,0.119239,18376.8,-32455.4,0,37296.9,74718.2
step02_gravity_refstate-crust.xmf,2093,-5.69178e-08,4.34676e-06,0,-7.44402e-07,-8.73847e+08,-8.73545e+08,-8.73843e+08,-51066,-0.00307058,0.104829,-0,0.104874,23463.3,-31819.8,0,39535.1,51066
step02_gravity_refstate-crust.xmf,2094,1.07501e-06,6.70613e-06,0,-3.53213e-06,-1.00094e+09,-1.00055e+09,-1.00101e+09,-242304,-0.0160417,0.155932,-0,0.156755,9121.57,-36454.9,0,37578.8,242304
step02_gravity_refstate-crust.xmf,2095,8.19169e-08,5.43753e-06,0,-1.70532e-06,-9.40257e+08,-9.39889e+08,-9.40262e+08,-116985,-0.00713767,0.135105,-0,0.135293,13449.4,-34239.7,0,36786.5,116985
step02_gravity_refstate-crust.xmf,2096,6.06461e-07,5.77248e-06,0,-2.2065e-06,-9.86453e+08,-9.86099e+08,-9.86495e+08,-151366,-0.0120238,0.133181,-0,0.133723,12301.6,-35924.2,0,37972.1,151366
step02_gravity_refstate-crust.xmf,2097,3.51207e-07,5.58632e-06,0,-1.91517e-06,-9.63825e+08,-9.63466e+08,-9.63849e+08,-131381,-0.00964413,0.134062,-0,0.134409,12871.7,-35099.1,0,37384.9,131381
step02_gravity_refstate-crust.xmf,2098,8.29183e-07,1.03697e-05,0,-7.04686e-06,-1.0773e+09,-1.07665e+09,-1.07736e+09,-483415,-0.0202969,0.159539,-0,0.160825,6648.45,-39239.6,0,39798.8,483415
step02_gravity_refstate-crust.xmf,2099,1.22884e-06,9.18854e-06,0,-6.1346e-06,-1.06064e+09,-1.06009e+09,-1.06073e+09,-420834,-0.0210127,0.159644,-0,0.161021,7174.72,-38632.9,0,39293.5,420834
step02_gravity_refstate-crust.xmf,2100,1.29141e-06,7.18407e-06,0,-4.14816e-06,-1.02118e+09,-1.02078e+09,-1.02127e+09,-284564,-0.0183248,0.155526,-0,0.156602,8650.15,-37193.4,0,38186.1,284564
step02_gravity_refstate-crust.xmf,2101,1.36484e-06,7.83158e-06,0,-4.88802e-06,-1.041e+09,-1.04056e+09,-1.04109e+09,-335318,-0.0198822,0.15514,-0,0.156409,8159.65,-37916.3,0,38784.4,335318
step02_gravity_refstate-crust.xmf,2102,1.65259e-07,3.59116e-06,0,-1.65255e-07,-8.20118e+08,-8.19883e+08,-8.20129e+08,-11336.5,-0.000687091,0.0920648,-0,0.0920673,36193.5,-29863.4,0,46923.3,11336.5
step02_gravity_refstate-crust.xmf,2103,1.68398e-07,3.8498e-06,0,-3.54882e-07,-8.58343e+08,-8.58091e+08,-8.58355e+08,-24344.9,-0.0020621,0.0913073,-0,0.0913306,31459.9,-31255.5,0,44346.7,24344.9
step02_gravity_refstate-crust.xmf,2104,2.22177e-07,3.79016e-06,0,-2.68139e-07,-8.61889e+08,-8.61644e+08,-8.61904e+08,-18394.4,-0.00174415,0.0886088,-0,0.0886259,33419.5,-31384.7,0,45846.1,18394.4
step02_gravity_refstate-crust.xmf,2105,-1.27305e-07,5.17523e-06,0,-1.41196e-06,-9.17017e+08,-9.16653e+08,-9.17008e+08,-96860.4,-0.00492336,0.129435,-0,0.129529,15205,-33392.4,0,36691.2,96860.4
step02_gravity_refstate-crust.xmf,2106,-8.01759e-08,5.05489e-06,0,-1.28039e-06,-9.18328e+08,-9.17976e+08,-9.18323e+08,-87834.5,-0.00516009,0.123255,-0,0.123363,16374.7,-33440.2,0,37234.1,87834.5
step02_gravity_refstate-crust.xmf,2107,-4.4087e-08,4.94073e-06,0,-1.15778e-06,-9.18933e+08,-9.18591e+08,-9.1893e+08,-79424,-0.00528614,0.117559,-0,0.117678,17601.1,-33462.2,0,37808.9,79424
step02_gravity_refstate-crust.xmf,2108,-1.19266e-07,4.69204e-06,0,-9.77162e-07,-8.95214e+08,-8.94884e+08,-8.95206e+08,-67033.3,-0.00387598,0.113148,-0,0.113214,19755.4,-32597.9,0,38117,67033.3
step02_gravity_refstate-crust.xmf,2109,1.96983e-07,4.09935e-06,0,-4.63116e-07,-8.96814e+08,-8.96547e+08,-8.96828e+08,-31769.7,-0.00352391,0.0900216,-0,0.0900906,28585.1,-32656.6,0,43400,31769.7
step02_gravity_refstate-crust.xmf,2110,-3.71902e-08,4.58308e-06,0,-8.69478e-07,-8.9933e+08,-8.99013e+08,-8.99328e+08,-59646.2,-0.00423054,0.107339,-0,0.107422,21238.6,-32748,0,39032.1,59646.2
step02_gravity_refstate-crust.xmf,2111,3.27764e-08,4.49151e-06,0,-7.77262e-07,-9.03937e+08,-9.03631e+08,-9.03939e+08,-53320.2,-0.00447129,0.102306,-0,0.102404,22638.6,-32915.8,0,39949.5,53320.2
step02_gravity_refstate-crust.xmf,2112,7.18221e-08,4.28356e-06,0,-6.38018e-07,-8.90755e+08,-8.90466e+08,-8.9076e+08,-43768,-0.00378181,0.0979493,-0,0.0980223,25115.9,-32435.7,0,41023,43768
step02_gravity_refstate-crust.xmf,2113,1.31219e-07,4.17812e-06,0,-5.4736e-07,-8.91889e+08,-8.91612e+08,-8.91898e+08,-37548.9,-0.00364927,0.0939064,-0,0.0939773,26888.3,-32477.1,0,42163.3,37548.9
step02_gravity_refstate-crust.xmf,2114,1.02434e-06,6.40353e-06,0,-3.15625e-06,-1.00221e+09,-1.00184e+09,-1.00228e+09,-216518,-0.0152881,0.147778,-0,0.148567,9965.39,-36500.4,0,37836.3,216518
step02_gravity_refstate-crust.xmf,2115,9.37883e-07,6.18287e-06,0,-2.84821e-06,-1.00502e+09,-1.00466e+09,-1.00509e+09,-195387,-0.0146902,0.139819,-0,0.140589,10843.9,-36602.2,0,38174.7,195387
step02_gravity_refstate-crust.xmf,2116,8.4298e-07,6.0039e-06,0,-2.57499e-06,-1.00802e+09,-1.00766e+09,-1.00808e+09,-176644,-0.0141175,0.132283,-0,0.133034,11764.4,-36710.6,0,38549.6,176644
step02_gravity_refstate-crust.xmf,2117,2.32747e-07,3.61282e-06,0,-1.67179e-09,-8.38129e+08,-8.37897e+08,-8.38145e+08,-114.685,-4.59858e-20,0.0886105,-0,0.0886105,40000,-30519.5,0,50313.4,114.685
step02_gravity_refstate-crust.xmf,2118,1.24722e-06,8.46067e-06,0,-5.49931e-06,-1.06125e+09,-1.06076e+09,-1.06134e+09,-377253,-0.0200544,0.151328,-0,0.152651,7944.5,-38654.1,0,39462.1,377253
step02_gravity_refstate-crust.xmf,2119,2.64854e-07,3.74887e-06,0,-1.85317e-07,-8.65693e+08,-8.65454e+08,-8.65711e+08,-12712.7,-0.00131854,0.0864835,-0,0.0864936,35376.4,-31523.3,0,47383.6,12712.7
step02_gravity_refstate-crust.xmf,2120,2.96642e-07,3.71871e-06,0,-9.14336e-08,-8.6861e+08,-8.68375e+08,-8.68631e+08,-6272.34,-0.000685993,0.0849217,-0,0.0849245,37715.3,-31629.6,0,49222.7,6272.34
step02_gravity_refstate-crust.xmf,2121,2.54036e-07,4.02221e-06,0,-3.79697e-07,-9.00203e+08,-8.99944e+08,-9.0022e+08,-26047.2,-0.00320361,0.0867258,-0,0.0867849,30397.8,-32780,0,44705.2,26047.2
step02_gravity_refstate-crust.xmf,2122,1.00491e-07,5.30923e-06,0,-1.54089e-06,-9.42421e+08,-9.42063e+08,-9.42428e+08,-105705,-0.00724651,0.128128,-0,0.128332,14557.3,-34318.4,0,37278.3,105705
step02_gravity_refstate-crust.xmf,2123,1.40579e-09,4.84163e-06,0,-1.05029e-06,-9.20923e+08,-9.20591e+08,-9.20923e+08,-72049.8,-0.00545252,0.112339,-0,0.112471,18787.9,-33534.6,0,38439,72049.8
step02_gravity_refstate-crust.xmf,2124,9.99955e-08,4.42166e-06,0,-7.00887e-07,-9.10273e+08,-9.09976e+08,-9.10279e+08,-48080.8,-0.00467815,0.0978712,-0,0.097983,23891.2,-33146.6,0,40859.4,48080.8
step02_gravity_refstate-crust.xmf,2125,1.19265e-06,6.82445e-06,0,-3.72083e-06,-1.02323e+09,-1.02285e+09,-1.02332e+09,-255249,-0.0174262,0.147088,-0,0.148116,9475.97,-37267.3,0,38453.1,255249
step02_gravity_refstate-crust.xmf,2126,3.37022e-07,5.45977e-06,0,-1.73813e-06,-9.67051e+08,-9.66699e+08,-9.67074e+08,-119236,-0.00957774,0.12692,-0,0.127281,13923.3,-35216.3,0,37868.8,119236
step02_gravity_refstate-crust.xmf,2127,7.32131e-07,5.864e-06,0,-2.33096e-06,-1.01137e+09,-1.01102e+09,-1.01142e+09,-159904,-0.0136041,0.125209,-0,0.125946,12710.5,-36831.9,0,38963.4,159904
step02_gravity_refstate-crust.xmf,2128,5.55456e-07,5.63881e-06,0,-2.00204e-06,-9.90395e+08,-9.90047e+08,-9.90434e+08,-137340,-0.0117479,0.125761,-0,0.126308,13326.8,-36067.3,0,38450.7,137340
step02_gravity_refstate-crust.xmf,2129,8.36627e-07,9.41545e-06,0,-6.26707e-06,-1.07931e+09,-1.07872e+09,-1.07937e+09,-429921,-0.0193734,0.149791,-0,0.151038,7512.17,-39311.4,0,40022.7,429921
step02_gravity_refstate-crust.xmf,2130,1.25603e-06,7.33982e-06,0,-4.33437e-06,-1.04204e+09,-1.04162e+09,-1.04212e+09,-297338,-0.0187859,0.146505,-0,0.147705,9011.83,-37952.8,0,39008.1,297338
step02_gravity_refstate-crust.xmf,2131,1.1532e-06,7.93706e-06,0,-4.95699e-06,-1.0607e+09,-1.06023e+09,-1.06078e+09,-340050,-0.0192391,0.144669,-0,0.145942,8651.27,-38632.7,0,39589.6,340050
step02_gravity_refstate-crust.xmf,2132,3.55646e-07,3.91499e-06,0,-2.18612e-07,-9.10496e+08,-9.10252e+08,-9.10521e+08,-14996.8,-0.00221914,0.0810838,-0,0.0811141,34216,-33155,0,47644.4,14996.8
step02_gravity_refstate-crust.xmf,2133,3.08689e-07,3.96e-06,0,-2.96924e-07,-9.05103e+08,-9.04853e+08,-9.05125e+08,-20369,-0.00276825,0.0836542,-0,0.0837,32306.3,-32958.6,0,46151.5,20369
step02_gravity_refstate-crust.xmf,2134,1.11136e-07,5.19032e-06,0,-1.39358e-06,-9.44053e+08,-9.43704e+08,-9.4406e+08,-95599.4,-0.00726433,0.121715,-0,0.121932,15709.8,-34377.7,0,37797.1,95599.4
step02_gravity_refstate-crust.xmf,2135,1.2882e-07,5.0786e-06,0,-1.26237e-06,-9.45603e+08,-9.45263e+08,-9.45611e+08,-86598.6,-0.00724463,0.115827,-0,0.116053,16889,-34434,0,38352.8,86598.6
step02_gravity_refstate-crust.xmf,2136,1.44301e-07,4.97939e-06,0,-1.14545e-06,-9.47578e+08,-9.47246e+08,-9.47588e+08,-78578,-0.00722442,0.110421,-0,0.110657,18069.9,-34505.8,0,38950.9,78578
step02_gravity_refstate-crust.xmf,2137,1.20967e-07,4.76547e-06,0,-9.42948e-07,-9.36651e+08,-9.36332e+08,-9.36659e+08,-64686.2,-0.0063111,0.104232,-0,0.104423,20258.5,-34107.6,0,39670.3,64686.2
step02_gravity_refstate-crust.xmf,2138,3.37217e-07,4.19323e-06,0,-4.10986e-07,-9.40693e+08,-9.40428e+08,-9.40716e+08,-28193.7,-0.00445097,0.082107,-0,0.0822276,29395.5,-34254.7,0,45138.5,28193.7
step02_gravity_refstate-crust.xmf,2139,2.87226e-07,4.27235e-06,0,-4.93949e-07,-9.3714e+08,-9.36866e+08,-9.3716e+08,-33884.9,-0.00489637,0.0854887,-0,0.0856288,27655.5,-34125.3,0,43924.5,33884.9
step02_gravity_refstate-crust.xmf,2140,1.5262e-07,4.64543e-06,0,-8.25973e-07,-9.37393e+08,-9.37085e+08,-9.37404e+08,-56661.7,-0.00614146,0.0989409,-0,0.0991313,21883.6,-34134.5,0,40547,56661.7
step02_gravity_refstate-crust.xmf,2141,1.95913e-07,4.55403e-06,0,-7.33051e-07,-9.40869e+08,-9.4057e+08,-9.40882e+08,-50287.3,-0.00605418,0.0943426,-0,0.0945367,23323.1,-34261.1,0,41446.2,50287.3
step02_gravity_refstate-crust.xmf,2142,2.42967e-07,4.45664e-06,0,-6.36394e-07,-9.43742e+08,-9.43453e+08,-9.43758e+08,-43656.6,-0.00582555,0.0899787,-0,0.0901671,24915.4,-34365.7,0,42447.4,43656.6
step02_gravity_refstate-crust.xmf,2143,2.18798e-07,4.32613e-06,0,-5.66489e-07,-9.27435e+08,-9.27153e+08,-9.2745e+08,-38861.2,-0.00495414,0.0897396,-0,0.0898763,26230.6,-33771.8,0,42761.9,38861.2
step02_gravity_refstate-crust.xmf,2144,1.11439e-06,6.5438e-06,0,-3.35946e-06,-1.02624e+09,-1.02587e+09,-1.02632e+09,-230459,-0.0166147,0.13897,-0,0.139959,10335.7,-37376.1,0,38778.8,230459
step02_gravity_refstate-crust.xmf,2145,9.9448e-07,6.3245e-06,0,-3.02983e-06,-1.02927e+09,-1.0289e+09,-1.02934e+09,-207846,-0.0158491,0.131358,-0,0.132311,11229.8,-37485.4,0,39131.4,207846
step02_gravity_refstate-crust.xmf,2146,8.74646e-07,6.14087e-06,0,-2.72586e-06,-1.0313e+09,-1.03094e+09,-1.03136e+09,-186994,-0.0151193,0.124589,-0,0.125503,12135.5,-37558.5,0,39470.4,186994
step02_gravity_refstate-crust.xmf,2147,3.83714e-07,3.81274e-06,0,-9.23997e-10,-9.03198e+08,-9.02963e+08,-9.03224e+08,-63.3862,-5.58277e-20,0.0798125,-0,0.0798125,40000,-32889.3,0,51785.2,63.3862
step02_gravity_refstate-crust.xmf,2148,8.8036e-07,8.68241e-06,0,-5.58933e-06,-1.07954e+09,-1.079e+09,-1.0796e+09,-383428,-0.0186896,0.142129,-0,0.143353,8308.63,-39318.7,0,40187,383428
step02_gravity_refstate-crust.xmf,2149,3.96562e-07,3.89059e-06,0,-1.42227e-07,-9.17423e+08,-9.17183e+08,-9.1745e+08,-9756.75,-0.00156114,0.0788141,-0,0.0788296,36170.5,-33407.3,0,49237.7,9756.75
step02_gravity_refstate-crust.xmf,2150,3.80849e-07,4.12283e-06,0,-3.33077e-07,-9.4365e+08,-9.43394e+08,-9.43677e+08,-22849.1,-0.00388362,0.0792865,-0,0.0793816,31165,-34362.5,0,46390.1,22849.1
step02_gravity_refstate-crust.xmf,2151,3.15311e-07,5.34234e-06,0,-1.5717e-06,-9.69679e+08,-9.69335e+08,-9.69701e+08,-107818,-0.00942425,0.120216,-0,0.120584,15042.4,-35311.7,0,38382.2,107818
step02_gravity_refstate-crust.xmf,2152,1.75613e-07,4.9042e-06,0,-1.05641e-06,-9.51923e+08,-9.51599e+08,-9.51935e+08,-72469.9,-0.00732784,0.105586,-0,0.10584,19116.8,-34664,0,39585.9,72469.9
step02_gravity_refstate-crust.xmf,2153,1.13289e-06,7.03139e-06,0,-3.94621e-06,-1.04587e+09,-1.04546e+09,-1.04594e+09,-270710,-0.0179099,0.138475,-0,0.139629,9809.09,-38091.3,0,39334,270710
step02_gravity_refstate-crust.xmf,2154,5.00752e-07,5.51952e-06,0,-1.80956e-06,-9.94092e+08,-9.93747e+08,-9.94126e+08,-124136,-0.0114311,0.118705,-0,0.119254,14421.1,-36201.5,0,38968.1,124136
step02_gravity_refstate-crust.xmf,2155,7.63052e-07,6.00143e-06,0,-2.48183e-06,-1.0325e+09,-1.03214e+09,-1.03255e+09,-170254,-0.0145156,0.119167,-0,0.120047,12947.5,-37601.4,0,39768.1,170254
step02_gravity_refstate-crust.xmf,2156,6.86616e-07,5.75742e-06,0,-2.14483e-06,-1.0195e+09,-1.01915e+09,-1.01955e+09,-147135,-0.0133447,0.117275,-0,0.118032,13741.2,-37127.6,0,39588.9,147135
step02_gravity_refstate-crust.xmf,2157,4.53319e-07,3.92345e-06,0,-6.59397e-08,-9.36913e+08,-9.36675e+08,-9.36944e+08,-4523.46,-0.000831963,0.075286,-0,0.0752906,38173.5,-34117.2,0,51197.6,4523.46
step02_gravity_refstate-crust.xmf,2158,1.09882e-06,7.53025e-06,0,-4.47914e-06,-1.06026e+09,-1.05982e+09,-1.06034e+09,-307269,-0.018493,0.138776,-0,0.140002,9324.81,-38616.1,0,39726,307269
step02_gravity_refstate-crust.xmf,2159,8.17059e-07,8.10641e-06,0,-4.97383e-06,-1.07944e+09,-1.07894e+09,-1.07949e+09,-341204,-0.0180268,0.135043,-0,0.136241,9122.26,-39313.8,0,40358.3,341204
step02_gravity_refstate-crust.xmf,2160,4.7706e-07,4.05076e-06,0,-1.85754e-07,-9.60114e+08,-9.59868e+08,-9.60146e+08,-12742.7,-0.00256421,0.0734429,-0,0.0734876,34819.2,-34962.1,0,49342.9,12742.7
step02_gravity_refstate-crust.xmf,2161,4.33073e-07,4.08368e-06,0,-2.57313e-07,-9.5279e+08,-9.52539e+08,-9.52819e+08,-17651.7,-0.00330337,0.0759894,-0,0.0760612,32982.2,-34695.3,0,47870.5,17651.7
step02_gravity_refstate-crust.xmf,2162,2.9351e-07,5.23019e-06,0,-1.41586e-06,-9.71496e+08,-9.71157e+08,-9.71516e+08,-97128.1,-0.00919824,0.11408,-0,0.114451,16210.5,-35377.6,0,38914.7,97128.1
step02_gravity_refstate-crust.xmf,2163,4.48941e-07,4.28486e-06,0,-3.71161e-07,-9.81057e+08,-9.80794e+08,-9.81088e+08,-25461.7,-0.00503506,0.074798,-0,0.0749673,30172.1,-35724.8,0,46761.3,25461.7
step02_gravity_refstate-crust.xmf,2164,2.91179e-07,5.12519e-06,0,-1.27554e-06,-9.73621e+08,-9.73289e+08,-9.73641e+08,-87501.8,-0.00898994,0.108368,-0,0.108741,17405.9,-35454.7,0,39496.9,87501.8
step02_gravity_refstate-crust.xmf,2165,2.90868e-07,5.03265e-06,0,-1.15179e-06,-9.76528e+08,-9.76202e+08,-9.76548e+08,-79012.8,-0.00881899,0.103057,-0,0.103433,18601.9,-35560.4,0,40132,79012.8
step02_gravity_refstate-crust.xmf,2166,2.81092e-07,4.8175e-06,0,-9.08333e-07,-9.73621e+08,-9.7331e+08,-9.73641e+08,-62311.6,-0.00797089,0.0948096,-0,0.0951441,21180.6,-35454.3,0,41299.2,62311.6
step02_gravity_refstate-crust.xmf,2167,2.92087e-07,4.93734e-06,0,-1.03303e-06,-9.78158e+08,-9.77839e+08,-9.78178e+08,-70865.7,-0.00855224,0.0982964,-0,0.0986677,19846.5,-35619.6,0,40775.5,70865.7
step02_gravity_refstate-crust.xmf,2168,4.12887e-07,4.3659e-06,0,-4.53099e-07,-9.79399e+08,-9.79128e+08,-9.79427e+08,-31082.6,-0.00574313,0.0775464,-0,0.0777588,28429.3,-35664.4,0,45608.9,31082.6
step02_gravity_refstate-crust.xmf,2169,3.64516e-07,4.4508e-06,0,-5.48338e-07,-9.73646e+08,-9.73365e+08,-9.73671e+08,-37616,-0.00630029,0.0816669,-0,0.0819096,26578.1,-35454.9,0,44310.8,37616
step02_gravity_refstate-crust.xmf,2170,2.9709e-07,4.718e-06,0,-8.01465e-07,-9.74677e+08,-9.74373e+08,-9.74697e+08,-54980.5,-0.00762128,0.0906012,-0,0.0909212,22583,-35492.6,0,42068,54980.5
step02_gravity_refstate-crust.xmf,2171,3.27777e-07,4.63087e-06,0,-7.0401e-07,-9.78473e+08,-9.78177e+08,-9.78495e+08,-48295.1,-0.00732021,0.0862916,-0,0.0866015,24028.6,-35630.8,0,42975.9,48295.1
step02_gravity_refstate-crust.xmf,2172,1.04003e-06,6.76943e-06,0,-3.58256e-06,-1.0506e+09,-1.0502e+09,-1.05067e+09,-245764,-0.0170587,0.130368,-0,0.131479,10679,-38262.8,0,39725.1,245764
step02_gravity_refstate-crust.xmf,2173,9.08889e-07,6.52079e-06,0,-3.18753e-06,-1.05255e+09,-1.05217e+09,-1.05261e+09,-218665,-0.0162167,0.123204,-0,0.124267,11612.5,-38332.9,0,40053.3,218665
step02_gravity_refstate-crust.xmf,2174,8.01313e-07,6.29498e-06,0,-2.82511e-06,-1.05256e+09,-1.05218e+09,-1.05261e+09,-193803,-0.0154489,0.117144,-0,0.118159,12545.3,-38332.4,0,40333.1,193803
step02_gravity_refstate-crust.xmf,2175,5.24553e-07,4.01071e-06,0,-1.53071e-09,-9.68268e+08,-9.68029e+08,-9.68304e+08,-105.007,-8.32847e-20,0.0705417,-0,0.0705417,40000,-35259.1,0,53321.7,105.007
step02_gravity_refstate-crust.xmf,2176,5.03724e-07,4.02827e-06,0,-1.20469e-07,-9.64725e+08,-9.64483e+08,-9.64759e+08,-8264.2,-0.00175394,0.071804,-0,0.0718254,36564,-35130,0,50705.5,8264.2
step02_gravity_refstate-crust.xmf,2177,4.75721e-07,4.21792e-06,0,-3.03271e-07,-9.81113e+08,-9.80856e+08,-9.81145e+08,-20804.4,-0.00432348,0.0729633,-0,0.0730913,31722.5,-35726.8,0,47777.9,20804.4
step02_gravity_refstate-crust.xmf,2178,4.46151e-07,5.40117e-06,0,-1.61874e-06,-9.95791e+08,-9.95451e+08,-9.95821e+08,-111045,-0.0109971,0.112481,-0,0.113018,15562,-36262.9,0,39461.1,111045
step02_gravity_refstate-crust.xmf,2179,3.69411e-07,4.57694e-06,0,-6.30165e-07,-9.86357e+08,-9.86068e+08,-9.86382e+08,-43229.3,-0.00715838,0.0822204,-0,0.0825314,25256,-35917.9,0,43908.5,43229.3
step02_gravity_refstate-crust.xmf,2180,8.60383e-07,7.46048e-06,0,-4.28379e-06,-1.07259e+09,-1.07214e+09,-1.07265e+09,-293868,-0.0175591,0.129765,-0,0.130948,10015.8,-39063.8,0,40327.4,293868
step02_gravity_refstate-crust.xmf,2181,5.63919e-07,5.60133e-06,0,-1.86599e-06,-1.0196e+09,-1.01925e+09,-1.01963e+09,-128007,-0.0125735,0.110461,-0,0.111174,15008.7,-37130.3,0,40049,128007
step02_gravity_refstate-crust.xmf,2182,6.96054e-07,6.07233e-06,0,-2.47433e-06,-1.04902e+09,-1.04865e+09,-1.04907e+09,-169739,-0.0146614,0.112255,-0,0.113209,13506,-38202.8,0,40519.9,169739
step02_gravity_refstate-crust.xmf,2183,5.87634e-07,4.12674e-06,0,-7.20688e-08,-1.00242e+09,-1.00217e+09,-1.00246e+09,-4943.92,-0.00122807,0.0657476,-0,0.0657591,37908.1,-36502.8,0,52625.8,4943.92
step02_gravity_refstate-crust.xmf,2184,5.79665e-07,4.1782e-06,0,-1.51029e-07,-1.00695e+09,-1.00671e+09,-1.00699e+09,-10360.6,-0.00257317,0.0659362,-0,0.0659864,35638.1,-36668,0,51133.3,10360.6
step02_gravity_refstate-crust.xmf,2185,5.56689e-07,4.25061e-06,0,-2.39229e-07,-1.00914e+09,-1.00888e+09,-1.00917e+09,-16411.1,-0.00392913,0.0671789,-0,0.0672937,33278.2,-36747.4,0,49576.3,16411.1
step02_gravity_refstate-crust.xmf,2186,5.39839e-07,4.3714e-06,0,-3.32821e-07,-1.01893e+09,-1.01867e+09,-1.01897e+09,-22831.5,-0.00530137,0.0678156,-0,0.0680225,31015.2,-37104.2,0,48359.8,22831.5
step02_gravity_refstate-crust.xmf,2187,4.16436e-07,5.3054e-06,0,-1.46249e-06,-9.99928e+08,-9.99592e+08,-9.99956e+08,-100327,-0.0107383,0.106389,-0,0.10693,16703.7,-36413.3,0,40061.7,100327
step02_gravity_refstate-crust.xmf,2188,5.12081e-07,4.4549e-06,0,-4.13138e-07,-1.01933e+09,-1.01906e+09,-1.01936e+09,-28341.3,-0.00619647,0.0698411,-0,0.0701154,29314.1,-37118.7,0,47298.1,28341.3
step02_gravity_refstate-crust.xmf,2189,4.09927e-07,5.21e-06,0,-1.31405e-06,-1.00444e+09,-1.00411e+09,-1.00447e+09,-90144,-0.0104726,0.100495,-0,0.10104,17914.8,-36577.5,0,40729,90144
step02_gravity_refstate-crust.xmf,2190,3.94446e-07,5.11626e-06,0,-1.17034e-06,-1.0078e+09,-1.00748e+09,-1.00783e+09,-80285.6,-0.0101353,0.0952079,-0,0.0957459,19168.8,-36699.5,0,41404.1,80285.6
step02_gravity_refstate-crust.xmf,2191,3.81741e-07,4.90012e-06,0,-9.01217e-07,-1.00756e+09,-1.00725e+09,-1.00759e+09,-61823.5,-0.00912933,0.0869293,-0,0.0874074,21822.7,-36690.3,0,42689.7,61823.5
step02_gravity_refstate-crust.xmf,2192,3.86031e-07,5.01461e-06,0,-1.03237e-06,-1.00941e+09,-1.00909e+09,-1.00943e+09,-70820.8,-0.00970393,0.0905743,-0,0.0910927,20477.1,-36757.8,0,42076.7,70820.8
step02_gravity_refstate-crust.xmf,2193,4.81322e-07,4.55049e-06,0,-5.05289e-07,-1.01897e+09,-1.01869e+09,-1.019e+09,-34662.8,-0.00704946,0.0725029,-0,0.0728448,27563.7,-37105.6,0,46223.2,34662.8
step02_gravity_refstate-crust.xmf,2194,3.92707e-07,4.79311e-06,0,-7.80238e-07,-1.00817e+09,-1.00787e+09,-1.0082e+09,-53524.3,-0.0085906,0.0829731,-0,0.0834166,23292.1,-36712.4,0,43477.8,53524.3
step02_gravity_refstate-crust.xmf,2195,4.23124e-07,4.71591e-06,0,-6.78141e-07,-1.01476e+09,-1.01446e+09,-1.01479e+09,-46520.4,-0.00819787,0.0784683,-0,0.0788953,24759.7,-36952.3,0,44480.5,46520.4
step02_gravity_refstate-crust.xmf,2196,4.58352e-07,4.65562e-06,0,-6.00645e-07,-1.02117e+09,-1.02088e+09,-1.0212e+09,-41204.3,-0.00782846,0.0748831,-0,0.0752912,25998.2,-37185.7,0,45372.7,41204.3
step02_gravity_refstate-crust.xmf,2197,6.40536e-07,5.86425e-06,0,-2.15681e-06,-1.04603e+09,-1.04567e+09,-1.04607e+09,-147957,-0.0138913,0.107285,-0,0.10818,14548.9,-38093.3,0,40777,147957
step02_gravity_refstate-crust.xmf,2198,7.85808e-07,7.07258e-06,0,-3.7419e-06,-1.07534e+09,-1.07491e+09,-1.07539e+09,-256695,-0.0166568,0.121391,-0,0.122528,11057.3,-39162.9,0,40693.9,256695
step02_gravity_refstate-crust.xmf,2199,7.06213e-07,6.75247e-06,0,-3.27814e-06,-1.07535e+09,-1.07493e+09,-1.07539e+09,-224881,-0.0159614,0.114912,-0,0.116015,12036.8,-39162.4,0,40970.4,224881
step02_gravity_refstate-crust.xmf,2200,6.41986e-07,6.47864e-06,0,-2.86859e-06,-1.07466e+09,-1.07426e+09,-1.0747e+09,-196786,-0.0153211,0.109094,-0,0.110165,13033.3,-39136.6,0,41249.7,196786
step02_gravity_refstate-crust.xmf,2201,6.44605e-07,4.21491e-06,0,-4.09184e-10,-1.03334e+09,-1.03309e+09,-1.03338e+09,-28.07,-7.67666e-20,0.0607961,-0,0.0607961,40000,-37628.9,0,54917.5,28.07
step02_gravity_refstate-crust.xmf,2202,5.11313e-07,5.47622e-06,0,-1.65997e-06,-1.01886e+09,-1.01852e+09,-1.01889e+09,-113874,-0.0119937,0.105701,-0,0.10638,16028.7,-37103.1,0,40417.3,113874
step02_gravity_refstate-crust.xmf,2203,5.47808e-07,5.68388e-06,0,-1.85944e-06,-1.04331e+09,-1.04296e+09,-1.04335e+09,-127557,-0.0131057,0.102015,-0,0.102853,15750.1,-37993.7,0,41128.9,127557
step02_gravity_refstate-crust.xmf,2204,5.69037e-07,6.23795e-06,0,-2.49376e-06,-1.07294e+09,-1.07255e+09,-1.07298e+09,-171072,-0.0146905,0.103757,-0,0.104792,14085.1,-39073.3,0,41534.5,171072
step02_gravity_refstate-crust.xmf,2205,6.77048e-07,4.2857e-06,0,-5.36879e-08,-1.05376e+09,-1.05352e+09,-1.05381e+09,-3682.99,-0.00110447,0.0577823,-0,0.0577928,38364.5,-38372.7,0,54261.4,3682.99
step02_gravity_refstate-crust.xmf,2206,6.6464e-07,4.30456e-06,0,-1.1633e-07,-1.05205e+09,-1.0518e+09,-1.05209e+09,-7980.21,-0.00229718,0.0585513,-0,0.0585963,36567.6,-38310.2,0,52960.9,7980.21
step02_gravity_refstate-crust.xmf,2207,6.46353e-07,4.36039e-06,0,-1.94484e-07,-1.05338e+09,-1.05312e+09,-1.05342e+09,-13341.6,-0.0037119,0.0594225,-0,0.0595383,34412.6,-38358.7,0,51532.6,13341.6
step02_gravity_refstate-crust.xmf,2208,5.92841e-07,4.54398e-06,0,-3.7063e-07,-1.0584e+09,-1.05813e+09,-1.05844e+09,-25425.2,-0.00632155,0.062234,-0,0.0625542,30280.3,-38541.6,0,49013.8,25425.2
step02_gravity_refstate-crust.xmf,2209,6.20738e-07,4.44231e-06,0,-2.80282e-07,-1.05533e+09,-1.05507e+09,-1.05537e+09,-19227.3,-0.00508366,0.060728,-0,0.0609405,32266.6,-38429.7,0,50179.4,19227.3
step02_gravity_refstate-crust.xmf,2210,5.11174e-07,5.46691e-06,0,-1.57595e-06,-1.03449e+09,-1.03415e+09,-1.03452e+09,-108110,-0.0121563,0.098377,-0,0.0991253,16992.2,-37672,0,41326.9,108110
step02_gravity_refstate-crust.xmf,2211,5.61095e-07,4.64932e-06,0,-4.68079e-07,-1.05922e+09,-1.05894e+09,-1.05926e+09,-32110.2,-0.00739711,0.0644554,-0,0.0648785,28424.2,-38571.4,0,47913.3,32110.2
step02_gravity_refstate-crust.xmf,2212,4.66506e-07,5.33566e-06,0,-1.35519e-06,-1.03684e+09,-1.0365e+09,-1.03687e+09,-92965.8,-0.0115615,0.0922971,-0,0.0930184,18437,-37757.3,0,42018.3,92965.8
step02_gravity_refstate-crust.xmf,2213,4.41905e-07,4.97088e-06,0,-8.76043e-07,-1.03718e+09,-1.03687e+09,-1.03721e+09,-60096.5,-0.00977626,0.079612,-0,0.0802101,22571.1,-37769.1,0,43999.6,60096.5
step02_gravity_refstate-crust.xmf,2214,4.45761e-07,5.21517e-06,0,-1.17771e-06,-1.03818e+09,-1.03786e+09,-1.03822e+09,-80790.8,-0.0110108,0.0874222,-0,0.0881128,19782.5,-37806,0,42669,80790.8
step02_gravity_refstate-crust.xmf,2215,4.38607e-07,5.09215e-06,0,-1.01815e-06,-1.03802e+09,-1.0377e+09,-1.03805e+09,-69844.8,-0.0104123,0.0832707,-0,0.0839191,21156.9,-37799.7,0,43317.8,69844.8
step02_gravity_refstate-crust.xmf,2216,5.31208e-07,4.76187e-06,0,-5.73514e-07,-1.05995e+09,-1.05966e+09,-1.05999e+09,-39343,-0.00834364,0.0669841,-0,0.0675018,26697.9,-38598.1,0,46931.7,39343
step02_gravity_refstate-crust.xmf,2217,4.51425e-07,4.8605e-06,0,-7.56446e-07,-1.03612e+09,-1.03582e+09,-1.03616e+09,-51892.2,-0.00914366,0.0765429,-0,0.0770871,23937.4,-37730.5,0,44683.2,51892.2
step02_gravity_refstate-crust.xmf,2218,4.9122e-07,4.86574e-06,0,-6.89653e-07,-1.05636e+09,-1.05606e+09,-1.0564e+09,-47310.2,-0.00914574,0.0707669,-0,0.0713554,24972.8,-38467.5,0,45862.7,47310.2
step02_gravity_refstate-crust.xmf,2219,5.43971e-07,6.01032e-06,0,-2.15811e-06,-1.07153e+09,-1.07116e+09,-1.07157e+09,-148046,-0.0140567,0.0984892,-0,0.0994872,15216.7,-39021.7,0,41883.6,148046
step02_gravity_refstate-crust.xmf,2220,4.90076e-07,5.82675e-06,0,-1.86437e-06,-1.07071e+09,-1.07035e+09,-1.07075e+09,-127896,-0.013441,0.093376,-0,0.0943384,16408.4,-38991.4,0,42303.2,127896
step02_gravity_refstate-crust.xmf,2221,4.82777e-07,5.04024e-06,0,-8.38854e-07,-1.0657e+09,-1.06539e+09,-1.06573e+09,-57545.4,-0.0101316,0.0725232,-0,0.0732275,23356.6,-38807.6,0,45294.2,57545.4
step02_gravity_refstate-crust.xmf,2222,4.81411e-07,5.62342e-06,0,-1.5874e-06,-1.0677e+09,-1.06735e+09,-1.06773e+09,-108895,-0.0127579,0.0888076,-0,0.0897193,17715.9,-38881.4,0,42727.2,108895
step02_gravity_refstate-crust.xmf,2223,4.64348e-07,5.46815e-06,0,-1.36059e-06,-1.06797e+09,-1.06763e+09,-1.068e+09,-93336.4,-0.0121474,0.0839945,-0,0.0848683,19061.5,-38890.9,0,43311,93336.4
step02_gravity_refstate-crust.xmf,2224,4.6726e-07,5.18218e-06,0,-9.92904e-07,-1.06753e+09,-1.0672e+09,-1.06756e+09,-68113.2,-0.0108709,0.0758245,-0,0.0765998,21861,-38874.3,0,44599.5,68113.2
step02_gravity_refstate-crust.xmf,2225,4.6018e-07,5.32325e-06,0,-1.1649e-06,-1.06812e+09,-1.06778e+09,-1.06815e+09,-79911.9,-0.0115303,0.0796494,-0,0.0804796,20439,-38895.9,0,43939.1,79911.9
