Block Name,Point ID,cauchy_strain_0,cauchy_strain_1,cauchy_strain_2,cauchy_strain_3,cauchy_stress_0,cauchy_stress_1,cauchy_stress_2,cauchy_stress_3,displacement_0,displacement_1,displacement_2,displacement_Magnitude,Points_0,Points_1,Points_2,Points_Magnitude,stress_xy
step02_gravity_refstate-mantle.xmf,0,-2.84889e-06,2.06907e-07,0,-1.60556e-07,-1.09932e+09,-1.09891e+09,-1.09894e+09,-21458.2,-0.00629582,0.0198103,-0,0.0207866,-37797.2,-40000,-0,55033,-21458.2
step02_gravity_refstate-mantle.xmf,1,-2.86745e-06,2.30641e-07,0,-2.80131e-09,-1.09932e+09,-1.09891e+09,-1.09894e+09,-374.395,9.11476e-20,0.0207434,0,0.0207434,-40000,-40000,-0,56568.5,-374.395
step02_gravity_refstate-mantle.xmf,2,-3.19468e-06,3.57055e-07,0,-1.00016e-07,-1.14619e+09,-1.14571e+09,-1.14576e+09,-13367.2,-0.0046288,0.0199263,-0,0.0204568,-38553.2,-41445.8,-0,56604.8,-13367.2
step02_gravity_refstate-mantle.xmf,3,-3.3548e-06,4.34963e-07,0,-2.86949e-09,-1.16751e+09,-1.167e+09,-1.16706e+09,-383.508,1.03345e-19,0.0200451,0,0.0200451,-40000,-42103.5,-0,58075,-383.508
step02_gravity_refstate-mantle.xmf,4,-3.28425e-06,3.49173e-07,0,-2.3134e-07,-1.16208e+09,-1.1616e+09,-1.16165e+09,-30918.6,-0.0110293,0.018098,-0,0.021194,-36658.6,-41936.3,-0,55700.2,-30918.6
step02_gravity_refstate-mantle.xmf,5,-3.58316e-06,5.18349e-07,0,-1.08974e-07,-1.20269e+09,-1.20214e+09,-1.20221e+09,-14564.4,-0.00606115,0.0190267,-0,0.0199688,-38310.2,-43189,-0,57731.8,-14564.4
step02_gravity_refstate-mantle.xmf,6,-2.80071e-06,1.20398e-07,0,-3.26462e-07,-1.09932e+09,-1.09893e+09,-1.09894e+09,-43631.6,-0.0122216,0.0171624,-0,0.0210692,-35698.5,-40000,-0,53613.3,-43631.6
step02_gravity_refstate-mantle.xmf,7,-3.81348e-06,6.35341e-07,0,-4.49297e-09,-1.23623e+09,-1.23564e+09,-1.23572e+09,-600.486,1.41061e-19,0.0189128,0,0.0189128,-40000,-44223.8,-0,59630.1,-600.486
step02_gravity_refstate-mantle.xmf,8,-2.72356e-06,-9.14411e-09,0,-4.94079e-07,-1.09931e+09,-1.09895e+09,-1.09895e+09,-66033.7,-0.0177387,0.0129841,-0,0.0219829,-33698.8,-40000,-0,52303,-66033.7
step02_gravity_refstate-mantle.xmf,9,-3.16852e-06,2.15498e-07,0,-3.80769e-07,-1.15413e+09,-1.15368e+09,-1.15371e+09,-50889.8,-0.0171057,0.015048,-0,0.0227826,-34698.6,-41691,-0,54241.4,-50889.8
step02_gravity_refstate-mantle.xmf,10,-3.73006e-06,5.39315e-07,0,-2.10039e-07,-1.22804e+09,-1.22747e+09,-1.22754e+09,-28071.7,-0.0122563,0.0172774,-0,0.0211831,-36726.1,-43971.1,-0,57291,-28071.7
step02_gravity_refstate-mantle.xmf,11,-4.04463e-06,7.11669e-07,0,-1.30999e-07,-1.27595e+09,-1.27531e+09,-1.27541e+09,-17508,-0.00837983,0.0174001,-0,0.0193129,-37928.1,-45449.3,-0,59196.1,-17508
step02_gravity_refstate-mantle.xmf,12,-2.62919e-06,-1.76052e-07,0,-6.71955e-07,-1.0993e+09,-1.09898e+09,-1.09895e+09,-89806.8,-0.0228307,0.00741448,-0,0.0240045,-31793.3,-40000,-0,51096.1,-89806.8
step02_gravity_refstate-mantle.xmf,13,-3.03948e-06,4.33796e-08,0,-5.49538e-07,-1.14644e+09,-1.14603e+09,-1.14604e+09,-73445.7,-0.0228037,0.010448,-0,0.0250832,-32750.4,-41454,-0,52830.1,-73445.7
step02_gravity_refstate-mantle.xmf,14,-2.52355e-06,-3.74256e-07,0,-8.64297e-07,-1.0993e+09,-1.09901e+09,-1.09896e+09,-115513,-0.0274974,0.00055883,-0,0.0275031,-29977.6,-40000,-0,49986.5,-115513
step02_gravity_refstate-mantle.xmf,15,-2.94688e-06,-1.48454e-07,0,-7.33684e-07,-1.14591e+09,-1.14553e+09,-1.14551e+09,-98056.9,-0.0283091,0.0045292,-0,0.0286692,-30896.6,-41437.5,-0,51688.1,-98056.9
step02_gravity_refstate-mantle.xmf,16,-2.41296e-06,-5.9828e-07,0,-1.07569e-06,-1.09929e+09,-1.09905e+09,-1.09897e+09,-143767,-0.0317529,-0.00750174,-0,0.032627,-28247.1,-40000,-0,48968.3,-143767
step02_gravity_refstate-mantle.xmf,17,-2.84461e-06,-3.7811e-07,0,-9.46399e-07,-1.14554e+09,-1.14522e+09,-1.14516e+09,-126486,-0.0335343,-0.00281986,-0,0.0336527,-29077.2,-41426.4,-0,50612.5,-126486
step02_gravity_refstate-mantle.xmf,18,-3.61802e-06,4.11989e-07,0,-3.40663e-07,-1.219e+09,-1.21846e+09,-1.21852e+09,-45529.7,-0.0187287,0.0147957,-0,0.0238679,-34896.4,-43692.3,-0,55917.6,-45529.7
step02_gravity_refstate-mantle.xmf,19,-4.22677e-06,8.22009e-07,0,-4.63202e-09,-1.30567e+09,-1.30499e+09,-1.3051e+09,-619.07,1.39316e-19,0.0173538,0,0.0173538,-40000,-46366.4,-0,61235.9,-619.07
step02_gravity_refstate-mantle.xmf,20,-2.30241e-06,-8.44078e-07,0,-1.31021e-06,-1.09929e+09,-1.09909e+09,-1.09898e+09,-175109,-0.0356218,-0.0167042,-0,0.039344,-26597.7,-40000,-0,48035.8,-175109
step02_gravity_refstate-mantle.xmf,21,-2.7417e-06,-6.3284e-07,0,-1.18532e-06,-1.14526e+09,-1.14498e+09,-1.1449e+09,-158418,-0.0382736,-0.0112696,-0,0.0398983,-27363.6,-41417.7,-0,49640.7,-158418
step02_gravity_refstate-mantle.xmf,22,-3.36769e-06,2.28249e-07,0,-4.54884e-07,-1.18851e+09,-1.18802e+09,-1.18806e+09,-60795.2,-0.0221449,0.0124095,-0,0.0253849,-33584.2,-42751.5,-0,54365.3,-60795.2
step02_gravity_refstate-mantle.xmf,23,-4.02227e-06,6.22279e-07,0,-2.66604e-07,-1.27933e+09,-1.27871e+09,-1.27879e+09,-35631.6,-0.0169081,0.0152686,-0,0.0227819,-35824.5,-45553.6,-0,57952.8,-35631.6
step02_gravity_refstate-mantle.xmf,24,-4.44617e-06,9.00416e-07,0,-1.15479e-07,-1.35038e+09,-1.34966e+09,-1.34979e+09,-15433.7,-0.0084145,0.0156554,-0,0.0177735,-38107.6,-47746.3,-0,61089.3,-15433.7
step02_gravity_refstate-mantle.xmf,25,-2.19657e-06,-1.10751e-06,0,-1.5724e-06,-1.09929e+09,-1.09914e+09,-1.09899e+09,-210151,-0.0391366,-0.0269985,-0,0.0475457,-25025.6,-40000,-0,47183.5,-210151
step02_gravity_refstate-mantle.xmf,26,-2.62438e-06,-9.02544e-07,0,-1.44208e-06,-1.14241e+09,-1.14218e+09,-1.14206e+09,-192734,-0.0421277,-0.0204055,-0,0.0468095,-25811.7,-41329.8,-0,48727.7,-192734
step02_gravity_refstate-mantle.xmf,27,-3.31899e-06,6.32192e-08,0,-6.20817e-07,-1.19124e+09,-1.19079e+09,-1.1908e+09,-82972.1,-0.0281277,0.00770242,-0,0.0291633,-31833.4,-42836.1,-0,53369.4,-82972.1
step02_gravity_refstate-mantle.xmf,28,-3.23336e-06,-1.61456e-07,0,-8.24491e-07,-1.19232e+09,-1.19191e+09,-1.19189e+09,-110193,-0.0342424,0.00134189,-0,0.0342687,-29982.3,-42869.3,-0,52313.6,-110193
step02_gravity_refstate-mantle.xmf,29,-3.13094e-06,-4.34222e-07,0,-1.06773e-06,-1.19262e+09,-1.19226e+09,-1.1922e+09,-142702,-0.0400476,-0.00646511,-0,0.0405661,-28158.3,-42878.5,-0,51297.7,-142702
step02_gravity_refstate-mantle.xmf,30,-3.64336e-06,2.74874e-07,0,-5.07555e-07,-1.23512e+09,-1.2346e+09,-1.23463e+09,-67834.7,-0.0267892,0.0102848,-0,0.0286956,-32849.9,-44189.7,-0,55062.2,-67834.7
step02_gravity_refstate-mantle.xmf,31,-3.98041e-06,4.90575e-07,0,-4.03739e-07,-1.28487e+09,-1.28427e+09,-1.28434e+09,-53959.8,-0.0246242,0.012104,-0,0.0274382,-33934.8,-45724.8,-0,56941.5,-53959.8
step02_gravity_refstate-mantle.xmf,32,-4.29249e-06,7.76164e-07,0,-2.07428e-07,-1.32766e+09,-1.32698e+09,-1.32709e+09,-27722.7,-0.0148893,0.0150702,-0,0.021185,-36554.7,-47045.2,-0,59577.7,-27722.7
step02_gravity_refstate-mantle.xmf,33,-4.57887e-06,1.0055e-06,0,1.81707e-09,-1.37599e+09,-1.37524e+09,-1.37538e+09,242.852,-5.19976e-19,0.015389,-0,0.015389,-40000,-48536.8,-0,62895.3,-242.852
step02_gravity_refstate-mantle.xmf,34,-4.8747e-06,1.14296e-06,0,-5.33169e-09,-1.44738e+09,-1.44658e+09,-1.44673e+09,-712.58,1.37075e-19,0.0130387,0,0.0130387,-40000,-50740.5,-0,64611.1,-712.58
step02_gravity_refstate-mantle.xmf,35,-4.74787e-06,1.06566e-06,0,-9.83788e-08,-1.41894e+09,-1.41816e+09,-1.4183e+09,-13148.3,-0.00907299,0.0135845,-0,0.0163358,-38090.7,-49862.5,-0,62746.8,-13148.3
step02_gravity_refstate-mantle.xmf,36,-2.08154e-06,-1.38122e-06,0,-1.85335e-06,-1.09929e+09,-1.09919e+09,-1.09901e+09,-247700,-0.0423326,-0.0383445,-0,0.0571169,-23526.8,-40000,-0,46405.9,-247700
step02_gravity_refstate-mantle.xmf,37,-2.49459e-06,-1.21085e-06,0,-1.74386e-06,-1.13968e+09,-1.13951e+09,-1.13935e+09,-233066,-0.0457877,-0.0311114,-0,0.0553573,-24254,-41245.5,-0,47848.2,-233066
step02_gravity_refstate-mantle.xmf,38,-3.01177e-06,-7.68208e-07,0,-1.37317e-06,-1.1924e+09,-1.1921e+09,-1.192e+09,-183524,-0.0457409,-0.0162329,-0,0.0485359,-26289.5,-42871.7,-0,50290.4,-183524
step02_gravity_refstate-mantle.xmf,39,-4.31485e-06,6.89737e-07,0,-3.22075e-07,-1.34041e+09,-1.33975e+09,-1.33984e+09,-43045.3,-0.0222518,0.0127528,-0,0.0256471,-34906.7,-47438.8,-0,58897.6,-43045.3
step02_gravity_refstate-mantle.xmf,40,-4.59086e-06,8.80517e-07,0,-2.37607e-07,-1.39165e+09,-1.39092e+09,-1.39103e+09,-31756.2,-0.0183854,0.0128946,-0,0.0224565,-36021,-49020,-0,60831.6,-31756.2
step02_gravity_refstate-mantle.xmf,41,-4.99075e-06,1.18413e-06,0,-8.8417e-08,-1.48767e+09,-1.48685e+09,-1.487e+09,-11816.9,-0.00907624,0.0112517,-0,0.0144561,-38183.3,-51984.3,-0,64500.7,-11816.9
step02_gravity_refstate-mantle.xmf,42,-5.10348e-06,1.2804e-06,0,-6.46691e-09,-1.52002e+09,-1.51917e+09,-1.51934e+09,-864.302,1.44469e-19,0.0103228,0,0.0103228,-40000,-52983,-0,66386.8,-864.302
step02_gravity_refstate-mantle.xmf,43,-2.36024e-06,-1.51035e-06,0,-2.05897e-06,-1.13491e+09,-1.1348e+09,-1.1346e+09,-275181,-0.0487041,-0.0427258,-0,0.0647888,-22803.3,-41098.4,-0,47000.7,-275181
step02_gravity_refstate-mantle.xmf,44,-2.86557e-06,-1.12035e-06,0,-1.70793e-06,-1.19015e+09,-1.18992e+09,-1.18977e+09,-228264,-0.050588,-0.0271285,-0,0.057403,-24559.4,-42802.3,-0,49347.8,-228264
step02_gravity_refstate-mantle.xmf,45,-3.5839e-06,5.23979e-08,0,-7.07107e-07,-1.23916e+09,-1.23867e+09,-1.23868e+09,-94504.8,-0.0338966,0.00480492,-0,0.0342355,-30937.1,-44314.4,-0,54045,-94504.8
step02_gravity_refstate-mantle.xmf,46,-3.47651e-06,-2.30139e-07,0,-9.43045e-07,-1.23966e+09,-1.23922e+09,-1.23919e+09,-126038,-0.040599,-0.00209682,-0,0.0406531,-29041.3,-44329.6,-0,52995.4,-126038
step02_gravity_refstate-mantle.xmf,47,-3.35906e-06,-5.61389e-07,0,-1.22302e-06,-1.24082e+09,-1.24045e+09,-1.24037e+09,-163457,-0.0468762,-0.0102549,-0,0.0479848,-27222.2,-44365.5,-0,52051.4,-163457
step02_gravity_refstate-mantle.xmf,48,-3.90089e-06,2.72935e-07,0,-5.84501e-07,-1.28757e+09,-1.28701e+09,-1.28705e+09,-78118.6,-0.0325988,0.00751149,-0,0.0334531,-31938.3,-45808.2,-0,55843,-78118.6
step02_gravity_refstate-mantle.xmf,49,-4.21604e-06,4.85304e-07,0,-4.76588e-07,-1.34082e+09,-1.34019e+09,-1.34025e+09,-63696,-0.0307148,0.00923195,-0,0.0320722,-32923.7,-47451.4,-0,57754.7,-63696
step02_gravity_refstate-mantle.xmf,50,-4.8631e-06,1.05349e-06,0,-1.79857e-07,-1.46395e+09,-1.46316e+09,-1.4633e+09,-24037.9,-0.0178255,0.0110626,-0,0.0209793,-36363.8,-51252,-0,62841.8,-24037.9
step02_gravity_refstate-mantle.xmf,51,-5.17042e-06,1.30294e-06,0,-7.72463e-08,-1.55711e+09,-1.55625e+09,-1.55642e+09,-10324,-0.0099287,0.00855392,-0,0.0131053,-38082.9,-54128.4,-0,66183,-10324
step02_gravity_refstate-mantle.xmf,52,-2.01799e-06,-1.68554e-06,0,-2.19465e-06,-1.0993e+09,-1.09925e+09,-1.09903e+09,-293315,-0.0452506,-0.0507098,-0,0.067964,-22097.7,-40000,-0,45698,-293315
step02_gravity_refstate-mantle.xmf,53,-2.63548e-06,-1.37546e-06,0,-1.94333e-06,-1.16674e+09,-1.16657e+09,-1.16638e+09,-259726,-0.0510627,-0.0361231,-0,0.0625482,-23445.1,-42079.9,-0,48170.4,-259726
step02_gravity_refstate-mantle.xmf,54,-3.21678e-06,-9.4605e-07,0,-1.55668e-06,-1.24006e+09,-1.23976e+09,-1.23963e+09,-208050,-0.0525766,-0.0197935,-0,0.056179,-25461.8,-44342.1,-0,51132.4,-208050
step02_gravity_refstate-mantle.xmf,55,-4.4923e-06,6.69805e-07,0,-3.91025e-07,-1.39245e+09,-1.39176e+09,-1.39185e+09,-52260.5,-0.028395,0.009975,-0,0.0300962,-33816.5,-49045.1,-0,59573.3,-52260.5
step02_gravity_refstate-mantle.xmf,56,-5.03679e-06,1.16068e-06,0,-1.39964e-07,-1.52118e+09,-1.52035e+09,-1.52051e+09,-18706.2,-0.0169246,0.00932595,-0,0.019324,-36666.8,-53019.1,-0,64463,-18706.2
step02_gravity_refstate-mantle.xmf,57,-5.26782e-06,1.40807e-06,0,-6.49423e-09,-1.59408e+09,-1.59319e+09,-1.59338e+09,-867.954,1.45707e-19,0.00724827,0,0.00724827,-40000,-55270.1,-0,68225.9,-867.954
step02_gravity_refstate-mantle.xmf,58,-1.8528e-06,-3.08184e-06,0,-3.9856e-06,-1.09938e+09,-1.09954e+09,-1.09913e+09,-532675,-0.0548986,-0.109858,-0,0.122812,-17010.7,-40000,-0,43466.8,-532675
step02_gravity_refstate-mantle.xmf,59,-1.87105e-06,-2.69043e-06,0,-3.45621e-06,-1.09935e+09,-1.09946e+09,-1.0991e+09,-461923,-0.0527234,-0.0936599,-0,0.10748,-18194.5,-40000,-0,43943.6,-461923
step02_gravity_refstate-mantle.xmf,60,-2.05947e-06,-2.9949e-06,0,-3.85279e-06,-1.12831e+09,-1.12843e+09,-1.12803e+09,-514926,-0.0591419,-0.0990347,-0,0.11535,-17594.1,-40892.5,-0,44516.9,-514926
step02_gravity_refstate-mantle.xmf,61,-1.8441e-06,-3.51919e-06,0,-4.582e-06,-1.09941e+09,-1.09963e+09,-1.09916e+09,-612384,-0.0569583,-0.126966,-0,0.139157,-15880.5,-40000,-0,43037.1,-612384
step02_gravity_refstate-mantle.xmf,62,-2.02817e-06,-3.49017e-06,0,-4.48537e-06,-1.12778e+09,-1.12798e+09,-1.12751e+09,-599469,-0.0614763,-0.11596,-0,0.131248,-16396.8,-40875.2,-0,44041.3,-599469
step02_gravity_refstate-mantle.xmf,63,-1.82747e-06,-4.02012e-06,0,-5.24876e-06,-1.09945e+09,-1.09974e+09,-1.0992e+09,-701497,-0.058915,-0.144965,-0,0.15648,-14800.9,-40000,-0,42650.5,-701497
step02_gravity_refstate-mantle.xmf,64,-1.9721e-06,-4.02164e-06,0,-5.16618e-06,-1.12596e+09,-1.12623e+09,-1.12569e+09,-690460,-0.0633814,-0.133921,-0,0.148163,-15258.6,-40817.9,-0,43576.6,-690460
step02_gravity_refstate-mantle.xmf,65,-1.95484e-06,-1.99666e-06,0,-2.5671e-06,-1.09931e+09,-1.09931e+09,-1.09905e+09,-343093,-0.0479313,-0.0640654,-0,0.0800112,-20734.8,-40000,-0,45054.8,-343093
step02_gravity_refstate-mantle.xmf,66,-2.29835e-06,-1.85607e-06,0,-2.45383e-06,-1.13465e+09,-1.13459e+09,-1.13434e+09,-327954,-0.0519308,-0.0553743,-0,0.0759153,-21395.2,-41089.6,-0,46326.2,-327954
step02_gravity_refstate-mantle.xmf,67,-1.90509e-06,-2.33088e-06,0,-2.98589e-06,-1.09933e+09,-1.09938e+09,-1.09907e+09,-399064,-0.0504104,-0.0783892,-0,0.0931991,-19434.8,-40000,-0,44471.5,-399064
step02_gravity_refstate-mantle.xmf,68,-2.13966e-06,-2.61121e-06,0,-3.36154e-06,-1.13092e+09,-1.13098e+09,-1.13063e+09,-449270,-0.0571149,-0.083797,-0,0.10141,-18776.2,-40973.6,-0,45070.9,-449270
step02_gravity_refstate-mantle.xmf,69,-2.22782e-06,-2.23136e-06,0,-2.90359e-06,-1.13402e+09,-1.13402e+09,-1.13372e+09,-388065,-0.0549474,-0.0695225,-0,0.0886149,-20006.7,-41069.8,-0,45683.7,-388065
step02_gravity_refstate-mantle.xmf,70,-2.56481e-06,-1.7055e-06,0,-2.30116e-06,-1.16941e+09,-1.1693e+09,-1.16907e+09,-307551,-0.0548636,-0.0469549,-0,0.0722134,-22108,-42162.1,-0,47606.8,-307551
step02_gravity_refstate-mantle.xmf,71,-2.81015e-06,-1.54186e-06,0,-2.12536e-06,-1.20253e+09,-1.20236e+09,-1.20216e+09,-284055,-0.0565678,-0.0386066,-0,0.0684864,-22916.7,-43184,-0,48888,-284055
step02_gravity_refstate-mantle.xmf,72,-3.05539e-06,-1.36951e-06,0,-1.93204e-06,-1.24086e+09,-1.24063e+09,-1.24045e+09,-258217,-0.0578914,-0.0304717,-0,0.0654212,-23786.1,-44366.6,-0,50340.6,-258217
step02_gravity_refstate-mantle.xmf,73,-3.80088e-06,-1.66315e-08,0,-8.11148e-07,-1.28898e+09,-1.28848e+09,-1.28847e+09,-108410,-0.0401232,0.00166885,-0,0.0401579,-29999.8,-45851.7,-0,54793.9,-108410
step02_gravity_refstate-mantle.xmf,74,-3.66807e-06,-3.61151e-07,0,-1.07359e-06,-1.29025e+09,-1.28981e+09,-1.28976e+09,-143485,-0.0471545,-0.00539607,-0,0.0474622,-28131,-45890.9,-0,53826.8,-143485
step02_gravity_refstate-mantle.xmf,75,-3.50635e-06,-7.66479e-07,0,-1.38992e-06,-1.2894e+09,-1.28904e+09,-1.28893e+09,-185763,-0.0535515,-0.0137552,-0,0.0552899,-26324.1,-45864.8,-0,52882.3,-185763
step02_gravity_refstate-mantle.xmf,76,-4.09901e-06,2.0965e-07,0,-6.67912e-07,-1.34178e+09,-1.3412e+09,-1.34123e+09,-89266.5,-0.0387839,0.00456547,-0,0.0390517,-30991.8,-47481.2,-0,56700.6,-89266.5
step02_gravity_refstate-mantle.xmf,77,-4.36577e-06,4.14681e-07,0,-5.44974e-07,-1.39286e+09,-1.39222e+09,-1.39228e+09,-72835.8,-0.0367386,0.00640268,-0,0.0372923,-31933.8,-49057.9,-0,58535.8,-72835.8
step02_gravity_refstate-mantle.xmf,78,-4.73121e-06,8.26382e-07,0,-3.21579e-07,-1.44949e+09,-1.44875e+09,-1.44886e+09,-42979,-0.0270375,0.00949427,-0,0.028656,-34393.4,-50805.8,-0,61352.5,-42979
step02_gravity_refstate-mantle.xmf,79,-4.93493e-06,9.877e-07,0,-2.34895e-07,-1.51459e+09,-1.5138e+09,-1.51393e+09,-31393.7,-0.0259515,0.00817859,-0,0.0272097,-34841.3,-52815.8,-0,63272.7,-31393.7
step02_gravity_refstate-mantle.xmf,80,-5.14782e-06,1.19441e-06,0,-1.45121e-07,-1.58452e+09,-1.58367e+09,-1.58383e+09,-19395.5,-0.0211693,0.00661952,-0,0.0221801,-35935.1,-54975,-0,65677.9,-19395.5
step02_gravity_refstate-mantle.xmf,81,-5.30172e-06,1.42394e-06,0,-5.3735e-08,-1.62965e+09,-1.62875e+09,-1.62894e+09,-7181.68,-0.0102817,0.00549773,-0,0.0116593,-38062.5,-56368.5,-0,68015.8,-7181.68
step02_gravity_refstate-mantle.xmf,82,-5.36451e-06,1.52971e-06,0,-2.99588e-09,-1.66975e+09,-1.66883e+09,-1.66903e+09,-400.4,1.25447e-19,0.00381163,0,0.00381163,-40000,-57607.2,-0,70132.6,-400.4
step02_gravity_refstate-mantle.xmf,83,-1.78507e-06,-4.58057e-06,0,-5.97143e-06,-1.09949e+09,-1.09986e+09,-1.09925e+09,-798082,-0.0607692,-0.163834,-0,0.174741,-13769.1,-40000,-0,42303.5,-798082
step02_gravity_refstate-mantle.xmf,84,-1.876e-06,-4.50479e-06,0,-5.76583e-06,-1.12057e+09,-1.12092e+09,-1.12032e+09,-770603,-0.064122,-0.150531,-0,0.163619,-14328.8,-40650.8,-0,43102.2,-770603
step02_gravity_refstate-mantle.xmf,85,-2.23215e-06,-2.91086e-06,0,-3.69306e-06,-1.15391e+09,-1.154e+09,-1.15361e+09,-493577,-0.0620038,-0.0887072,-0,0.108229,-18214.5,-41682.3,-0,45488.3,-493577
step02_gravity_refstate-mantle.xmf,86,-2.14866e-06,-3.40207e-06,0,-4.28226e-06,-1.15515e+09,-1.15532e+09,-1.15486e+09,-572324,-0.0648212,-0.104236,-0,0.122747,-17013.8,-41720,-0,45055.9,-572324
step02_gravity_refstate-mantle.xmf,87,-3.30528e-06,-1.22801e-06,0,-1.75622e-06,-1.28544e+09,-1.28517e+09,-1.285e+09,-234718,-0.0590621,-0.0233326,-0,0.0635039,-24613.4,-45742.6,-0,51944.3,-234718
step02_gravity_refstate-mantle.xmf,88,-4.57306e-06,5.8252e-07,0,-4.47539e-07,-1.43733e+09,-1.43664e+09,-1.43672e+09,-59813.6,-0.034413,0.00730808,-0,0.0351805,-32747.2,-50430.5,-0,60130,-59813.6
step02_gravity_refstate-mantle.xmf,89,-5.36065e-06,1.54151e-06,0,-1.36645e-08,-1.69374e+09,-1.69282e+09,-1.69302e+09,-1826.26,-0.0090393,0.00260295,-0,0.00940661,-38317.2,-58348.2,-0,69804.9,-1826.26
step02_gravity_refstate-mantle.xmf,90,-5.40346e-06,1.67387e-06,0,-4.14649e-11,-1.74721e+09,-1.74627e+09,-1.74649e+09,-5.54179,-8.40047e-19,-2.59742e-20,-0,8.40448e-19,-40000,-60000,-0,72111,-5.54179
step02_gravity_refstate-mantle.xmf,91,-1.24266e-06,-8.18226e-06,0,-9.76564e-06,-1.09967e+09,-1.10059e+09,-1.0995e+09,-1.30518e+06,-0.0667347,-0.247425,-0,0.256267,-10064.5,-40000,-0,41246.8,-1.30518e+06
step02_gravity_refstate-mantle.xmf,92,-1.51381e-06,-7.02343e-06,0,-8.71314e-06,-1.09963e+09,-1.10037e+09,-1.09943e+09,-1.16451e+06,-0.0655454,-0.225388,-0,0.234725,-10932.8,-40000,-0,41467.2,-1.16451e+06
step02_gravity_refstate-mantle.xmf,93,-1.20044e-06,-7.99447e-06,0,-9.37393e-06,-1.11634e+09,-1.11724e+09,-1.11618e+09,-1.25283e+06,-0.0694717,-0.231892,-0,0.242075,-10510.5,-40515.6,-0,41856.8,-1.25283e+06
step02_gravity_refstate-mantle.xmf,94,-1.68843e-06,-6.05866e-06,0,-7.73251e-06,-1.09959e+09,-1.10017e+09,-1.09936e+09,-1.03345e+06,-0.0641181,-0.204078,-0,0.213913,-11837.8,-40000,-0,41714.9,-1.03345e+06
step02_gravity_refstate-mantle.xmf,95,-1.43236e-06,-7.09389e-06,0,-8.52884e-06,-1.12095e+09,-1.1217e+09,-1.12075e+09,-1.13988e+06,-0.0693228,-0.212388,-0,0.223415,-11284.3,-40658.8,-0,42195.7,-1.13988e+06
step02_gravity_refstate-mantle.xmf,96,-1.7923e-06,-5.20246e-06,0,-6.53244e-06,-1.12658e+09,-1.12704e+09,-1.12634e+09,-873060,-0.0669692,-0.166778,-0,0.179721,-13402,-40835.3,-0,42978.4,-873060
step02_gravity_refstate-mantle.xmf,97,-2.05158e-06,-4.05945e-06,0,-5.03731e-06,-1.15588e+09,-1.15615e+09,-1.15561e+09,-673237,-0.0675845,-0.122481,-0,0.13989,-15745.9,-41741.6,-0,44612.8,-673237
step02_gravity_refstate-mantle.xmf,98,-1.89704e-06,-4.82014e-06,0,-5.92512e-06,-1.15135e+09,-1.15174e+09,-1.15109e+09,-791892,-0.0694545,-0.144623,-0,0.160436,-14413.2,-41600.6,-0,44026.7,-791892
step02_gravity_refstate-mantle.xmf,99,-2.48971e-06,-2.14763e-06,0,-2.79021e-06,-1.1709e+09,-1.17085e+09,-1.17057e+09,-372912,-0.058799,-0.0606712,-0,0.0844886,-20621,-42207.5,-0,46975.5,-372912
step02_gravity_refstate-mantle.xmf,100,-2.37383e-06,-2.65249e-06,0,-3.37686e-06,-1.16845e+09,-1.16849e+09,-1.16813e+09,-451318,-0.0621807,-0.0772213,-0,0.0991442,-19077.5,-42131.3,-0,46249.3,-451318
step02_gravity_refstate-mantle.xmf,101,-2.28206e-06,-3.28623e-06,0,-4.04008e-06,-1.18098e+09,-1.18111e+09,-1.18067e+09,-539957,-0.0670859,-0.0923287,-0,0.114128,-17716.8,-42517.2,-0,46060.8,-539957
step02_gravity_refstate-mantle.xmf,102,-2.69297e-06,-1.99409e-06,0,-2.58293e-06,-1.20508e+09,-1.20499e+09,-1.20472e+09,-345209,-0.0610136,-0.0511063,-0,0.0795897,-21404.2,-43262.3,-0,48267.7,-345209
step02_gravity_refstate-mantle.xmf,103,-2.89967e-06,-1.85865e-06,0,-2.37825e-06,-1.24294e+09,-1.2428e+09,-1.24255e+09,-317853,-0.0628208,-0.0421487,-0,0.0756503,-22197.3,-44430.8,-0,49667,-317853
step02_gravity_refstate-mantle.xmf,104,-3.09256e-06,-1.70787e-06,0,-2.15309e-06,-1.28187e+09,-1.28169e+09,-1.28146e+09,-287760,-0.0638739,-0.0338641,-0,0.0722956,-23017,-45632.5,-0,51108.8,-287760
step02_gravity_refstate-mantle.xmf,105,-3.95729e-06,-1.50919e-07,0,-9.14577e-07,-1.34266e+09,-1.34215e+09,-1.34213e+09,-122233,-0.046536,-0.00136488,-0,0.046556,-29075.2,-47508.3,-0,55699.2,-122233
step02_gravity_refstate-mantle.xmf,106,-3.5044e-06,-1.17105e-06,0,-1.61325e-06,-1.34139e+09,-1.34108e+09,-1.34092e+09,-215611,-0.0612822,-0.0184814,-0,0.0640084,-25106.2,-47469.6,-0,53699.9,-215611
step02_gravity_refstate-mantle.xmf,107,-3.76923e-06,-5.85033e-07,0,-1.20608e-06,-1.34323e+09,-1.34281e+09,-1.34273e+09,-161193,-0.0538187,-0.00858243,-0,0.0544987,-27193.4,-47526.3,-0,54756.1,-161193
step02_gravity_refstate-mantle.xmf,108,-4.21753e-06,7.77053e-08,0,-7.42162e-07,-1.39612e+09,-1.39555e+09,-1.39556e+09,-99189.9,-0.0449636,0.001723,-0,0.0449966,-30044.9,-49158.7,-0,57613.2,-99189.9
step02_gravity_refstate-mantle.xmf,109,-4.46666e-06,3.14503e-07,0,-5.79238e-07,-1.44865e+09,-1.44801e+09,-1.44805e+09,-77415.2,-0.0422688,0.0039409,-0,0.0424521,-31078.7,-50780.3,-0,59535.9,-77415.2
step02_gravity_refstate-mantle.xmf,110,-4.72924e-06,6.37733e-07,0,-4.00876e-07,-1.49695e+09,-1.49623e+09,-1.49632e+09,-53577.1,-0.0366172,0.00591262,-0,0.0370915,-32570.4,-52271.2,-0,61588.2,-53577.1
step02_gravity_refstate-mantle.xmf,111,-4.95729e-06,8.8729e-07,0,-2.52422e-07,-1.56869e+09,-1.56791e+09,-1.56803e+09,-33736.3,-0.0328158,0.00547405,-0,0.0332693,-33598.2,-54486.5,-0,64012.6,-33736.3
step02_gravity_refstate-mantle.xmf,112,-5.26673e-06,1.35458e-06,0,-6.15237e-08,-1.67487e+09,-1.67398e+09,-1.67416e+09,-8222.64,-0.0208055,0.00313463,-0,0.0210403,-36095.9,-57765.4,-0,68115.7,-8222.64
step02_gravity_refstate-mantle.xmf,113,-5.35611e-06,1.58217e-06,0,-2.43926e-09,-1.74721e+09,-1.74628e+09,-1.74649e+09,-326.007,-0.0138335,-2.05533e-20,-0,0.0138335,-37427.7,-60000,-0,70716.5,-326.007
step02_gravity_refstate-mantle.xmf,114,-8.46924e-07,-9.58095e-06,0,-1.08813e-05,-1.0997e+09,-1.10086e+09,-1.09958e+09,-1.45428e+06,-0.0676029,-0.270101,-0,0.278432,-9230.72,-40000,-0,41051.3,-1.45428e+06
step02_gravity_refstate-mantle.xmf,115,-7.13504e-07,-9.36542e-06,0,-1.03248e-05,-1.12292e+09,-1.12407e+09,-1.12282e+09,-1.37991e+06,-0.071326,-0.249331,-0,0.259333,-9749.19,-40718.7,-0,41869.5,-1.37991e+06
step02_gravity_refstate-mantle.xmf,116,-1.7755e-06,-5.25514e-06,0,-6.81511e-06,-1.09954e+09,-1.1e+09,-1.0993e+09,-910839,-0.0625113,-0.183548,-0,0.193901,-12782.4,-40000,-0,41992.7,-910839
step02_gravity_refstate-mantle.xmf,117,-1.59272e-06,-6.21226e-06,0,-7.55104e-06,-1.13045e+09,-1.13107e+09,-1.13024e+09,-1.0092e+06,-0.0695415,-0.188185,-0,0.200623,-12298.9,-40953.6,-0,42760.4,-1.0092e+06
step02_gravity_refstate-mantle.xmf,118,-2.11452e-06,-3.95655e-06,0,-4.74514e-06,-1.18404e+09,-1.18429e+09,-1.18376e+09,-634189,-0.0703602,-0.109228,-0,0.129928,-16414.9,-42611.3,-0,45663.6,-634189
step02_gravity_refstate-mantle.xmf,119,-3.259e-06,-1.56005e-06,0,-1.94024e-06,-1.31692e+09,-1.31669e+09,-1.31649e+09,-259314,-0.0641656,-0.0271219,-0,0.0696622,-23770.8,-46714.4,-0,52414.6,-259314
step02_gravity_refstate-mantle.xmf,120,-5.10034e-06,1.07118e-06,0,-1.51207e-07,-1.62773e+09,-1.62691e+09,-1.62705e+09,-20208.8,-0.0294808,0.00426352,-0,0.0297875,-34376.4,-56309.8,-0,65973.7,-20208.8
step02_gravity_refstate-mantle.xmf,121,-5.24346e-08,-1.11301e-05,0,-1.14732e-05,-1.12158e+09,-1.12306e+09,-1.12157e+09,-1.53339e+06,-0.0714767,-0.274263,-0,0.283423,-8828.85,-40677.2,-0,41624.3,-1.53339e+06
step02_gravity_refstate-mantle.xmf,122,-8.74338e-07,-8.54275e-06,0,-9.44937e-06,-1.13849e+09,-1.13951e+09,-1.13837e+09,-1.26291e+06,-0.0731141,-0.225952,-0,0.237487,-10521.8,-41200.8,-0,42523.1,-1.26291e+06
step02_gravity_refstate-mantle.xmf,123,-1.22733e-06,-7.34062e-06,0,-8.38419e-06,-1.1448e+09,-1.14562e+09,-1.14464e+09,-1.12055e+06,-0.072994,-0.201393,-0,0.214213,-11538,-41396.4,-0,42974.3,-1.12055e+06
step02_gravity_refstate-mantle.xmf,124,-1.60098e-06,-5.94757e-06,0,-6.96824e-06,-1.15918e+09,-1.15976e+09,-1.15896e+09,-931306,-0.0728955,-0.16618,-0,0.181465,-13137.5,-41841.5,-0,43855.5,-931306
step02_gravity_refstate-mantle.xmf,125,-1.91086e-06,-4.76553e-06,0,-5.56723e-06,-1.18474e+09,-1.18513e+09,-1.18449e+09,-744060,-0.0730252,-0.127958,-0,0.147329,-15133,-42632.3,-0,45238.5,-744060
step02_gravity_refstate-mantle.xmf,126,-2.57128e-06,-2.5343e-06,0,-3.13765e-06,-1.20751e+09,-1.2075e+09,-1.20717e+09,-419347,-0.0652013,-0.0650853,-0,0.0921266,-19916.3,-43336.8,-0,47694.2,-419347
step02_gravity_refstate-mantle.xmf,127,-2.19513e-06,-3.8695e-06,0,-4.44689e-06,-1.2145e+09,-1.21472e+09,-1.21421e+09,-594327,-0.0726963,-0.0961523,-0,0.120541,-17120.4,-43551.8,-0,46796,-594327
step02_gravity_refstate-mantle.xmf,128,-2.40532e-06,-3.15174e-06,0,-3.76103e-06,-1.21034e+09,-1.21044e+09,-1.21002e+09,-502662,-0.0691061,-0.0803337,-0,0.105968,-18474.2,-43423.7,-0,47190.2,-502662
step02_gravity_refstate-mantle.xmf,129,-2.72139e-06,-2.40488e-06,0,-2.88319e-06,-1.24445e+09,-1.24441e+09,-1.24409e+09,-385339,-0.0671967,-0.0548092,-0,0.0867147,-20693.6,-44477.3,-0,49055.6,-385339
step02_gravity_refstate-mantle.xmf,130,-2.87625e-06,-2.27231e-06,0,-2.62238e-06,-1.28254e+09,-1.28246e+09,-1.28215e+09,-350482,-0.068502,-0.0452991,-0,0.0821251,-21484.9,-45653,-0,50455.9,-350482
step02_gravity_refstate-mantle.xmf,131,-3.03871e-06,-2.09318e-06,0,-2.33205e-06,-1.32042e+09,-1.32029e+09,-1.32002e+09,-311678,-0.0689236,-0.0363375,-0,0.0779158,-22338.8,-46822.7,-0,51878.5,-311678
step02_gravity_refstate-mantle.xmf,132,-3.22577e-06,-1.84747e-06,0,-2.01527e-06,-1.35764e+09,-1.35746e+09,-1.35721e+09,-269341,-0.0683616,-0.0278557,-0,0.0738191,-23296.9,-47971.8,-0,53329.5,-269341
step02_gravity_refstate-mantle.xmf,133,-4.01833e-06,-3.68392e-07,0,-1.00407e-06,-1.3966e+09,-1.39611e+09,-1.39606e+09,-134194,-0.0528517,-0.0041881,-0,0.0530174,-28132.6,-49173.5,-0,56652.3,-134194
step02_gravity_refstate-mantle.xmf,134,-3.75427e-06,-9.13118e-07,0,-1.32346e-06,-1.39572e+09,-1.39534e+09,-1.39522e+09,-176881,-0.0602781,-0.0115311,-0,0.0613711,-26208.3,-49147,-0,55698.3,-176881
step02_gravity_refstate-mantle.xmf,135,-4.25322e-06,-1.19393e-07,0,-7.8917e-07,-1.45094e+09,-1.45039e+09,-1.45037e+09,-105473,-0.0509026,-0.000764586,-0,0.0509083,-29115,-50851.4,-0,58596.5,-105473
step02_gravity_refstate-mantle.xmf,136,-4.48248e-06,1.3865e-07,0,-5.90472e-07,-1.50605e+09,-1.50543e+09,-1.50545e+09,-78916.6,-0.0480919,0.00158428,-0,0.0481179,-30124.5,-52552.8,-0,60574.6,-78916.6
step02_gravity_refstate-mantle.xmf,137,-4.72747e-06,4.66923e-07,0,-3.89241e-07,-1.56356e+09,-1.56287e+09,-1.56293e+09,-52022.1,-0.0434634,0.00312699,-0,0.0435758,-31384.1,-54328.4,-0,62741.9,-52022.1
step02_gravity_refstate-mantle.xmf,138,-4.92504e-06,7.54403e-07,0,-2.23817e-07,-1.62476e+09,-1.62401e+09,-1.62411e+09,-29913.1,-0.0389532,0.00311878,-0,0.0390778,-32482,-56218.5,-0,64927.6,-29913.1
step02_gravity_refstate-mantle.xmf,139,-5.10368e-06,1.06535e-06,0,-9.20273e-08,-1.68413e+09,-1.68331e+09,-1.68345e+09,-12299.5,-0.0329096,0.0021454,-0,0.0329795,-33767.5,-58051.9,-0,67158.5,-12299.5
step02_gravity_refstate-mantle.xmf,140,-5.21991e-06,1.33648e-06,0,-1.08782e-09,-1.7472e+09,-1.74632e+09,-1.7465e+09,-145.387,-0.0269019,-5.45679e-21,-0,0.0269019,-34956.1,-60000,-0,69440.1,-145.387
step02_gravity_refstate-mantle.xmf,141,-2.50158e-07,-1.12916e-05,0,-1.20181e-05,-1.09971e+09,-1.10119e+09,-1.09968e+09,-1.60621e+06,-0.0680428,-0.293299,-0,0.301088,-8429.03,-40000,-0,40878.5,-1.60621e+06
step02_gravity_refstate-mantle.xmf,142,1.68512e-06,-1.5762e-05,0,-1.40867e-05,-1.09966e+09,-1.10199e+09,-1.09989e+09,-1.88269e+06,-0.067104,-0.340641,-0,0.347187,-6909.43,-40000,-0,40592.4,-1.88269e+06
step02_gravity_refstate-mantle.xmf,143,5.74991e-07,-1.33353e-05,0,-1.31156e-05,-1.0997e+09,-1.10156e+09,-1.09978e+09,-1.7529e+06,-0.0679295,-0.316877,-0,0.324076,-7656.37,-40000,-0,40726.2,-1.7529e+06
step02_gravity_refstate-mantle.xmf,144,1.7802e-06,-1.51887e-05,0,-1.33328e-05,-1.12013e+09,-1.12239e+09,-1.12036e+09,-1.78193e+06,-0.0700757,-0.319224,-0,0.326825,-7282.9,-40634.3,-0,41281.8,-1.78193e+06
step02_gravity_refstate-mantle.xmf,145,8.33325e-07,-1.31111e-05,0,-1.24622e-05,-1.12212e+09,-1.12398e+09,-1.12223e+09,-1.66557e+06,-0.0712407,-0.29692,-0,0.305347,-8015.59,-40694.8,-0,41476.7,-1.66557e+06
step02_gravity_refstate-mantle.xmf,146,1.44261e-07,-1.0958e-05,0,-1.09011e-05,-1.14263e+09,-1.14411e+09,-1.14265e+09,-1.45693e+06,-0.0741849,-0.256859,-0,0.267357,-9214.12,-41329.2,-0,42343.8,-1.45693e+06
step02_gravity_refstate-mantle.xmf,147,-4.01123e-07,-9.69913e-06,0,-1.01767e-05,-1.14193e+09,-1.14317e+09,-1.14187e+09,-1.36012e+06,-0.0740026,-0.240577,-0,0.251701,-9874.14,-41307.2,-0,42471,-1.36012e+06
step02_gravity_refstate-mantle.xmf,148,-1.24557e-06,-7.04146e-06,0,-7.8944e-06,-1.16247e+09,-1.16324e+09,-1.1623e+09,-1.05509e+06,-0.074822,-0.185497,-0,0.200019,-12110.2,-41942.7,-0,43656.1,-1.05509e+06
step02_gravity_refstate-mantle.xmf,149,-1.61505e-06,-5.72038e-06,0,-6.45776e-06,-1.18576e+09,-1.18631e+09,-1.18554e+09,-863080,-0.0753276,-0.147852,-0,0.165935,-13895.3,-42663.2,-0,44869,-863080
step02_gravity_refstate-mantle.xmf,150,-1.92331e-06,-4.67049e-06,0,-5.18996e-06,-1.21568e+09,-1.21605e+09,-1.21543e+09,-693638,-0.0755051,-0.113347,-0,0.136193,-15818.2,-43588.2,-0,46369.6,-693638
step02_gravity_refstate-mantle.xmf,151,-3.43731e-06,-1.57399e-06,0,-1.68318e-06,-1.40219e+09,-1.40194e+09,-1.40173e+09,-224957,-0.0672854,-0.0197751,-0,0.0701312,-24345.3,-49347,-0,55025.7,-224957
step02_gravity_refstate-mantle.xmf,152,3.10139e-06,-1.85908e-05,0,-1.48278e-05,-1.09959e+09,-1.10249e+09,-1.1e+09,-1.98174e+06,-0.0653984,-0.364332,-0,0.370155,-6184.51,-40000,-0,40475.3,-1.98174e+06
step02_gravity_refstate-mantle.xmf,153,3.06802e-06,-1.76964e-05,0,-1.40173e-05,-1.11869e+09,-1.12147e+09,-1.1191e+09,-1.87341e+06,-0.068175,-0.342277,-0,0.349,-6541.6,-40592.2,-0,41115.9,-1.87341e+06
step02_gravity_refstate-mantle.xmf,154,9.69892e-07,-1.27363e-05,0,-1.17198e-05,-1.14629e+09,-1.14812e+09,-1.14642e+09,-1.56635e+06,-0.0741474,-0.274894,-0,0.284719,-8465.42,-41443.2,-0,42299,-1.56635e+06
step02_gravity_refstate-mantle.xmf,155,-7.24898e-07,-8.40465e-06,0,-8.88805e-06,-1.16542e+09,-1.16644e+09,-1.16532e+09,-1.18789e+06,-0.0762264,-0.206432,-0,0.220056,-11073.1,-42033.9,-0,43468,-1.18789e+06
step02_gravity_refstate-mantle.xmf,156,-3.98946e-08,-1.00658e-05,0,-9.98552e-06,-1.16334e+09,-1.16468e+09,-1.16333e+09,-1.33456e+06,-0.0764366,-0.231486,-0,0.243779,-9980.32,-41970.1,-0,43140.4,-1.33456e+06
step02_gravity_refstate-mantle.xmf,157,-1.20251e-06,-6.85658e-06,0,-7.35946e-06,-1.18972e+09,-1.19047e+09,-1.18955e+09,-983591,-0.0773879,-0.167049,-0,0.184104,-12764.5,-42785.2,-0,44648.7,-983591
step02_gravity_refstate-mantle.xmf,158,-1.58026e-06,-5.63244e-06,0,-6.00742e-06,-1.21764e+09,-1.21818e+09,-1.21743e+09,-802892,-0.0778913,-0.131274,-0,0.152643,-14574.8,-43648.4,-0,46017.4,-802892
step02_gravity_refstate-mantle.xmf,159,-2.51832e-06,-3.04876e-06,0,-3.47718e-06,-1.24581e+09,-1.24588e+09,-1.24547e+09,-464725,-0.0711656,-0.0687944,-0,0.0989809,-19227.5,-44518.9,-0,48493.6,-464725
step02_gravity_refstate-mantle.xmf,160,-1.94228e-06,-4.60257e-06,0,-4.81942e-06,-1.24906e+09,-1.24942e+09,-1.2488e+09,-644115,-0.077601,-0.0995142,-0,0.126194,-16497.2,-44619.3,-0,47571.4,-644115
step02_gravity_refstate-mantle.xmf,161,-2.25972e-06,-3.77489e-06,0,-4.12083e-06,-1.24767e+09,-1.24787e+09,-1.24737e+09,-550750,-0.0746759,-0.0836904,-0,0.112163,-17830.1,-44576.2,-0,48009.9,-550750
step02_gravity_refstate-mantle.xmf,162,-2.62047e-06,-2.92422e-06,0,-3.16019e-06,-1.28353e+09,-1.28357e+09,-1.28318e+09,-422359,-0.0726908,-0.0579437,-0,0.0929592,-19991.4,-45683.8,-0,49866.5,-422359
step02_gravity_refstate-mantle.xmf,163,-2.74543e-06,-2.76597e-06,0,-2.82337e-06,-1.32225e+09,-1.32225e+09,-1.32188e+09,-377343,-0.0734859,-0.0476101,-0,0.0875608,-20805.9,-46879.2,-0,51288.9,-377343
step02_gravity_refstate-mantle.xmf,164,-2.88877e-06,-2.56429e-06,0,-2.47115e-06,-1.36129e+09,-1.36125e+09,-1.36091e+09,-330270,-0.0735902,-0.0380997,-0,0.082868,-21657.3,-48085,-0,52737.1,-330270
step02_gravity_refstate-mantle.xmf,165,-3.06046e-06,-2.31083e-06,0,-2.09567e-06,-1.40352e+09,-1.40342e+09,-1.40311e+09,-280087,-0.0730675,-0.0290732,-0,0.0786391,-22585.2,-49388.9,-0,54307.9,-280087
step02_gravity_refstate-mantle.xmf,166,-3.97867e-06,-6.70833e-07,0,-1.0593e-06,-1.45093e+09,-1.45048e+09,-1.45039e+09,-141575,-0.0588898,-0.00655412,-0,0.0592534,-27173.5,-50851.3,-0,57656.3,-141575
step02_gravity_refstate-mantle.xmf,167,-3.63776e-06,-1.32002e-06,0,-1.37067e-06,-1.45124e+09,-1.45093e+09,-1.45075e+09,-183191,-0.0660778,-0.0133829,-0,0.0674195,-25287.9,-50861.5,-0,56801.1,-183191
step02_gravity_refstate-mantle.xmf,168,-4.1993e-06,-3.90305e-07,0,-7.94079e-07,-1.50694e+09,-1.50643e+09,-1.50638e+09,-106129,-0.0566604,-0.0027874,-0,0.0567289,-28155.9,-52580.7,-0,59644.6,-106129
step02_gravity_refstate-mantle.xmf,169,-4.4288e-06,-7.45748e-08,0,-5.48381e-07,-1.56378e+09,-1.5632e+09,-1.56319e+09,-73291.1,-0.0533606,-0.00013152,-0,0.0533608,-29223,-54335.9,-0,61695.9,-73291.1
step02_gravity_refstate-mantle.xmf,170,-4.64865e-06,2.63243e-07,0,-3.29545e-07,-1.62222e+09,-1.62157e+09,-1.6216e+09,-44043.6,-0.0492144,0.00123375,-0,0.0492299,-30332.6,-56140.5,-0,63810.9,-44043.6
step02_gravity_refstate-mantle.xmf,171,-4.84312e-06,6.06249e-07,0,-1.41561e-07,-1.68451e+09,-1.68378e+09,-1.68386e+09,-18919.6,-0.044446,0.00123737,-0,0.0444632,-31448.2,-58064.2,-0,66033.6,-18919.6
step02_gravity_refstate-mantle.xmf,172,-4.99722e-06,9.40285e-07,0,-4.0449e-11,-1.74718e+09,-1.74639e+09,-1.74652e+09,-5.40601,-0.0390468,1.2827e-20,-0,0.0390468,-32578.9,-60000,-0,68274.3,-5.40601
step02_gravity_refstate-mantle.xmf,173,4.81035e-06,-2.17727e-05,0,-1.51904e-05,-1.09948e+09,-1.10304e+09,-1.10013e+09,-2.03019e+06,-0.0626355,-0.387601,-0,0.392629,-5477.46,-40000,-0,40373.3,-2.03019e+06
step02_gravity_refstate-mantle.xmf,174,4.68647e-06,-2.06731e-05,0,-1.44233e-05,-1.11771e+09,-1.12109e+09,-1.11833e+09,-1.92767e+06,-0.0652208,-0.365845,-0,0.371614,-5786.68,-40564.9,-0,40975.6,-1.92767e+06
step02_gravity_refstate-mantle.xmf,175,2.92002e-06,-1.68237e-05,0,-1.33227e-05,-1.13445e+09,-1.13709e+09,-1.13484e+09,-1.78058e+06,-0.070334,-0.323087,-0,0.330654,-6906.17,-41080.2,-0,41656.7,-1.78058e+06
step02_gravity_refstate-mantle.xmf,176,2.37528e-06,-1.54266e-05,0,-1.26466e-05,-1.1453e+09,-1.14768e+09,-1.14562e+09,-1.69022e+06,-0.0724,-0.302713,-0,0.311251,-7442.12,-41415.4,-0,42078.7,-1.69022e+06
step02_gravity_refstate-mantle.xmf,177,1.0264e-06,-1.2184e-05,0,-1.09197e-05,-1.16868e+09,-1.17045e+09,-1.16882e+09,-1.45941e+06,-0.0764314,-0.253663,-0,0.264928,-8966.02,-42136.8,-0,43080.2,-1.45941e+06
step02_gravity_refstate-mantle.xmf,178,-6.57573e-07,-8.1695e-06,0,-8.2918e-06,-1.19125e+09,-1.19226e+09,-1.19117e+09,-1.1082e+06,-0.0785708,-0.187491,-0,0.203289,-11670.2,-42833,-0,44394.4,-1.1082e+06
step02_gravity_refstate-mantle.xmf,179,-1.1307e-06,-6.74047e-06,0,-6.8563e-06,-1.21904e+09,-1.21979e+09,-1.21888e+09,-916344,-0.0796475,-0.150099,-0,0.169922,-13380.9,-43691.7,-0,45694.8,-916344
step02_gravity_refstate-mantle.xmf,180,-1.55178e-06,-5.54038e-06,0,-5.55711e-06,-1.25005e+09,-1.25058e+09,-1.24984e+09,-742707,-0.0799114,-0.116213,-0,0.141037,-15222.8,-44650,-0,47173.7,-742707
step02_gravity_refstate-mantle.xmf,181,-3.23488e-06,-2.06346e-06,0,-1.72923e-06,-1.4505e+09,-1.45034e+09,-1.45006e+09,-231112,-0.0722343,-0.021185,-0,0.0752768,-23488.3,-50839.4,-0,56003.1,-231112
step02_gravity_refstate-mantle.xmf,182,6.66409e-06,-2.52471e-05,0,-1.50983e-05,-1.09937e+09,-1.10363e+09,-1.10026e+09,-2.01789e+06,-0.0586615,-0.410012,-0,0.414187,-4783.65,-40000,-0,40285,-2.01789e+06
step02_gravity_refstate-mantle.xmf,183,6.48249e-06,-2.38261e-05,0,-1.4368e-05,-1.11683e+09,-1.12088e+09,-1.1177e+09,-1.92028e+06,-0.061186,-0.388141,-0,0.392934,-5064.3,-40541.8,-0,40856.9,-1.92028e+06
step02_gravity_refstate-mantle.xmf,184,4.4404e-06,-1.95352e-05,0,-1.36997e-05,-1.13501e+09,-1.13822e+09,-1.13561e+09,-1.83097e+06,-0.0675712,-0.344613,-0,0.351175,-6141.27,-41100.8,-0,41557,-1.83097e+06
step02_gravity_refstate-mantle.xmf,185,2.2241e-06,-1.45367e-05,0,-1.17322e-05,-1.17085e+09,-1.17309e+09,-1.17115e+09,-1.56801e+06,-0.0750109,-0.276305,-0,0.286306,-8003.2,-42205.9,-0,42958,-1.56801e+06
step02_gravity_refstate-mantle.xmf,186,6.11602e-08,-9.73338e-06,0,-9.22103e-06,-1.19271e+09,-1.19402e+09,-1.19272e+09,-1.23239e+06,-0.0790345,-0.208782,-0,0.223241,-10601.8,-42878.8,-0,44170,-1.23239e+06
step02_gravity_refstate-mantle.xmf,187,9.71999e-07,-1.1549e-05,0,-1.00872e-05,-1.19363e+09,-1.1953e+09,-1.19376e+09,-1.34815e+06,-0.0785894,-0.230591,-0,0.243616,-9570.41,-42908.7,-0,43963,-1.34815e+06
step02_gravity_refstate-mantle.xmf,188,-5.70531e-07,-8.01863e-06,0,-7.71331e-06,-1.22041e+09,-1.22141e+09,-1.22034e+09,-1.03088e+06,-0.0807302,-0.169348,-0,0.187606,-12247.6,-43734.8,-0,45417.3,-1.03088e+06
step02_gravity_refstate-mantle.xmf,189,-1.06449e-06,-6.63837e-06,0,-6.34134e-06,-1.25088e+09,-1.25163e+09,-1.25074e+09,-847520,-0.0815873,-0.133781,-0,0.156696,-13994.8,-44676.2,-0,46816.9,-847520
step02_gravity_refstate-mantle.xmf,190,-2.31482e-06,-3.69121e-06,0,-3.77753e-06,-1.28454e+09,-1.28473e+09,-1.28423e+09,-504867,-0.0763712,-0.0718515,-0,0.104858,-18532.7,-45715.2,-0,49328.9,-504867
step02_gravity_refstate-mantle.xmf,191,-1.52211e-06,-5.47307e-06,0,-5.10828e-06,-1.28495e+09,-1.28547e+09,-1.28474e+09,-682721,-0.081589,-0.101942,-0,0.130571,-15857.2,-45728.3,-0,48399.7,-682721
step02_gravity_refstate-mantle.xmf,192,-1.9519e-06,-4.53111e-06,0,-4.42325e-06,-1.28515e+09,-1.2855e+09,-1.28489e+09,-591168,-0.0793322,-0.0864297,-0,0.117319,-17165.3,-45734.3,-0,48849.5,-591168
step02_gravity_refstate-mantle.xmf,193,-2.39219e-06,-3.54372e-06,0,-3.38234e-06,-1.32301e+09,-1.32316e+09,-1.32269e+09,-452050,-0.0774092,-0.0602234,-0,0.0980768,-19299,-46903.1,-0,50718.4,-452050
step02_gravity_refstate-mantle.xmf,194,-2.49363e-06,-3.36859e-06,0,-2.98045e-06,-1.36256e+09,-1.36268e+09,-1.36223e+09,-398338,-0.0778905,-0.0494218,-0,0.0922466,-20086.3,-48124.7,-0,52148.3,-398338
step02_gravity_refstate-mantle.xmf,195,-2.62712e-06,-3.13913e-06,0,-2.55883e-06,-1.40386e+09,-1.40393e+09,-1.40351e+09,-341987,-0.0777995,-0.0392425,-0,0.0871364,-20926.6,-49400.1,-0,53649.7,-341987
step02_gravity_refstate-mantle.xmf,196,-2.77044e-06,-2.89868e-06,0,-2.12761e-06,-1.44984e+09,-1.44986e+09,-1.44947e+09,-284354,-0.0773955,-0.0299281,-0,0.0829804,-21762.6,-50820.2,-0,55283.9,-284354
step02_gravity_refstate-mantle.xmf,197,-3.41225e-06,-1.8092e-06,0,-1.36979e-06,-1.50112e+09,-1.5009e+09,-1.50066e+09,-183073,-0.0711095,-0.014615,-0,0.0725959,-24336.4,-52402.6,-0,57777.9,-183073
step02_gravity_refstate-mantle.xmf,198,-3.83748e-06,-1.05967e-06,0,-1.05951e-06,-1.50627e+09,-1.5059e+09,-1.50576e+09,-141604,-0.0645609,-0.00821419,-0,0.0650813,-26184.4,-52560.9,-0,58721.9,-141604
step02_gravity_refstate-mantle.xmf,199,-4.04622e-06,-7.48788e-07,0,-7.4449e-07,-1.56366e+09,-1.56322e+09,-1.56312e+09,-99501.1,-0.0622829,-0.00418308,-0,0.0624233,-27116.9,-54332.9,-0,60723.9,-99501.1
step02_gravity_refstate-mantle.xmf,200,-4.28047e-06,-3.75747e-07,0,-4.53924e-07,-1.62293e+09,-1.62241e+09,-1.62236e+09,-60667,-0.0588248,-0.00129293,-0,0.058839,-28181.9,-56163.3,-0,62837.4,-60667
step02_gravity_refstate-mantle.xmf,201,-4.49636e-06,7.69799e-09,0,-2.03612e-07,-1.68412e+09,-1.68351e+09,-1.68352e+09,-27212.7,-0.0548026,7.20146e-05,-0,0.0548027,-29229.9,-58052.8,-0,64996.3,-27212.7
step02_gravity_refstate-mantle.xmf,202,-4.68479e-06,3.97312e-07,0,9.20025e-10,-1.74716e+09,-1.74648e+09,-1.74654e+09,122.961,-0.0501308,3.40471e-20,-0,0.0501308,-30289.7,-60000,-0,67212.1,-122.961
step02_gravity_refstate-mantle.xmf,203,8.01369e-06,-2.65877e-05,0,-1.4006e-05,-1.11428e+09,-1.11891e+09,-1.11535e+09,-1.8719e+06,-0.0567591,-0.407672,-0,0.411604,-4460.08,-40466.2,-0,40711.3,-1.8719e+06
step02_gravity_refstate-mantle.xmf,204,8.75019e-06,-2.86584e-05,0,-1.42545e-05,-1.0992e+09,-1.1042e+09,-1.10037e+09,-1.90511e+06,-0.053379,-0.43105,-0,0.434342,-4097.91,-40000,-0,40209.4,-1.90511e+06
step02_gravity_refstate-mantle.xmf,205,6.28076e-06,-2.2669e-05,0,-1.3667e-05,-1.13532e+09,-1.13919e+09,-1.13616e+09,-1.8266e+06,-0.0633125,-0.366906,-0,0.372328,-5340.52,-41114.6,-0,41460,-1.8266e+06
step02_gravity_refstate-mantle.xmf,206,4.07961e-06,-1.82978e-05,0,-1.29994e-05,-1.15164e+09,-1.15463e+09,-1.15219e+09,-1.73737e+06,-0.0699181,-0.322911,-0,0.330393,-6573.73,-41615.2,-0,42131.2,-1.73737e+06
step02_gravity_refstate-mantle.xmf,207,2.15343e-06,-1.3705e-05,0,-1.08093e-05,-1.19561e+09,-1.19773e+09,-1.1959e+09,-1.44467e+06,-0.0771232,-0.252483,-0,0.264,-8553.3,-42972.3,-0,43815.3,-1.44467e+06
step02_gravity_refstate-mantle.xmf,208,1.48669e-07,-9.47862e-06,0,-8.54515e-06,-1.22103e+09,-1.22232e+09,-1.22105e+09,-1.14206e+06,-0.0810124,-0.189234,-0,0.205846,-11159.7,-43754.8,-0,45155.6,-1.14206e+06
step02_gravity_refstate-mantle.xmf,209,-4.74268e-07,-7.87341e-06,0,-7.12537e-06,-1.25113e+09,-1.25212e+09,-1.25107e+09,-952305,-0.0825158,-0.152012,-0,0.172963,-12822.5,-44684.6,-0,46488,-952305
step02_gravity_refstate-mantle.xmf,210,-1.01474e-06,-6.53267e-06,0,-5.81751e-06,-1.28444e+09,-1.28517e+09,-1.2843e+09,-777510,-0.0831522,-0.118297,-0,0.144597,-14601,-45713.2,-0,47988.4,-777510
step02_gravity_refstate-mantle.xmf,211,-2.94506e-06,-2.60814e-06,0,-1.72286e-06,-1.49372e+09,-1.49367e+09,-1.49332e+09,-230260,-0.0763612,-0.0220053,-0,0.0794686,-22618.1,-52175,-0,56866.6,-230260
step02_gravity_refstate-mantle.xmf,212,1.06366e-05,-3.18766e-05,0,-1.28151e-05,-1.09906e+09,-1.10474e+09,-1.10048e+09,-1.71274e+06,-0.0467718,-0.45015,-0,0.452573,-3414.86,-40000,-0,40145.5,-1.71274e+06
step02_gravity_refstate-mantle.xmf,213,9.7331e-06,-2.89555e-05,0,-1.27079e-05,-1.12223e+09,-1.1274e+09,-1.12353e+09,-1.69841e+06,-0.0516331,-0.416416,-0,0.419605,-3877.21,-40717.3,-0,40901.5,-1.69841e+06
step02_gravity_refstate-mantle.xmf,214,8.13115e-06,-2.57894e-05,0,-1.32045e-05,-1.13352e+09,-1.13805e+09,-1.13461e+09,-1.76478e+06,-0.0578657,-0.388698,-0,0.392982,-4581.97,-41063.3,-0,41318.1,-1.76478e+06
step02_gravity_refstate-mantle.xmf,215,5.79938e-06,-2.12349e-05,0,-1.31042e-05,-1.15112e+09,-1.15474e+09,-1.1519e+09,-1.75138e+06,-0.0657817,-0.345647,-0,0.351851,-5730.4,-41603.1,-0,41995.9,-1.75138e+06
step02_gravity_refstate-mantle.xmf,216,3.7545e-06,-1.70907e-05,0,-1.21708e-05,-1.17257e+09,-1.17536e+09,-1.17307e+09,-1.62663e+06,-0.0722944,-0.298628,-0,0.307254,-7069.99,-42262.7,-0,42850,-1.62663e+06
step02_gravity_refstate-mantle.xmf,217,3.46469e-06,-1.60827e-05,0,-1.13547e-05,-1.19658e+09,-1.19919e+09,-1.19705e+09,-1.51755e+06,-0.0744577,-0.273909,-0,0.283848,-7591.06,-43005,-0,43669.8,-1.51755e+06
step02_gravity_refstate-mantle.xmf,218,1.02026e-06,-1.11557e-05,0,-9.3288e-06,-1.22116e+09,-1.22279e+09,-1.2213e+09,-1.24679e+06,-0.080426,-0.209736,-0,0.224627,-10104.4,-43760.5,-0,44911.9,-1.24679e+06
step02_gravity_refstate-mantle.xmf,219,2.08131e-06,-1.30608e-05,0,-9.98586e-06,-1.2217e+09,-1.22373e+09,-1.22198e+09,-1.33461e+06,-0.0788935,-0.230163,-0,0.243309,-9086.83,-43779.4,-0,44712.5,-1.33461e+06
step02_gravity_refstate-mantle.xmf,220,2.22548e-07,-9.2758e-06,0,-7.89895e-06,-1.25095e+09,-1.25222e+09,-1.25098e+09,-1.05569e+06,-0.0826553,-0.170838,-0,0.189782,-11696.9,-44680,-0,46185.7,-1.05569e+06
step02_gravity_refstate-mantle.xmf,221,-3.94224e-07,-7.74245e-06,0,-6.53003e-06,-1.28431e+09,-1.28529e+09,-1.28426e+09,-872738,-0.0840034,-0.135213,-0,0.159183,-13395.1,-45710.4,-0,47632.6,-872738
step02_gravity_refstate-mantle.xmf,222,-1.97659e-06,-4.42919e-06,0,-3.99797e-06,-1.32309e+09,-1.32342e+09,-1.32283e+09,-534329,-0.0805778,-0.0738806,-0,0.109321,-17851.6,-46906.4,-0,50188.5,-534329
step02_gravity_refstate-mantle.xmf,223,-9.78521e-07,-6.41877e-06,0,-5.2947e-06,-1.31904e+09,-1.31977e+09,-1.31891e+09,-707637,-0.0843422,-0.103694,-0,0.133664,-15201.5,-46782.7,-0,49190.5,-707637
step02_gravity_refstate-mantle.xmf,224,-1.50095e-06,-5.39314e-06,0,-4.63693e-06,-1.3222e+09,-1.32272e+09,-1.322e+09,-619725,-0.0829085,-0.0883596,-0,0.121166,-16482.8,-46879.6,-0,49692.8,-619725
step02_gravity_refstate-mantle.xmf,225,-2.0333e-06,-4.27241e-06,0,-3.53952e-06,-1.36256e+09,-1.36286e+09,-1.36229e+09,-473057,-0.0813188,-0.0618443,-0,0.102164,-18572.3,-48125.6,-0,51584.9,-473057
step02_gravity_refstate-mantle.xmf,226,-2.12583e-06,-4.06839e-06,0,-3.06607e-06,-1.40357e+09,-1.40383e+09,-1.40328e+09,-409780,-0.0815688,-0.050399,-0,0.0958829,-19335.7,-49392.1,-0,53041.9,-409780
step02_gravity_refstate-mantle.xmf,227,-2.24443e-06,-3.82906e-06,0,-2.58161e-06,-1.44715e+09,-1.44736e+09,-1.44685e+09,-345032,-0.0814323,-0.0397468,-0,0.0906147,-20117.1,-50738.2,-0,54580.8,-345032
step02_gravity_refstate-mantle.xmf,228,-2.40322e-06,-3.53433e-06,0,-2.10044e-06,-1.49159e+09,-1.49175e+09,-1.49127e+09,-280724,-0.0808216,-0.0301171,-0,0.0862506,-20930.6,-52110.8,-0,56157.1,-280724
step02_gravity_refstate-mantle.xmf,229,-3.12083e-06,-2.31564e-06,0,-1.36604e-06,-1.53406e+09,-1.53396e+09,-1.53365e+09,-182571,-0.0750484,-0.0158897,-0,0.0767121,-23394.4,-53421,-0,58318.9,-182571
step02_gravity_refstate-mantle.xmf,230,-3.52082e-06,-1.66766e-06,0,-1.0246e-06,-1.5615e+09,-1.56125e+09,-1.56103e+09,-136938,-0.0708156,-0.00972786,-0,0.0714806,-24849.8,-54267.5,-0,59686.4,-136938
step02_gravity_refstate-mantle.xmf,231,-3.8119e-06,-1.17073e-06,0,-6.1365e-07,-1.62226e+09,-1.6219e+09,-1.62175e+09,-82014.3,-0.0673866,-0.00443455,-0,0.0675324,-26063.4,-56143.5,-0,61898.3,-82014.3
step02_gravity_refstate-mantle.xmf,232,-4.05292e-06,-7.3726e-07,0,-2.77126e-07,-1.6843e+09,-1.68386e+09,-1.68376e+09,-37037.9,-0.0640059,-0.00138205,-0,0.0640208,-27077.3,-58059.6,-0,64063.3,-37037.9
step02_gravity_refstate-mantle.xmf,233,-4.27697e-06,-2.92623e-07,0,1.97972e-09,-1.74713e+09,-1.7466e+09,-1.74656e+09,264.59,-0.0600245,5.89275e-20,-0,0.0600245,-28082.3,-60000,-0,66246.6,-264.59
step02_gravity_refstate-mantle.xmf,234,1.22894e-05,-3.47443e-05,0,-1.08748e-05,-1.09894e+09,-1.10522e+09,-1.10058e+09,-1.45342e+06,-0.0389346,-0.466692,-0,0.468313,-2731.89,-40000,-0,40093.2,-1.45342e+06
step02_gravity_refstate-mantle.xmf,235,1.15905e-05,-3.22167e-05,0,-1.11189e-05,-1.11853e+09,-1.12438e+09,-1.12008e+09,-1.48604e+06,-0.0434017,-0.438215,-0,0.440359,-3103.07,-40606.9,-0,40725.3,-1.48604e+06
step02_gravity_refstate-mantle.xmf,236,7.62473e-06,-2.42295e-05,0,-1.26945e-05,-1.15141e+09,-1.15567e+09,-1.15243e+09,-1.69663e+06,-0.0603579,-0.36621,-0,0.371151,-4919.65,-41616.7,-0,41906.4,-1.69663e+06
step02_gravity_refstate-mantle.xmf,237,5.42168e-06,-1.98557e-05,0,-1.22969e-05,-1.17377e+09,-1.17714e+09,-1.17449e+09,-1.64349e+06,-0.0682229,-0.320041,-0,0.327232,-6172.97,-42303.6,-0,42751.6,-1.64349e+06
step02_gravity_refstate-mantle.xmf,238,3.32011e-06,-1.51716e-05,0,-1.04564e-05,-1.22221e+09,-1.22468e+09,-1.22266e+09,-1.39749e+06,-0.0762722,-0.250363,-0,0.261723,-8102.27,-43798.1,-0,44541.2,-1.39749e+06
step02_gravity_refstate-mantle.xmf,239,1.08936e-06,-1.0856e-05,0,-8.61019e-06,-1.25021e+09,-1.25181e+09,-1.25036e+09,-1.15075e+06,-0.0819247,-0.190327,-0,0.20721,-10604.9,-44659.1,-0,45901,-1.15075e+06
step02_gravity_refstate-mantle.xmf,240,2.98032e-07,-9.05756e-06,0,-7.24497e-06,-1.28166e+09,-1.28291e+09,-1.2817e+09,-968290,-0.0839709,-0.153302,-0,0.174793,-12236.4,-45629.9,-0,47242.1,-968290
step02_gravity_refstate-mantle.xmf,241,-3.75961e-07,-7.55601e-06,0,-5.93756e-06,-1.31728e+09,-1.31824e+09,-1.31723e+09,-793555,-0.0850976,-0.119281,-0,0.146525,-13986.3,-46729.5,-0,48777.7,-793555
step02_gravity_refstate-mantle.xmf,242,-2.61138e-06,-3.15801e-06,0,-1.63929e-06,-1.53477e+09,-1.53485e+09,-1.53442e+09,-219092,-0.0795837,-0.0216605,-0,0.0824787,-21820.9,-53444.1,-0,57727.1,-219092
step02_gravity_refstate-mantle.xmf,243,1.29588e-05,-3.45167e-05,0,-9.2151e-06,-1.11787e+09,-1.12421e+09,-1.1196e+09,-1.2316e+06,-0.0352769,-0.452123,-0,0.453497,-2440.75,-40589.8,-0,40663.1,-1.2316e+06
step02_gravity_refstate-mantle.xmf,244,1.10684e-05,-3.01917e-05,0,-1.08752e-05,-1.13999e+09,-1.1455e+09,-1.14147e+09,-1.45347e+06,-0.0462087,-0.411512,-0,0.414099,-3380.31,-41271.6,-0,41409.8,-1.45347e+06
step02_gravity_refstate-mantle.xmf,245,9.58794e-06,-2.73033e-05,0,-1.17009e-05,-1.15182e+09,-1.15675e+09,-1.1531e+09,-1.56383e+06,-0.0532021,-0.385615,-0,0.389268,-4087.03,-41634.6,-0,41834.7,-1.56383e+06
step02_gravity_refstate-mantle.xmf,246,7.16653e-06,-2.26885e-05,0,-1.20347e-05,-1.17327e+09,-1.17726e+09,-1.17423e+09,-1.60844e+06,-0.0628262,-0.340952,-0,0.346692,-5309.51,-42292.7,-0,42624.7,-1.60844e+06
step02_gravity_refstate-mantle.xmf,247,5.05025e-06,-1.8586e-05,0,-1.14908e-05,-1.19734e+09,-1.2005e+09,-1.19801e+09,-1.53575e+06,-0.0704575,-0.294893,-0,0.303193,-6648.02,-43032.5,-0,43543,-1.53575e+06
step02_gravity_refstate-mantle.xmf,248,4.68708e-06,-1.75028e-05,0,-1.07263e-05,-1.22257e+09,-1.22554e+09,-1.2232e+09,-1.43357e+06,-0.0724455,-0.27013,-0,0.279676,-7143.5,-43812.4,-0,44390.9,-1.43357e+06
step02_gravity_refstate-mantle.xmf,249,2.0621e-06,-1.25845e-05,0,-9.22451e-06,-1.2489e+09,-1.25086e+09,-1.24918e+09,-1.23286e+06,-0.0802888,-0.209871,-0,0.224704,-9569.75,-44620.7,-0,45635.4,-1.23286e+06
step02_gravity_refstate-mantle.xmf,250,3.17479e-06,-1.44506e-05,0,-9.65866e-06,-1.24853e+09,-1.25089e+09,-1.24896e+09,-1.29088e+06,-0.0777634,-0.228432,-0,0.241306,-8596.7,-44612,-0,45432.7,-1.29088e+06
step02_gravity_refstate-mantle.xmf,251,1.14349e-06,-1.06181e-05,0,-7.94369e-06,-1.27984e+09,-1.28141e+09,-1.27999e+09,-1.06167e+06,-0.0830966,-0.172447,-0,0.191424,-11071.5,-45575.2,-0,46900.7,-1.06167e+06
step02_gravity_refstate-mantle.xmf,252,3.25716e-07,-8.8197e-06,0,-6.5845e-06,-1.31423e+09,-1.31545e+09,-1.31427e+09,-880019,-0.0850472,-0.135968,-0,0.160375,-12802.6,-46636.6,-0,48361.9,-880019
step02_gravity_refstate-mantle.xmf,253,-1.49831e-06,-5.28372e-06,0,-4.13593e-06,-1.36189e+09,-1.3624e+09,-1.36169e+09,-552767,-0.0838511,-0.0751977,-0,0.112631,-17123.5,-48105.7,-0,51062.5,-552767
step02_gravity_refstate-mantle.xmf,254,-3.3496e-07,-7.43322e-06,0,-5.38987e-06,-1.35096e+09,-1.35191e+09,-1.35092e+09,-720356,-0.0859417,-0.105095,-0,0.135761,-14505.1,-47770.6,-0,49924.2,-720356
step02_gravity_refstate-mantle.xmf,255,-8.99698e-07,-6.38837e-06,0,-4.76366e-06,-1.35911e+09,-1.35985e+09,-1.35899e+09,-636663,-0.0854313,-0.0898489,-0,0.123981,-15723.2,-48021.1,-0,50529.7,-636663
step02_gravity_refstate-mantle.xmf,256,-1.55078e-06,-5.10032e-06,0,-3.60093e-06,-1.40317e+09,-1.40364e+09,-1.40296e+09,-481264,-0.0843528,-0.0623852,-0,0.104916,-17814.3,-49381,-0,52496,-481264
step02_gravity_refstate-mantle.xmf,257,-1.64639e-06,-4.86048e-06,0,-3.0601e-06,-1.44534e+09,-1.44577e+09,-1.44512e+09,-408982,-0.0844446,-0.0503395,-0,0.0983105,-18542.4,-50683.7,-0,53969,-408982
step02_gravity_refstate-mantle.xmf,258,-1.78582e-06,-4.56371e-06,0,-2.51351e-06,-1.48921e+09,-1.48958e+09,-1.48897e+09,-335931,-0.0841712,-0.039111,-0,0.0928141,-19306,-52038.7,-0,55504.5,-335931
step02_gravity_refstate-mantle.xmf,259,-1.98318e-06,-4.19032e-06,0,-1.97723e-06,-1.53355e+09,-1.53384e+09,-1.53328e+09,-264257,-0.0834582,-0.0289215,-0,0.0883274,-20128.4,-53407.8,-0,57074.9,-264257
step02_gravity_refstate-mantle.xmf,260,-2.88978e-06,-2.67961e-06,0,-1.2023e-06,-1.57716e+09,-1.57713e+09,-1.57677e+09,-160688,-0.0775563,-0.0143374,-0,0.0788704,-22841.1,-54752.7,-0,59326,-160688
step02_gravity_refstate-mantle.xmf,261,-3.23905e-06,-2.11087e-06,0,-7.7166e-07,-1.62594e+09,-1.62579e+09,-1.62551e+09,-103132,-0.0746596,-0.00789116,-0,0.0750755,-24011.7,-56258.7,-0,61168.7,-103132
step02_gravity_refstate-mantle.xmf,262,-3.49812e-06,-1.64185e-06,0,-3.58083e-07,-1.68555e+09,-1.68531e+09,-1.68509e+09,-47857.8,-0.0719842,-0.00308044,-0,0.0720501,-24966.3,-58099.7,-0,63236.8,-47857.8
step02_gravity_refstate-mantle.xmf,263,-3.76772e-06,-1.12984e-06,0,3.00126e-09,-1.74709e+09,-1.74674e+09,-1.74659e+09,401.119,-0.0686013,8.81248e-20,-0,0.0686013,-25950.7,-60000,-0,65371.5,-401.119
step02_gravity_refstate-mantle.xmf,264,1.35995e-05,-3.69692e-05,0,-8.45246e-06,-1.09884e+09,-1.1056e+09,-1.10066e+09,-1.12967e+06,-0.0300831,-0.48009,-0,0.481032,-2048.93,-40000,-0,40052.4,-1.12967e+06
step02_gravity_refstate-mantle.xmf,265,1.2274e-05,-3.24318e-05,0,-9.63872e-06,-1.13427e+09,-1.14024e+09,-1.13591e+09,-1.28822e+06,-0.0394352,-0.428736,-0,0.430546,-2789.32,-41097.2,-0,41191.7,-1.28822e+06
step02_gravity_refstate-mantle.xmf,266,8.55666e-06,-2.50112e-05,0,-1.15975e-05,-1.17011e+09,-1.1746e+09,-1.17126e+09,-1.55e+06,-0.0575269,-0.358856,-0,0.363438,-4623.51,-42198.5,-0,42451.1,-1.55e+06
step02_gravity_refstate-mantle.xmf,267,6.74702e-06,-2.12935e-05,0,-1.12989e-05,-1.19739e+09,-1.20114e+09,-1.1983e+09,-1.5101e+06,-0.0649576,-0.315532,-0,0.322149,-5711.05,-43038.7,-0,43415.9,-1.5101e+06
step02_gravity_refstate-mantle.xmf,268,4.44817e-06,-1.65003e-05,0,-9.87542e-06,-1.24898e+09,-1.25178e+09,-1.24957e+09,-1.31985e+06,-0.0740949,-0.246617,-0,0.257507,-7629.78,-44629,-0,45276.5,-1.31985e+06
step02_gravity_refstate-mantle.xmf,269,2.14586e-06,-1.23322e-05,0,-8.5407e-06,-1.27715e+09,-1.27908e+09,-1.27743e+09,-1.14146e+06,-0.0812303,-0.192236,-0,0.208693,-9946.11,-45494.4,-0,46568.9,-1.14146e+06
step02_gravity_refstate-mantle.xmf,270,1.17729e-06,-1.03128e-05,0,-7.23652e-06,-1.31078e+09,-1.31232e+09,-1.31094e+09,-967161,-0.0840924,-0.154487,-0,0.175891,-11581.4,-46532.1,-0,47951.7,-967161
step02_gravity_refstate-mantle.xmf,271,3.19421e-07,-8.59305e-06,0,-5.97028e-06,-1.34628e+09,-1.34747e+09,-1.34632e+09,-797928,-0.0858531,-0.120222,-0,0.14773,-13342.8,-47627.3,-0,49461,-797928
step02_gravity_refstate-mantle.xmf,272,-2.22086e-06,-3.74901e-06,0,-1.4621e-06,-1.57855e+09,-1.57875e+09,-1.57825e+09,-195409,-0.0822737,-0.0199349,-0,0.0846544,-21012.8,-54797.3,-0,58688,-195409
step02_gravity_refstate-mantle.xmf,273,1.40573e-05,-3.62181e-05,0,-6.81556e-06,-1.11914e+09,-1.12586e+09,-1.12102e+09,-910900,-0.0260132,-0.46142,-0,0.462153,-1755.99,-40632.1,-0,40670,-910900
step02_gravity_refstate-mantle.xmf,274,1.32971e-05,-3.3863e-05,0,-7.83904e-06,-1.13758e+09,-1.14388e+09,-1.13936e+09,-1.04769e+06,-0.0320264,-0.434907,-0,0.436085,-2215.31,-41202.6,-0,41262.1,-1.04769e+06
step02_gravity_refstate-mantle.xmf,275,1.45628e-05,-3.85633e-05,0,-5.74119e-06,-1.09876e+09,-1.10586e+09,-1.10071e+09,-767310,-0.0204718,-0.489925,-0,0.490352,-1365.96,-40000,-0,40023.3,-767310
step02_gravity_refstate-mantle.xmf,276,1.50763e-05,-3.95017e-05,0,2.89628e-06,-1.09873e+09,-1.10602e+09,-1.10074e+09,387087,0.0103575,-0.495923,0,0.496031,682.988,-40000,0,40005.8,-387087
step02_gravity_refstate-mantle.xmf,277,1.5262e-05,-3.98225e-05,0,1.11918e-08,-1.09872e+09,-1.10608e+09,-1.10076e+09,1495.78,-1.18295e-06,-0.497939,-0,0.497939,0,-40000,0,40000,-1495.78
step02_gravity_refstate-mantle.xmf,278,1.52022e-05,-3.86312e-05,0,1.5058e-06,-1.11191e+09,-1.11911e+09,-1.11394e+09,201250,0.00547913,-0.481313,0,0.481344,360.036,-40410.2,0,40411.8,-201250
step02_gravity_refstate-mantle.xmf,279,1.50951e-05,-3.95063e-05,0,-2.88256e-06,-1.09873e+09,-1.10602e+09,-1.10074e+09,-385255,-0.0103591,-0.495924,-0,0.496032,-682.988,-40000,-0,40005.8,-385255
step02_gravity_refstate-mantle.xmf,280,1.52511e-05,-3.84347e-05,0,-9.11173e-07,-1.11538e+09,-1.12256e+09,-1.11742e+09,-121778,-0.00357335,-0.477449,-0,0.477462,-234.796,-40518.3,-0,40519,-121778
step02_gravity_refstate-mantle.xmf,281,1.48538e-05,-3.72766e-05,0,-3.76361e-06,-1.12238e+09,-1.12935e+09,-1.12437e+09,-503006,-0.0145737,-0.465816,-0,0.466044,-967.162,-40734.9,-0,40746.4,-503006
step02_gravity_refstate-mantle.xmf,282,1.23158e-05,-3.15064e-05,0,-8.83644e-06,-1.15356e+09,-1.15941e+09,-1.1552e+09,-1.18099e+06,-0.0385075,-0.410237,-0,0.41204,-2753.46,-41695.7,-0,41786.5,-1.18099e+06
step02_gravity_refstate-mantle.xmf,283,1.10731e-05,-2.88555e-05,0,-9.68571e-06,-1.17144e+09,-1.17678e+09,-1.17292e+09,-1.2945e+06,-0.0455762,-0.38214,-0,0.384848,-3411.74,-42246.6,-0,42384.1,-1.2945e+06
step02_gravity_refstate-mantle.xmf,284,9.80193e-06,-2.66731e-05,0,-1.05163e-05,-1.17821e+09,-1.18309e+09,-1.17952e+09,-1.40551e+06,-0.0519815,-0.364298,-0,0.367988,-4051.02,-42452.8,-0,42645.6,-1.40551e+06
step02_gravity_refstate-mantle.xmf,285,8.60508e-06,-2.43151e-05,0,-1.07288e-05,-1.19491e+09,-1.19931e+09,-1.19606e+09,-1.4339e+06,-0.0575152,-0.33776,-0,0.342622,-4726.92,-42966.6,-0,43225.8,-1.4339e+06
step02_gravity_refstate-mantle.xmf,286,6.25112e-06,-1.98687e-05,0,-1.05686e-05,-1.22285e+09,-1.22634e+09,-1.22369e+09,-1.41249e+06,-0.0672805,-0.2892,-0,0.296923,-6198.7,-43825.4,-0,44261.6,-1.41249e+06
step02_gravity_refstate-mantle.xmf,287,5.81468e-06,-1.87178e-05,0,-9.88994e-06,-1.24877e+09,-1.25205e+09,-1.24955e+09,-1.32179e+06,-0.069195,-0.264665,-0,0.273561,-6672.04,-44626.1,-0,45122.1,-1.32179e+06
step02_gravity_refstate-mantle.xmf,288,2.97794e-06,-1.38237e-05,0,-9.03335e-06,-1.27094e+09,-1.27319e+09,-1.27134e+09,-1.20731e+06,-0.0789895,-0.210142,-0,0.224497,-9059.41,-45304.4,-0,46201.3,-1.20731e+06
step02_gravity_refstate-mantle.xmf,289,4.14623e-06,-1.55752e-05,0,-9.11057e-06,-1.2757e+09,-1.27833e+09,-1.27625e+09,-1.21763e+06,-0.0757178,-0.22369,-0,0.236158,-8162.57,-45454.7,-0,46181.8,-1.21763e+06
step02_gravity_refstate-mantle.xmf,290,2.2721e-06,-1.21957e-05,0,-7.86218e-06,-1.30799e+09,-1.30992e+09,-1.30829e+09,-1.05078e+06,-0.0818582,-0.17519,-0,0.193371,-10275.1,-46448.3,-0,47571.3,-1.05078e+06
step02_gravity_refstate-mantle.xmf,291,1.12849e-06,-9.94714e-06,0,-6.52791e-06,-1.34291e+09,-1.34439e+09,-1.34306e+09,-872456,-0.08497,-0.136396,-0,0.160698,-12155.9,-47525.1,-0,49055.1,-872456
step02_gravity_refstate-mantle.xmf,292,3.03627e-07,-8.38541e-06,0,-5.42627e-06,-1.37558e+09,-1.37675e+09,-1.37562e+09,-725221,-0.0864179,-0.1068,-0,0.137384,-13827.9,-48532.9,-0,50464.4,-725221
step02_gravity_refstate-mantle.xmf,293,-8.8711e-07,-6.24578e-06,0,-4.16799e-06,-1.40117e+09,-1.40189e+09,-1.40105e+09,-557052,-0.0861028,-0.0755559,-0,0.114553,-16339.3,-49320.8,-0,51956.8,-557052
step02_gravity_refstate-mantle.xmf,294,-9.16384e-08,-7.59662e-06,0,-4.80946e-06,-1.39607e+09,-1.39708e+09,-1.39606e+09,-642785,-0.0867852,-0.0915256,-0,0.126129,-14788.9,-49165.2,-0,51341.3,-642785
step02_gravity_refstate-mantle.xmf,295,-9.6838e-07,-5.99739e-06,0,-3.55077e-06,-1.44389e+09,-1.44456e+09,-1.44376e+09,-474560,-0.0863932,-0.0616724,-0,0.106147,-17028.6,-50640.4,-0,53426.8,-474560
step02_gravity_refstate-mantle.xmf,296,-1.08228e-06,-5.70817e-06,0,-2.94677e-06,-1.48712e+09,-1.48774e+09,-1.48697e+09,-393836,-0.0864052,-0.0489639,-0,0.0993142,-17723.8,-51975.7,-0,54914.6,-393836
step02_gravity_refstate-mantle.xmf,297,-1.24973e-06,-5.35774e-06,0,-2.35238e-06,-1.5311e+09,-1.53165e+09,-1.53094e+09,-314395,-0.0861326,-0.0372701,-0,0.0938503,-18454,-53334.2,-0,56436.6,-314395
step02_gravity_refstate-mantle.xmf,298,-1.49118e-06,-4.9088e-06,0,-1.77063e-06,-1.57564e+09,-1.57609e+09,-1.57544e+09,-236644,-0.0854863,-0.0265691,-0,0.0895199,-19270.9,-54709.4,-0,58004.2,-236644
step02_gravity_refstate-mantle.xmf,299,-2.52128e-06,-3.22679e-06,0,-9.47402e-07,-1.62913e+09,-1.62923e+09,-1.6288e+09,-126620,-0.0805333,-0.0117811,-0,0.0813905,-21988.2,-56359.3,-0,60496.7,-126620
step02_gravity_refstate-mantle.xmf,300,-2.82974e-06,-2.69964e-06,0,-4.49807e-07,-1.68644e+09,-1.68642e+09,-1.68606e+09,-60116.8,-0.0784779,-0.00502244,-0,0.0786384,-22915.6,-58128.8,-0,62482.6,-60116.8
step02_gravity_refstate-mantle.xmf,301,-3.15077e-06,-2.11536e-06,0,4.24199e-09,-1.74704e+09,-1.7469e+09,-1.74662e+09,566.942,-0.0757356,1.21596e-19,-0,0.0757356,-23888.9,-60000,-0,64580.8,-566.942
step02_gravity_refstate-mantle.xmf,302,1.45414e-05,-3.85279e-05,0,5.75074e-06,-1.09876e+09,-1.10586e+09,-1.10071e+09,768587,0.0204717,-0.489924,0,0.490351,1365.96,-40000,0,40023.3,-768587
step02_gravity_refstate-mantle.xmf,303,1.49099e-05,-3.7874e-05,0,3.8294e-06,-1.11552e+09,-1.12257e+09,-1.11751e+09,511799,0.0145017,-0.473885,0,0.474107,959.96,-40521.6,0,40533,-511799
step02_gravity_refstate-mantle.xmf,304,1.51006e-05,-3.71229e-05,0,1.4961e-06,-1.13126e+09,-1.13824e+09,-1.13328e+09,199954,0.00591893,-0.458466,0,0.458504,392.029,-41011.2,0,41013.1,-199954
step02_gravity_refstate-mantle.xmf,305,7.86426e-06,-2.23567e-05,0,-1.00804e-05,-1.22261e+09,-1.22665e+09,-1.22366e+09,-1.34724e+06,-0.0606436,-0.30762,-0,0.313541,-5254.67,-43822.3,-0,44136.2,-1.34724e+06
step02_gravity_refstate-mantle.xmf,306,5.44441e-06,-1.75953e-05,0,-9.14703e-06,-1.27491e+09,-1.27798e+09,-1.27563e+09,-1.2225e+06,-0.0709512,-0.241341,-0,0.251554,-7160.68,-45433.7,-0,45994.6,-1.2225e+06
step02_gravity_refstate-mantle.xmf,307,3.50715e-06,-1.4187e-05,0,-8.34239e-06,-1.30177e+09,-1.30414e+09,-1.30224e+09,-1.11496e+06,-0.0783236,-0.197562,-0,0.212521,-9011.62,-46259.4,-0,47129,-1.11496e+06
step02_gravity_refstate-mantle.xmf,308,2.07167e-06,-1.15185e-05,0,-7.08526e-06,-1.3377e+09,-1.33952e+09,-1.33798e+09,-946945,-0.0830352,-0.154767,-0,0.175635,-10926.1,-47366.6,-0,48610.4,-946945
step02_gravity_refstate-mantle.xmf,309,1.02939e-06,-9.58203e-06,0,-5.86279e-06,-1.37494e+09,-1.37636e+09,-1.37508e+09,-783562,-0.0856894,-0.119469,-0,0.147022,-12738.8,-48514.9,-0,50159.5,-783562
step02_gravity_refstate-mantle.xmf,310,-1.78155e-06,-4.38255e-06,0,-1.18737e-06,-1.62434e+09,-1.62469e+09,-1.62411e+09,-158692,-0.0844243,-0.0166866,-0,0.0860576,-20170,-56213.4,-0,59722.4,-158692
step02_gravity_refstate-mantle.xmf,311,1.41439e-05,-3.63801e-05,0,6.67143e-06,-1.11786e+09,-1.12461e+09,-1.11975e+09,891636,0.0252071,-0.463617,0,0.464301,1697.94,-40592.7,0,40628.2,-891636
step02_gravity_refstate-mantle.xmf,312,1.42246e-05,-3.51357e-05,0,-5.42654e-06,-1.14066e+09,-1.14726e+09,-1.14256e+09,-725257,-0.0222571,-0.440477,-0,0.441039,-1509.64,-41300.7,-0,41328.3,-725257
step02_gravity_refstate-mantle.xmf,313,1.33591e-05,-3.27765e-05,0,-6.68424e-06,-1.16066e+09,-1.16683e+09,-1.16245e+09,-893348,-0.0294043,-0.413168,-0,0.414213,-2060.65,-41918.8,-0,41969.4,-893348
step02_gravity_refstate-mantle.xmf,314,1.50454e-05,-3.68065e-05,0,-1.42591e-06,-1.13511e+09,-1.14204e+09,-1.13712e+09,-190572,-0.00569606,-0.454095,-0,0.454131,-378.335,-41130.6,-0,41132.3,-190572
step02_gravity_refstate-mantle.xmf,315,1.02503e-05,-2.6653e-05,0,-9.37777e-06,-1.19847e+09,-1.2034e+09,-1.19984e+09,-1.25334e+06,-0.0490569,-0.351321,-0,0.35473,-3846.51,-43081.6,-0,43253,-1.25334e+06
step02_gravity_refstate-mantle.xmf,316,1.23611e-05,-3.05006e-05,0,-7.70594e-06,-1.17874e+09,-1.18446e+09,-1.18039e+09,-1.0299e+06,-0.0363196,-0.387716,-0,0.389414,-2645.12,-42476.3,-0,42558.5,-1.0299e+06
step02_gravity_refstate-mantle.xmf,317,9.43205e-06,-2.47707e-05,0,-9.21026e-06,-1.22278e+09,-1.22735e+09,-1.22404e+09,-1.23095e+06,-0.0526801,-0.323771,-0,0.328029,-4334.29,-43831.8,-0,44045.6,-1.23095e+06
step02_gravity_refstate-mantle.xmf,318,7.2761e-06,-2.08665e-05,0,-9.49016e-06,-1.24878e+09,-1.25254e+09,-1.24975e+09,-1.26836e+06,-0.0630911,-0.281401,-0,0.288387,-5739.32,-44630.4,-0,44998,-1.26836e+06
step02_gravity_refstate-mantle.xmf,319,6.7233e-06,-1.95997e-05,0,-8.96739e-06,-1.27386e+09,-1.27738e+09,-1.27476e+09,-1.19849e+06,-0.0653523,-0.257417,-0,0.265583,-6232.57,-45404.9,-0,45830.7,-1.19849e+06
step02_gravity_refstate-mantle.xmf,320,5.22009e-06,-1.6802e-05,0,-8.37482e-06,-1.30609e+09,-1.30903e+09,-1.30678e+09,-1.1193e+06,-0.0720517,-0.21771,-0,0.229323,-7597.21,-46397.4,-0,47015.3,-1.1193e+06
step02_gravity_refstate-mantle.xmf,321,3.24978e-06,-1.34478e-05,0,-7.49884e-06,-1.3369e+09,-1.33913e+09,-1.33733e+09,-1.00222e+06,-0.0796416,-0.173119,-0,0.19056,-9640.48,-47344.6,-0,48316.1,-1.00222e+06
step02_gravity_refstate-mantle.xmf,322,1.95086e-06,-1.10314e-05,0,-6.31326e-06,-1.37212e+09,-1.37386e+09,-1.37238e+09,-843767,-0.0839059,-0.134946,-0,0.158904,-11524.5,-48430.2,-0,49782.5,-843767
step02_gravity_refstate-mantle.xmf,323,8.43549e-07,-9.09976e-06,0,-5.21217e-06,-1.4052e+09,-1.40653e+09,-1.40531e+09,-696606,-0.0863517,-0.103324,-0,0.134657,-13409.2,-49449.4,-0,51235.2,-696606
step02_gravity_refstate-mantle.xmf,324,-1.9944e-07,-7.23764e-06,0,-4.05315e-06,-1.441e+09,-1.44194e+09,-1.44097e+09,-541704,-0.0872214,-0.0741062,-0,0.114452,-15558.6,-50553.1,-0,52893.1,-541704
step02_gravity_refstate-mantle.xmf,325,-3.27529e-07,-6.91052e-06,0,-3.3791e-06,-1.48422e+09,-1.4851e+09,-1.48418e+09,-451616,-0.0874203,-0.0594099,-0,0.105697,-16239.7,-51888.2,-0,54370.1,-451616
step02_gravity_refstate-mantle.xmf,326,-4.1687e-07,-6.65002e-06,0,-2.72825e-06,-1.52944e+09,-1.53027e+09,-1.52938e+09,-364631,-0.0874888,-0.046317,-0,0.0989927,-16814.3,-53285,-0,55875,-364631
step02_gravity_refstate-mantle.xmf,327,-6.64168e-07,-6.17634e-06,0,-2.07923e-06,-1.5736e+09,-1.57434e+09,-1.57351e+09,-277888,-0.0872848,-0.0337294,-0,0.0935752,-17590.7,-54648.8,-0,57410.1,-277888
step02_gravity_refstate-mantle.xmf,328,-9.66812e-07,-5.63643e-06,0,-1.46936e-06,-1.61767e+09,-1.61829e+09,-1.61754e+09,-196380,-0.0868089,-0.0226648,-0,0.0897189,-18415.3,-56009.4,-0,58959.1,-196380
step02_gravity_refstate-mantle.xmf,329,-1.95149e-06,-4.06561e-06,0,-5.96048e-07,-1.68391e+09,-1.68419e+09,-1.68365e+09,-79661.8,-0.0837601,-0.00787069,-0,0.0841291,-20703.2,-58053,-0,61634.2,-79661.8
step02_gravity_refstate-mantle.xmf,330,-2.42328e-06,-3.24448e-06,0,6.22001e-09,-1.74697e+09,-1.74708e+09,-1.74665e+09,831.304,-0.0813035,1.93255e-19,-0,0.0813035,-21891.2,-60000,-0,63868.8,-831.304
step02_gravity_refstate-mantle.xmf,331,1.45361e-05,-3.59939e-05,0,4.60255e-06,-1.1351e+09,-1.14185e+09,-1.13704e+09,615131,0.0185131,-0.449141,0,0.449522,1243.38,-41128.9,0,41147.7,-615131
step02_gravity_refstate-mantle.xmf,332,1.36167e-05,-3.69441e-05,0,8.42198e-06,-1.09883e+09,-1.10559e+09,-1.10065e+09,1.1256e+06,0.0300842,-0.480088,0,0.48103,2048.93,-40000,0,40052.4,-1.1256e+06
step02_gravity_refstate-mantle.xmf,333,1.46985e-05,-3.54322e-05,0,-2.97955e-06,-1.14907e+09,-1.15577e+09,-1.15103e+09,-398216,-0.0124922,-0.436532,-0,0.43671,-842.431,-41562.8,-0,41571.4,-398216
step02_gravity_refstate-mantle.xmf,334,1.48855e-05,-3.55603e-05,0,-1.30722e-07,-1.15286e+09,-1.1596e+09,-1.15485e+09,-17471,-0.000514871,-0.434691,-0,0.434692,-34.7148,-41680.9,-0,41680.9,-17471
step02_gravity_refstate-mantle.xmf,335,1.14969e-05,-2.84952e-05,0,-8.01491e-06,-1.20009e+09,-1.20543e+09,-1.20162e+09,-1.07119e+06,-0.0409041,-0.361716,-0,0.364021,-3103.51,-43135.1,-0,43246.6,-1.07119e+06
step02_gravity_refstate-mantle.xmf,336,8.71818e-06,-2.30175e-05,0,-8.7825e-06,-1.24878e+09,-1.25302e+09,-1.24995e+09,-1.17378e+06,-0.0556862,-0.296817,-0,0.301995,-4812.93,-44634.8,-0,44893.5,-1.17378e+06
step02_gravity_refstate-mantle.xmf,337,6.28097e-06,-1.85387e-05,0,-8.46667e-06,-1.29587e+09,-1.29919e+09,-1.29671e+09,-1.13157e+06,-0.0672173,-0.237398,-0,0.24673,-6678.65,-46084.5,-0,46565.9,-1.13157e+06
step02_gravity_refstate-mantle.xmf,338,3.02101e-06,-1.27087e-05,0,-6.6931e-06,-1.36923e+09,-1.37133e+09,-1.36963e+09,-894533,-0.0808408,-0.151738,-0,0.171929,-10262.1,-48343.7,-0,49420.9,-894533
step02_gravity_refstate-mantle.xmf,339,6.52154e-07,-8.5886e-06,0,-4.51039e-06,-1.43976e+09,-1.441e+09,-1.43985e+09,-602814,-0.0869142,-0.0867693,-0,0.122813,-14141.3,-50517.2,-0,52459.2,-602814
step02_gravity_refstate-mantle.xmf,340,1.76719e-06,-1.05568e-05,0,-5.63629e-06,-1.40421e+09,-1.40586e+09,-1.40445e+09,-753290,-0.0846835,-0.117285,-0,0.144662,-12126,-49421.5,-0,50887.4,-753290
step02_gravity_refstate-mantle.xmf,341,-1.26299e-06,-5.13146e-06,0,-9.83232e-07,-1.65594e+09,-1.65645e+09,-1.65577e+09,-131409,-0.0861265,-0.0143904,-0,0.0873204,-19164.7,-57190.8,-0,60316.4,-131409
step02_gravity_refstate-mantle.xmf,342,1.06408e-05,-3.18858e-05,0,1.28334e-05,-1.09906e+09,-1.10474e+09,-1.10048e+09,1.71518e+06,0.0467675,-0.450151,0,0.452574,3414.86,-40000,0,40145.5,-1.71518e+06
step02_gravity_refstate-mantle.xmf,343,1.2313e-05,-3.47062e-05,0,1.08535e-05,-1.09893e+09,-1.10521e+09,-1.10058e+09,1.45056e+06,0.0389325,-0.466691,0,0.468313,2731.89,-40000,0,40093.2,-1.45056e+06
step02_gravity_refstate-mantle.xmf,344,1.12427e-05,-3.17578e-05,0,1.16174e-05,-1.11686e+09,-1.1226e+09,-1.11836e+09,1.55267e+06,0.0450439,-0.436671,0,0.438988,3246.31,-40554.2,0,40683.9,-1.55267e+06
step02_gravity_refstate-mantle.xmf,345,1.28144e-05,-3.39451e-05,0,9.32469e-06,-1.1223e+09,-1.12855e+09,-1.12401e+09,1.24625e+06,0.0361213,-0.446168,0,0.447628,2509.67,-40727.2,0,40804.4,-1.24625e+06
step02_gravity_refstate-mantle.xmf,346,1.35786e-05,-3.42892e-05,0,7.28837e-06,-1.13753e+09,-1.14392e+09,-1.13934e+09,974091,0.029552,-0.437599,0,0.438596,2030.98,-41201.8,0,41251.8,-974091
step02_gravity_refstate-mantle.xmf,347,1.41041e-05,-3.35952e-05,0,-4.24914e-06,-1.16761e+09,-1.17399e+09,-1.1695e+09,-567898,-0.0189435,-0.413558,-0,0.413992,-1311.25,-42136.4,-0,42156.8,-567898
step02_gravity_refstate-mantle.xmf,348,1.32906e-05,-3.15579e-05,0,-5.4689e-06,-1.18695e+09,-1.19294e+09,-1.18873e+09,-730918,-0.0261062,-0.389087,-0,0.389962,-1870.93,-42733.5,-0,42774.5,-730918
step02_gravity_refstate-mantle.xmf,349,1.3989e-05,-3.40652e-05,0,5.37849e-06,-1.15476e+09,-1.16118e+09,-1.15663e+09,718835,0.0230675,-0.424594,0,0.425221,1586.17,-41737.3,0,41767.5,-718835
step02_gravity_refstate-mantle.xmf,350,1.46532e-05,-3.51522e-05,0,2.75148e-06,-1.15378e+09,-1.16044e+09,-1.15574e+09,367735,0.0117185,-0.43165,0,0.431809,793.178,-41708.8,0,41716.4,-367735
step02_gravity_refstate-mantle.xmf,351,1.08302e-05,-2.67598e-05,0,-7.84511e-06,-1.22354e+09,-1.22857e+09,-1.22499e+09,-1.0485e+06,-0.0436886,-0.336739,-0,0.339561,-3451.13,-43859.7,-0,43995.3,-1.0485e+06
step02_gravity_refstate-mantle.xmf,352,1.2435e-05,-2.97655e-05,0,-6.50095e-06,-1.20162e+09,-1.20726e+09,-1.20328e+09,-868851,-0.0329158,-0.369006,-0,0.370471,-2440.65,-43185.5,-0,43254.5,-868851
step02_gravity_refstate-mantle.xmf,353,1.00837e-05,-2.50531e-05,0,-7.738e-06,-1.2492e+09,-1.25389e+09,-1.25054e+09,-1.03418e+06,-0.0470098,-0.310108,-0,0.313651,-3892.56,-44651.5,-0,44820.9,-1.03418e+06
step02_gravity_refstate-mantle.xmf,354,8.03325e-06,-2.14738e-05,0,-8.37675e-06,-1.27488e+09,-1.27882e+09,-1.27595e+09,-1.11955e+06,-0.0586018,-0.270979,-0,0.277243,-5325.24,-45440.4,-0,45751.3,-1.11955e+06
step02_gravity_refstate-mantle.xmf,355,7.37139e-06,-2.00933e-05,0,-8.02205e-06,-1.29973e+09,-1.3034e+09,-1.30071e+09,-1.07215e+06,-0.06154,-0.246978,-0,0.25453,-5875.75,-46207,-0,46579.1,-1.07215e+06
step02_gravity_refstate-mantle.xmf,356,4.59179e-06,-1.54132e-05,0,-7.58285e-06,-1.33765e+09,-1.34033e+09,-1.33827e+09,-1.01345e+06,-0.0747657,-0.19024,-0,0.204404,-8400.43,-47371.9,-0,48111,-1.01345e+06
step02_gravity_refstate-mantle.xmf,357,6.50618e-06,-1.8487e-05,0,-7.74431e-06,-1.32213e+09,-1.32547e+09,-1.323e+09,-1.03503e+06,-0.0657844,-0.222769,-0,0.232279,-6650.92,-46897.2,-0,47366.5,-1.03503e+06
step02_gravity_refstate-mantle.xmf,358,4.20998e-06,-1.456e-05,0,-6.88165e-06,-1.36942e+09,-1.37193e+09,-1.36998e+09,-919733,-0.0763258,-0.167436,-0,0.184012,-9011.92,-48352.8,-0,49185.5,-919733
step02_gravity_refstate-mantle.xmf,359,2.79654e-06,-1.20744e-05,0,-5.89773e-06,-1.40515e+09,-1.40714e+09,-1.40552e+09,-788231,-0.0818747,-0.130475,-0,0.154036,-10895.6,-49453.4,-0,50639.4,-788231
step02_gravity_refstate-mantle.xmf,360,1.52656e-06,-9.97089e-06,0,-4.89156e-06,-1.4395e+09,-1.44103e+09,-1.4397e+09,-653758,-0.0855079,-0.0988424,-0,0.130696,-12841.5,-50511.3,-0,52118.1,-653758
step02_gravity_refstate-mantle.xmf,361,5.0307e-07,-8.19389e-06,0,-3.80688e-06,-1.48025e+09,-1.48142e+09,-1.48032e+09,-508790,-0.0872895,-0.0707297,-0,0.112348,-14809.3,-51767.9,-0,53844.5,-508790
step02_gravity_refstate-mantle.xmf,362,4.80981e-07,-8.01788e-06,0,-3.09418e-06,-1.52713e+09,-1.52827e+09,-1.5272e+09,-413537,-0.0874383,-0.0559815,-0,0.103824,-15249.1,-53216.3,-0,55358,-413537
step02_gravity_refstate-mantle.xmf,363,2.72914e-07,-7.57976e-06,0,-2.38051e-06,-1.57208e+09,-1.57313e+09,-1.57211e+09,-318155,-0.0876127,-0.0415495,-0,0.0969657,-15918.3,-54604.4,-0,56877.3,-318155
step02_gravity_refstate-mantle.xmf,364,-5.58315e-08,-6.98999e-06,0,-1.69204e-06,-1.61669e+09,-1.61762e+09,-1.61668e+09,-226141,-0.0876721,-0.028257,-0,0.0921132,-16728.4,-55981.8,-0,58427.8,-226141
step02_gravity_refstate-mantle.xmf,365,-4.78648e-07,-6.28884e-06,0,-1.07749e-06,-1.65882e+09,-1.6596e+09,-1.65876e+09,-144006,-0.0874529,-0.0170819,-0,0.0891056,-17649.1,-57282.1,-0,59939.4,-144006
step02_gravity_refstate-mantle.xmf,366,-9.88823e-07,-5.46821e-06,0,-5.14891e-07,-1.70129e+09,-1.70189e+09,-1.70116e+09,-68815.2,-0.0867311,-0.00766853,-0,0.0870694,-18714.3,-58592.8,-0,61508.8,-68815.2
step02_gravity_refstate-mantle.xmf,367,-1.58714e-06,-4.50584e-06,0,5.24779e-09,-1.7469e+09,-1.74729e+09,-1.74668e+09,701.367,-0.0851817,1.80154e-19,-0,0.0851817,-19951.6,-60000,-0,63230.3,-701.367
step02_gravity_refstate-mantle.xmf,368,8.7433e-06,-2.85565e-05,0,1.43088e-05,-1.09919e+09,-1.10418e+09,-1.10036e+09,1.91237e+06,0.0533779,-0.431048,0,0.434341,4097.91,-40000,0,40209.4,-1.91237e+06
step02_gravity_refstate-mantle.xmf,369,9.77892e-06,-2.95666e-05,0,1.31025e-05,-1.11273e+09,-1.11798e+09,-1.11403e+09,1.75115e+06,0.0509434,-0.426838,0,0.429868,3808.09,-40422.3,0,40601.3,-1.75115e+06
step02_gravity_refstate-mantle.xmf,370,1.44998e-05,-3.39604e-05,0,-1.65675e-06,-1.17296e+09,-1.17944e+09,-1.1749e+09,-221424,-0.00749022,-0.412247,-0,0.412315,-515.893,-42303.4,-0,42306.6,-221424
step02_gravity_refstate-mantle.xmf,371,1.3328e-05,-3.30979e-05,0,6.99782e-06,-1.15375e+09,-1.15995e+09,-1.15553e+09,935259,0.0300967,-0.419751,0,0.420828,2098.66,-41704.2,0,41757,-935259
step02_gravity_refstate-mantle.xmf,372,1.45044e-05,-3.39371e-05,0,1.04188e-06,-1.17468e+09,-1.18115e+09,-1.17662e+09,139247,0.00475077,-0.410916,0,0.410943,327.455,-42356.5,0,42357.7,-139247
step02_gravity_refstate-mantle.xmf,373,1.19812e-05,-2.84646e-05,0,-6.29176e-06,-1.22425e+09,-1.22966e+09,-1.22585e+09,-840894,-0.0340179,-0.346771,-0,0.348436,-2606.31,-43885,-0,43962.3,-840894
step02_gravity_refstate-mantle.xmf,374,9.34455e-06,-2.33658e-05,0,-7.47732e-06,-1.27569e+09,-1.28006e+09,-1.27694e+09,-999344,-0.0502756,-0.283864,-0,0.288282,-4372.68,-45469.3,-0,45679.1,-999344
step02_gravity_refstate-mantle.xmf,375,5.85059e-06,-1.72731e-05,0,-7.41131e-06,-1.34155e+09,-1.34464e+09,-1.34234e+09,-990521,-0.0688883,-0.203233,-0,0.214591,-7303.1,-47496,-0,48054.2,-990521
step02_gravity_refstate-mantle.xmf,376,3.92367e-06,-1.37641e-05,0,-6.1001e-06,-1.40362e+09,-1.40598e+09,-1.40414e+09,-815279,-0.0776144,-0.145404,-0,0.164822,-9608.92,-49409.2,-0,50334.9,-815279
step02_gravity_refstate-mantle.xmf,377,1.41462e-06,-9.59536e-06,0,-4.19068e-06,-1.47718e+09,-1.47866e+09,-1.47737e+09,-560085,-0.0859563,-0.0826565,-0,0.11925,-13389.8,-51675.6,-0,53382.2,-560085
step02_gravity_refstate-mantle.xmf,378,2.46641e-06,-1.1382e-05,0,-5.1528e-06,-1.44099e+09,-1.44284e+09,-1.44132e+09,-688672,-0.083045,-0.11,-0,0.137828,-11620,-50560,-0,51878.1,-688672
step02_gravity_refstate-mantle.xmf,379,8.21254e-06,-2.67476e-05,0,1.38944e-05,-1.11627e+09,-1.12094e+09,-1.11736e+09,1.85698e+06,0.0563309,-0.40762,0,0.411494,4403.27,-40528.4,0,40766.9,-1.85698e+06
step02_gravity_refstate-mantle.xmf,380,9.83085e-06,-2.85601e-05,0,1.23119e-05,-1.13227e+09,-1.1374e+09,-1.13359e+09,1.64548e+06,0.0515595,-0.407412,0,0.410661,3878.12,-41029.1,0,41212,-1.64548e+06
step02_gravity_refstate-mantle.xmf,381,1.15664e-05,-3.12061e-05,0,1.04985e-05,-1.13605e+09,-1.14176e+09,-1.13759e+09,1.40313e+06,0.0436289,-0.420124,0,0.422383,3143.84,-41150.5,0,41270.4,-1.40313e+06
step02_gravity_refstate-mantle.xmf,382,1.24658e-05,-3.18602e-05,0,8.78286e-06,-1.15017e+09,-1.15609e+09,-1.15183e+09,1.17383e+06,0.0375486,-0.414978,0,0.416674,2667.83,-41591.1,0,41676.6,-1.17383e+06
step02_gravity_refstate-mantle.xmf,383,1.38744e-05,-3.21252e-05,0,-3.04717e-06,-1.19511e+09,-1.20126e+09,-1.19697e+09,-407254,-0.0147425,-0.387322,-0,0.387602,-1049.27,-42988.1,-0,43000.9,-407254
step02_gravity_refstate-mantle.xmf,384,1.30315e-05,-3.01267e-05,0,-4.39902e-06,-1.21806e+09,-1.22383e+09,-1.2198e+09,-587929,-0.0230192,-0.360871,-0,0.361604,-1707.89,-43696.5,-0,43729.9,-587929
step02_gravity_refstate-mantle.xmf,385,1.31682e-05,-3.19952e-05,0,6.47552e-06,-1.17255e+09,-1.17859e+09,-1.17431e+09,865453,0.0297044,-0.400659,0,0.401759,2109.66,-42286.8,0,42339.4,-865453
step02_gravity_refstate-mantle.xmf,386,1.40638e-05,-3.3243e-05,0,3.77927e-06,-1.17539e+09,-1.18172e+09,-1.17727e+09,505099,0.017254,-0.406317,0,0.406683,1202.04,-42377.4,0,42394.5,-505099
step02_gravity_refstate-mantle.xmf,387,1.12582e-05,-2.66987e-05,0,-6.28853e-06,-1.24949e+09,-1.25456e+09,-1.25099e+09,-840462,-0.0373413,-0.321063,-0,0.323227,-2988.55,-44664.1,-0,44764,-840462
step02_gravity_refstate-mantle.xmf,388,1.05482e-05,-2.51105e-05,0,-6.27478e-06,-1.27647e+09,-1.28123e+09,-1.27788e+09,-838624,-0.0406711,-0.294867,-0,0.297659,-3411.53,-45496.8,-0,45624.5,-838624
step02_gravity_refstate-mantle.xmf,389,8.60481e-06,-2.18093e-05,0,-7.23494e-06,-1.30248e+09,-1.30654e+09,-1.30363e+09,-966950,-0.053737,-0.258116,-0,0.263651,-4918.17,-46295.8,-0,46556.3,-966950
step02_gravity_refstate-mantle.xmf,390,7.85475e-06,-2.03404e-05,0,-7.02336e-06,-1.32839e+09,-1.33216e+09,-1.32944e+09,-938673,-0.0575353,-0.233413,-0,0.240399,-5547.22,-47095,-0,47420.6,-938673
step02_gravity_refstate-mantle.xmf,391,5.4488e-06,-1.63153e-05,0,-6.78886e-06,-1.36983e+09,-1.37274e+09,-1.37056e+09,-907332,-0.0706469,-0.181776,-0,0.195021,-7837.94,-48369.3,-0,49000.2,-907332
step02_gravity_refstate-mantle.xmf,392,7.08803e-06,-1.89e-05,0,-6.76561e-06,-1.35302e+09,-1.35649e+09,-1.35396e+09,-904224,-0.0615531,-0.209976,-0,0.218812,-6255.66,-47854.2,-0,48261.4,-904224
step02_gravity_refstate-mantle.xmf,393,5.10397e-06,-1.557e-05,0,-6.19641e-06,-1.39991e+09,-1.40267e+09,-1.40059e+09,-828150,-0.0720003,-0.161239,-0,0.176585,-8333.17,-49298.1,-0,49997.4,-828150
step02_gravity_refstate-mantle.xmf,394,3.64936e-06,-1.30496e-05,0,-5.21132e-06,-1.44765e+09,-1.44988e+09,-1.44813e+09,-696493,-0.0787228,-0.120498,-0,0.143934,-10257.3,-50769.3,-0,51795.1,-696493
step02_gravity_refstate-mantle.xmf,395,2.10174e-06,-1.06631e-05,0,-4.53419e-06,-1.4688e+09,-1.47051e+09,-1.46908e+09,-605994,-0.0842397,-0.0938734,-0,0.126129,-12353.4,-51418.6,-0,52881.8,-605994
step02_gravity_refstate-mantle.xmf,396,1.63046e-06,-9.73286e-06,0,-3.46382e-06,-1.52486e+09,-1.52638e+09,-1.52507e+09,-462940,-0.0855833,-0.0678174,-0,0.109196,-13471.9,-53149.3,-0,54830.1,-462940
step02_gravity_refstate-mantle.xmf,397,1.28459e-06,-9.06678e-06,0,-2.6567e-06,-1.57027e+09,-1.57165e+09,-1.57044e+09,-355068,-0.0863566,-0.0499051,-0,0.0997395,-14293,-54551.4,-0,56392.8,-355068
step02_gravity_refstate-mantle.xmf,398,9.42647e-07,-8.44449e-06,0,-1.91284e-06,-1.61483e+09,-1.61608e+09,-1.61495e+09,-255652,-0.0869411,-0.0345197,-0,0.0935434,-15064.5,-55927.2,-0,57920.6,-255652
step02_gravity_refstate-mantle.xmf,399,5.07406e-07,-7.71799e-06,0,-1.21775e-06,-1.65871e+09,-1.65981e+09,-1.65878e+09,-162752,-0.0874306,-0.0209589,-0,0.0899076,-15938.5,-57281.8,-0,59457.9,-162752
step02_gravity_refstate-mantle.xmf,400,-3.92811e-08,-6.84842e-06,0,-5.76044e-07,-1.70245e+09,-1.70336e+09,-1.70244e+09,-76988.3,-0.0876303,-0.0093489,-0,0.0881276,-16966.9,-58631.3,-0,61036.9,-76988.3
step02_gravity_refstate-mantle.xmf,401,-6.32809e-07,-5.91101e-06,0,6.25427e-09,-1.74681e+09,-1.74751e+09,-1.74672e+09,835.883,-0.0872712,1.96998e-19,-0,0.0872712,-18064.5,-60000,-0,62660.4,-835.883
step02_gravity_refstate-mantle.xmf,402,6.72864e-06,-2.51785e-05,0,1.50277e-05,-1.09935e+09,-1.10361e+09,-1.10025e+09,2.00845e+06,0.0586621,-0.410011,0,0.414186,4783.65,-40000,0,40285,-2.00845e+06
step02_gravity_refstate-mantle.xmf,403,1.41404e-05,-3.24159e-05,0,-4.61023e-07,-1.19777e+09,-1.20399e+09,-1.19966e+09,-61615.7,-0.00229293,-0.38745,-0,0.387456,-162.529,-43071.2,-0,43071.5,-61615.7
step02_gravity_refstate-mantle.xmf,404,1.39506e-05,-3.21477e-05,0,2.0691e-06,-1.19892e+09,-1.20508e+09,-1.20078e+09,276535,0.0101373,-0.385039,0,0.385173,722.13,-43106.1,0,43112.2,-276535
step02_gravity_refstate-mantle.xmf,405,1.22188e-05,-2.81569e-05,0,-4.69684e-06,-1.24759e+09,-1.25299e+09,-1.24922e+09,-627733,-0.0270121,-0.331195,-0,0.332295,-2102.65,-44608.3,-0,44657.8,-627733
step02_gravity_refstate-mantle.xmf,406,9.77002e-06,-2.34382e-05,0,-6.18914e-06,-1.30423e+09,-1.30866e+09,-1.30553e+09,-827178,-0.0445168,-0.268524,-0,0.272189,-3925.97,-46353.4,-0,46519.4,-827178
step02_gravity_refstate-mantle.xmf,407,6.47609e-06,-1.77674e-05,0,-6.49624e-06,-1.37281e+09,-1.37605e+09,-1.37368e+09,-868222,-0.0647754,-0.191574,-0,0.202229,-6874.67,-48464.5,-0,48949.6,-868222
step02_gravity_refstate-mantle.xmf,408,4.73844e-06,-1.47005e-05,0,-5.47201e-06,-1.435e+09,-1.4376e+09,-1.43564e+09,-731334,-0.0735719,-0.138681,-0,0.156988,-8927.35,-50381.9,-0,51166.7,-731334
step02_gravity_refstate-mantle.xmf,409,2.14957e-06,-1.05807e-05,0,-4.00256e-06,-1.49961e+09,-1.50131e+09,-1.49989e+09,-534943,-0.0841953,-0.0821167,-0,0.11761,-12558.8,-52370.6,-0,53855.4,-534943
step02_gravity_refstate-mantle.xmf,410,2.99131e-06,-1.18501e-05,0,-4.37754e-06,-1.48674e+09,-1.48872e+09,-1.48714e+09,-585058,-0.0813611,-0.0958813,-0,0.125749,-11356.9,-51975.6,-0,53201.9,-585058
step02_gravity_refstate-mantle.xmf,411,4.77779e-06,-2.16915e-05,0,1.52356e-05,-1.09948e+09,-1.10302e+09,-1.10012e+09,2.03623e+06,0.0626355,-0.387598,0,0.392627,5477.46,-40000,0,40373.3,-2.03623e+06
step02_gravity_refstate-mantle.xmf,412,6.33984e-06,-2.35403e-05,0,1.4348e-05,-1.11792e+09,-1.12192e+09,-1.11877e+09,1.91761e+06,0.0616226,-0.385463,0,0.390358,5127.75,-40575.3,0,40898,-1.91761e+06
step02_gravity_refstate-mantle.xmf,413,1.08887e-05,-2.92881e-05,0,1.0516e-05,-1.15385e+09,-1.15922e+09,-1.1553e+09,1.40547e+06,0.0470287,-0.396529,0,0.399309,3488.55,-41700.7,0,41846.3,-1.40547e+06
step02_gravity_refstate-mantle.xmf,414,7.77217e-06,-2.50954e-05,0,1.32997e-05,-1.13549e+09,-1.13989e+09,-1.13653e+09,1.77751e+06,0.0589818,-0.383426,0,0.387936,4723.41,-41123.7,0,41394.1,-1.77751e+06
step02_gravity_refstate-mantle.xmf,415,1.17405e-05,-2.96425e-05,0,8.73881e-06,-1.17544e+09,-1.18097e+09,-1.17701e+09,1.16794e+06,0.0410434,-0.385034,0,0.387216,3027.36,-42372.6,0,42480.6,-1.16794e+06
step02_gravity_refstate-mantle.xmf,416,1.35804e-05,-3.07933e-05,0,-1.789e-06,-1.22172e+09,-1.22765e+09,-1.22354e+09,-239099,-0.00939388,-0.362979,-0,0.363101,-689.596,-43811.5,-0,43816.9,-239099
step02_gravity_refstate-mantle.xmf,417,1.33428e-05,-3.1243e-05,0,4.56678e-06,-1.19904e+09,-1.205e+09,-1.20083e+09,610350,0.0225691,-0.379502,0,0.380172,1631.59,-43108.3,0,43139.1,-610350
step02_gravity_refstate-mantle.xmf,418,1.15123e-05,-2.64514e-05,0,-4.82834e-06,-1.27491e+09,-1.27998e+09,-1.27644e+09,-645308,-0.0306686,-0.304911,-0,0.30645,-2498.25,-45451.7,-0,45520.3,-645308
step02_gravity_refstate-mantle.xmf,419,1.29049e-05,-2.9115e-05,0,-2.71804e-06,-1.24693e+09,-1.25254e+09,-1.24865e+09,-363267,-0.0154592,-0.337721,-0,0.338075,-1181.69,-44589.9,-0,44605.5,-363267
step02_gravity_refstate-mantle.xmf,420,1.09036e-05,-2.50382e-05,0,-4.71966e-06,-1.30533e+09,-1.31013e+09,-1.30678e+09,-630782,-0.0327182,-0.278355,-0,0.280271,-2791.18,-46390.9,-0,46474.8,-630782
step02_gravity_refstate-mantle.xmf,421,9.02681e-06,-2.19401e-05,0,-6.07841e-06,-1.33202e+09,-1.33616e+09,-1.33322e+09,-812379,-0.0484079,-0.243081,-0,0.247854,-4489.54,-47210.8,-0,47423.8,-812379
step02_gravity_refstate-mantle.xmf,422,8.25715e-06,-2.04609e-05,0,-5.95281e-06,-1.36097e+09,-1.36481e+09,-1.36207e+09,-795593,-0.0528068,-0.217126,-0,0.223455,-5168.19,-48103.7,-0,48380.5,-795593
step02_gravity_refstate-mantle.xmf,423,6.28372e-06,-1.72012e-05,0,-5.93664e-06,-1.40049e+09,-1.40363e+09,-1.40133e+09,-793432,-0.0652362,-0.173624,-0,0.185475,-7149.1,-49319.6,-0,49835.1,-793432
step02_gravity_refstate-mantle.xmf,424,7.40927e-06,-1.88722e-05,0,-5.66867e-06,-1.39227e+09,-1.39578e+09,-1.39326e+09,-757618,-0.0576939,-0.189919,-0,0.198489,-5989.86,-49068.9,-0,49433.2,-757618
step02_gravity_refstate-mantle.xmf,425,5.86323e-06,-1.6357e-05,0,-5.40233e-06,-1.43191e+09,-1.43488e+09,-1.43269e+09,-722021,-0.067081,-0.152114,-0,0.166249,-7679.44,-50289.4,-0,50872.4,-722021
step02_gravity_refstate-mantle.xmf,426,4.67908e-06,-1.43558e-05,0,-4.74488e-06,-1.47259e+09,-1.47513e+09,-1.47321e+09,-634154,-0.073512,-0.119381,-0,0.1402,-9195.09,-51543.3,-0,52357,-634154
step02_gravity_refstate-mantle.xmf,427,2.74439e-06,-1.1318e-05,0,-3.59322e-06,-1.52973e+09,-1.53161e+09,-1.5301e+09,-480233,-0.0821941,-0.076156,-0,0.112052,-11954.8,-53303.2,-0,54627.4,-480233
step02_gravity_refstate-mantle.xmf,428,2.38165e-06,-1.06426e-05,0,-2.86284e-06,-1.56949e+09,-1.57123e+09,-1.56981e+09,-382619,-0.0834178,-0.0583882,-0,0.101822,-12685.2,-54530.8,-0,55986.8,-382619
step02_gravity_refstate-mantle.xmf,429,1.99331e-06,-9.94866e-06,0,-2.10307e-06,-1.61276e+09,-1.61436e+09,-1.61303e+09,-281075,-0.0845945,-0.0411426,-0,0.0940689,-13455.2,-55866.5,-0,57464,-281075
step02_gravity_refstate-mantle.xmf,430,1.54954e-06,-9.20286e-06,0,-1.3514e-06,-1.65762e+09,-1.65906e+09,-1.65783e+09,-180614,-0.0857334,-0.0252493,-0,0.0893742,-14283.3,-57251.3,-0,59006.1,-180614
step02_gravity_refstate-mantle.xmf,431,1.01838e-06,-8.35785e-06,0,-6.44648e-07,-1.70233e+09,-1.70358e+09,-1.70247e+09,-86157.2,-0.086772,-0.0114142,-0,0.0875195,-15211.1,-58630.9,-0,60572,-86157.2
step02_gravity_refstate-mantle.xmf,432,4.15508e-07,-7.4226e-06,0,5.54032e-09,-1.74671e+09,-1.74775e+09,-1.74676e+09,740.464,-0.0874696,2.23728e-19,-0,0.0874696,-16224.1,-60000,-0,62154.8,-740.464
step02_gravity_refstate-mantle.xmf,433,4.53318e-06,-2.03841e-05,0,1.44028e-05,-1.11861e+09,-1.12194e+09,-1.11921e+09,1.92494e+06,0.0655487,-0.363404,0,0.369268,5848.3,-40592.4,0,41011.6,-1.92494e+06
step02_gravity_refstate-mantle.xmf,434,9.06417e-06,-2.63349e-05,0,1.19354e-05,-1.15485e+09,-1.15958e+09,-1.15606e+09,1.59517e+06,0.0552163,-0.37801,0,0.382021,4311.92,-41727,0,41949.2,-1.59517e+06
step02_gravity_refstate-mantle.xmf,435,1.23065e-05,-2.9695e-05,0,6.80716e-06,-1.19929e+09,-1.2049e+09,-1.20093e+09,909776,0.0342698,-0.369925,0,0.371509,2543.19,-43112.8,0,43187.8,-909776
step02_gravity_refstate-mantle.xmf,436,1.36556e-05,-3.0842e-05,0,6.12795e-07,-1.22334e+09,-1.22928e+09,-1.22516e+09,81900.1,0.00313361,-0.362401,0,0.362414,229.994,-43861.8,0,43862.4,-81900.1
step02_gravity_refstate-mantle.xmf,437,1.32943e-05,-3.0358e-05,0,2.92672e-06,-1.22384e+09,-1.22968e+09,-1.22562e+09,391155,0.0155156,-0.359077,0,0.359412,1148.47,-43876.3,0,43891.3,-391155
step02_gravity_refstate-mantle.xmf,438,1.2269e-05,-2.76563e-05,0,-3.34018e-06,-1.26884e+09,-1.27418e+09,-1.27048e+09,-446414,-0.0205143,-0.316171,-0,0.316835,-1627.27,-45266.3,-0,45295.5,-446414
step02_gravity_refstate-mantle.xmf,439,1.01125e-05,-2.34539e-05,0,-4.89676e-06,-1.33266e+09,-1.33714e+09,-1.33401e+09,-654451,-0.0377256,-0.25311,-0,0.255906,-3378.83,-47233.8,-0,47354.5,-654451
step02_gravity_refstate-mantle.xmf,440,5.41365e-06,-1.55091e-05,0,-4.9813e-06,-1.45646e+09,-1.45925e+09,-1.45718e+09,-665750,-0.0694013,-0.134747,-0,0.151569,-8265.26,-51047,-0,51711.8,-665750
step02_gravity_refstate-mantle.xmf,441,3.97398e-06,-1.32349e-05,0,-4.38665e-06,-1.49111e+09,-1.49341e+09,-1.49164e+09,-586276,-0.0770587,-0.103765,-0,0.129249,-10149.6,-52113.5,-0,53092.7,-586276
step02_gravity_refstate-mantle.xmf,442,3.06074e-06,-1.85216e-05,0,1.48559e-05,-1.09959e+09,-1.10248e+09,-1.1e+09,1.98549e+06,0.0653987,-0.364328,0,0.370151,6184.51,-40000,0,40475.3,-1.98549e+06
step02_gravity_refstate-mantle.xmf,443,5.94266e-06,-2.20665e-05,0,1.36742e-05,-1.13603e+09,-1.13977e+09,-1.13682e+09,1.82755e+06,0.0642419,-0.362234,0,0.367887,5491.58,-41135.8,0,41500.7,-1.82755e+06
step02_gravity_refstate-mantle.xmf,444,1.01376e-05,-2.72261e-05,0,1.03117e-05,-1.17634e+09,-1.18134e+09,-1.1777e+09,1.37816e+06,0.0504393,-0.369001,0,0.372432,3889.15,-42395.9,0,42573.9,-1.37816e+06
step02_gravity_refstate-mantle.xmf,445,7.20761e-06,-2.33649e-05,0,1.27065e-05,-1.15564e+09,-1.15972e+09,-1.1566e+09,1.69823e+06,0.0618456,-0.357919,0,0.363223,5127.84,-41746.6,0,42060.4,-1.69823e+06
step02_gravity_refstate-mantle.xmf,446,1.09483e-05,-2.75859e-05,0,8.68181e-06,-1.19992e+09,-1.20507e+09,-1.20138e+09,1.16032e+06,0.0446711,-0.356795,0,0.359581,3438.98,-43128.6,0,43265.5,-1.16032e+06
step02_gravity_refstate-mantle.xmf,447,1.31835e-05,-2.94598e-05,0,-5.51625e-07,-1.2483e+09,-1.254e+09,-1.25006e+09,-73724.7,-0.00318752,-0.33915,-0,0.339165,-242.194,-44633.3,-0,44633.9,-73724.7
step02_gravity_refstate-mantle.xmf,448,1.2566e-05,-2.92881e-05,0,5.08553e-06,-1.22416e+09,-1.22976e+09,-1.22584e+09,679681,0.0273492,-0.352309,0,0.353369,2062.63,-43884,0,43932.4,-679681
step02_gravity_refstate-mantle.xmf,449,1.18174e-05,-2.63538e-05,0,-2.98056e-06,-1.29998e+09,-1.30509e+09,-1.30156e+09,-398352,-0.0200084,-0.290048,-0,0.290737,-1655.87,-46228.6,-0,46258.3,-398352
step02_gravity_refstate-mantle.xmf,450,1.2595e-05,-2.79774e-05,0,-1.42257e-06,-1.27484e+09,-1.28026e+09,-1.27652e+09,-190127,-0.00882257,-0.314821,-0,0.314945,-697.872,-45452.9,-0,45458.2,-190127
step02_gravity_refstate-mantle.xmf,451,1.09764e-05,-2.46201e-05,0,-3.44162e-06,-1.33411e+09,-1.33887e+09,-1.33557e+09,-459972,-0.0258855,-0.259933,-0,0.261219,-2262.63,-47281.5,-0,47335.6,-459972
step02_gravity_refstate-mantle.xmf,452,9.32841e-06,-2.1913e-05,0,-4.92509e-06,-1.36372e+09,-1.36789e+09,-1.36497e+09,-658238,-0.0425416,-0.226026,-0,0.229995,-4017.13,-48192.1,-0,48359.3,-658238
step02_gravity_refstate-mantle.xmf,453,8.61681e-06,-2.05468e-05,0,-4.83024e-06,-1.39579e+09,-1.39969e+09,-1.39694e+09,-645561,-0.0469653,-0.19962,-0,0.20507,-4671.96,-49181.6,-0,49403,-645561
step02_gravity_refstate-mantle.xmf,454,6.91911e-06,-1.78086e-05,0,-5.05513e-06,-1.43151e+09,-1.43482e+09,-1.43244e+09,-675618,-0.0596674,-0.162825,-0,0.173414,-6517.33,-50280.7,-0,50701.3,-675618
step02_gravity_refstate-mantle.xmf,455,6.38088e-06,-1.67521e-05,0,-4.51714e-06,-1.46843e+09,-1.47152e+09,-1.46928e+09,-603716,-0.0624843,-0.137742,-0,0.151252,-7172.68,-51420.2,-0,51918,-603716
step02_gravity_refstate-mantle.xmf,456,5.56909e-06,-1.55104e-05,0,-4.37296e-06,-1.48627e+09,-1.48909e+09,-1.48702e+09,-584446,-0.0678751,-0.12108,-0,0.138807,-8187.75,-51969,-0,52610,-584446
step02_gravity_refstate-mantle.xmf,457,3.82451e-06,-1.28277e-05,0,-3.72358e-06,-1.52692e+09,-1.52914e+09,-1.52743e+09,-497657,-0.0775905,-0.0865809,-0,0.116261,-10531.8,-53219.7,-0,54251.8,-497657
step02_gravity_refstate-mantle.xmf,458,4.95641e-06,-1.44567e-05,0,-3.85813e-06,-1.51784e+09,-1.52044e+09,-1.5185e+09,-515639,-0.0713532,-0.100317,-0,0.123104,-9049.46,-52942.8,-0,53710.6,-515639
step02_gravity_refstate-mantle.xmf,459,3.48057e-06,-1.21933e-05,0,-2.98681e-06,-1.5686e+09,-1.57069e+09,-1.56906e+09,-399187,-0.0789837,-0.0666971,-0,0.103378,-11167.1,-54506.6,-0,55638.8,-399187
step02_gravity_refstate-mantle.xmf,460,3.08828e-06,-1.14879e-05,0,-2.22983e-06,-1.61141e+09,-1.61336e+09,-1.61182e+09,-298017,-0.0806071,-0.0477607,-0,0.0936941,-11879.4,-55828.2,-0,57078.1,-298017
step02_gravity_refstate-mantle.xmf,461,2.655e-06,-1.07532e-05,0,-1.4633e-06,-1.65605e+09,-1.65784e+09,-1.6564e+09,-195570,-0.0822856,-0.0299452,-0,0.087565,-12637.6,-57206,-0,58585.3,-195570
step02_gravity_refstate-mantle.xmf,462,2.14819e-06,-9.94327e-06,0,-7.13422e-07,-1.70129e+09,-1.70291e+09,-1.70158e+09,-95348.8,-0.0840266,-0.0138602,-0,0.0851621,-13474.5,-58602.4,-0,60131.5,-95348.8
step02_gravity_refstate-mantle.xmf,463,1.54165e-06,-9.01365e-06,0,4.43803e-09,-1.74659e+09,-1.748e+09,-1.7468e+09,593.143,-0.0857091,2.57034e-19,-0,0.0857091,-14424.9,-60000,-0,61709.6,-593.143
step02_gravity_refstate-mantle.xmf,464,3.06178e-06,-1.7487e-05,0,1.37858e-05,-1.12379e+09,-1.12654e+09,-1.1242e+09,1.84248e+06,0.0688573,-0.33641,0,0.343384,6644.01,-40750.2,0,41288.2,-1.84248e+06
step02_gravity_refstate-mantle.xmf,465,4.42233e-06,-1.94956e-05,0,1.36847e-05,-1.13517e+09,-1.13836e+09,-1.13576e+09,1.82896e+06,0.0676444,-0.34409,0,0.350676,6156.34,-41105.5,0,41564,-1.82896e+06
step02_gravity_refstate-mantle.xmf,466,8.3853e-06,-2.44662e-05,0,1.14722e-05,-1.17676e+09,-1.18115e+09,-1.17788e+09,1.53326e+06,0.0582644,-0.351303,0,0.356102,4735.28,-42404,0,42667.6,-1.53326e+06
step02_gravity_refstate-mantle.xmf,467,1.14958e-05,-2.77156e-05,0,6.96614e-06,-1.22442e+09,-1.22966e+09,-1.22596e+09,931025,0.0383167,-0.342316,0,0.344454,2973.64,-43888.8,0,43989.5,-931025
step02_gravity_refstate-mantle.xmf,468,1.3079e-05,-2.92827e-05,0,1.58131e-06,-1.24887e+09,-1.25453e+09,-1.25062e+09,211342,0.0088783,-0.337834,0,0.337951,676.808,-44650.7,0,44655.8,-211342
step02_gravity_refstate-mantle.xmf,469,1.25859e-05,-2.86223e-05,0,3.58039e-06,-1.24932e+09,-1.25483e+09,-1.251e+09,478519,0.0206235,-0.333346,0,0.333984,1591.89,-44663,0,44691.4,-478519
step02_gravity_refstate-mantle.xmf,470,1.02303e-05,-2.31494e-05,0,-3.70028e-06,-1.36465e+09,-1.36911e+09,-1.36602e+09,-494542,-0.0310903,-0.233883,-0,0.23594,-2852.76,-48223.8,-0,48308.1,-494542
step02_gravity_refstate-mantle.xmf,471,7.9826e-06,-1.92862e-05,0,-4.48881e-06,-1.4313e+09,-1.43494e+09,-1.43237e+09,-599930,-0.0504124,-0.173065,-0,0.180258,-5275.19,-50277.4,-0,50553.4,-599930
step02_gravity_refstate-mantle.xmf,472,1.69931e-06,-1.5773e-05,0,1.40821e-05,-1.09966e+09,-1.10199e+09,-1.09989e+09,1.88207e+06,0.0671059,-0.340639,0,0.347186,6909.43,-40000,0,40592.4,-1.88207e+06
step02_gravity_refstate-mantle.xmf,473,5.56406e-06,-2.07322e-05,0,1.29834e-05,-1.15473e+09,-1.15825e+09,-1.15547e+09,1.73523e+06,0.0666292,-0.339456,0,0.345933,5877.38,-41714.3,0,42126.3,-1.73523e+06
step02_gravity_refstate-mantle.xmf,474,9.39854e-06,-2.53083e-05,0,9.99056e-06,-1.20005e+09,-1.20469e+09,-1.20131e+09,1.33524e+06,0.0536313,-0.341614,0,0.345798,4319.94,-43128.2,0,43344,-1.33524e+06
step02_gravity_refstate-mantle.xmf,475,6.67365e-06,-2.17773e-05,0,1.206e-05,-1.17693e+09,-1.18073e+09,-1.17782e+09,1.61182e+06,0.0644743,-0.332608,0,0.338799,5559.64,-42404.8,0,42767.7,-1.61182e+06
step02_gravity_refstate-mantle.xmf,476,1.01688e-05,-2.57002e-05,0,8.52608e-06,-1.2247e+09,-1.2295e+09,-1.22606e+09,1.13951e+06,0.0481131,-0.329533,0,0.333026,3878.19,-43893.9,0,44064.9,-1.13951e+06
step02_gravity_refstate-mantle.xmf,477,1.27047e-05,-2.8134e-05,0,4.59076e-07,-1.27412e+09,-1.27958e+09,-1.27582e+09,61355.6,0.00272648,-0.316214,0,0.316226,214.811,-45431.1,0,45431.6,-61355.6
step02_gravity_refstate-mantle.xmf,478,1.17923e-05,-2.74781e-05,0,5.4146e-06,-1.24953e+09,-1.25478e+09,-1.2511e+09,723661,0.0317365,-0.326012,0,0.327553,2502.52,-44667,0,44737.1,-723661
step02_gravity_refstate-mantle.xmf,479,1.21436e-05,-2.67076e-05,0,-9.51829e-07,-1.30544e+09,-1.31063e+09,-1.30706e+09,-127212,-0.00642998,-0.289324,-0,0.289395,-529.802,-46398.4,-0,46401.4,-127212
step02_gravity_refstate-mantle.xmf,480,1.15331e-05,-2.53667e-05,0,-1.76931e-06,-1.33433e+09,-1.33926e+09,-1.33587e+09,-236468,-0.0131564,-0.264732,-0,0.265058,-1131.79,-47290.1,-0,47303.6,-236468
step02_gravity_refstate-mantle.xmf,481,1.08983e-05,-2.40455e-05,0,-2.29484e-06,-1.36474e+09,-1.36941e+09,-1.36619e+09,-306706,-0.0188699,-0.239631,-0,0.240373,-1697.62,-48228.6,-0,48258.5,-306706
step02_gravity_refstate-mantle.xmf,482,9.53875e-06,-2.17956e-05,0,-3.80642e-06,-1.39643e+09,-1.40062e+09,-1.39771e+09,-508728,-0.0359761,-0.207977,-0,0.211066,-3465.72,-49204.4,-0,49326.3,-508728
step02_gravity_refstate-mantle.xmf,483,8.92412e-06,-2.06159e-05,0,-3.77296e-06,-1.42888e+09,-1.43283e+09,-1.43007e+09,-504256,-0.0402602,-0.182974,-0,0.187351,-4063.24,-50205.5,-0,50369.7,-504256
step02_gravity_refstate-mantle.xmf,484,7.45178e-06,-1.82806e-05,0,-4.17317e-06,-1.46289e+09,-1.46633e+09,-1.46389e+09,-557745,-0.0536215,-0.15047,-0,0.159739,-5859.72,-51252.3,-0,51586.2,-557745
step02_gravity_refstate-mantle.xmf,485,6.29152e-06,-1.63224e-05,0,-3.65727e-06,-1.51687e+09,-1.5199e+09,-1.51772e+09,-488794,-0.061811,-0.111816,-0,0.127763,-7344.71,-52917.1,-0,53424.3,-488794
step02_gravity_refstate-mantle.xmf,486,4.59309e-06,-1.37189e-05,0,-3.02645e-06,-1.56578e+09,-1.56822e+09,-1.56639e+09,-404485,-0.0730279,-0.0757117,-0,0.105192,-9675.16,-54422.9,-0,55276.2,-404485
step02_gravity_refstate-mantle.xmf,487,4.19374e-06,-1.30201e-05,0,-2.28587e-06,-1.60999e+09,-1.61229e+09,-1.61055e+09,-305507,-0.0750124,-0.0544174,-0,0.092672,-10336.7,-55787.8,-0,56737.3,-305507
step02_gravity_refstate-mantle.xmf,488,3.76745e-06,-1.22887e-05,0,-1.51925e-06,-1.65509e+09,-1.65724e+09,-1.6556e+09,-203047,-0.0771733,-0.0344778,-0,0.0845248,-11042.6,-57180,-0,58236.5,-203047
step02_gravity_refstate-mantle.xmf,489,3.29191e-06,-1.15216e-05,0,-7.51096e-07,-1.70085e+09,-1.70283e+09,-1.70129e+09,-100384,-0.0794709,-0.0161706,-0,0.0810994,-11798.7,-58592.3,-0,59768.5,-100384
step02_gravity_refstate-mantle.xmf,490,2.71853e-06,-1.06467e-05,0,2.61775e-09,-1.74647e+09,-1.74826e+09,-1.74684e+09,349.862,-0.081953,2.8291e-19,-0,0.081953,-12661.1,-60000,-0,61321.3,-349.862
step02_gravity_refstate-mantle.xmf,491,5.61137e-07,-1.33229e-05,0,1.3119e-05,-1.0997e+09,-1.10156e+09,-1.09978e+09,1.75336e+06,0.0679282,-0.316876,0,0.324075,7656.37,-40000,0,40726.2,-1.75336e+06
step02_gravity_refstate-mantle.xmf,492,1.67825e-06,-1.5049e-05,0,1.33226e-05,-1.11778e+09,-1.12002e+09,-1.11801e+09,1.78056e+06,0.069886,-0.319502,0,0.327056,7310.33,-40561.5,0,41215,-1.78056e+06
step02_gravity_refstate-mantle.xmf,493,4.07443e-06,-1.83542e-05,0,1.30604e-05,-1.14994e+09,-1.15293e+09,-1.15048e+09,1.74552e+06,0.0697882,-0.324423,0,0.331845,6553.55,-41562.3,0,42075.9,-1.74552e+06
step02_gravity_refstate-mantle.xmf,494,7.75816e-06,-2.27571e-05,0,1.09044e-05,-1.2005e+09,-1.20458e+09,-1.20154e+09,1.45737e+06,0.0610265,-0.324467,0,0.330157,5183.88,-43137.6,0,43448,-1.45737e+06
step02_gravity_refstate-mantle.xmf,495,1.07195e-05,-2.59204e-05,0,6.98358e-06,-1.2498e+09,-1.25469e+09,-1.25123e+09,933356,0.0420218,-0.315822,0,0.318606,3415.94,-44672.1,0,44802.5,-933356
step02_gravity_refstate-mantle.xmf,496,1.24488e-05,-2.77405e-05,0,2.28336e-06,-1.2756e+09,-1.28097e+09,-1.27726e+09,305172,0.0140213,-0.312847,0,0.313161,1114.24,-45475.9,0,45489.6,-305172
step02_gravity_refstate-mantle.xmf,497,1.1861e-05,-2.69777e-05,0,4.05863e-06,-1.27518e+09,-1.28037e+09,-1.27676e+09,542436,0.0254507,-0.308106,0,0.309155,2052.63,-45461.1,0,45507.4,-542436
step02_gravity_refstate-mantle.xmf,498,1.0246e-05,-2.27654e-05,0,-2.62333e-06,-1.39635e+09,-1.40076e+09,-1.39772e+09,-350607,-0.0241882,-0.214438,-0,0.215797,-2276.46,-49203.9,-0,49256.6,-350607
step02_gravity_refstate-mantle.xmf,499,8.3611e-06,-1.95419e-05,0,-3.59281e-06,-1.461e+09,-1.46473e+09,-1.46212e+09,-480179,-0.0439685,-0.1596,-0,0.165546,-4630.79,-51196.7,-0,51405.7,-480179
step02_gravity_refstate-mantle.xmf,500,7.0312e-06,-1.74921e-05,0,-3.82274e-06,-1.49314e+09,-1.49642e+09,-1.49408e+09,-510909,-0.0560526,-0.130438,-0,0.141972,-6354.56,-52185.8,-0,52571.3,-510909
step02_gravity_refstate-mantle.xmf,501,5.71464e-06,-1.52744e-05,0,-2.95781e-06,-1.56273e+09,-1.56553e+09,-1.56349e+09,-395312,-0.0652483,-0.0849518,-0,0.107117,-8149.76,-54332.2,-0,54940.1,-395312
step02_gravity_refstate-mantle.xmf,502,8.79292e-07,-1.31665e-05,0,1.24426e-05,-1.12279e+09,-1.12466e+09,-1.1229e+09,1.66296e+06,0.0713182,-0.296674,0,0.305126,8014.53,-40715.6,0,41496.9,-1.66296e+06
step02_gravity_refstate-mantle.xmf,503,2.49004e-06,-1.576e-05,0,1.282e-05,-1.14347e+09,-1.14591e+09,-1.1438e+09,1.7134e+06,0.0719656,-0.307234,0,0.31555,7309.47,-41358.6,0,41999.6,-1.7134e+06
step02_gravity_refstate-mantle.xmf,504,5.07371e-06,-1.92755e-05,0,1.22672e-05,-1.17465e+09,-1.17791e+09,-1.17533e+09,1.63951e+06,0.0691983,-0.314945,0,0.322457,6360.13,-42330.2,0,42805.3,-1.63951e+06
step02_gravity_refstate-mantle.xmf,505,8.70087e-06,-2.35591e-05,0,9.5714e-06,-1.22504e+09,-1.22935e+09,-1.2262e+09,1.27922e+06,0.056553,-0.31457,0,0.319613,4774.17,-43899.9,0,44158.8,-1.27922e+06
step02_gravity_refstate-mantle.xmf,506,6.14617e-06,-2.02701e-05,0,1.13753e-05,-1.19972e+09,-1.20325e+09,-1.20054e+09,1.52031e+06,0.066992,-0.306984,0,0.314208,6036.89,-43109.1,0,43529.8,-1.52031e+06
step02_gravity_refstate-mantle.xmf,507,9.43839e-06,-2.39973e-05,0,8.26475e-06,-1.2502e+09,-1.25467e+09,-1.25146e+09,1.10458e+06,0.0512479,-0.303107,0,0.307409,4332.3,-44681,0,44890.6,-1.10458e+06
step02_gravity_refstate-mantle.xmf,508,1.21516e-05,-2.67422e-05,0,1.05404e-06,-1.30388e+09,-1.30908e+09,-1.3055e+09,140872,0.00700622,-0.290534,0,0.290618,576.384,-46350.2,0,46353.8,-140872
step02_gravity_refstate-mantle.xmf,509,1.10429e-05,-2.58252e-05,0,5.62323e-06,-1.27452e+09,-1.27945e+09,-1.276e+09,751545,0.0359327,-0.301007,0,0.303145,2964.11,-45438.2,0,45534.8,-751545
step02_gravity_refstate-mantle.xmf,510,1.17284e-05,-2.5639e-05,0,2.61628e-08,-1.33365e+09,-1.33864e+09,-1.33521e+09,3496.66,0.000104482,-0.266955,0,0.266956,8.94099,-47269.7,0,47269.7,-3496.66
step02_gravity_refstate-mantle.xmf,511,1.12367e-05,-2.45046e-05,0,-7.33618e-07,-1.36418e+09,-1.36896e+09,-1.36569e+09,-98048,-0.00602884,-0.242991,-0,0.243066,-536.677,-48212.6,-0,48215.6,-98048
step02_gravity_refstate-mantle.xmf,512,1.07094e-05,-2.33754e-05,0,-1.30813e-06,-1.39601e+09,-1.40057e+09,-1.39745e+09,-174831,-0.0118852,-0.218512,-0,0.218835,-1102.98,-49195.2,-0,49207.5,-174831
step02_gravity_refstate-mantle.xmf,513,9.6656e-06,-2.16141e-05,0,-2.76492e-06,-1.4289e+09,-1.43308e+09,-1.4302e+09,-369531,-0.0288098,-0.189654,-0,0.19183,-2832.73,-50208.7,-0,50288.5,-369531
step02_gravity_refstate-mantle.xmf,514,9.13977e-06,-2.06027e-05,0,-2.83353e-06,-1.45983e+09,-1.46381e+09,-1.46105e+09,-378701,-0.0333472,-0.166825,-0,0.170125,-3413.33,-51163.1,-0,51276.9,-378701
step02_gravity_refstate-mantle.xmf,515,7.85517e-06,-1.86095e-05,0,-3.37048e-06,-1.4924e+09,-1.49593e+09,-1.49345e+09,-450464,-0.0475305,-0.137765,-0,0.145734,-5207.08,-52165.5,-0,52424.8,-450464
step02_gravity_refstate-mantle.xmf,516,7.33741e-06,-1.76932e-05,0,-3.10448e-06,-1.52563e+09,-1.52897e+09,-1.52661e+09,-414914,-0.0515356,-0.115538,-0,0.126511,-5878.38,-53191,-0,53514.8,-414914
step02_gravity_refstate-mantle.xmf,517,6.76749e-06,-1.67152e-05,0,-2.70634e-06,-1.56317e+09,-1.56631e+09,-1.56408e+09,-361702,-0.0559217,-0.0918636,-0,0.107546,-6657.05,-54349.5,-0,54755.6,-361702
step02_gravity_refstate-mantle.xmf,518,5.2717e-06,-1.44767e-05,0,-2.2534e-06,-1.6077e+09,-1.61033e+09,-1.6084e+09,-301167,-0.0679287,-0.0612723,-0,0.0914801,-8830.59,-55720.4,-0,56415.8,-301167
step02_gravity_refstate-mantle.xmf,519,4.86603e-06,-1.37891e-05,0,-1.53035e-06,-1.65334e+09,-1.65583e+09,-1.65399e+09,-204531,-0.0704134,-0.0392998,-0,0.0806382,-9471.52,-57129.3,-0,57909.1,-204531
step02_gravity_refstate-mantle.xmf,520,4.43258e-06,-1.3076e-05,0,-7.67729e-07,-1.69997e+09,-1.70231e+09,-1.70056e+09,-102607,-0.0731068,-0.0186494,-0,0.0754481,-10149.5,-58568.7,-0,59441.6,-102607
step02_gravity_refstate-mantle.xmf,521,3.91055e-06,-1.22747e-05,0,6.67594e-10,-1.74635e+09,-1.74851e+09,-1.74687e+09,89.2239,-0.0762061,3.1003e-19,-0,0.0762061,-10927.1,-60000,-0,60986.9,-89.2239
step02_gravity_refstate-mantle.xmf,522,-2.50667e-07,-1.12922e-05,0,1.20167e-05,-1.09971e+09,-1.10119e+09,-1.09968e+09,1.60603e+06,0.0680429,-0.293298,0,0.301087,8429.03,-40000,0,40878.5,-1.60603e+06
step02_gravity_refstate-mantle.xmf,523,3.75353e-06,-1.72819e-05,0,1.23798e-05,-1.16724e+09,-1.17005e+09,-1.16774e+09,1.65456e+06,0.0718483,-0.303792,0,0.312173,6977.53,-42097.3,0,42671.7,-1.65456e+06
step02_gravity_refstate-mantle.xmf,524,7.15135e-06,-2.1183e-05,0,1.03044e-05,-1.22514e+09,-1.22893e+09,-1.2261e+09,1.37718e+06,0.0636509,-0.298072,0,0.304792,5669.99,-43898.8,0,44263.5,-1.37718e+06
step02_gravity_refstate-mantle.xmf,525,9.99546e-06,-2.42986e-05,0,6.88963e-06,-1.27521e+09,-1.27979e+09,-1.27654e+09,920799,0.0454209,-0.290591,0,0.294119,3868.16,-45456.3,0,45620.6,-920799
step02_gravity_refstate-mantle.xmf,526,1.17802e-05,-2.62499e-05,0,2.87945e-06,-1.30281e+09,-1.30789e+09,-1.30438e+09,384838,0.0193623,-0.287998,0,0.288648,1607.29,-46315.9,0,46343.8,-384838
step02_gravity_refstate-mantle.xmf,527,1.11217e-05,-2.5426e-05,0,4.48043e-06,-1.30013e+09,-1.30501e+09,-1.30162e+09,598809,0.0305781,-0.284071,0,0.285712,2578.05,-46230.8,0,46302.6,-598809
step02_gravity_refstate-mantle.xmf,528,1.01678e-05,-2.23011e-05,0,-1.70211e-06,-1.4276e+09,-1.43194e+09,-1.42896e+09,-227487,-0.0173864,-0.194813,-0,0.195587,-1679.59,-50170,-0,50198.1,-227487
step02_gravity_refstate-mantle.xmf,529,8.63795e-06,-1.96774e-05,0,-2.75979e-06,-1.49073e+09,-1.49451e+09,-1.49188e+09,-368847,-0.0373364,-0.145078,-0,0.149805,-3966.2,-52116.4,-0,52267.1,-368847
step02_gravity_refstate-mantle.xmf,530,6.28552e-06,-1.58611e-05,0,-2.14204e-06,-1.60498e+09,-1.60794e+09,-1.60582e+09,-286284,-0.0593967,-0.068074,-0,0.0903441,-7344.72,-55639.8,-0,56122.4,-286284
step02_gravity_refstate-mantle.xmf,531,-2.8616e-08,-1.11766e-05,0,1.14897e-05,-1.12128e+09,-1.12277e+09,-1.12127e+09,1.5356e+06,0.0714348,-0.275029,0,0.284154,8804.67,-40668,0,41610.2,-1.5356e+06
step02_gravity_refstate-mantle.xmf,532,1.56508e-06,-1.38116e-05,0,1.20714e-05,-1.14898e+09,-1.15104e+09,-1.14919e+09,1.61335e+06,0.0738283,-0.284845,0,0.294257,8045.6,-41527.8,0,42300,-1.61335e+06
step02_gravity_refstate-mantle.xmf,533,2.74391e-06,-1.54044e-05,0,1.1936e-05,-1.17109e+09,-1.17351e+09,-1.17146e+09,1.59525e+06,0.0741417,-0.284908,0,0.294397,7651.92,-42214.4,0,42902.3,-1.59525e+06
step02_gravity_refstate-mantle.xmf,534,4.28832e-06,-1.74405e-05,0,1.15719e-05,-1.19424e+09,-1.19715e+09,-1.19482e+09,1.54658e+06,0.0722673,-0.287962,0,0.296891,7029.63,-42934.8,0,43506.4,-1.54658e+06
step02_gravity_refstate-mantle.xmf,535,8.04679e-06,-2.1984e-05,0,9.10811e-06,-1.2505e+09,-1.25452e+09,-1.25158e+09,1.2173e+06,0.0592752,-0.288519,0,0.294545,5251.91,-44686.2,0,44993.7,-1.2173e+06
step02_gravity_refstate-mantle.xmf,536,5.59159e-06,-1.8799e-05,0,1.06397e-05,-1.22423e+09,-1.22749e+09,-1.22497e+09,1.422e+06,0.0695727,-0.280441,0,0.288942,6593.74,-43866.2,0,44359,-1.422e+06
step02_gravity_refstate-mantle.xmf,537,8.75375e-06,-2.24531e-05,0,7.93301e-06,-1.27641e+09,-1.28058e+09,-1.27758e+09,1.06025e+06,0.0541586,-0.277467,0,0.282704,4805.76,-45490,0,45743.1,-1.06025e+06
step02_gravity_refstate-mantle.xmf,538,1.15665e-05,-2.54361e-05,0,1.77603e-06,-1.3321e+09,-1.33704e+09,-1.33364e+09,237367,0.012954,-0.26654,0,0.266855,1111.06,-47221.2,0,47234.3,-237367
step02_gravity_refstate-mantle.xmf,539,1.04312e-05,-2.45192e-05,0,5.72982e-06,-1.29563e+09,-1.3003e+09,-1.29702e+09,765790,0.0393134,-0.28062,0,0.28336,3369.69,-46089.5,0,46212.5,-765790
step02_gravity_refstate-mantle.xmf,540,1.12421e-05,-2.45195e-05,0,8.61893e-07,-1.36297e+09,-1.36775e+09,-1.36447e+09,115192,0.00684751,-0.243816,0,0.243913,608.809,-48175,0,48178.8,-115192
step02_gravity_refstate-mantle.xmf,541,1.08507e-05,-2.35625e-05,0,1.11401e-07,-1.39544e+09,-1.40004e+09,-1.39689e+09,14888.8,0.000898301,-0.220118,0,0.22012,82.9069,-49178,0,49178.1,-14888.8
step02_gravity_refstate-mantle.xmf,542,1.04618e-05,-2.2696e-05,0,-5.14246e-07,-1.42563e+09,-1.43006e+09,-1.42703e+09,-68729,-0.00524701,-0.198352,-0,0.198422,-501.831,-50110.1,-0,50112.6,-68729
step02_gravity_refstate-mantle.xmf,543,9.71878e-06,-2.13035e-05,0,-1.72046e-06,-1.46439e+09,-1.46854e+09,-1.46569e+09,-229939,-0.0203861,-0.168996,-0,0.170221,-2051.61,-51306,-0,51347,-229939
step02_gravity_refstate-mantle.xmf,544,9.20715e-06,-2.04364e-05,0,-2.10035e-06,-1.48901e+09,-1.49298e+09,-1.49024e+09,-280711,-0.0276358,-0.150521,-0,0.153037,-2874.03,-52065.4,-0,52144.7,-280711
step02_gravity_refstate-mantle.xmf,545,8.16768e-06,-1.88076e-05,0,-2.56637e-06,-1.52539e+09,-1.529e+09,-1.52648e+09,-342995,-0.0410335,-0.122036,-0,0.12875,-4524.18,-53186.3,-0,53378.4,-342995
step02_gravity_refstate-mantle.xmf,546,7.69141e-06,-1.79526e-05,0,-2.30626e-06,-1.56282e+09,-1.56625e+09,-1.56385e+09,-308232,-0.0452712,-0.0981705,-0,0.108106,-5182.68,-54341.6,-0,54588.1,-308232
step02_gravity_refstate-mantle.xmf,547,7.21074e-06,-1.71159e-05,0,-1.91809e-06,-1.60315e+09,-1.6064e+09,-1.60411e+09,-256352,-0.0495167,-0.0739622,-0,0.0890074,-5875.59,-55586.2,-0,55895.9,-256352
step02_gravity_refstate-mantle.xmf,548,5.84814e-06,-1.51072e-05,0,-1.51799e-06,-1.64817e+09,-1.65097e+09,-1.64895e+09,-202880,-0.0627267,-0.045343,-0,0.0773991,-8022.35,-56972.9,-0,57535,-202880
step02_gravity_refstate-mantle.xmf,549,5.57684e-06,-1.4617e-05,0,-7.47002e-07,-1.69912e+09,-1.70181e+09,-1.69986e+09,-99836.8,-0.0645929,-0.0211643,-0,0.0679719,-8447.45,-58546.1,-0,59152.3,-99836.8
step02_gravity_refstate-mantle.xmf,550,5.07445e-06,-1.38431e-05,0,-1.48675e-09,-1.74623e+09,-1.74876e+09,-1.74691e+09,-198.705,-0.0685233,3.43479e-19,-0,0.0685233,-9217.14,-60000,-0,60703.8,-198.705
step02_gravity_refstate-mantle.xmf,551,6.845e-07,-1.2395e-05,0,1.18055e-05,-1.13475e+09,-1.1365e+09,-1.13485e+09,1.5778e+06,0.0730046,-0.279613,0,0.288986,8456.87,-41086,0,41947.3,-1.5778e+06
step02_gravity_refstate-mantle.xmf,552,-8.34247e-07,-9.59924e-06,0,1.08817e-05,-1.0997e+09,-1.10087e+09,-1.09958e+09,1.45434e+06,0.0676018,-0.270099,0,0.27843,9230.72,-40000,0,41051.3,-1.45434e+06
step02_gravity_refstate-mantle.xmf,553,6.60594e-06,-1.9815e-05,0,9.69584e-06,-1.2497e+09,-1.25323e+09,-1.25058e+09,1.29585e+06,0.0660051,-0.27331,0,0.281167,6165.24,-44657.1,0,45080.7,-1.29585e+06
step02_gravity_refstate-mantle.xmf,554,9.45902e-06,-2.2963e-05,0,6.4452e-06,-1.30638e+09,-1.31071e+09,-1.30764e+09,861401,0.0470049,-0.264031,0,0.268183,4196.11,-46419.1,0,46608.3,-861401
step02_gravity_refstate-mantle.xmf,555,1.10551e-05,-2.47877e-05,0,3.46677e-06,-1.32954e+09,-1.33433e+09,-1.33102e+09,463333,0.0255981,-0.263639,0,0.264879,2223.1,-47140.6,0,47193,-463333
step02_gravity_refstate-mantle.xmf,556,1.03253e-05,-2.39159e-05,0,4.97045e-06,-1.32193e+09,-1.32651e+09,-1.32331e+09,664300,0.0367948,-0.262099,0,0.264669,3242.03,-46902.9,0,47014.8,-664300
step02_gravity_refstate-mantle.xmf,557,1.01001e-05,-2.19488e-05,0,-9.73171e-07,-1.45096e+09,-1.45525e+09,-1.45231e+09,-130064,-0.0108909,-0.180177,-0,0.180506,-1072.51,-50892.1,-0,50903.4,-130064
step02_gravity_refstate-mantle.xmf,558,8.84037e-06,-1.97244e-05,0,-1.94742e-06,-1.52254e+09,-1.52636e+09,-1.52372e+09,-260273,-0.0298562,-0.12864,-0,0.13206,-3204.16,-53100.5,-0,53197.1,-260273
step02_gravity_refstate-mantle.xmf,559,6.76135e-06,-1.63414e-05,0,-1.42014e-06,-1.64475e+09,-1.64784e+09,-1.64565e+09,-189801,-0.0535052,-0.0506208,-0,0.0736565,-6552.43,-56870.1,-0,57246.4,-189801
step02_gravity_refstate-mantle.xmf,560,4.28653e-07,-1.15594e-05,0,1.11687e-05,-1.14596e+09,-1.14756e+09,-1.14602e+09,1.49269e+06,0.0744714,-0.262124,0,0.272497,8962.7,-41432.5,0,42390.8,-1.49269e+06
step02_gravity_refstate-mantle.xmf,561,-5.93526e-07,-9.67738e-06,0,1.05161e-05,-1.12306e+09,-1.12428e+09,-1.12298e+09,1.40547e+06,0.0714566,-0.25366,0,0.263533,9580.44,-40723.2,0,41835,-1.40547e+06
step02_gravity_refstate-mantle.xmf,562,1.5932e-06,-1.32463e-05,0,1.12645e-05,-1.17234e+09,-1.17433e+09,-1.17256e+09,1.5055e+06,0.0760791,-0.262981,0,0.273765,8520.94,-42251,0,43101.7,-1.5055e+06
step02_gravity_refstate-mantle.xmf,563,2.82963e-06,-1.48936e-05,0,1.10857e-05,-1.1976e+09,-1.19997e+09,-1.19798e+09,1.4816e+06,0.0759076,-0.263089,0,0.27382,8045.39,-43035.3,0,43780.9,-1.4816e+06
step02_gravity_refstate-mantle.xmf,564,4.09389e-06,-1.64312e-05,0,1.05919e-05,-1.22411e+09,-1.22685e+09,-1.22466e+09,1.41561e+06,0.0742324,-0.260809,0,0.271168,7554.87,-43858.6,0,44504.5,-1.41561e+06
step02_gravity_refstate-mantle.xmf,565,7.41065e-06,-2.05425e-05,0,8.64415e-06,-1.27579e+09,-1.27952e+09,-1.27678e+09,1.15529e+06,0.0619596,-0.26365,0,0.270833,5766,-45466.5,0,45830.7,-1.15529e+06
step02_gravity_refstate-mantle.xmf,566,5.21464e-06,-1.76787e-05,0,9.86148e-06,-1.25072e+09,-1.25378e+09,-1.25142e+09,1.31799e+06,0.0714662,-0.255718,0,0.265517,7095.78,-44685.1,0,45244.9,-1.31799e+06
step02_gravity_refstate-mantle.xmf,567,8.13182e-06,-2.104e-05,0,7.51718e-06,-1.3045e+09,-1.3084e+09,-1.30558e+09,1.00467e+06,0.0567933,-0.251889,0,0.258212,5296.17,-46357,0,46658.5,-1.00467e+06
step02_gravity_refstate-mantle.xmf,568,1.09076e-05,-2.40786e-05,0,2.44296e-06,-1.3614e+09,-1.36607e+09,-1.36286e+09,326502,0.0197125,-0.241834,0,0.242636,1767.84,-48125.4,0,48157.9,-326502
step02_gravity_refstate-mantle.xmf,569,1.06852e-05,-2.33409e-05,0,1.51071e-06,-1.39457e+09,-1.39912e+09,-1.396e+09,201906,0.0134787,-0.21921,0,0.219624,1250.26,-49150.6,0,49166.5,-201906
step02_gravity_refstate-mantle.xmf,570,1.0435e-05,-2.26463e-05,0,7.14857e-07,-1.42629e+09,-1.43071e+09,-1.42768e+09,95540.6,0.00703462,-0.197719,0,0.197844,673.567,-50130.3,0,50134.9,-95540.6
step02_gravity_refstate-mantle.xmf,571,1.01744e-05,-2.20108e-05,0,6.01199e-08,-1.45473e+09,-1.45903e+09,-1.45609e+09,8035.02,0.000532084,-0.178478,0,0.178479,52.3575,-51008.7,0,51008.8,-8035.02
step02_gravity_refstate-mantle.xmf,572,9.87102e-06,-2.13589e-05,0,-5.55125e-07,-1.48219e+09,-1.48637e+09,-1.48351e+09,-74192.4,-0.00703465,-0.159739,-0,0.159894,-712.468,-51856.8,-0,51861.7,-74192.4
step02_gravity_refstate-mantle.xmf,573,9.44889e-06,-2.0574e-05,0,-1.17851e-06,-1.51229e+09,-1.51631e+09,-1.51356e+09,-157508,-0.0169858,-0.138705,-0,0.139741,-1776.59,-52785.8,-0,52815.7,-157508
step02_gravity_refstate-mantle.xmf,574,8.41092e-06,-1.89211e-05,0,-1.79299e-06,-1.56132e+09,-1.56498e+09,-1.56245e+09,-239633,-0.0338512,-0.103803,-0,0.109183,-3761.98,-54297.6,-0,54427.8,-239633
step02_gravity_refstate-mantle.xmf,575,7.99061e-06,-1.81522e-05,0,-1.5694e-06,-1.60153e+09,-1.60503e+09,-1.6026e+09,-209750,-0.0384898,-0.0789936,-0,0.0878718,-4421.08,-55538.8,-0,55714.5,-209750
step02_gravity_refstate-mantle.xmf,576,7.57432e-06,-1.74446e-05,0,-1.26534e-06,-1.63983e+09,-1.64317e+09,-1.64084e+09,-169112,-0.0431792,-0.0563927,-0,0.0710252,-5102.87,-56720.8,-0,56949.8,-169112
step02_gravity_refstate-mantle.xmf,577,6.66517e-06,-1.60545e-05,0,-6.78971e-07,-1.69774e+09,-1.70077e+09,-1.69863e+09,-90744.5,-0.0539012,-0.0238638,-0,0.0589476,-6699.1,-58507.1,-0,58889.4,-90744.5
step02_gravity_refstate-mantle.xmf,578,6.16349e-06,-1.52932e-05,0,-4.34673e-09,-1.74611e+09,-1.74898e+09,-1.74694e+09,-580.941,-0.0590172,3.83664e-19,-0,0.0590172,-7525.62,-60000,-0,60470.1,-580.941
step02_gravity_refstate-mantle.xmf,579,-1.23653e-06,-8.19487e-06,0,9.76839e-06,-1.09967e+09,-1.1006e+09,-1.0995e+09,1.30555e+06,0.0667339,-0.247424,0,0.256265,10064.5,-40000,0,41246.8,-1.30555e+06
step02_gravity_refstate-mantle.xmf,580,6.16887e-06,-1.87875e-05,0,9.17792e-06,-1.27055e+09,-1.27389e+09,-1.27138e+09,1.22663e+06,0.0678966,-0.253225,0,0.262169,6603.87,-45301.1,0,45779.9,-1.22663e+06
step02_gravity_refstate-mantle.xmf,581,8.65413e-06,-2.13818e-05,0,6.34188e-06,-1.33357e+09,-1.33759e+09,-1.33473e+09,847592,0.0514367,-0.238275,0,0.243763,4841.16,-47257.7,0,47505,-847592
step02_gravity_refstate-mantle.xmf,582,1.01605e-05,-2.31022e-05,0,4.11604e-06,-1.3568e+09,-1.36125e+09,-1.35816e+09,550109,0.0335983,-0.238072,0,0.240431,3070.02,-47980.9,0,48079,-550109
step02_gravity_refstate-mantle.xmf,583,9.59629e-06,-2.26493e-05,0,5.43056e-06,-1.33615e+09,-1.34046e+09,-1.33743e+09,725795,0.0429836,-0.245779,0,0.24951,3928.48,-47340.3,0,47503,-725795
step02_gravity_refstate-mantle.xmf,584,8.95369e-06,-1.96583e-05,0,-1.18454e-06,-1.55865e+09,-1.56248e+09,-1.55985e+09,-158314,-0.0215639,-0.108848,-0,0.110963,-2345.4,-54216.8,-0,54267.5,-158314
step02_gravity_refstate-mantle.xmf,585,7.20355e-06,-1.68458e-05,0,-9.4893e-07,-1.67219e+09,-1.6754e+09,-1.67315e+09,-126824,-0.0474806,-0.0381189,-0,0.0608889,-5739.61,-57719.4,-0,58004.1,-126824
step02_gravity_refstate-mantle.xmf,586,-1.07048e-06,-8.25955e-06,0,9.46275e-06,-1.12359e+09,-1.12455e+09,-1.12345e+09,1.2647e+06,0.0708157,-0.231394,0,0.241988,10456.6,-40740,0,42060.5,-1.2647e+06
step02_gravity_refstate-mantle.xmf,587,-3.27709e-07,-9.76968e-06,0,1.01136e-05,-1.14804e+09,-1.1493e+09,-1.148e+09,1.35168e+06,0.0747557,-0.237757,0,0.249232,9914.35,-41496.3,0,42664.2,-1.35168e+06
step02_gravity_refstate-mantle.xmf,588,5.71084e-07,-1.12284e-05,0,1.04186e-05,-1.17233e+09,-1.17391e+09,-1.17241e+09,1.39245e+06,0.0771014,-0.240428,0,0.252488,9468.49,-42249,0,43297,-1.39245e+06
step02_gravity_refstate-mantle.xmf,589,1.64088e-06,-1.27581e-05,0,1.04613e-05,-1.19823e+09,-1.20015e+09,-1.19845e+09,1.39816e+06,0.0780691,-0.241313,0,0.253627,9005.29,-43052,0,43983.8,-1.39816e+06
step02_gravity_refstate-mantle.xmf,590,2.7853e-06,-1.42512e-05,0,1.02318e-05,-1.2248e+09,-1.22708e+09,-1.22518e+09,1.36748e+06,0.0775715,-0.2404,0,0.252605,8526.09,-43876.8,0,44697.6,-1.36748e+06
step02_gravity_refstate-mantle.xmf,591,3.94331e-06,-1.56726e-05,0,9.774e-06,-1.2513e+09,-1.25392e+09,-1.25183e+09,1.3063e+06,0.0756444,-0.238258,0,0.249978,8010.81,-44699.4,0,45411.6,-1.3063e+06
step02_gravity_refstate-mantle.xmf,592,6.45691e-06,-1.87047e-05,0,8.33017e-06,-1.29949e+09,-1.30285e+09,-1.30035e+09,1.11333e+06,0.0662664,-0.237163,0,0.246247,6556.22,-46197,0,46659.9,-1.11333e+06
step02_gravity_refstate-mantle.xmf,593,5.08487e-06,-1.70246e-05,0,9.13514e-06,-1.27707e+09,-1.28003e+09,-1.27775e+09,1.22091e+06,0.0723223,-0.235498,0,0.246353,7436.09,-45499.7,0,46103.4,-1.22091e+06
step02_gravity_refstate-mantle.xmf,594,7.36263e-06,-1.95242e-05,0,7.18258e-06,-1.33161e+09,-1.33521e+09,-1.3326e+09,959952,0.0605464,-0.226235,0,0.234196,5965.23,-47193.3,0,47568.8,-959952
step02_gravity_refstate-mantle.xmf,595,1.02392e-05,-2.27479e-05,0,2.84869e-06,-1.39251e+09,-1.39692e+09,-1.39388e+09,380727,0.0257287,-0.216497,0,0.218021,2416.64,-49085.4,0,49144.8,-380727
step02_gravity_refstate-mantle.xmf,596,1.01496e-05,-2.22672e-05,0,1.91485e-06,-1.42557e+09,-1.4299e+09,-1.42693e+09,255920,0.019185,-0.195691,0,0.19663,1853.12,-50107.3,0,50141.5,-255920
step02_gravity_refstate-mantle.xmf,597,1.00132e-05,-2.17852e-05,0,1.163e-06,-1.4563e+09,-1.46055e+09,-1.45764e+09,155435,0.0129304,-0.176203,0,0.176677,1281.6,-51056.9,0,51073,-155435
step02_gravity_refstate-mantle.xmf,598,9.84088e-06,-2.12877e-05,0,5.02072e-07,-1.48675e+09,-1.49091e+09,-1.48806e+09,67102,0.00618633,-0.156813,0,0.156935,628.694,-51997.5,0,52001.3,-67102
step02_gravity_refstate-mantle.xmf,599,9.61156e-06,-2.07405e-05,0,-8.53361e-08,-1.51899e+09,-1.52305e+09,-1.52028e+09,-11405.2,-0.00139666,-0.136118,-0,0.136125,-145.614,-52993.5,-0,52993.7,-11405.2
step02_gravity_refstate-mantle.xmf,600,9.30088e-06,-2.01005e-05,0,-4.61434e-07,-1.55625e+09,-1.56018e+09,-1.55749e+09,-61670.7,-0.00829308,-0.112288,-0,0.112594,-890.615,-54143.8,-0,54151.1,-61670.7
step02_gravity_refstate-mantle.xmf,601,8.5668e-06,-1.89247e-05,0,-1.10447e-06,-1.60155e+09,-1.60523e+09,-1.6027e+09,-147612,-0.0264304,-0.0821441,-0,0.0862914,-2966.55,-55541.4,-0,55620.5,-147612
step02_gravity_refstate-mantle.xmf,602,8.21791e-06,-1.82701e-05,0,-9.42669e-07,-1.64081e+09,-1.64435e+09,-1.64191e+09,-125988,-0.0316894,-0.0584603,-0,0.0664968,-3650.21,-56753.4,-0,56870.6,-125988
step02_gravity_refstate-mantle.xmf,603,7.85428e-06,-1.77125e-05,0,-7.91181e-07,-1.6704e+09,-1.67382e+09,-1.67145e+09,-105741,-0.0373415,-0.0409714,-0,0.055435,-4390.98,-57666.5,-0,57833.4,-105741
step02_gravity_refstate-mantle.xmf,604,7.53859e-06,-1.72014e-05,0,-4.85491e-07,-1.70426e+09,-1.70757e+09,-1.70527e+09,-64885.8,-0.0420506,-0.0220646,-0,0.0474879,-5036.07,-58711.5,-0,58927.1,-64885.8
step02_gravity_refstate-mantle.xmf,605,7.12419e-06,-1.65629e-05,0,-4.98463e-09,-1.74601e+09,-1.74918e+09,-1.74696e+09,-666.196,-0.0478658,3.43056e-19,-0,0.0478658,-5846.82,-60000,-0,60284.2,-666.196
step02_gravity_refstate-mantle.xmf,606,-1.49969e-06,-7.03327e-06,0,8.70884e-06,-1.09963e+09,-1.10037e+09,-1.09943e+09,1.16394e+06,0.0655454,-0.225388,0,0.234725,10932.8,-40000,0,41467.2,-1.16394e+06
step02_gravity_refstate-mantle.xmf,607,9.11632e-06,-2.16301e-05,0,5.19065e-06,-1.36189e+09,-1.36599e+09,-1.3631e+09,693731,0.0449531,-0.225091,0,0.229536,4269.32,-48134.8,0,48323.7,-693731
step02_gravity_refstate-mantle.xmf,608,8.00552e-06,-2.00778e-05,0,6.05985e-06,-1.3617e+09,-1.36545e+09,-1.36277e+09,809899,0.0546908,-0.214231,0,0.221102,5404.66,-48125.5,0,48428,-809899
step02_gravity_refstate-mantle.xmf,609,9.4885e-06,-2.17225e-05,0,4.03583e-06,-1.39212e+09,-1.39629e+09,-1.39339e+09,539389,0.0374598,-0.209964,0,0.213279,3604.58,-49071,0,49203.2,-539389
step02_gravity_refstate-mantle.xmf,610,8.95426e-06,-1.94499e-05,0,-6.02528e-07,-1.598e+09,-1.6018e+09,-1.5992e+09,-80527.9,-0.0138586,-0.0862443,-0,0.0873507,-1530.89,-55433,-0,55454.1,-80527.9
step02_gravity_refstate-mantle.xmf,611,-1.41082e-06,-7.05273e-06,0,8.42801e-06,-1.12335e+09,-1.1241e+09,-1.12316e+09,1.1264e+06,0.0696313,-0.209692,0,0.220951,11379.2,-40733.2,0,42292.8,-1.1264e+06
step02_gravity_refstate-mantle.xmf,612,-9.35719e-07,-8.19999e-06,0,9.0459e-06,-1.14695e+09,-1.14792e+09,-1.14682e+09,1.20899e+06,0.0739881,-0.214885,0,0.227266,10905.6,-41462.5,0,42872.7,-1.20899e+06
step02_gravity_refstate-mantle.xmf,613,-2.50469e-07,-9.46261e-06,0,9.4727e-06,-1.17138e+09,-1.17261e+09,-1.17134e+09,1.26603e+06,0.0771721,-0.218236,0,0.231478,10457.7,-42218.5,0,43494.4,-1.26603e+06
step02_gravity_refstate-mantle.xmf,614,6.37367e-07,-1.0852e-05,0,9.68869e-06,-1.19793e+09,-1.19946e+09,-1.19801e+09,1.29489e+06,0.0791816,-0.219868,0,0.233692,9997.66,-43041,0,44186.9,-1.29489e+06
step02_gravity_refstate-mantle.xmf,615,1.65693e-06,-1.2288e-05,0,9.67946e-06,-1.2249e+09,-1.22676e+09,-1.22512e+09,1.29366e+06,0.0797523,-0.220336,0,0.234325,9507.9,-43877.3,0,44895.6,-1.29366e+06
step02_gravity_refstate-mantle.xmf,616,2.73922e-06,-1.37027e-05,0,9.44765e-06,-1.25184e+09,-1.25404e+09,-1.2522e+09,1.26268e+06,0.0789037,-0.219599,0,0.233344,8987.6,-44713.1,0,45607.4,-1.26268e+06
step02_gravity_refstate-mantle.xmf,617,3.87778e-06,-1.51282e-05,0,9.03237e-06,-1.27826e+09,-1.2808e+09,-1.27877e+09,1.20718e+06,0.0765603,-0.218571,0,0.231592,8388.46,-45533.1,0,46299.3,-1.20718e+06
step02_gravity_refstate-mantle.xmf,618,5.07367e-06,-1.65472e-05,0,8.37642e-06,-1.30585e+09,-1.30874e+09,-1.30652e+09,1.11951e+06,0.0725509,-0.216369,0,0.228209,7692.21,-46389.7,0,47023.1,-1.11951e+06
step02_gravity_refstate-mantle.xmf,619,5.9629e-06,-1.75192e-05,0,7.64544e-06,-1.33076e+09,-1.3339e+09,-1.33156e+09,1.02181e+06,0.0683816,-0.211322,0,0.222111,7133.46,-47162.9,0,47699.3,-1.02181e+06
step02_gravity_refstate-mantle.xmf,620,6.74848e-06,-1.8273e-05,0,6.70614e-06,-1.36088e+09,-1.36423e+09,-1.36178e+09,896275,0.0633742,-0.201689,0,0.211411,6575.28,-48096.5,0,48543.9,-896275
step02_gravity_refstate-mantle.xmf,621,9.62025e-06,-2.15704e-05,0,3.04193e-06,-1.42313e+09,-1.4273e+09,-1.42441e+09,406554,0.0309187,-0.19254,0,0.195007,3033.72,-50030.1,0,50122,-406554
step02_gravity_refstate-mantle.xmf,622,9.61785e-06,-2.12904e-05,0,2.24764e-06,-1.45365e+09,-1.45778e+09,-1.45493e+09,300397,0.0252798,-0.174491,0,0.176313,2534.42,-50973.5,0,51036.5,-300397
step02_gravity_refstate-mantle.xmf,623,9.56287e-06,-2.0921e-05,0,1.51084e-06,-1.48705e+09,-1.49112e+09,-1.48833e+09,201924,0.0191597,-0.154448,0,0.155632,1966.06,-52005.9,0,52043,-201924
step02_gravity_refstate-mantle.xmf,624,9.47567e-06,-2.05517e-05,0,8.47839e-07,-1.52059e+09,-1.5246e+09,-1.52185e+09,113314,0.0122907,-0.134239,0,0.1348,1289.21,-53042.2,0,53057.9,-113314
step02_gravity_refstate-mantle.xmf,625,9.32841e-06,-2.01298e-05,0,3.16197e-07,-1.55619e+09,-1.56013e+09,-1.55744e+09,42259.8,0.00533594,-0.112519,0,0.112645,572.444,-54142.2,0,54145.2,-42259.8
step02_gravity_refstate-mantle.xmf,626,9.12875e-06,-1.96614e-05,0,-4.94563e-08,-1.59513e+09,-1.59898e+09,-1.59635e+09,-6609.84,-0.00133921,-0.0887258,-0,0.0887359,-147.044,-55344.9,-0,55345.1,-6609.84
step02_gravity_refstate-mantle.xmf,627,8.67388e-06,-1.8828e-05,0,-5.14697e-07,-1.64759e+09,-1.65126e+09,-1.64875e+09,-68789.2,-0.018507,-0.0564101,-0,0.0593684,-2097.81,-56964.3,-0,57003,-68789.2
step02_gravity_refstate-mantle.xmf,628,8.24243e-06,-1.81263e-05,0,-4.25167e-07,-1.69332e+09,-1.69684e+09,-1.69442e+09,-56823.6,-0.0289309,-0.0292759,-0,0.0411592,-3364.89,-58375.9,-0,58472.8,-56823.6
step02_gravity_refstate-mantle.xmf,629,7.8981e-06,-1.75763e-05,0,-1.10104e-08,-1.74593e+09,-1.74933e+09,-1.74698e+09,-1471.54,-0.0353032,4.45715e-19,-0,0.0353032,-4175.05,-60000,-0,60145.1,-1471.54
step02_gravity_refstate-mantle.xmf,630,-1.65858e-06,-6.073e-06,0,7.72193e-06,-1.09958e+09,-1.10017e+09,-1.09936e+09,1.03204e+06,0.0641183,-0.204079,0,0.213914,11837.8,-40000,0,41714.9,-1.03204e+06
step02_gravity_refstate-mantle.xmf,631,8.50109e-06,-2.04017e-05,0,4.9606e-06,-1.39281e+09,-1.39667e+09,-1.39394e+09,662984,0.0482104,-0.20043,0,0.206147,4801.83,-49089,0,49323.3,-662984
step02_gravity_refstate-mantle.xmf,632,7.39245e-06,-1.88521e-05,0,5.66969e-06,-1.39285e+09,-1.39636e+09,-1.39384e+09,757754,0.057752,-0.189465,0,0.198071,6001.56,-49086.9,0,49452.4,-757754
step02_gravity_refstate-mantle.xmf,633,8.86104e-06,-2.05313e-05,0,3.96983e-06,-1.42341e+09,-1.42734e+09,-1.4246e+09,530567,0.0415778,-0.185644,0,0.190243,4188.03,-50036.5,0,50211.4,-530567
step02_gravity_refstate-mantle.xmf,634,8.93489e-06,-1.92546e-05,0,-2.26325e-07,-1.6303e+09,-1.63406e+09,-1.63149e+09,-30248.4,-0.00708441,-0.0674317,-0,0.0678029,-791.778,-56430.8,-0,56436.4,-30248.4
step02_gravity_refstate-mantle.xmf,635,-1.32712e-06,-7.03611e-06,0,8.14209e-06,-1.14464e+09,-1.14541e+09,-1.14447e+09,1.08819e+06,0.072676,-0.196407,0,0.209422,11771.6,-41391.7,0,43033,-1.08819e+06
step02_gravity_refstate-mantle.xmf,636,-1.6177e-06,-6.11907e-06,0,7.50622e-06,-1.12533e+09,-1.12593e+09,-1.12512e+09,1.00321e+06,0.0685923,-0.188924,0,0.200991,12310.1,-40795.6,0,42612.4,-1.00321e+06
step02_gravity_refstate-mantle.xmf,637,-8.78943e-07,-7.96539e-06,0,8.5058e-06,-1.16977e+09,-1.17072e+09,-1.16965e+09,1.1368e+06,0.0764277,-0.197001,0,0.211306,11466.1,-42168.4,0,43699.5,-1.1368e+06
step02_gravity_refstate-mantle.xmf,638,-1.6751e-07,-9.20502e-06,0,8.83517e-06,-1.19716e+09,-1.19837e+09,-1.19714e+09,1.18082e+06,0.0793631,-0.199084,0,0.21432,11009.9,-43016.3,0,44402.9,-1.18082e+06
step02_gravity_refstate-mantle.xmf,639,1.68598e-06,-1.19033e-05,0,8.93953e-06,-1.2526e+09,-1.25442e+09,-1.25283e+09,1.19477e+06,0.0811194,-0.200728,0,0.216499,9987.39,-44734.2,0,45835.6,-1.19477e+06
step02_gravity_refstate-mantle.xmf,640,7.023e-07,-1.05324e-05,0,8.98662e-06,-1.22481e+09,-1.22631e+09,-1.2249e+09,1.20106e+06,0.080937,-0.200393,0,0.216121,10517.4,-43872.5,0,45115.6,-1.20106e+06
step02_gravity_refstate-mantle.xmf,641,2.71056e-06,-1.32502e-05,0,8.72326e-06,-1.27887e+09,-1.28101e+09,-1.27923e+09,1.16586e+06,0.0799305,-0.200658,0,0.215992,9413.68,-45549.1,0,46511.7,-1.16586e+06
step02_gravity_refstate-mantle.xmf,642,3.7613e-06,-1.45595e-05,0,8.3347e-06,-1.3046e+09,-1.30705e+09,-1.3051e+09,1.11393e+06,0.0774509,-0.199811,0,0.214297,8790.4,-46347.5,0,47173.7,-1.11393e+06
step02_gravity_refstate-mantle.xmf,643,4.62673e-06,-1.55408e-05,0,7.76641e-06,-1.33096e+09,-1.33366e+09,-1.33158e+09,1.03798e+06,0.0745014,-0.195016,0,0.208762,8289.34,-47165.2,0,47888,-1.03798e+06
step02_gravity_refstate-mantle.xmf,644,5.45254e-06,-1.64351e-05,0,7.06138e-06,-1.35879e+09,-1.36171e+09,-1.35952e+09,943754,0.0706363,-0.188487,0,0.201288,7748.17,-48027.8,0,48648.8,-943754
step02_gravity_refstate-mantle.xmf,645,6.20081e-06,-1.71466e-05,0,6.15122e-06,-1.39258e+09,-1.3957e+09,-1.39341e+09,822110,0.0658979,-0.177315,0,0.189164,7197.59,-49075,0,49600,-822110
step02_gravity_refstate-mantle.xmf,646,9.12699e-06,-2.06831e-05,0,3.12123e-06,-1.44757e+09,-1.45155e+09,-1.44879e+09,417153,0.0350766,-0.173919,0,0.177421,3561.33,-50783.9,0,50908.6,-417153
step02_gravity_refstate-mantle.xmf,647,8.9809e-06,-2.01734e-05,0,2.5911e-06,-1.48128e+09,-1.48517e+09,-1.48248e+09,346301,0.0330099,-0.153184,0,0.1567,3444.17,-51825.6,0,51939.9,-346301
step02_gravity_refstate-mantle.xmf,648,9.0915e-06,-2.00492e-05,0,1.72772e-06,-1.51863e+09,-1.52253e+09,-1.51985e+09,230910,0.0253842,-0.132556,0,0.134964,2696.28,-52980.6,0,53049.2,-230910
step02_gravity_refstate-mantle.xmf,649,9.09074e-06,-1.98189e-05,0,1.06335e-06,-1.55538e+09,-1.55925e+09,-1.5566e+09,142117,0.0185467,-0.111451,0,0.112984,2005.92,-54116.4,0,54153.5,-142117
step02_gravity_refstate-mantle.xmf,650,9.02974e-06,-1.95212e-05,0,5.22874e-07,-1.59602e+09,-1.59984e+09,-1.59723e+09,69882.1,0.0114729,-0.0876727,0,0.0884202,1263.91,-55372,0,55386.5,-69882.1
step02_gravity_refstate-mantle.xmf,651,8.96011e-06,-1.92556e-05,0,1.29731e-07,-1.63417e+09,-1.63794e+09,-1.63537e+09,17338.6,0.00349087,-0.0652364,0,0.0653298,390.25,-56550.7,0,56552.1,-17338.6
step02_gravity_refstate-mantle.xmf,652,8.83766e-06,-1.89804e-05,0,-1.33713e-07,-1.66943e+09,-1.67315e+09,-1.67062e+09,-17870.7,-0.00620415,-0.04435,-0,0.0447818,-702.569,-57639.8,-0,57644.1,-17870.7
step02_gravity_refstate-mantle.xmf,653,8.67016e-06,-1.86682e-05,0,-1.8641e-07,-1.6998e+09,-1.70345e+09,-1.70096e+09,-24913.7,-0.0144869,-0.0264267,-0,0.0301371,-1658.06,-58577.5,-0,58601,-24913.7
step02_gravity_refstate-mantle.xmf,654,8.45602e-06,-1.83041e-05,0,-7.49819e-09,-1.74587e+09,-1.74944e+09,-1.747e+09,-1002.13,-0.0216521,3.89282e-19,-0,0.0216521,-2505.02,-60000,-0,60052.3,-1002.13
step02_gravity_refstate-mantle.xmf,655,-1.74808e-06,-5.27403e-06,0,6.8149e-06,-1.09954e+09,-1.10001e+09,-1.0993e+09,910811,0.0625122,-0.183548,0,0.193902,12782.4,-40000,0,41992.7,-910811
step02_gravity_refstate-mantle.xmf,656,6.80212e-06,-1.76853e-05,0,5.18539e-06,-1.42781e+09,-1.43108e+09,-1.42872e+09,693028,0.0607497,-0.16368,0,0.17459,6651.49,-50165.7,0,50604.7,-693028
step02_gravity_refstate-mantle.xmf,657,7.85192e-06,-1.91296e-05,0,4.6492e-06,-1.42778e+09,-1.43139e+09,-1.42883e+09,621366,0.0519356,-0.173816,0,0.181409,5448.32,-50168.3,0,50463.2,-621366
step02_gravity_refstate-mantle.xmf,658,8.4061e-06,-1.96165e-05,0,3.69175e-06,-1.45637e+09,-1.46012e+09,-1.4575e+09,493402,0.0439313,-0.162549,0,0.168381,4606.33,-51053.9,0,51261.3,-493402
step02_gravity_refstate-mantle.xmf,659,-1.4281e-06,-6.539e-06,0,7.50474e-06,-1.15902e+09,-1.1597e+09,-1.15883e+09,1.00301e+06,0.0737901,-0.177936,0,0.192629,12526.6,-41836.3,0,43671.4,-1.00301e+06
step02_gravity_refstate-mantle.xmf,660,-1.76777e-06,-5.31635e-06,0,6.64214e-06,-1.12662e+09,-1.12709e+09,-1.12638e+09,887722,0.0671974,-0.169203,0,0.182058,13275.7,-40836.3,0,42940,-887722
step02_gravity_refstate-mantle.xmf,661,-8.25387e-07,-7.75078e-06,0,7.94097e-06,-1.19458e+09,-1.19551e+09,-1.19447e+09,1.06131e+06,0.0786071,-0.179081,0,0.195573,12062.2,-42935.8,0,44598,-1.06131e+06
step02_gravity_refstate-mantle.xmf,662,-8.72972e-08,-8.98348e-06,0,8.20992e-06,-1.22449e+09,-1.22568e+09,-1.22447e+09,1.09726e+06,0.0812367,-0.180794,0,0.198207,11558.1,-43861.3,0,45358.6,-1.09726e+06
step02_gravity_refstate-mantle.xmf,663,1.74929e-06,-1.16216e-05,0,8.23318e-06,-1.28189e+09,-1.28368e+09,-1.28212e+09,1.10036e+06,0.0821809,-0.182404,0,0.200062,10425.4,-45640,0,46815.6,-1.10036e+06
step02_gravity_refstate-mantle.xmf,664,7.78082e-07,-1.02728e-05,0,8.3025e-06,-1.25363e+09,-1.25511e+09,-1.25374e+09,1.10963e+06,0.082415,-0.181793,0,0.199602,11020.7,-44764.1,0,46100.8,-1.10963e+06
step02_gravity_refstate-mantle.xmf,665,2.60676e-06,-1.27485e-05,0,8.05776e-06,-1.30387e+09,-1.30592e+09,-1.30422e+09,1.07692e+06,0.0809367,-0.182899,0,0.200007,9881.99,-46321.8,0,47364.2,-1.07692e+06
step02_gravity_refstate-mantle.xmf,666,3.3504e-06,-1.36375e-05,0,7.69919e-06,-1.32813e+09,-1.3304e+09,-1.32858e+09,1.029e+06,0.0791834,-0.179675,0,0.196349,9439.7,-47073.9,0,48011.1,-1.029e+06
step02_gravity_refstate-mantle.xmf,667,4.18738e-06,-1.45845e-05,0,7.12681e-06,-1.35783e+09,-1.36034e+09,-1.35839e+09,952498,0.0763896,-0.173674,0,0.189731,8932.66,-47994.7,0,48818.9,-952498
step02_gravity_refstate-mantle.xmf,668,5.00319e-06,-1.54481e-05,0,6.3795e-06,-1.3913e+09,-1.39403e+09,-1.39197e+09,852621,0.0725958,-0.164815,0,0.180095,8382.44,-49031.7,0,49743.1,-852621
step02_gravity_refstate-mantle.xmf,669,5.70034e-06,-1.61477e-05,0,5.5895e-06,-1.42413e+09,-1.42705e+09,-1.42489e+09,747037,0.0682652,-0.154599,0,0.169,7827.98,-50048.7,0,50657.2,-747037
step02_gravity_refstate-mantle.xmf,670,8.4402e-06,-1.91839e-05,0,2.49198e-06,-1.51828e+09,-1.52197e+09,-1.51941e+09,333053,0.0377907,-0.127922,0,0.133387,4110.32,-52967.4,0,53126.7,-333053
step02_gravity_refstate-mantle.xmf,671,8.60665e-06,-1.9185e-05,0,1.7549e-06,-1.55391e+09,-1.55763e+09,-1.55506e+09,234543,0.0312077,-0.109105,0,0.11348,3433.83,-54069.3,0,54178.2,-234543
step02_gravity_refstate-mantle.xmf,672,8.69188e-06,-1.9086e-05,0,1.09098e-06,-1.59492e+09,-1.59863e+09,-1.59608e+09,145810,0.0245048,-0.086447,0,0.0898531,2733.45,-55336.8,0,55404.2,-145810
step02_gravity_refstate-mantle.xmf,673,8.71451e-06,-1.89266e-05,0,5.35831e-07,-1.6419e+09,-1.6456e+09,-1.64307e+09,71613.9,0.0170017,-0.0598769,0,0.0622438,1920.51,-56788.8,0,56821.2,-71613.9
step02_gravity_refstate-mantle.xmf,674,8.80597e-06,-1.8958e-05,0,1.45292e-07,-1.67158e+09,-1.67529e+09,-1.67276e+09,19418.3,0.00678268,-0.0430798,0,0.0436104,768.877,-57706.1,0,57711.2,-19418.3
step02_gravity_refstate-mantle.xmf,675,8.79918e-06,-1.8841e-05,0,7.94787e-09,-1.70487e+09,-1.70857e+09,-1.70605e+09,1062.23,0.000275119,-0.0237316,0,0.0237331,31.3492,-58734.6,0,58734.6,-1062.23
step02_gravity_refstate-mantle.xmf,676,8.74073e-06,-1.86773e-05,0,-9.28329e-09,-1.74584e+09,-1.7495e+09,-1.747e+09,-1240.71,-0.007298,3.36875e-19,-0,0.007298,-835.008,-60000,-0,60005.8,-1240.71
step02_gravity_refstate-mantle.xmf,677,-1.79094e-06,-4.60225e-06,0,5.99032e-06,-1.09949e+09,-1.09986e+09,-1.09925e+09,800606,0.0607691,-0.163834,0,0.174741,13769.1,-40000,0,42303.5,-800606
step02_gravity_refstate-mantle.xmf,678,6.21866e-06,-1.66547e-05,0,4.87688e-06,-1.45253e+09,-1.45559e+09,-1.45336e+09,651796,0.064179,-0.144606,0,0.158208,7340.6,-50928.2,0,51454.5,-651796
step02_gravity_refstate-mantle.xmf,679,7.2292e-06,-1.79135e-05,0,4.12154e-06,-1.47135e+09,-1.47471e+09,-1.47232e+09,550844,0.0552572,-0.143863,0,0.154111,6127.83,-51513.1,0,51876.3,-550844
step02_gravity_refstate-mantle.xmf,680,8.17763e-06,-1.90548e-05,0,3.18733e-06,-1.49045e+09,-1.49409e+09,-1.49155e+09,425987,0.0438419,-0.141438,0,0.148077,4738.61,-52106.5,0,52321.5,-425987
step02_gravity_refstate-mantle.xmf,681,-1.32295e-06,-6.51496e-06,0,7.04307e-06,-1.19196e+09,-1.19265e+09,-1.19178e+09,941306,0.0771584,-0.159589,0,0.177263,13152.2,-42854.7,0,44827.5,-941306
step02_gravity_refstate-mantle.xmf,682,-1.87974e-06,-4.63345e-06,0,5.85454e-06,-1.12902e+09,-1.12939e+09,-1.12877e+09,782460,0.0657953,-0.149974,0,0.163772,14293.2,-40911.5,0,43336.4,-782460
step02_gravity_refstate-mantle.xmf,683,-1.72547e-06,-5.47308e-06,0,6.49479e-06,-1.15946e+09,-1.15996e+09,-1.15923e+09,868029,0.0719755,-0.155455,0,0.171308,13720.5,-41850.7,0,44042.4,-868029
step02_gravity_refstate-mantle.xmf,684,-7.25693e-07,-7.63705e-06,0,7.39876e-06,-1.22396e+09,-1.22488e+09,-1.22386e+09,988844,0.0807625,-0.161794,0,0.180831,12628.1,-43844.1,0,45626.5,-988844
step02_gravity_refstate-mantle.xmf,685,7.14223e-10,-8.80568e-06,0,7.59304e-06,-1.25411e+09,-1.25528e+09,-1.25411e+09,1.01481e+06,0.0828492,-0.163255,0,0.183075,12092,-44777.4,0,46381.4,-1.01481e+06
step02_gravity_refstate-mantle.xmf,686,2.06477e-06,-1.17224e-05,0,7.53111e-06,-1.31834e+09,-1.32019e+09,-1.31862e+09,1.00653e+06,0.082557,-0.166031,0,0.185423,10627.3,-46768,0,47960.2,-1.00653e+06
step02_gravity_refstate-mantle.xmf,687,8.2855e-07,-1.00116e-05,0,7.61974e-06,-1.28398e+09,-1.28543e+09,-1.28409e+09,1.01838e+06,0.0836419,-0.163566,0,0.183711,11539.9,-45702.5,0,47136.9,-1.01838e+06
step02_gravity_refstate-mantle.xmf,688,2.99175e-06,-1.27898e-05,0,6.97904e-06,-1.35646e+09,-1.35857e+09,-1.35686e+09,932749,0.0807301,-0.158485,0,0.177861,10130.4,-47948.8,0,49007.3,-932749
step02_gravity_refstate-mantle.xmf,689,4.62565e-06,-1.4625e-05,0,5.71528e-06,-1.42372e+09,-1.42629e+09,-1.42434e+09,763848,0.0742228,-0.1433,0,0.161381,8978.05,-50032.7,0,50831.8,-763848
step02_gravity_refstate-mantle.xmf,690,3.83539e-06,-1.37523e-05,0,6.38565e-06,-1.39046e+09,-1.39281e+09,-1.39097e+09,853443,0.0779064,-0.151384,0,0.170254,9576.33,-49002.1,0,49929.1,-853443
step02_gravity_refstate-mantle.xmf,691,5.29975e-06,-1.53486e-05,0,5.04675e-06,-1.45415e+09,-1.45691e+09,-1.45486e+09,674499,0.0701406,-0.134789,0,0.151947,8386.56,-50975.3,0,51660.6,-674499
step02_gravity_refstate-mantle.xmf,692,7.58582e-06,-1.80491e-05,0,3.14294e-06,-1.51622e+09,-1.51964e+09,-1.51723e+09,420055,0.0492492,-0.122521,0,0.132049,5531.7,-52901,0,53189.5,-420055
step02_gravity_refstate-mantle.xmf,693,7.90026e-06,-1.82538e-05,0,2.35177e-06,-1.5524e+09,-1.55589e+09,-1.55345e+09,314314,0.0430485,-0.105208,0,0.113675,4863.88,-54020.2,0,54238.7,-314314
step02_gravity_refstate-mantle.xmf,694,8.12544e-06,-1.83507e-05,0,1.62126e-06,-1.59212e+09,-1.59566e+09,-1.59321e+09,216681,0.0368174,-0.0848839,0,0.0925246,4192.34,-55248.6,0,55407.4,-216681
step02_gravity_refstate-mantle.xmf,695,8.29725e-06,-1.84138e-05,0,1.02043e-06,-1.63145e+09,-1.63502e+09,-1.63256e+09,136381,0.0306521,-0.0639822,0,0.0709455,3511.21,-56464.3,0,56573.4,-136381
step02_gravity_refstate-mantle.xmf,696,8.64328e-06,-1.86391e-05,0,2.34347e-07,-1.69744e+09,-1.70108e+09,-1.69859e+09,31320.5,0.0155805,-0.0277489,0,0.0318237,1784.3,-58504.5,0,58531.7,-31320.5
step02_gravity_refstate-mantle.xmf,697,8.73822e-06,-1.86748e-05,0,-1.27875e-08,-1.74584e+09,-1.7495e+09,-1.747e+09,-1709.04,0.0072978,3.79296e-19,0,0.0072978,835.008,-60000,0,60005.8,-1709.04
step02_gravity_refstate-mantle.xmf,698,-1.80905e-06,-4.02986e-06,0,5.24584e-06,-1.09945e+09,-1.09974e+09,-1.0992e+09,701107,0.0589141,-0.144965,0,0.156479,14800.9,-40000,0,42650.5,-701107
step02_gravity_refstate-mantle.xmf,699,5.95534e-06,-1.60508e-05,0,4.31505e-06,-1.48524e+09,-1.48818e+09,-1.48603e+09,576706,0.065155,-0.125161,0,0.141105,7709.15,-51938.3,0,52507.3,-576706
step02_gravity_refstate-mantle.xmf,700,8.39155e-06,-1.84123e-05,0,6.00425e-07,-1.66688e+09,-1.67047e+09,-1.66801e+09,80246.8,0.025682,-0.0445303,0,0.0514054,2953.67,-57559.6,0,57635.3,-80246.8
step02_gravity_refstate-mantle.xmf,701,-1.95927e-06,-4.01938e-06,0,5.11934e-06,-1.12933e+09,-1.1296e+09,-1.12906e+09,684200,0.0638143,-0.131893,0,0.146519,15357.6,-40922,0,43708.9,-684200
step02_gravity_refstate-mantle.xmf,702,-1.23995e-06,-6.45793e-06,0,6.57614e-06,-1.22321e+09,-1.22391e+09,-1.22304e+09,878901,0.0795978,-0.143242,0,0.163872,13747.5,-43820.6,0,45926.5,-878901
step02_gravity_refstate-mantle.xmf,703,-1.67625e-06,-5.4958e-06,0,6.17469e-06,-1.19117e+09,-1.19168e+09,-1.19094e+09,825247,0.0753655,-0.140409,0,0.159357,14285.7,-42830.4,0,45150.1,-825247
step02_gravity_refstate-mantle.xmf,704,-1.91928e-06,-4.66596e-06,0,5.66123e-06,-1.15974e+09,-1.16011e+09,-1.15948e+09,756623,0.0699898,-0.136338,0,0.153253,14835.2,-41860.1,0,44411.1,-756623
step02_gravity_refstate-mantle.xmf,705,-6.48049e-07,-7.50745e-06,0,6.84619e-06,-1.25445e+09,-1.25537e+09,-1.25436e+09,914994,0.082509,-0.14523,0,0.167032,13198.8,-44786.9,0,46691.3,-914994
step02_gravity_refstate-mantle.xmf,706,5.07338e-08,-8.5869e-06,0,6.94841e-06,-1.28576e+09,-1.28692e+09,-1.28577e+09,928656,0.0841875,-0.145625,0,0.168208,12665.7,-45756.2,0,47476.8,-928656
step02_gravity_refstate-mantle.xmf,707,9.24897e-07,-9.82678e-06,0,6.9051e-06,-1.31964e+09,-1.32108e+09,-1.31977e+09,922866,0.0846557,-0.145293,0,0.168156,12026.6,-46805.3,0,48325.7,-922866
step02_gravity_refstate-mantle.xmf,708,1.84422e-06,-1.10257e-05,0,6.65075e-06,-1.35429e+09,-1.35601e+09,-1.35453e+09,888873,0.0838179,-0.142697,0,0.165493,11393.4,-47878.6,0,49215.5,-888873
step02_gravity_refstate-mantle.xmf,709,2.70585e-06,-1.20705e-05,0,6.2047e-06,-1.3897e+09,-1.39168e+09,-1.39006e+09,829259,0.0819728,-0.137191,0,0.159815,10812.9,-48975.6,0,50155.1,-829259
step02_gravity_refstate-mantle.xmf,710,4.32389e-06,-1.39595e-05,0,5.06992e-06,-1.45614e+09,-1.45858e+09,-1.45672e+09,677595,0.0754868,-0.123833,0,0.145027,9511.88,-51033.9,0,51912.8,-677595
step02_gravity_refstate-mantle.xmf,711,3.55258e-06,-1.30654e-05,0,5.65057e-06,-1.42465e+09,-1.42687e+09,-1.42512e+09,755199,0.079089,-0.130605,0,0.152685,10174.7,-50058.2,0,51081.7,-755199
step02_gravity_refstate-mantle.xmf,712,4.97487e-06,-1.47118e-05,0,4.53285e-06,-1.48201e+09,-1.48464e+09,-1.48268e+09,605816,0.0716773,-0.117698,0,0.137806,8881.23,-51835.5,0,52590.8,-605816
step02_gravity_refstate-mantle.xmf,713,6.54391e-06,-1.66848e-05,0,3.62007e-06,-1.51352e+09,-1.51663e+09,-1.5144e+09,483822,0.0596465,-0.115705,0,0.130174,6989.77,-52814.3,0,53274.8,-483822
step02_gravity_refstate-mantle.xmf,714,7.01094e-06,-1.70722e-05,0,2.8273e-06,-1.55074e+09,-1.55396e+09,-1.55168e+09,377868,0.0538486,-0.0999576,0,0.113539,6305.92,-53966.2,0,54333.4,-377868
step02_gravity_refstate-mantle.xmf,715,7.37143e-06,-1.73592e-05,0,2.0551e-06,-1.59014e+09,-1.59345e+09,-1.59113e+09,274664,0.0480476,-0.0816605,0,0.0947471,5636.29,-55184.9,0,55472,-274664
step02_gravity_refstate-mantle.xmf,716,7.66265e-06,-1.75811e-05,0,1.37196e-06,-1.62989e+09,-1.63326e+09,-1.63091e+09,183363,0.0422631,-0.0620636,0,0.075087,4963.35,-56413.9,0,56631.9,-183363
step02_gravity_refstate-mantle.xmf,717,7.92697e-06,-1.78001e-05,0,8.2e-07,-1.66674e+09,-1.67018e+09,-1.6678e+09,109593,0.0362901,-0.0431541,0,0.0563848,4253.57,-57553.6,0,57710.6,-109593
step02_gravity_refstate-mantle.xmf,718,8.18938e-06,-1.80368e-05,0,3.56989e-07,-1.70447e+09,-1.70798e+09,-1.70557e+09,47711.6,0.0295442,-0.0229965,0,0.0374393,3446.04,-58720.3,0,58821.3,-47711.6
step02_gravity_refstate-mantle.xmf,719,8.45835e-06,-1.83127e-05,0,-6.75742e-09,-1.74587e+09,-1.74944e+09,-1.747e+09,-903.13,0.0216475,2.98693e-19,0,0.0216475,2505.02,-60000,0,60052.3,-903.13
step02_gravity_refstate-mantle.xmf,720,-1.84567e-06,-3.51949e-06,0,4.58104e-06,-1.09941e+09,-1.09963e+09,-1.09916e+09,612256,0.056958,-0.126967,0,0.139157,15880.5,-40000,0,43037.1,-612256
step02_gravity_refstate-mantle.xmf,721,-1.82946e-06,-3.09578e-06,0,3.98359e-06,-1.09937e+09,-1.09954e+09,-1.09913e+09,532407,0.0548987,-0.109859,0,0.122812,17010.7,-40000,0,43466.8,-532407
step02_gravity_refstate-mantle.xmf,722,-2.03834e-06,-3.46665e-06,0,4.45172e-06,-1.12913e+09,-1.12932e+09,-1.12886e+09,594973,0.0615656,-0.114679,0,0.13016,16473.7,-40917,0,44108.7,-594973
step02_gravity_refstate-mantle.xmf,723,5.43526e-06,-1.51683e-05,0,3.91785e-06,-1.51176e+09,-1.51451e+09,-1.51249e+09,523620,0.0682743,-0.107346,0,0.127218,8419.16,-52756.3,0,53423.9,-523620
step02_gravity_refstate-mantle.xmf,724,-1.18721e-06,-6.36564e-06,0,6.10871e-06,-1.25335e+09,-1.25404e+09,-1.25319e+09,816429,0.0813953,-0.128326,0,0.151963,14329.3,-44752.1,0,46990.2,-816429
step02_gravity_refstate-mantle.xmf,725,-2.05979e-06,-3.98967e-06,0,4.9221e-06,-1.15939e+09,-1.15965e+09,-1.15912e+09,657839,0.067702,-0.118822,0,0.136756,15959.8,-41850.2,0,44790.1,-657839
step02_gravity_refstate-mantle.xmf,726,-1.63956e-06,-5.45125e-06,0,5.7806e-06,-1.22281e+09,-1.22332e+09,-1.22259e+09,772577,0.0778937,-0.125419,0,0.14764,14904,-43808.3,0,46274.1,-772577
step02_gravity_refstate-mantle.xmf,727,-1.93721e-06,-4.64867e-06,0,5.38001e-06,-1.19068e+09,-1.19104e+09,-1.19042e+09,719039,0.0732242,-0.122463,0,0.142685,15437.7,-42815.8,0,45513.9,-719039
step02_gravity_refstate-mantle.xmf,728,-2.06983e-06,-3.02336e-06,0,3.86752e-06,-1.13002e+09,-1.13015e+09,-1.12974e+09,516895,0.0594079,-0.0986781,0,0.115181,17608.9,-40945.3,0,44571.2,-516895
step02_gravity_refstate-mantle.xmf,729,-6.39939e-07,-7.27891e-06,0,6.26607e-06,-1.28437e+09,-1.28525e+09,-1.28428e+09,837460,0.0837855,-0.129025,0,0.153842,13826,-45711.7,0,47756.8,-837460
step02_gravity_refstate-mantle.xmf,730,9.7583e-09,-8.24909e-06,0,6.26588e-06,-1.31806e+09,-1.31916e+09,-1.31806e+09,837434,0.0852362,-0.12766,0,0.1535,13337.1,-46754.2,0,48619.3,-837434
step02_gravity_refstate-mantle.xmf,731,8.1961e-07,-9.37782e-06,0,6.15464e-06,-1.35331e+09,-1.35468e+09,-1.35342e+09,822568,0.0855714,-0.126171,0,0.152452,12709.6,-47845.8,0,49505.1,-822568
step02_gravity_refstate-mantle.xmf,732,1.65097e-06,-1.04562e-05,0,5.87481e-06,-1.38884e+09,-1.39046e+09,-1.38906e+09,785168,0.0847606,-0.122728,0,0.149153,12086.1,-48946.1,0,50416.2,-785168
step02_gravity_refstate-mantle.xmf,733,2.48882e-06,-1.14871e-05,0,5.44021e-06,-1.42545e+09,-1.42732e+09,-1.42578e+09,727084,0.082898,-0.11727,0,0.143612,11441,-50080,0,51370.2,-727084
step02_gravity_refstate-mantle.xmf,734,4.26504e-06,-1.3586e-05,0,4.21634e-06,-1.50107e+09,-1.50345e+09,-1.50164e+09,563514,0.0754269,-0.102118,0,0.126954,9823.55,-52422.3,0,53334.8,-563514
step02_gravity_refstate-mantle.xmf,735,3.33394e-06,-1.24953e-05,0,4.89239e-06,-1.46233e+09,-1.46445e+09,-1.46278e+09,653868,0.0799564,-0.110406,0,0.136317,10725.7,-51222.3,0,52333.2,-653868
step02_gravity_refstate-mantle.xmf,736,5.98463e-06,-1.57192e-05,0,3.1513e-06,-1.54878e+09,-1.55168e+09,-1.54958e+09,421172,0.0633604,-0.0936506,0,0.113071,7760.11,-53902,0,54457.8,-421172
step02_gravity_refstate-mantle.xmf,737,6.46507e-06,-1.61571e-05,0,2.38786e-06,-1.58822e+09,-1.59125e+09,-1.58909e+09,319138,0.0581251,-0.0773359,0,0.0967438,7086.34,-55122.6,0,55576.3,-319138
step02_gravity_refstate-mantle.xmf,738,6.84502e-06,-1.65089e-05,0,1.68637e-06,-1.62683e+09,-1.62995e+09,-1.62774e+09,225384,0.0530941,-0.0599768,0,0.0801012,6449.17,-56316.8,0,56684.8,-225384
step02_gravity_refstate-mantle.xmf,739,7.2029e-06,-1.68511e-05,0,1.04127e-06,-1.66599e+09,-1.6692e+09,-1.66695e+09,139165,0.0476886,-0.0413126,0,0.0630947,5759.03,-57528,0,57815.5,-139165
step02_gravity_refstate-mantle.xmf,740,7.54745e-06,-1.71988e-05,0,4.7407e-07,-1.70556e+09,-1.70887e+09,-1.70657e+09,63359.4,0.0418662,-0.0213931,0,0.0470154,5012.56,-58751.7,0,58965.1,-63359.4
step02_gravity_refstate-mantle.xmf,741,7.90168e-06,-1.75868e-05,0,-5.83771e-09,-1.74593e+09,-1.74933e+09,-1.74698e+09,-780.21,0.0353057,2.71808e-19,0,0.0353057,4175.05,-60000,0,60145.1,-780.21
step02_gravity_refstate-mantle.xmf,742,-1.85154e-06,-2.70054e-06,0,3.45529e-06,-1.09934e+09,-1.09946e+09,-1.0991e+09,461800,0.0527241,-0.0936605,0,0.107481,18194.5,-40000,0,43943.6,-461800
step02_gravity_refstate-mantle.xmf,743,-2.17643e-06,-3.40763e-06,0,4.27416e-06,-1.15832e+09,-1.15848e+09,-1.15803e+09,571241,0.0651569,-0.102892,0,0.121787,17087.9,-41817.8,0,45174.3,-571241
step02_gravity_refstate-mantle.xmf,744,4.89717e-06,-1.42383e-05,0,3.35866e-06,-1.54602e+09,-1.54858e+09,-1.54668e+09,448885,0.0713203,-0.0868276,0,0.112364,9208.37,-53813.5,0,54595.6,-448885
step02_gravity_refstate-mantle.xmf,745,-2.14107e-06,-2.61028e-06,0,3.34999e-06,-1.13314e+09,-1.1332e+09,-1.13285e+09,447726,0.057397,-0.0831561,0,0.101041,18814.6,-41042.2,0,45149.2,-447726
step02_gravity_refstate-mantle.xmf,746,-1.16723e-06,-6.23768e-06,0,5.69204e-06,-1.27876e+09,-1.27944e+09,-1.2786e+09,760741,0.0825542,-0.11625,0,0.14258,14836.2,-45537.7,0,47893.6,-760741
step02_gravity_refstate-mantle.xmf,747,-1.59567e-06,-5.42622e-06,0,5.40691e-06,-1.25406e+09,-1.25457e+09,-1.25384e+09,722634,0.0798799,-0.112323,0,0.137831,15457.6,-44773.8,0,47367,-722634
step02_gravity_refstate-mantle.xmf,748,-2.1351e-06,-3.93176e-06,0,4.66441e-06,-1.18973e+09,-1.18997e+09,-1.18944e+09,623398,0.0707219,-0.105901,0,0.127344,16605.8,-42786.8,0,45896.3,-623398
step02_gravity_refstate-mantle.xmf,749,-1.95141e-06,-4.59315e-06,0,5.04021e-06,-1.22234e+09,-1.22269e+09,-1.22208e+09,673624,0.0757211,-0.108704,0,0.132478,16085.6,-43793.8,0,46654.5,-673624
step02_gravity_refstate-mantle.xmf,750,-2.23702e-06,-2.95472e-06,0,3.73882e-06,-1.15628e+09,-1.15637e+09,-1.15598e+09,499693,0.0625455,-0.0894837,0,0.109175,18134.6,-41755.4,0,45523.4,-499693
step02_gravity_refstate-mantle.xmf,751,-8.1409e-07,-6.74303e-06,0,5.55303e-06,-1.31365e+09,-1.31445e+09,-1.31355e+09,742163,0.0845015,-0.110322,0,0.138966,14751.4,-46616.6,0,48894.9,-742163
step02_gravity_refstate-mantle.xmf,752,-6.85194e-08,-7.89415e-06,0,5.58359e-06,-1.35157e+09,-1.35261e+09,-1.35156e+09,746247,0.0860458,-0.110368,0,0.139946,14043.2,-47789.7,0,49810.3,-746247
step02_gravity_refstate-mantle.xmf,753,6.88246e-07,-8.93816e-06,0,5.43839e-06,-1.3875e+09,-1.38879e+09,-1.38759e+09,726841,0.0862974,-0.108387,0,0.138546,13397.5,-48902.1,0,50704.1,-726841
step02_gravity_refstate-mantle.xmf,754,1.46077e-06,-9.936e-06,0,5.13153e-06,-1.42437e+09,-1.42589e+09,-1.42457e+09,685829,0.0855276,-0.104254,0,0.134848,12763.9,-50043.7,0,51645.8,-685829
step02_gravity_refstate-mantle.xmf,755,2.27536e-06,-1.09404e-05,0,4.6766e-06,-1.46341e+09,-1.46517e+09,-1.46371e+09,625028,0.0837067,-0.0981319,0,0.128983,12069.6,-51252.4,0,52654.3,-625028
step02_gravity_refstate-mantle.xmf,756,3.08065e-06,-1.18971e-05,0,4.09986e-06,-1.50329e+09,-1.50529e+09,-1.5037e+09,547947,0.0809198,-0.0899839,0,0.121017,11333.2,-52487.3,0,53696.9,-547947
step02_gravity_refstate-mantle.xmf,757,3.77753e-06,-1.26805e-05,0,3.4098e-06,-1.54487e+09,-1.54707e+09,-1.54538e+09,455720,0.0776566,-0.0786702,0,0.110542,10662.7,-53774.4,0,54821.4,-455720
step02_gravity_refstate-mantle.xmf,758,5.43058e-06,-1.47909e-05,0,2.616e-06,-1.58549e+09,-1.58819e+09,-1.58621e+09,349628,0.0670125,-0.0723947,0,0.0986493,8568.98,-55034.7,0,55697.8,-349628
step02_gravity_refstate-mantle.xmf,759,5.88125e-06,-1.52334e-05,0,1.92342e-06,-1.62389e+09,-1.62671e+09,-1.62467e+09,257066,0.0627564,-0.0569057,0,0.0847149,7958.86,-56222.7,0,56783.3,-257066
step02_gravity_refstate-mantle.xmf,760,6.28711e-06,-1.56443e-05,0,1.23078e-06,-1.66413e+09,-1.66706e+09,-1.66497e+09,164494,0.058329,-0.039332,0,0.0703511,7332.83,-57467.6,0,57933.5,-164494
step02_gravity_refstate-mantle.xmf,761,6.70327e-06,-1.60904e-05,0,5.86015e-07,-1.70463e+09,-1.70767e+09,-1.70552e+09,78320.9,0.0533357,-0.0205239,0,0.0571483,6621.18,-58720.1,0,59092.2,-78320.9
step02_gravity_refstate-mantle.xmf,762,7.12104e-06,-1.65621e-05,0,-3.60347e-09,-1.74601e+09,-1.74918e+09,-1.74696e+09,-481.603,0.0478653,2.55861e-19,0,0.0478653,5846.82,-60000,0,60284.2,-481.603
step02_gravity_refstate-mantle.xmf,763,-1.88504e-06,-2.34022e-06,0,2.98462e-06,-1.09932e+09,-1.09938e+09,-1.09907e+09,398895,0.0504106,-0.0783901,0,0.0932,19434.8,-40000,0,44471.5,-398895
step02_gravity_refstate-mantle.xmf,764,-2.30283e-06,-3.2855e-06,0,4.01095e-06,-1.18714e+09,-1.18727e+09,-1.18683e+09,536063,0.0676941,-0.0904315,0,0.112962,17818.7,-42707.5,0,46275.6,-536063
step02_gravity_refstate-mantle.xmf,765,4.38004e-06,-1.33626e-05,0,2.7462e-06,-1.5824e+09,-1.58477e+09,-1.58298e+09,367029,0.0741394,-0.0670917,0,0.0999897,10007.5,-54935.8,0,55839.9,-367029
step02_gravity_refstate-mantle.xmf,766,-2.38599e-06,-2.67323e-06,0,3.3574e-06,-1.17589e+09,-1.17592e+09,-1.17557e+09,448717,0.0630001,-0.0755652,0,0.0983825,19170.3,-42360.9,0,46496.7,-448717
step02_gravity_refstate-mantle.xmf,767,-2.23142e-06,-2.23469e-06,0,2.88825e-06,-1.1376e+09,-1.1376e+09,-1.1373e+09,386014,0.0553589,-0.0686178,0,0.0881647,20067.9,-41180.2,0,45809.7,-386014
step02_gravity_refstate-mantle.xmf,768,-1.48187e-06,-5.52495e-06,0,5.1018e-06,-1.28837e+09,-1.28891e+09,-1.28817e+09,681856,0.0818783,-0.101855,0,0.130685,15816.9,-45834.1,0,48486.5,-681856
step02_gravity_refstate-mantle.xmf,769,-1.93739e-06,-4.59432e-06,0,4.71121e-06,-1.25784e+09,-1.25819e+09,-1.25758e+09,629654,0.0780552,-0.096086,0,0.123795,16672.3,-44890.4,0,47886.5,-629654
step02_gravity_refstate-mantle.xmf,770,-2.20332e-06,-3.8514e-06,0,4.35223e-06,-1.22277e+09,-1.223e+09,-1.22248e+09,581676,0.073212,-0.0927211,0,0.118141,17316,-43807.5,0,47105.6,-581676
step02_gravity_refstate-mantle.xmf,771,-8.1213e-07,-6.58739e-06,0,4.96464e-06,-1.35094e+09,-1.35171e+09,-1.35083e+09,663525,0.0854304,-0.0949826,0,0.12775,15400,-47768.7,0,50189.7,-663525
step02_gravity_refstate-mantle.xmf,772,-1.65505e-07,-7.54456e-06,0,4.93124e-06,-1.38597e+09,-1.38695e+09,-1.38594e+09,659061,0.0866322,-0.0943831,0,0.128114,14741.3,-48852.6,0,51028.2,-659061
step02_gravity_refstate-mantle.xmf,773,5.24922e-07,-8.47926e-06,0,4.71605e-06,-1.42408e+09,-1.42528e+09,-1.42415e+09,630301,0.0868814,-0.0910599,0,0.125858,14125.4,-50032.2,0,51988,-630301
step02_gravity_refstate-mantle.xmf,774,1.22597e-06,-9.37548e-06,0,4.36451e-06,-1.46297e+09,-1.46438e+09,-1.46313e+09,583317,0.0862381,-0.0858285,0,0.12167,13511.3,-51235.8,0,52987.4,-583317
step02_gravity_refstate-mantle.xmf,775,1.95354e-06,-1.02744e-05,0,3.90797e-06,-1.50238e+09,-1.50402e+09,-1.50265e+09,522300,0.0847225,-0.0791675,0,0.115954,12836.2,-52455.9,0,54003.7,-522300
step02_gravity_refstate-mantle.xmf,776,2.66099e-06,-1.11192e-05,0,3.34561e-06,-1.54278e+09,-1.54462e+09,-1.54313e+09,447141,0.0824706,-0.0704346,0,0.108455,12144,-53706.3,0,55062.1,-447141
step02_gravity_refstate-mantle.xmf,777,3.31964e-06,-1.18876e-05,0,2.71121e-06,-1.58347e+09,-1.5855e+09,-1.58391e+09,362353,0.0796653,-0.0597422,0,0.0995776,11448.7,-54965.6,0,56145.2,-362353
step02_gravity_refstate-mantle.xmf,778,4.83499e-06,-1.38464e-05,0,2.08942e-06,-1.61972e+09,-1.62221e+09,-1.62036e+09,279251,0.0708913,-0.0536713,0,0.0889168,9462.37,-56090.4,0,56883,-279251
step02_gravity_refstate-mantle.xmf,779,5.23752e-06,-1.42529e-05,0,1.39256e-06,-1.66033e+09,-1.66293e+09,-1.66103e+09,186115,0.0676213,-0.0375898,0,0.0773668,8936.53,-57346.6,0,58038.7,-186115
step02_gravity_refstate-mantle.xmf,780,5.69138e-06,-1.47506e-05,0,6.76791e-07,-1.70315e+09,-1.70589e+09,-1.70392e+09,90453.2,0.0635797,-0.0195383,0,0.0665141,8272.21,-58671.3,0,59251.6,-90453.2
step02_gravity_refstate-mantle.xmf,781,6.16164e-06,-1.52945e-05,0,-1.21023e-09,-1.74611e+09,-1.74898e+09,-1.74694e+09,-161.747,0.0590184,2.38e-19,0,0.0590184,7525.62,-60000,0,60470.1,-161.747
step02_gravity_refstate-mantle.xmf,782,-1.93396e-06,-2.00654e-06,0,2.56475e-06,-1.0993e+09,-1.09931e+09,-1.09905e+09,342779,0.0479305,-0.0640656,0,0.0800109,20734.8,-40000,0,45054.8,-342779
step02_gravity_refstate-mantle.xmf,783,-1.31514e-06,-5.75317e-06,0,4.86158e-06,-1.32214e+09,-1.32273e+09,-1.32197e+09,649750,0.0835633,-0.0936163,0,0.125486,16013.6,-46878,0,49537.6,-649750
step02_gravity_refstate-mantle.xmf,784,-2.42966e-06,-3.16092e-06,0,3.71707e-06,-1.22078e+09,-1.22088e+09,-1.22046e+09,496786,0.0699838,-0.0777113,0,0.104579,18616.6,-43746.1,0,47542.6,-496786
step02_gravity_refstate-mantle.xmf,785,3.92588e-06,-1.26254e-05,0,2.22213e-06,-1.61323e+09,-1.61544e+09,-1.61375e+09,296988,0.0765022,-0.0516437,0,0.092302,10717.4,-55887,0,56905.3,-296988
step02_gravity_refstate-mantle.xmf,786,-2.31117e-06,-1.86281e-06,0,2.45239e-06,-1.13865e+09,-1.13859e+09,-1.13834e+09,327762,0.0524297,-0.0548507,0,0.075878,21426.1,-41213.1,0,46449.9,-327762
step02_gravity_refstate-mantle.xmf,787,-2.51444e-06,-2.15566e-06,0,2.77744e-06,-1.17814e+09,-1.17809e+09,-1.1778e+09,371204,0.0595423,-0.059368,0,0.0840824,20704.6,-42430.9,0,47213,-371204
step02_gravity_refstate-mantle.xmf,788,-2.00178e-06,-1.69235e-06,0,2.19329e-06,-1.09929e+09,-1.09925e+09,-1.09903e+09,293133,0.0452508,-0.0507092,0,0.0679637,22097.7,-40000,0,45698,-293133
step02_gravity_refstate-mantle.xmf,789,-1.45356e-06,-5.4152e-06,0,4.35958e-06,-1.34746e+09,-1.34799e+09,-1.34727e+09,582658,0.0837245,-0.0809986,0,0.116493,16778.8,-47660.1,0,50527.4,-582658
step02_gravity_refstate-mantle.xmf,790,-1.86988e-06,-4.69387e-06,0,4.36877e-06,-1.30234e+09,-1.30272e+09,-1.30209e+09,583887,0.0805472,-0.0839112,0,0.116314,17171.2,-46265.2,0,49349,-583887
step02_gravity_refstate-mantle.xmf,791,-2.25923e-06,-3.78645e-06,0,4.02345e-06,-1.25963e+09,-1.25984e+09,-1.25933e+09,537734,0.0753859,-0.0801638,0,0.110042,18019.9,-44945.8,0,48423.6,-537734
step02_gravity_refstate-mantle.xmf,792,-2.59047e-06,-2.57311e-06,0,3.12231e-06,-1.21884e+09,-1.21884e+09,-1.2185e+09,417297,0.0663062,-0.0633686,0,0.0917175,19998.4,-43686.7,0,48046.5,-417297
step02_gravity_refstate-mantle.xmf,793,-9.08105e-07,-6.28485e-06,0,4.38569e-06,-1.38449e+09,-1.3852e+09,-1.38436e+09,586148,0.0858579,-0.0808556,0,0.117937,16119.7,-48805.1,0,51398.3,-586148
step02_gravity_refstate-mantle.xmf,794,-3.17725e-07,-7.13248e-06,0,4.25748e-06,-1.42273e+09,-1.42364e+09,-1.42269e+09,569012,0.0870142,-0.0785362,0,0.117215,15516.5,-49988.2,0,52341,-569012
step02_gravity_refstate-mantle.xmf,795,2.81299e-07,-7.93121e-06,0,3.98695e-06,-1.46193e+09,-1.46303e+09,-1.46197e+09,532855,0.0873298,-0.0741522,0,0.114565,14956.6,-51201.2,0,53341,-532855
step02_gravity_refstate-mantle.xmf,796,9.19672e-07,-8.75141e-06,0,3.62231e-06,-1.5016e+09,-1.50289e+09,-1.50172e+09,484121,0.0868867,-0.0685924,0,0.110699,14336.2,-52428.6,0,54353.3,-484121
step02_gravity_refstate-mantle.xmf,797,1.58072e-06,-9.57645e-06,0,3.16938e-06,-1.54136e+09,-1.54285e+09,-1.54157e+09,423588,0.08571,-0.061708,0,0.105613,13661.2,-53659.2,0,55370.9,-423588
step02_gravity_refstate-mantle.xmf,798,2.25167e-06,-1.03921e-05,0,2.61834e-06,-1.5826e+09,-1.58429e+09,-1.5829e+09,349941,0.0838277,-0.0528668,0,0.0991059,12937.1,-54935.4,0,56438.1,-349941
step02_gravity_refstate-mantle.xmf,799,2.99841e-06,-1.12921e-05,0,1.927e-06,-1.62856e+09,-1.63047e+09,-1.62896e+09,257544,0.0809824,-0.0409982,0,0.090769,12076.3,-56357.9,0,57637.3,-257544
step02_gravity_refstate-mantle.xmf,800,4.08324e-06,-1.27166e-05,0,1.56654e-06,-1.65199e+09,-1.65423e+09,-1.65253e+09,209368,0.0754431,-0.0368793,0,0.0839747,10592.2,-57085.1,0,58059.5,-209368
step02_gravity_refstate-mantle.xmf,801,4.51152e-06,-1.31756e-05,0,7.73011e-07,-1.69939e+09,-1.70175e+09,-1.69999e+09,103313,0.0725881,-0.0190382,0,0.0750433,10032.5,-58551,0,59404.3,-103313
step02_gravity_refstate-mantle.xmf,802,5.07424e-06,-1.38454e-05,0,1.31684e-09,-1.74623e+09,-1.74876e+09,-1.74691e+09,175.995,0.0685238,2.1762e-19,0,0.0685238,9217.14,-60000,0,60703.8,-175.995
step02_gravity_refstate-mantle.xmf,803,-2.39156e-06,-1.52398e-06,0,2.07107e-06,-1.13878e+09,-1.13867e+09,-1.13846e+09,276798,0.0491686,-0.0423945,0,0.0649219,22821.1,-41217.6,0,47113.6,-276798
step02_gravity_refstate-mantle.xmf,804,-2.53049e-06,-3.0816e-06,0,3.42892e-06,-1.25965e+09,-1.25972e+09,-1.25931e+09,458276,0.0721892,-0.066175,0,0.0979306,19357.4,-44946.2,0,48937.4,-458276
step02_gravity_refstate-mantle.xmf,805,-2.62243e-06,-1.73428e-06,0,2.32082e-06,-1.17885e+09,-1.17873e+09,-1.1785e+09,310178,0.055945,-0.0461731,0,0.0725382,22140.3,-42453.2,0,47879.7,-310178
step02_gravity_refstate-mantle.xmf,806,-2.74423e-06,-2.05397e-06,0,2.60443e-06,-1.21886e+09,-1.21877e+09,-1.2185e+09,348082,0.0624779,-0.0499728,0,0.0800048,21434.8,-43687.6,0,48662.7,-348082
step02_gravity_refstate-mantle.xmf,807,-2.08725e-06,-1.39464e-06,0,1.86469e-06,-1.09929e+09,-1.09919e+09,-1.09901e+09,249216,0.0423332,-0.0383448,0,0.0571176,23526.8,-40000,0,46405.9,-249216
step02_gravity_refstate-mantle.xmf,808,-1.54879e-06,-5.15599e-06,0,3.83367e-06,-1.38272e+09,-1.3832e+09,-1.38252e+09,512370,0.0840582,-0.0680218,0,0.108133,17535.5,-48749.3,0,51807.2,-512370
step02_gravity_refstate-mantle.xmf,809,-1.99294e-06,-4.38429e-06,0,3.78799e-06,-1.34143e+09,-1.34175e+09,-1.34117e+09,506265,0.0810236,-0.0683328,0,0.105992,18166.9,-47472.8,0,50830.2,-506265
step02_gravity_refstate-mantle.xmf,810,-2.31533e-06,-3.70835e-06,0,3.66772e-06,-1.29945e+09,-1.29964e+09,-1.29914e+09,490190,0.0770874,-0.0682206,0,0.102939,18726.1,-46175.5,0,49828.2,-490190
step02_gravity_refstate-mantle.xmf,811,-2.74384e-06,-2.47243e-06,0,2.88195e-06,-1.25783e+09,-1.25779e+09,-1.25746e+09,385172,0.0683683,-0.0533552,0,0.0867237,20743.2,-44890.2,0,49451.1,-385172
step02_gravity_refstate-mantle.xmf,812,-1.04465e-06,-5.93793e-06,0,3.79774e-06,-1.42007e+09,-1.42072e+09,-1.41993e+09,507568,0.0860265,-0.0671612,0,0.109138,16892.8,-49904.3,0,52685.9,-507568
step02_gravity_refstate-mantle.xmf,813,-5.33906e-07,-6.65232e-06,0,3.6128e-06,-1.45843e+09,-1.45925e+09,-1.45836e+09,482851,0.0871291,-0.0640653,0,0.108147,16344,-51090.9,0,53641.5,-482851
step02_gravity_refstate-mantle.xmf,814,-4.42864e-08,-7.28978e-06,0,3.25364e-06,-1.50178e+09,-1.50275e+09,-1.50178e+09,434849,0.0875733,-0.057814,0,0.104936,15906.2,-52431.7,0,54791.3,-434849
step02_gravity_refstate-mantle.xmf,815,5.67641e-07,-8.09548e-06,0,2.90694e-06,-1.54075e+09,-1.54191e+09,-1.54083e+09,388512,0.0873816,-0.0528006,0,0.102095,15212.8,-53637.3,0,55753,-388512
step02_gravity_refstate-mantle.xmf,816,1.19313e-06,-8.88851e-06,0,2.46174e-06,-1.5808e+09,-1.58215e+09,-1.58096e+09,329011,0.0865298,-0.0460026,0,0.0979982,14494.9,-54876.7,0,56758.7,-329011
step02_gravity_refstate-mantle.xmf,817,1.80751e-06,-9.65351e-06,0,1.96261e-06,-1.6194e+09,-1.62093e+09,-1.61964e+09,262303,0.0851101,-0.0379994,0,0.0932077,13757.4,-56071.1,0,57734.1,-262303
step02_gravity_refstate-mantle.xmf,818,3.20548e-06,-1.14246e-05,0,9.20617e-07,-1.69006e+09,-1.69201e+09,-1.69049e+09,123040,0.0798796,-0.0198404,0,0.0823067,11905.3,-58258.6,0,59462.6,-123040
step02_gravity_refstate-mantle.xmf,819,3.91066e-06,-1.22781e-05,0,5.1994e-09,-1.74635e+09,-1.74851e+09,-1.74687e+09,694.9,0.0762053,1.97147e-19,0,0.0762053,10927.1,-60000,0,60986.9,-694.9
step02_gravity_refstate-mantle.xmf,820,-2.48963e-06,-1.20734e-06,0,1.7347e-06,-1.13991e+09,-1.13974e+09,-1.13958e+09,231843,0.0457375,-0.0308767,0,0.0551841,24284.9,-41252.7,0,47870,-231843
step02_gravity_refstate-mantle.xmf,821,-2.72766e-06,-1.36037e-06,0,1.93015e-06,-1.17939e+09,-1.1792e+09,-1.17902e+09,257965,0.0520996,-0.0343965,0,0.0624299,23601.4,-42470.1,0,48587.3,-257965
step02_gravity_refstate-mantle.xmf,822,-2.63287e-06,-2.9561e-06,0,3.10256e-06,-1.29783e+09,-1.29787e+09,-1.29748e+09,414657,0.0734862,-0.0553965,0,0.0920272,20131.2,-46125.3,0,50327,-414657
step02_gravity_refstate-mantle.xmf,823,2.28755e-06,-1.02271e-05,0,1.39539e-06,-1.65822e+09,-1.65989e+09,-1.65853e+09,186494,0.0836168,-0.0278373,0,0.0881288,13183.4,-57272.1,0,58769.8,-186494
step02_gravity_refstate-mantle.xmf,824,-2.19594e-06,-1.10886e-06,0,1.57148e-06,-1.09929e+09,-1.09914e+09,-1.09899e+09,210029,0.039136,-0.026999,0,0.0475455,25025.6,-40000,0,47183.5,-210029
step02_gravity_refstate-mantle.xmf,825,-2.29061e-06,-8.49477e-07,0,1.30913e-06,-1.09929e+09,-1.09909e+09,-1.09898e+09,174965,0.0356218,-0.0167043,0,0.0393439,26597.7,-40000,0,48035.8,-174965
step02_gravity_refstate-mantle.xmf,826,-2.60484e-06,-8.99935e-07,0,1.43269e-06,-1.14046e+09,-1.14023e+09,-1.14011e+09,191479,0.0418305,-0.0202407,0,0.0464701,25846.6,-41269.5,0,48695.2,-191479
step02_gravity_refstate-mantle.xmf,827,-2.88424e-06,-1.60514e-06,0,2.163e-06,-1.21957e+09,-1.2194e+09,-1.21918e+09,289085,0.0584686,-0.0380122,0,0.0697388,22886.3,-43709.7,0,49338.8,-289085
step02_gravity_refstate-mantle.xmf,828,-2.9345e-06,-1.94183e-06,0,2.40586e-06,-1.25858e+09,-1.25845e+09,-1.25819e+09,321543,0.0643952,-0.0414609,0,0.0765882,22167.8,-44913.6,0,50086.3,-321543
step02_gravity_refstate-mantle.xmf,829,-1.64676e-06,-4.91074e-06,0,3.32885e-06,-1.41961e+09,-1.42005e+09,-1.41939e+09,444901,0.0841783,-0.0563251,0,0.101284,18255.6,-49888.8,0,53124,-444901
step02_gravity_refstate-mantle.xmf,830,-2.08859e-06,-4.16464e-06,0,3.29657e-06,-1.38164e+09,-1.38192e+09,-1.38136e+09,440586,0.0813875,-0.05596,0,0.0987697,18977.9,-48714.8,0,52280.9,-440586
step02_gravity_refstate-mantle.xmf,831,-2.41444e-06,-3.52918e-06,0,3.22691e-06,-1.34169e+09,-1.34184e+09,-1.34137e+09,431277,0.0779331,-0.0557694,0,0.0958322,19576.5,-47480.1,0,51357.6,-431277
step02_gravity_refstate-mantle.xmf,832,-2.87048e-06,-2.34208e-06,0,2.6381e-06,-1.2907e+09,-1.29063e+09,-1.29032e+09,352583,0.0693021,-0.0450469,0,0.0826559,21443.2,-45905.1,0,50666.4,-352583
step02_gravity_refstate-mantle.xmf,833,-1.19026e-06,-5.61428e-06,0,3.31496e-06,-1.45004e+09,-1.45064e+09,-1.44989e+09,443045,0.0859256,-0.05646,0,0.102815,17576.6,-50830.1,0,53783.2,-443045
step02_gravity_refstate-mantle.xmf,834,-3.72858e-07,-6.69167e-06,0,2.60412e-06,-1.53941e+09,-1.54026e+09,-1.53936e+09,348041,0.0875348,-0.0442808,0,0.0980976,16810.1,-53593.3,0,56167.8,-348041
step02_gravity_refstate-mantle.xmf,835,-9.92997e-07,-5.84698e-06,0,2.91893e-06,-1.49281e+09,-1.49345e+09,-1.49267e+09,390115,0.0866213,-0.0487884,0,0.0994161,17590.4,-52151.7,0,55038.3,-390115
step02_gravity_refstate-mantle.xmf,836,2.06287e-07,-7.45198e-06,0,2.22286e-06,-1.58126e+09,-1.58228e+09,-1.58129e+09,297085,0.0876412,-0.0386515,0,0.0957858,16086.7,-54887.9,0,57196.7,-297085
step02_gravity_refstate-mantle.xmf,837,8.00579e-07,-8.21861e-06,0,1.79121e-06,-1.62072e+09,-1.62193e+09,-1.62083e+09,239396,0.087135,-0.0321138,0,0.0928644,15315.5,-56108.9,0,58161.6,-239396
step02_gravity_refstate-mantle.xmf,838,1.37022e-06,-8.94075e-06,0,1.30402e-06,-1.65895e+09,-1.66033e+09,-1.65914e+09,174282,0.0861345,-0.0241895,0,0.0894666,14561.6,-57291.9,0,59113.5,-174282
step02_gravity_refstate-mantle.xmf,839,2.01305e-06,-9.75598e-06,0,7.20307e-07,-1.70002e+09,-1.7016e+09,-1.70029e+09,96269.1,0.0844445,-0.0139912,0,0.0855957,13672.6,-58562.7,0,60137.6,-96269.1
step02_gravity_refstate-mantle.xmf,840,2.71582e-06,-1.0646e-05,0,4.75661e-09,-1.74647e+09,-1.74826e+09,-1.74684e+09,635.72,0.0819539,1.26684e-19,0,0.0819539,12661.1,-60000,0,61321.3,-635.72
step02_gravity_refstate-mantle.xmf,841,-2.72182e-06,-6.34112e-07,0,1.1736e-06,-1.14419e+09,-1.14391e+09,-1.14383e+09,156852,0.0380141,-0.0109748,0,0.0395666,27422.4,-41384.7,0,49645.6,-156852
step02_gravity_refstate-mantle.xmf,842,-2.40324e-06,-6.02902e-07,0,1.07402e-06,-1.09929e+09,-1.09905e+09,-1.09897e+09,143543,0.031753,-0.00750145,0,0.032627,28247.1,-40000,0,48968.3,-143543
step02_gravity_refstate-mantle.xmf,843,-2.83864e-06,-1.01458e-06,0,1.58686e-06,-1.18026e+09,-1.18002e+09,-1.17988e+09,212083,0.0479108,-0.023593,0,0.0534048,25140.3,-42497.2,0,49376.6,-212083
step02_gravity_refstate-mantle.xmf,844,-3.01523e-06,-1.19763e-06,0,1.77518e-06,-1.21988e+09,-1.21964e+09,-1.21948e+09,237253,0.0540165,-0.0270929,0,0.0604302,24406.2,-43719.5,0,50070.6,-237253
step02_gravity_refstate-mantle.xmf,845,-2.85128e-06,-2.59222e-06,0,2.63765e-06,-1.3348e+09,-1.33476e+09,-1.33442e+09,352522,0.0728476,-0.0424687,0,0.0843229,21341.3,-47266.7,0,51861.3,-352522
step02_gravity_refstate-mantle.xmf,846,-2.95346e-06,-7.03284e-07,0,1.29773e-06,-1.18055e+09,-1.18025e+09,-1.18016e+09,173441,0.0434644,-0.014247,0,0.0457399,26688.1,-42506.2,0,50190,-173441
step02_gravity_refstate-mantle.xmf,847,-2.86549e-06,-3.71977e-07,0,9.39e-07,-1.14948e+09,-1.14914e+09,-1.14909e+09,125497,0.0337474,-0.00261753,0,0.0338487,29112.3,-41547.7,0,50732.1,-125497
step02_gravity_refstate-mantle.xmf,848,-2.52529e-06,-3.73282e-07,0,8.64605e-07,-1.0993e+09,-1.09901e+09,-1.09896e+09,115555,0.0274977,0.000559254,0,0.0275034,29977.6,-40000,0,49986.5,-115555
step02_gravity_refstate-mantle.xmf,849,-2.63102e-06,-1.75184e-07,0,6.71759e-07,-1.0993e+09,-1.09898e+09,-1.09895e+09,89780.6,0.0228304,0.00741471,0,0.0240043,31793.3,-40000,0,51096.1,-89780.6
step02_gravity_refstate-mantle.xmf,850,-2.98352e-06,-1.43298e-07,0,7.40227e-07,-1.15091e+09,-1.15053e+09,-1.15051e+09,98931.4,0.0288505,0.0042936,0,0.0291683,30824.9,-41591.7,0,51769.1,-98931.4
step02_gravity_refstate-mantle.xmf,851,-2.72424e-06,-8.81779e-09,0,4.93851e-07,-1.09931e+09,-1.09895e+09,-1.09895e+09,66003.1,0.0177385,0.0129842,0,0.0219828,33698.8,-40000,0,52303,-66003.1
step02_gravity_refstate-mantle.xmf,852,-3.07272e-06,5.36586e-08,0,5.49192e-07,-1.15067e+09,-1.15025e+09,-1.15026e+09,73399.5,0.0230743,0.0103957,0,0.025308,32733.7,-41584.3,0,52922.1,-73399.5
step02_gravity_refstate-mantle.xmf,853,-3.11217e-06,-1.83054e-06,0,2.18857e-06,-1.30306e+09,-1.30289e+09,-1.30264e+09,292503,0.0660087,-0.033711,0,0.0741187,22870.9,-46286.5,0,51628.7,-292503
step02_gravity_refstate-mantle.xmf,854,-3.10839e-06,-1.46303e-06,0,1.97934e-06,-1.25931e+09,-1.25909e+09,-1.25889e+09,264539,0.0599502,-0.0305247,0,0.067274,23660.3,-44936.1,0,50784.5,-264539
step02_gravity_refstate-mantle.xmf,855,-1.69073e-06,-4.77396e-06,0,2.87117e-06,-1.4593e+09,-1.45971e+09,-1.45907e+09,383731,0.0843693,-0.0465202,0,0.0963447,18800.3,-51114.6,0,54462.4,-383731
step02_gravity_refstate-mantle.xmf,856,-2.18289e-06,-3.96608e-06,0,2.84903e-06,-1.42148e+09,-1.42171e+09,-1.42118e+09,380773,0.0814823,-0.0455991,0,0.0933737,19695.4,-49945.2,0,53688.3,-380773
step02_gravity_refstate-mantle.xmf,857,-2.55952e-06,-3.26783e-06,0,2.78091e-06,-1.38059e+09,-1.38069e+09,-1.38025e+09,371669,0.0778162,-0.0445388,0,0.0896608,20492.2,-48681.6,0,52818.8,-371669
step02_gravity_refstate-mantle.xmf,858,-6.72788e-07,-6.14719e-06,0,1.97356e-06,-1.58112e+09,-1.58185e+09,-1.58103e+09,263767,0.0872755,-0.0320365,0,0.0929696,17653.1,-54881,0,57650.3,-263767
step02_gravity_refstate-mantle.xmf,859,-1.21493e-06,-5.40486e-06,0,2.28233e-06,-1.53799e+09,-1.53855e+09,-1.53783e+09,305034,0.0862405,-0.0362498,0,0.0935493,18428.6,-53547,0,56629.5,-305034
step02_gravity_refstate-mantle.xmf,860,-1.30718e-07,-6.86171e-06,0,1.57617e-06,-1.62355e+09,-1.62445e+09,-1.62354e+09,210656,0.0876578,-0.0262637,0,0.0915078,16889.6,-56193.6,0,58676.9,-210656
step02_gravity_refstate-mantle.xmf,861,4.00401e-07,-7.55386e-06,0,1.17117e-06,-1.66043e+09,-1.66149e+09,-1.66048e+09,156527,0.0875103,-0.0201374,0,0.0897974,16119.1,-57334.5,0,59557.3,-156527
step02_gravity_refstate-mantle.xmf,862,9.37491e-07,-8.23961e-06,0,6.36834e-07,-1.70198e+09,-1.70321e+09,-1.70211e+09,85112.9,0.0868985,-0.011351,0,0.0876367,15338.8,-58619.9,0,60593.5,-85112.9
step02_gravity_refstate-mantle.xmf,863,1.54017e-06,-9.01319e-06,0,5.4259e-09,-1.74659e+09,-1.748e+09,-1.7468e+09,725.171,0.0857096,1.04883e-19,0,0.0857096,14424.9,-60000,0,61709.6,-725.171
step02_gravity_refstate-mantle.xmf,864,-3.02351e-06,-4.53633e-07,0,1.06062e-06,-1.17782e+09,-1.17748e+09,-1.17742e+09,141752,0.0387955,-0.00658971,0,0.0393511,28175.2,-42422.2,0,50926.2,-141752
step02_gravity_refstate-mantle.xmf,865,-2.80014e-06,1.20024e-07,0,3.26537e-07,-1.09932e+09,-1.09893e+09,-1.09894e+09,43641.6,0.0122218,0.0171621,0,0.0210692,35698.5,-40000,0,53613.3,-43641.6
step02_gravity_refstate-mantle.xmf,866,-3.14954e-06,2.08361e-07,0,3.83245e-07,-1.15106e+09,-1.15061e+09,-1.15064e+09,51220.7,0.0170797,0.0150115,0,0.0227389,34670.1,-41596.3,0,54150.5,-51220.7
step02_gravity_refstate-mantle.xmf,867,-3.14906e-06,-8.24718e-07,0,1.4343e-06,-1.22137e+09,-1.22106e+09,-1.22095e+09,191694,0.0491955,-0.017095,0,0.0520811,26014.6,-43765.4,0,50913.4,-191694
step02_gravity_refstate-mantle.xmf,868,-3.28083e-06,-1.02001e-06,0,1.59714e-06,-1.26224e+09,-1.26194e+09,-1.2618e+09,213457,0.0550333,-0.0202037,0,0.0586247,25277,-45026.6,0,51636.4,-213457
step02_gravity_refstate-mantle.xmf,869,-3.1371e-06,-2.00118e-06,0,2.15645e-06,-1.34709e+09,-1.34694e+09,-1.34667e+09,288210,0.069142,-0.0312613,0,0.0758807,22846.7,-47645.9,0,52840.4,-288210
step02_gravity_refstate-mantle.xmf,870,-1.741e-06,-4.63071e-06,0,2.41601e-06,-1.50111e+09,-1.5015e+09,-1.50088e+09,322899,0.0844244,-0.0374738,0,0.0923675,19296.2,-52406.4,0,55846,-322899
step02_gravity_refstate-mantle.xmf,871,-2.86737e-06,2.3056e-07,0,2.78225e-09,-1.09932e+09,-1.09891e+09,-1.09894e+09,371.847,-4.33481e-19,0.0207433,-0,0.0207433,40000,-40000,0,56568.5,-371.847
step02_gravity_refstate-mantle.xmf,872,-2.8506e-06,2.03594e-07,0,1.63458e-07,-1.09932e+09,-1.09891e+09,-1.09894e+09,21846.2,0.00629562,0.0198101,0,0.0207864,37797.2,-40000,0,55033,-21846.2
step02_gravity_refstate-mantle.xmf,873,-3.19397e-06,3.56863e-07,0,9.96624e-08,-1.14609e+09,-1.14562e+09,-1.14566e+09,13319.9,0.00461466,0.0199295,0,0.0204568,38557.3,-41442.8,0,56605.4,-13319.9
step02_gravity_refstate-mantle.xmf,874,-3.28177e-06,3.48924e-07,0,2.2064e-07,-1.16174e+09,-1.16125e+09,-1.1613e+09,29488.5,0.0108359,0.0181695,0,0.0211553,36715.3,-41925.6,0,55729.4,-29488.5
step02_gravity_refstate-mantle.xmf,875,-3.26953e-06,-4.86604e-07,0,1.14228e-06,-1.21978e+09,-1.2194e+09,-1.21934e+09,152666,0.043745,-0.00838882,0,0.0445421,27674.5,-43716.3,0,51739.7,-152666
step02_gravity_refstate-mantle.xmf,876,-3.29069e-06,-1.93848e-07,0,8.7101e-07,-1.20356e+09,-1.20315e+09,-1.20312e+09,116411,0.036285,-0.000128106,0,0.0362852,29590.4,-43216,0,52375.7,-116411
step02_gravity_refstate-mantle.xmf,877,-3.39866e-06,8.14934e-08,0,6.26347e-07,-1.20323e+09,-1.20277e+09,-1.20278e+09,83711.3,0.0290658,0.00742562,0,0.0299994,31750.5,-43205.8,0,53617.5,-83711.3
step02_gravity_refstate-mantle.xmf,878,-3.46846e-06,2.68929e-07,0,4.47e-07,-1.20158e+09,-1.20109e+09,-1.20112e+09,59741.5,0.0223601,0.0125435,0,0.0256381,33685.3,-43155,0,54745.3,-59741.5
step02_gravity_refstate-mantle.xmf,879,-3.29503e-06,-1.30776e-06,0,1.79504e-06,-1.29449e+09,-1.29423e+09,-1.29405e+09,239907,0.0604584,-0.0242645,0,0.0651459,24400.2,-46022.1,0,52090.3,-239907
step02_gravity_refstate-mantle.xmf,880,-3.36395e-06,-1.44329e-06,0,1.80715e-06,-1.33615e+09,-1.33589e+09,-1.3357e+09,241526,0.0638675,-0.0233525,0,0.0680029,24254.1,-47308,0,53163,-241526
step02_gravity_refstate-mantle.xmf,881,-2.96423e-06,-2.46087e-06,0,2.30541e-06,-1.38052e+09,-1.38046e+09,-1.38013e+09,308118,0.0734253,-0.0338182,0,0.080839,22080.5,-48678.8,0,53452.5,-308118
step02_gravity_refstate-mantle.xmf,882,-2.26931e-06,-3.7908e-06,0,2.41288e-06,-1.46412e+09,-1.46433e+09,-1.46382e+09,322481,0.0814544,-0.0364271,0,0.0892287,20337.5,-51262.4,0,55149.3,-322481
step02_gravity_refstate-mantle.xmf,883,-2.69035e-06,-3.04541e-06,0,2.36713e-06,-1.42301e+09,-1.42306e+09,-1.42265e+09,316367,0.0776099,-0.035006,0,0.0851394,21307.3,-49991.5,0,54342.9,-316367
step02_gravity_refstate-mantle.xmf,884,-1.96428e-06,-4.21824e-06,0,1.9376e-06,-1.53828e+09,-1.53858e+09,-1.53802e+09,258960,0.0835648,-0.0283711,0,0.0882496,20113.6,-53554.1,0,57206.7,-258960
step02_gravity_refstate-mantle.xmf,885,-9.83172e-07,-5.60151e-06,0,1.36476e-06,-1.62537e+09,-1.62599e+09,-1.62524e+09,182400,0.0867697,-0.0211196,0,0.089303,18485.5,-56247.3,0,59207,-182400
step02_gravity_refstate-mantle.xmf,886,-1.4888e-06,-4.90939e-06,0,1.71239e-06,-1.58047e+09,-1.58092e+09,-1.58027e+09,228860,0.0854968,-0.0257503,0,0.0892904,19293.6,-54858.6,0,58152.4,-228860
step02_gravity_refstate-mantle.xmf,887,-4.75803e-07,-6.2776e-06,0,1.07433e-06,-1.65849e+09,-1.65927e+09,-1.65843e+09,143584,0.08745,-0.0171263,0,0.0891112,17657.7,-57272,0,59932.3,-143584
step02_gravity_refstate-mantle.xmf,888,-8.79754e-08,-6.7741e-06,0,6.06921e-07,-1.69924e+09,-1.70014e+09,-1.69923e+09,81115,0.0876271,-0.00993142,0,0.0881881,17046.9,-58532.2,0,60964.1,-81115
step02_gravity_refstate-mantle.xmf,889,4.16598e-07,-7.42567e-06,0,5.81036e-09,-1.74671e+09,-1.74775e+09,-1.74676e+09,776.555,0.0874696,9.4764e-20,0,0.0874696,16224.1,-60000,0,62154.8,-776.555
step02_gravity_refstate-mantle.xmf,890,-3.35485e-06,4.3495e-07,0,2.74426e-09,-1.16751e+09,-1.167e+09,-1.16706e+09,366.77,-5.56201e-19,0.0200451,-0,0.0200451,40000,-42103.5,0,58075,-366.77
step02_gravity_refstate-mantle.xmf,891,-3.50789e-06,3.84535e-07,0,3.14536e-07,-1.1998e+09,-1.19928e+09,-1.19933e+09,42037.7,0.0165949,0.0157551,0,0.0228826,35322.3,-43099.8,0,55724.8,-42037.7
step02_gravity_refstate-mantle.xmf,892,-3.45109e-06,-6.26096e-07,0,1.26987e-06,-1.26699e+09,-1.26661e+09,-1.26653e+09,169718,0.0497949,-0.0111572,0,0.0510296,26941.6,-45173.2,0,52597.2,-169718
step02_gravity_refstate-mantle.xmf,893,-3.53938e-06,-9.09343e-07,0,1.45504e-06,-1.31725e+09,-1.3169e+09,-1.31678e+09,194466,0.0569159,-0.0151346,0,0.0588938,25908.5,-46724.4,0,53426.8,-194466
step02_gravity_refstate-mantle.xmf,894,-3.30351e-06,-1.7734e-06,0,1.87992e-06,-1.38089e+09,-1.38069e+09,-1.38045e+09,251251,0.0684126,-0.0243126,0,0.0726044,23686.6,-48689.7,0,54145.6,-251251
step02_gravity_refstate-mantle.xmf,895,-2.35418e-06,-3.60799e-06,0,2.04266e-06,-1.50265e+09,-1.50282e+09,-1.50233e+09,273002,0.081233,-0.0291858,0,0.0863169,20871.6,-52452.4,0,56452.4,-273002
step02_gravity_refstate-mantle.xmf,896,-3.58497e-06,5.20034e-07,0,1.06614e-07,-1.20276e+09,-1.20221e+09,-1.20228e+09,14249,0.00586016,0.0190578,0,0.0199385,38366.5,-43191.2,0,57770.8,-14249
step02_gravity_refstate-mantle.xmf,897,-3.58722e-06,-2.43694e-07,0,9.71831e-07,-1.26274e+09,-1.26229e+09,-1.26226e+09,129885,0.0428936,-0.00281196,0,0.0429857,28822.1,-45041.8,0,53474.1,-129885
step02_gravity_refstate-mantle.xmf,898,-3.6893e-06,6.66695e-08,0,7.18899e-07,-1.25853e+09,-1.25803e+09,-1.25804e+09,96080.8,0.0354491,0.00434668,0,0.0357146,30804.8,-44912,0,54461.2,-96080.8
step02_gravity_refstate-mantle.xmf,899,-3.76783e-06,5.53465e-07,0,2.08718e-07,-1.23434e+09,-1.23376e+09,-1.23383e+09,27895.2,0.0125205,0.0171332,0,0.0212205,36690.9,-44165.4,0,57417.8,-27895.2
step02_gravity_refstate-mantle.xmf,900,-3.7683e-06,3.10211e-07,0,5.11689e-07,-1.2543e+09,-1.25376e+09,-1.2538e+09,68387.3,0.0276906,0.0100797,0,0.0294681,32835.2,-44781.6,0,55529.6,-68387.3
step02_gravity_refstate-mantle.xmf,901,-3.82118e-06,4.81613e-07,0,3.45334e-07,-1.25043e+09,-1.24985e+09,-1.24992e+09,46153.9,0.0201078,0.0142006,0,0.0246167,34799.9,-44662,0,56619.1,-46153.9
step02_gravity_refstate-mantle.xmf,902,-3.58903e-06,-1.15622e-06,0,1.50845e-06,-1.37465e+09,-1.37433e+09,-1.37417e+09,201604,0.0622453,-0.0159238,0,0.0642499,25377.9,-48496.5,0,54735.2,-201604
step02_gravity_refstate-mantle.xmf,903,-3.12364e-06,-2.23152e-06,0,1.94281e-06,-1.42497e+09,-1.42485e+09,-1.42455e+09,259656,0.0729368,-0.0255968,0,0.077298,22942.3,-50051.2,0,55058.8,-259656
step02_gravity_refstate-mantle.xmf,904,-2.81878e-06,-2.83182e-06,0,1.9179e-06,-1.47649e+09,-1.47649e+09,-1.47611e+09,256327,0.077408,-0.0259532,0,0.0816429,22075.8,-51643.2,0,56163.7,-256327
step02_gravity_refstate-mantle.xmf,905,-2.61372e-06,-3.16958e-06,0,1.67923e-06,-1.52934e+09,-1.52942e+09,-1.52899e+09,224429,0.0795857,-0.0223704,0,0.0826699,21776.3,-53276.3,0,57554.9,-224429
step02_gravity_refstate-mantle.xmf,906,-2.23262e-06,-3.75012e-06,0,1.44775e-06,-1.57971e+09,-1.57991e+09,-1.57941e+09,193492,0.0822745,-0.0197787,0,0.0846185,21019.2,-54833.2,0,58723.8,-193492
step02_gravity_refstate-mantle.xmf,907,-1.12238e-06,-5.30275e-06,0,6.91105e-07,-1.68325e+09,-1.68381e+09,-1.6831e+09,92366.2,0.0864722,-0.0103938,0,0.0870946,18933.3,-58035.1,0,61045.4,-92366.2
step02_gravity_refstate-mantle.xmf,908,-1.75481e-06,-4.4318e-06,0,1.12808e-06,-1.63048e+09,-1.63084e+09,-1.63024e+09,150767,0.0845662,-0.0159948,0,0.0860655,20113.9,-56402.9,0,59882,-150767
step02_gravity_refstate-mantle.xmf,909,-6.28072e-07,-5.92143e-06,0,8.94801e-09,-1.74681e+09,-1.74751e+09,-1.74672e+09,1195.9,0.0872691,8.77297e-20,0,0.0872691,18064.5,-60000,0,62660.4,-1195.9
step02_gravity_refstate-mantle.xmf,910,-3.81209e-06,6.34385e-07,0,3.17071e-09,-1.23623e+09,-1.23564e+09,-1.23572e+09,423.766,-6.75742e-19,0.0189122,-0,0.0189122,40000,-44223.8,0,59630.1,-423.766
step02_gravity_refstate-mantle.xmf,911,-3.74949e-06,-3.99432e-07,0,1.08745e-06,-1.31645e+09,-1.316e+09,-1.31595e+09,145338,0.0493524,-0.00575305,0,0.0496866,27970.2,-46699.6,0,54435.2,-145338
step02_gravity_refstate-mantle.xmf,912,-3.48797e-06,-1.52831e-06,0,1.58049e-06,-1.42226e+09,-1.422e+09,-1.4218e+09,211232,0.0673679,-0.0176423,0,0.0696397,24590.6,-49966.9,0,55690.1,-211232
step02_gravity_refstate-mantle.xmf,913,-4.01322e-06,7.06122e-07,0,1.11549e-07,-1.27066e+09,-1.27003e+09,-1.27013e+09,14908.5,0.00708439,0.0177005,0,0.0190656,38235.3,-45286.3,0,59268.8,-14908.5
step02_gravity_refstate-mantle.xmf,914,-3.90182e-06,-2.55125e-09,0,8.11893e-07,-1.31108e+09,-1.31056e+09,-1.31056e+09,108510,0.0414876,0.00151651,0,0.0415153,29950.9,-46533.8,0,55339.4,-108510
step02_gravity_refstate-mantle.xmf,915,-4.02007e-06,2.99981e-07,0,5.88926e-07,-1.30901e+09,-1.30843e+09,-1.30847e+09,78710,0.0336021,0.00728685,0,0.0343832,31922.4,-46469.6,0,56377.9,-78710
step02_gravity_refstate-mantle.xmf,916,-4.18087e-06,7.1003e-07,0,2.37526e-07,-1.30554e+09,-1.30489e+09,-1.30498e+09,31745.3,0.0158455,0.0152279,0,0.0219766,36227.9,-46362.5,0,58838.3,-31745.3
step02_gravity_refstate-mantle.xmf,917,-4.11618e-06,5.36625e-07,0,4.03424e-07,-1.30802e+09,-1.3074e+09,-1.30747e+09,53917.6,0.025294,0.0117926,0,0.0279079,33960.8,-46439.2,0,57532,-53917.6
step02_gravity_refstate-mantle.xmf,918,-3.8254e-06,-6.24916e-07,0,1.18587e-06,-1.37013e+09,-1.36971e+09,-1.36962e+09,158491,0.0554859,-0.00831198,0,0.0561051,27136.7,-48356.8,0,55450.7,-158491
step02_gravity_refstate-mantle.xmf,919,-3.79644e-06,-9.23475e-07,0,1.25347e-06,-1.42056e+09,-1.42018e+09,-1.42006e+09,167527,0.0610331,-0.0104167,0,0.0619157,26308.9,-49914,0,56423.1,-167527
step02_gravity_refstate-mantle.xmf,920,-3.30092e-06,-1.96025e-06,0,1.57797e-06,-1.46934e+09,-1.46916e+09,-1.46889e+09,210896,0.0717861,-0.0184619,0,0.0741221,23834.5,-51421.2,0,56676.5,-210896
step02_gravity_refstate-mantle.xmf,921,-3.15153e-06,-2.27026e-06,0,1.41154e-06,-1.52367e+09,-1.52355e+09,-1.52324e+09,188652,0.0746764,-0.0164907,0,0.0764755,23433.3,-53099.7,0,58040.4,-188652
step02_gravity_refstate-mantle.xmf,922,-2.88074e-06,-2.71584e-06,0,1.21567e-06,-1.57603e+09,-1.57601e+09,-1.57564e+09,162474,0.0777333,-0.0146309,0,0.0790982,22773.2,-54717.8,0,59267.7,-162474
step02_gravity_refstate-mantle.xmf,923,-2.51307e-06,-3.26004e-06,0,9.37091e-07,-1.63015e+09,-1.63025e+09,-1.62982e+09,125242,0.080666,-0.0117852,0,0.0815223,21939.6,-56390.7,0,60508.4,-125242
step02_gravity_refstate-mantle.xmf,924,-2.06131e-06,-3.88677e-06,0,5.39628e-07,-1.68699e+09,-1.68723e+09,-1.68672e+09,72121.3,0.0832482,-0.00716626,0,0.083556,20965.7,-58147.9,0,61812.1,-72121.3
step02_gravity_refstate-mantle.xmf,925,-1.58251e-06,-4.51593e-06,0,5.25667e-09,-1.7469e+09,-1.74729e+09,-1.74669e+09,702.554,0.0851862,4.06364e-20,0,0.0851862,19951.6,-60000,0,63230.3,-702.554
step02_gravity_refstate-mantle.xmf,926,-4.22359e-06,8.20806e-07,0,3.42409e-09,-1.30566e+09,-1.30499e+09,-1.3051e+09,457.629,-7.50667e-19,0.0173535,-0,0.0173535,40000,-46366.4,0,61235.9,-457.629
step02_gravity_refstate-mantle.xmf,927,-4.03545e-06,-1.5678e-07,0,8.96975e-07,-1.36896e+09,-1.36844e+09,-1.36842e+09,119881,0.047916,-0.00132923,0,0.0479344,29048,-48320.3,0,56379.5,-119881
step02_gravity_refstate-mantle.xmf,928,-3.66986e-06,-1.27698e-06,0,1.30321e-06,-1.46063e+09,-1.46031e+09,-1.46014e+09,174174,0.0657819,-0.0123155,0,0.0669248,25465.4,-51151.5,0,57139.9,-174174
step02_gravity_refstate-mantle.xmf,929,-4.39074e-06,8.7744e-07,0,1.06214e-07,-1.3396e+09,-1.3389e+09,-1.33901e+09,14195.5,0.00783747,0.016005,0,0.0178209,38216,-47413.6,0,60897.6,-14195.5
step02_gravity_refstate-mantle.xmf,930,-4.20615e-06,2.27553e-07,0,6.6454e-07,-1.36643e+09,-1.36584e+09,-1.36587e+09,88815.8,0.039811,0.00440261,0,0.0400537,30990.4,-48242,0,57338.4,-88815.8
step02_gravity_refstate-mantle.xmf,931,-4.33541e-06,5.24929e-07,0,4.69787e-07,-1.36517e+09,-1.36452e+09,-1.36459e+09,62787.1,0.0313059,0.00896388,0,0.0325639,32975.4,-48203,0,58402.9,-62787.1
step02_gravity_refstate-mantle.xmf,932,-4.43153e-06,7.43053e-07,0,3.10463e-07,-1.36482e+09,-1.36413e+09,-1.36423e+09,41493.4,0.0225606,0.0123106,0,0.0257008,34972.5,-48192.2,0,59544.6,-41493.4
step02_gravity_refstate-mantle.xmf,933,-4.06294e-06,-3.89806e-07,0,9.67888e-07,-1.4212e+09,-1.42071e+09,-1.42066e+09,129358,0.0539571,-0.00395336,0,0.0541017,28116,-49933.3,0,57304.8,-129358
step02_gravity_refstate-mantle.xmf,934,-3.9751e-06,-7.33541e-07,0,1.02349e-06,-1.47014e+09,-1.4697e+09,-1.46961e+09,136790,0.0600098,-0.00649639,0,0.0603605,27061.6,-51444.6,0,58128.1,-136790
step02_gravity_refstate-mantle.xmf,935,-3.6909e-06,-1.34241e-06,0,1.10996e-06,-1.51702e+09,-1.5167e+09,-1.51652e+09,148346,0.0674364,-0.00991795,0,0.0681618,25498.5,-52893,0,58718.3,-148346
step02_gravity_refstate-mantle.xmf,936,-3.45374e-06,-1.77443e-06,0,9.79338e-07,-1.57373e+09,-1.57351e+09,-1.57327e+09,130888,0.0717622,-0.00961303,0,0.0724032,24645.3,-54645.5,0,59945.9,-130888
step02_gravity_refstate-mantle.xmf,937,-3.16896e-06,-2.2218e-06,0,7.64776e-07,-1.62872e+09,-1.6286e+09,-1.6283e+09,102212,0.0753371,-0.00808924,0,0.0757701,23809.9,-56344.9,0,61169.1,-102212
step02_gravity_refstate-mantle.xmf,938,-2.82748e-06,-2.70555e-06,0,4.40199e-07,-1.68668e+09,-1.68666e+09,-1.6863e+09,58832.6,0.078483,-0.00500424,0,0.0786424,22914.1,-58136.1,0,62488.9,-58832.6
step02_gravity_refstate-mantle.xmf,939,-2.42341e-06,-3.24344e-06,0,4.659e-09,-1.74697e+09,-1.74708e+09,-1.74665e+09,622.675,0.0813034,1.91721e-20,0,0.0813034,21891.2,-60000,0,63868.8,-622.675
step02_gravity_refstate-mantle.xmf,940,-4.57882e-06,9.89906e-07,0,4.34683e-09,-1.37599e+09,-1.37525e+09,-1.37538e+09,580.953,-8.56718e-19,0.0153884,-0,0.0153884,40000,-48536.8,0,62895.3,-580.953
step02_gravity_refstate-mantle.xmf,941,-4.50963e-06,8.82861e-07,0,1.88174e-07,-1.37014e+09,-1.36942e+09,-1.36954e+09,25149.5,0.0148535,0.0141419,0,0.020509,36722.1,-48356.2,0,60719.3,-25149.5
step02_gravity_refstate-mantle.xmf,942,-4.29111e-06,7.49517e-08,0,7.22289e-07,-1.42198e+09,-1.4214e+09,-1.42141e+09,96534,0.0459502,0.00165349,0,0.04598,30039.7,-49957.1,0,58293.2,-96534
step02_gravity_refstate-mantle.xmf,943,-4.70345e-06,1.02804e-06,0,1.02949e-07,-1.40893e+09,-1.40816e+09,-1.4083e+09,13759.1,0.00891261,0.0139135,0,0.0165233,38108.4,-49553.5,0,62512.4,-13759.1
step02_gravity_refstate-mantle.xmf,944,-4.47919e-06,4.55845e-07,0,5.23066e-07,-1.42232e+09,-1.42166e+09,-1.42172e+09,69907.7,0.0373279,0.00617332,0,0.0378349,32010,-49967.1,0,59340.9,-69907.7
step02_gravity_refstate-mantle.xmf,945,-4.71094e-06,9.47991e-07,0,2.13995e-07,-1.4213e+09,-1.42054e+09,-1.42067e+09,28600.4,0.0184098,0.0121581,0,0.0220622,36119.4,-49935.3,0,61629.1,-28600.4
step02_gravity_refstate-mantle.xmf,946,-4.618e-06,7.47846e-07,0,3.53783e-07,-1.42212e+09,-1.4214e+09,-1.4215e+09,47283.1,0.0279995,0.00970764,0,0.0296346,34063,-49960.7,0,60467.9,-47283.1
step02_gravity_refstate-mantle.xmf,947,-4.28083e-06,-1.59845e-07,0,7.65582e-07,-1.47361e+09,-1.47306e+09,-1.47304e+09,102320,0.052057,-0.000923264,0,0.0520652,29014.8,-51551.3,0,59155.7,-102320
step02_gravity_refstate-mantle.xmf,948,-4.16169e-06,-5.07272e-07,0,7.8806e-07,-1.52367e+09,-1.52319e+09,-1.52312e+09,105324,0.0584115,-0.00331944,0,0.0585058,27840.9,-53097.7,0,59954,-105324
step02_gravity_refstate-mantle.xmf,949,-3.96404e-06,-9.10874e-07,0,7.49505e-07,-1.57304e+09,-1.57263e+09,-1.57251e+09,100171,0.0640794,-0.00479918,0,0.0642589,26713.5,-54622.9,0,60805.2,-100171
step02_gravity_refstate-mantle.xmf,950,-3.74661e-06,-1.27928e-06,0,5.88774e-07,-1.63003e+09,-1.6297e+09,-1.62953e+09,78689.6,0.0684046,-0.0045319,0,0.0685545,25819.1,-56383.9,0,62014.3,-78689.6
step02_gravity_refstate-mantle.xmf,951,-3.46897e-06,-1.69103e-06,0,3.51356e-07,-1.68617e+09,-1.68593e+09,-1.6857e+09,46958.8,0.0723312,-0.00313741,0,0.0723992,24867.5,-58118.7,0,63215.3,-46958.8
step02_gravity_refstate-mantle.xmf,952,-3.1517e-06,-2.1126e-06,0,3.31089e-09,-1.74704e+09,-1.7469e+09,-1.74662e+09,442.5,0.0757352,5.36903e-21,0,0.0757352,23888.9,-60000,0,64580.8,-442.5
step02_gravity_refstate-mantle.xmf,953,-4.87454e-06,1.14344e-06,0,7.44119e-09,-1.44738e+09,-1.44658e+09,-1.44673e+09,994.515,-1.14136e-18,0.0130404,-0,0.0130404,40000,-50740.5,0,64611.1,-994.515
step02_gravity_refstate-mantle.xmf,954,-4.53027e-06,3.16448e-07,0,5.52829e-07,-1.4768e+09,-1.47615e+09,-1.47619e+09,73885.6,0.0432303,0.00359056,0,0.0433792,31038.7,-51649.3,0,60258.2,-73885.6
step02_gravity_refstate-mantle.xmf,955,-4.9656e-06,1.15159e-06,0,1.20223e-07,-1.4817e+09,-1.48089e+09,-1.48104e+09,16067.8,0.0118386,0.0112357,0,0.0163216,37619.6,-51800.1,0,64019.4,-16067.8
step02_gravity_refstate-mantle.xmf,956,-4.72895e-06,6.91861e-07,0,3.85383e-07,-1.4794e+09,-1.47868e+09,-1.47877e+09,51506.5,0.033853,0.00700951,0,0.0345711,33078.7,-51729.4,0,61401.4,-51506.5
step02_gravity_refstate-mantle.xmf,957,-4.86737e-06,9.67967e-07,0,2.44073e-07,-1.47931e+09,-1.47853e+09,-1.47866e+09,32620.4,0.0235286,0.00960526,0,0.0254137,35233,-51726.4,0,62585.8,-32620.4
step02_gravity_refstate-mantle.xmf,958,-4.49811e-06,1.04871e-07,0,5.6301e-07,-1.52785e+09,-1.52724e+09,-1.52725e+09,75246.3,0.0491936,0.00125241,0,0.0492095,29992.2,-53226.1,0,61094.6,-75246.3
step02_gravity_refstate-mantle.xmf,959,-4.38768e-06,-1.73303e-07,0,5.36177e-07,-1.578e+09,-1.57743e+09,-1.57741e+09,71660,0.0550159,-0.000606075,0,0.0550193,28905.5,-54775,0,61934.1,-71660
step02_gravity_refstate-mantle.xmf,960,-4.23191e-06,-4.6461e-07,0,4.38259e-07,-1.63128e+09,-1.63077e+09,-1.63071e+09,58573.3,0.0600049,-0.00150986,0,0.0600239,27928.2,-56421.1,0,62955,-58573.3
step02_gravity_refstate-mantle.xmf,961,-4.02451e-06,-7.82707e-07,0,2.58924e-07,-1.68844e+09,-1.68801e+09,-1.6879e+09,34605.2,0.0645164,-0.00137216,0,0.0645309,26956.8,-58187.5,0,64128.4,-34605.2
step02_gravity_refstate-mantle.xmf,962,-3.76884e-06,-1.12685e-06,0,2.01299e-09,-1.74709e+09,-1.74674e+09,-1.74659e+09,269.037,0.0686009,-1.10501e-20,0,0.0686009,25950.7,-60000,0,65371.5,-269.037
step02_gravity_refstate-mantle.xmf,963,-5.105e-06,1.27972e-06,0,6.36325e-09,-1.52002e+09,-1.51917e+09,-1.51934e+09,850.448,-1.03548e-18,0.0103214,-0,0.0103214,40000,-52983,0,66386.8,-850.448
step02_gravity_refstate-mantle.xmf,964,-4.75328e-06,5.68799e-07,0,3.91447e-07,-1.53453e+09,-1.53382e+09,-1.5339e+09,52316.8,0.0397585,0.004495,0,0.0400118,32060.6,-53431.9,0,62312.5,-52316.8
step02_gravity_refstate-mantle.xmf,965,-5.17968e-06,1.30374e-06,0,8.4854e-08,-1.56069e+09,-1.55982e+09,-1.56e+09,11340.7,0.0107188,0.0083676,0,0.0135982,37932.9,-54238.9,0,66187.3,-11340.7
step02_gravity_refstate-mantle.xmf,966,-5.04128e-06,1.1297e-06,0,1.64822e-07,-1.53258e+09,-1.53175e+09,-1.5319e+09,22028.5,0.0198094,0.00858895,0,0.0215913,36115.3,-53371,0,64442.1,-22028.5
step02_gravity_refstate-mantle.xmf,967,-4.95347e-06,9.28947e-07,0,2.57952e-07,-1.53847e+09,-1.53768e+09,-1.53781e+09,34475.3,0.0295697,0.00685196,0,0.0303532,34174.5,-53553.1,0,63528.2,-34475.3
step02_gravity_refstate-mantle.xmf,968,-4.70224e-06,3.81834e-07,0,3.73176e-07,-1.58477e+09,-1.58409e+09,-1.58415e+09,49874.9,0.0456886,0.00234063,0,0.0457486,30981.6,-54983.7,0,63111.6,-49874.9
step02_gravity_refstate-mantle.xmf,969,-4.60575e-06,1.82205e-07,0,3.16888e-07,-1.63371e+09,-1.63308e+09,-1.6331e+09,42352.1,0.0508547,0.000827365,0,0.0508614,30005.4,-56495.6,0,63969.4,-42352.1
step02_gravity_refstate-mantle.xmf,970,-4.47239e-06,-2.99319e-08,0,1.91155e-07,-1.68892e+09,-1.68833e+09,-1.68833e+09,25547.9,0.0554428,-4.75531e-06,0,0.0554428,29093.2,-58201.4,0,65067.7,-25547.9
step02_gravity_refstate-mantle.xmf,971,-4.27758e-06,-2.9019e-07,0,1.08641e-09,-1.74713e+09,-1.7466e+09,-1.74656e+09,145.198,0.0600238,-2.21624e-20,0,0.0600238,28082.3,-60000,0,66246.6,-145.198
step02_gravity_refstate-mantle.xmf,972,-5.26799e-06,1.43202e-06,0,-1.1953e-09,-1.59408e+09,-1.59318e+09,-1.59338e+09,-159.751,5.98037e-19,0.00724809,0,0.00724809,40000,-55270.1,0,68225.9,-159.751
step02_gravity_refstate-mantle.xmf,973,-5.36449e-06,1.52958e-06,0,3.05426e-09,-1.66975e+09,-1.66883e+09,-1.66903e+09,408.201,-9.1179e-19,0.00381168,-0,0.00381168,40000,-57607.2,0,70132.6,-408.201
step02_gravity_refstate-mantle.xmf,974,-5.30293e-06,1.44821e-06,0,4.18866e-08,-1.63332e+09,-1.63242e+09,-1.63261e+09,5598.14,0.0105384,0.00532707,0,0.0118083,38015.8,-56482.1,0,68084,-5598.14
step02_gravity_refstate-mantle.xmf,975,-4.95839e-06,8.30658e-07,0,2.36115e-07,-1.60039e+09,-1.59962e+09,-1.59973e+09,31556.8,0.03564,0.00420684,0,0.0358874,33102.5,-55465.6,0,64592.6,-31556.8
step02_gravity_refstate-mantle.xmf,976,-5.16815e-06,1.1966e-06,0,1.44971e-07,-1.60271e+09,-1.60186e+09,-1.60202e+09,19375.4,0.0229405,0.00578841,0,0.0236595,35616.4,-55536.7,0,65976.1,-19375.4
step02_gravity_refstate-mantle.xmf,977,-5.35654e-06,1.53372e-06,0,1.62423e-08,-1.69237e+09,-1.69145e+09,-1.69166e+09,2170.78,0.00939305,0.00266302,0,0.00976325,38250.9,-58305.9,0,69733.2,-2170.78
step02_gravity_refstate-mantle.xmf,978,-5.40389e-06,1.67513e-06,0,1.7386e-10,-1.74721e+09,-1.74627e+09,-1.74649e+09,23.2364,4.27467e-18,-2.63491e-19,0,4.28278e-18,40000,-60000,0,72111,-23.2364
step02_gravity_refstate-mantle.xmf,979,-4.85834e-06,6.25265e-07,0,2.30223e-07,-1.63414e+09,-1.6334e+09,-1.63349e+09,30769.3,0.0422602,0.00241628,0,0.0423292,31823.5,-56508.1,0,64852.9,-30769.3
step02_gravity_refstate-mantle.xmf,980,-4.82505e-06,5.79e-07,0,1.43475e-07,-1.6867e+09,-1.68598e+09,-1.68605e+09,19175.4,0.0451285,0.0011346,0,0.0451428,31309.1,-58131.8,0,66027,-19175.4
step02_gravity_refstate-mantle.xmf,981,-4.68427e-06,3.97829e-07,0,1.75273e-10,-1.74716e+09,-1.74648e+09,-1.74654e+09,23.4252,0.05013,-3.14607e-20,0,0.05013,30289.7,-60000,0,67212.1,-23.4252
step02_gravity_refstate-mantle.xmf,982,-5.28253e-06,1.39592e-06,0,4.66388e-08,-1.68251e+09,-1.68162e+09,-1.68181e+09,6233.27,0.0196457,0.00285753,0,0.0198524,36320.3,-58001.6,0,68435,-6233.27
step02_gravity_refstate-mantle.xmf,983,-5.35408e-06,1.57948e-06,0,1.83941e-09,-1.74721e+09,-1.74628e+09,-1.74649e+09,245.837,0.0138336,-2.87133e-19,0,0.0138336,37427.7,-60000,0,70716.5,-245.837
step02_gravity_refstate-mantle.xmf,984,-5.09316e-06,1.03009e-06,0,1.13747e-07,-1.67153e+09,-1.67071e+09,-1.67085e+09,15202.2,0.0333831,0.00251262,0,0.0334775,33663.3,-57662.7,0,66769.8,-15202.2
step02_gravity_refstate-mantle.xmf,985,-4.99652e-06,9.39281e-07,0,-1.21661e-09,-1.74718e+09,-1.74639e+09,-1.74652e+09,-162.6,0.0390458,-4.62382e-20,0,0.0390458,32578.9,-60000,0,68274.3,-162.6
step02_gravity_refstate-mantle.xmf,986,-5.21978e-06,1.3353e-06,0,1.43217e-09,-1.7472e+09,-1.74632e+09,-1.7465e+09,191.409,0.0269027,-2.63174e-19,0,0.0269027,34956.1,-60000,0,69440.1,-191.409
step02_gravity_refstate-intrusion.xmf,0,-4.28778e-06,2.64552e-05,0,-2.98536e-05,-8.22951e+08,-8.19546e+08,-8.22476e+08,-3.3061e+06,0.0677449,-0.745642,0,0.748713,-4000,-30000,-0,30265.5,-3.3061e+06
step02_gravity_refstate-intrusion.xmf,1,-1.16211e-05,2.98148e-05,0,-2.16023e-05,-8.24043e+08,-8.19454e+08,-8.22756e+08,-2.39232e+06,0.0637293,-0.787573,0,0.790147,-3497.18,-30000,-0,30203.2,-2.39232e+06
step02_gravity_refstate-intrusion.xmf,2,-7.2613e-06,2.15118e-05,0,-3.06359e-05,-8.37634e+08,-8.34448e+08,-8.3683e+08,-3.39274e+06,0.0532883,-0.758824,0,0.760692,-4000,-30502.3,-0,30763.4,-3.39274e+06
step02_gravity_refstate-intrusion.xmf,3,-1.49085e-05,3.30411e-05,0,-1.78048e-05,-8.24412e+08,-8.19101e+08,-8.2276e+08,-1.97177e+06,0.0571002,-0.821597,0,0.823579,-2997.53,-30000,-0,30149.4,-1.97177e+06
step02_gravity_refstate-intrusion.xmf,4,-1.70843e-05,3.54818e-05,0,-1.45181e-05,-8.24634e+08,-8.18812e+08,-8.22742e+08,-1.60779e+06,0.0490968,-0.849771,0,0.851188,-2497.35,-30000,-0,30103.8,-1.60779e+06
step02_gravity_refstate-intrusion.xmf,5,-5.56238e-06,1.44816e-05,0,-3.20593e-05,-8.51534e+08,-8.49314e+08,-8.50918e+08,-3.55038e+06,0.0398869,-0.767827,0,0.768862,-4000,-31001.4,-0,31258.4,-3.55038e+06
step02_gravity_refstate-intrusion.xmf,6,-1.86027e-05,3.72905e-05,0,-1.14402e-05,-8.24781e+08,-8.18592e+08,-8.22721e+08,-1.26693e+06,0.0401781,-0.872483,0,0.873408,-1997.54,-30000,-0,30066.4,-1.26693e+06
step02_gravity_refstate-intrusion.xmf,7,-3.51343e-06,7.7225e-06,0,-3.31948e-05,-8.65379e+08,-8.64135e+08,-8.6499e+08,-3.67612e+06,0.0267594,-0.773386,0,0.773849,-4000,-31501.6,-0,31754.6,-3.67612e+06
step02_gravity_refstate-intrusion.xmf,8,-1.96548e-05,3.85946e-05,0,-8.49105e-06,-8.2488e+08,-8.18429e+08,-8.22704e+08,-940332,0.030631,-0.889957,0,0.890484,-1498.34,-30000,-0,30037.4,-940332
step02_gravity_refstate-intrusion.xmf,9,-1.35638e-06,1.09458e-06,0,-3.40141e-05,-8.79164e+08,-8.78892e+08,-8.79014e+08,-3.76686e+06,0.0138354,-0.775583,0,0.775707,-4000,-32000.7,-0,32249.7,-3.76686e+06
step02_gravity_refstate-intrusion.xmf,10,-2.02916e-05,3.94461e-05,0,-5.62323e-06,-8.24936e+08,-8.1832e+08,-8.22688e+08,-622738,0.0206564,-0.902351,0,0.902588,-999.46,-30000,-0,30016.6,-622738
step02_gravity_refstate-intrusion.xmf,11,9.06315e-07,-5.51718e-06,0,-3.45225e-05,-8.92956e+08,-8.93667e+08,-8.93056e+08,-3.82316e+06,0.000998021,-0.774479,0,0.774479,-4000,-32500.8,-0,32746,-3.82316e+06
step02_gravity_refstate-intrusion.xmf,12,-2.06993e-05,3.99588e-05,0,-2.80019e-06,-8.24973e+08,-8.18256e+08,-8.22681e+08,-310104,0.0103999,-0.909769,0,0.909829,-500.036,-30000,-0,30004.2,-310104
step02_gravity_refstate-intrusion.xmf,13,-2.08563e-05,4.01255e-05,0,-1.14458e-08,-8.2499e+08,-8.18237e+08,-8.2268e+08,-1267.55,-3.86741e-07,-0.91224,-0,0.91224,-4.01542e-10,-30000,-0,30000,-1267.55
step02_gravity_refstate-intrusion.xmf,14,3.15565e-06,-1.20785e-05,0,-3.47733e-05,-9.06731e+08,-9.08418e+08,-9.0708e+08,-3.85093e+06,-0.0117455,-0.770084,-0,0.770174,-4000,-33000.2,-0,33241.8,-3.85093e+06
step02_gravity_refstate-intrusion.xmf,15,-2.06942e-05,3.9958e-05,0,2.79794e-06,-8.24972e+08,-8.18256e+08,-8.22681e+08,309854,-0.0103993,-0.909769,-0,0.909829,500.036,-30000,0,30004.2,-309854
step02_gravity_refstate-intrusion.xmf,16,5.3962e-06,-1.86507e-05,0,-3.47591e-05,-9.20507e+08,-9.2317e+08,-9.21105e+08,-3.84936e+06,-0.0244374,-0.762412,-0,0.762804,-4000,-33499.7,-0,33737.7,-3.84936e+06
step02_gravity_refstate-intrusion.xmf,17,-2.03449e-05,3.94497e-05,0,5.59556e-06,-8.24945e+08,-8.18323e+08,-8.22692e+08,619674,-0.0206547,-0.902352,-0,0.902588,999.46,-30000,0,30016.6,-619674
step02_gravity_refstate-intrusion.xmf,18,-1.96581e-05,3.85741e-05,0,8.46148e-06,-8.24882e+08,-8.18433e+08,-8.22705e+08,937058,-0.0306283,-0.889957,-0,0.890484,1498.34,-30000,0,30037.4,-937058
step02_gravity_refstate-intrusion.xmf,19,7.59252e-06,-2.52514e-05,0,-3.44648e-05,-9.34311e+08,-9.37948e+08,-9.35152e+08,-3.81676e+06,-0.037128,-0.751442,-0,0.752358,-4000,-33999.8,-0,34234.3,-3.81676e+06
step02_gravity_refstate-intrusion.xmf,20,-1.86011e-05,3.72377e-05,0,1.13833e-05,-8.24785e+08,-8.18601e+08,-8.22725e+08,1.26063e+06,-0.0401773,-0.872483,-0,0.873408,1997.54,-30000,0,30066.4,-1.26063e+06
step02_gravity_refstate-intrusion.xmf,21,9.6902e-06,-3.18919e-05,0,-3.39446e-05,-9.48107e+08,-9.52712e+08,-9.4918e+08,-3.75916e+06,-0.049823,-0.737182,-0,0.738864,-4000,-34498.8,-0,34729.9,-3.75916e+06
step02_gravity_refstate-intrusion.xmf,22,-1.70828e-05,3.53909e-05,0,1.44269e-05,-8.2464e+08,-8.18829e+08,-8.22748e+08,1.5977e+06,-0.0490965,-0.84977,-0,0.851188,2497.35,-30000,0,30103.8,-1.5977e+06
step02_gravity_refstate-intrusion.xmf,23,1.16788e-05,-3.87434e-05,0,-3.31638e-05,-9.6197e+08,-9.67554e+08,-9.63264e+08,-3.67269e+06,-0.0626706,-0.719533,-0,0.722257,-4000,-34999,-0,35226.9,-3.67269e+06
step02_gravity_refstate-intrusion.xmf,24,-1.48738e-05,3.27644e-05,0,1.75425e-05,-8.24425e+08,-8.19149e+08,-8.22778e+08,1.94272e+06,-0.057106,-0.8216,-0,0.823582,2997.53,-30000,0,30149.4,-1.94272e+06
step02_gravity_refstate-intrusion.xmf,25,1.32466e-05,-4.60916e-05,0,-3.2715e-05,-9.75916e+08,-9.82487e+08,-9.77383e+08,-3.62299e+06,-0.0758594,-0.698417,-0,0.702524,-4000,-35498.2,-0,35722.9,-3.62299e+06
step02_gravity_refstate-intrusion.xmf,26,-1.17021e-05,2.86933e-05,0,2.03765e-05,-8.24137e+08,-8.19663e+08,-8.22841e+08,2.25657e+06,-0.0637175,-0.787572,-0,0.790146,3497.18,-30000,0,30203.2,-2.25657e+06
step02_gravity_refstate-intrusion.xmf,27,9.28237e-06,-4.90714e-05,0,-3.31595e-05,-9.90628e+08,-9.9709e+08,-9.91656e+08,-3.67221e+06,-0.0907195,-0.67297,-0,0.679057,-4000,-36000,-0,36221.5,-3.67221e+06
step02_gravity_refstate-intrusion.xmf,28,1.7177e-05,-5.19564e-05,0,-2.20885e-05,-9.894e+08,-9.97056e+08,-9.91302e+08,-2.44617e+06,-0.0840094,-0.717385,-0,0.722287,-3499.28,-36000,-0,36169.7,-2.44617e+06
step02_gravity_refstate-intrusion.xmf,29,2.05682e-05,-5.55074e-05,0,-1.78045e-05,-9.89036e+08,-9.97461e+08,-9.91313e+08,-1.97174e+06,-0.0745597,-0.752014,-0,0.755701,-2999.32,-36000,-0,36124.7,-1.97174e+06
step02_gravity_refstate-intrusion.xmf,30,2.28264e-05,-5.83303e-05,0,-1.43279e-05,-9.88825e+08,-9.97813e+08,-9.91353e+08,-1.58673e+06,-0.0637202,-0.780132,-0,0.78273,-2499.83,-36000,-0,36086.7,-1.58673e+06
step02_gravity_refstate-intrusion.xmf,31,2.43866e-05,-6.04594e-05,0,-1.11978e-05,-9.88693e+08,-9.98089e+08,-9.91393e+08,-1.24009e+06,-0.051919,-0.802582,-0,0.80426,-2000,-36000,-0,36055.5,-1.24009e+06
step02_gravity_refstate-intrusion.xmf,32,2.54702e-05,-6.20125e-05,0,-8.25536e-06,-9.88606e+08,-9.98294e+08,-9.91427e+08,-914231,-0.0394567,-0.819742,-0,0.820691,-1500.17,-36000,-0,36031.2,-914231
step02_gravity_refstate-intrusion.xmf,33,2.6189e-05,-6.30702e-05,0,-5.44188e-06,-9.8855e+08,-9.98435e+08,-9.91451e+08,-602655,-0.0265524,-0.831847,-0,0.83227,-1000.68,-36000,-0,36013.9,-602655
step02_gravity_refstate-intrusion.xmf,34,-7.93688e-06,3.07283e-05,0,2.96659e-05,-8.23311e+08,-8.19029e+08,-8.22432e+08,3.28532e+06,-0.0677019,-0.745636,-0,0.748704,4000,-30000,0,30265.5,-3.28532e+06
step02_gravity_refstate-intrusion.xmf,35,2.65974e-05,-6.36845e-05,0,-2.70284e-06,-9.8852e+08,-9.98518e+08,-9.91465e+08,-299323,-0.0133539,-0.839065,-0,0.839172,-500.717,-36000,-0,36003.5,-299323
step02_gravity_refstate-intrusion.xmf,36,2.67432e-05,-6.38869e-05,0,-3.34447e-09,-9.88507e+08,-9.98544e+08,-9.91469e+08,-370.38,3.05005e-07,-0.841467,0,0.841467,0,-36000,0,36000,-370.38
step02_gravity_refstate-intrusion.xmf,37,-7.29371e-06,2.15482e-05,0,3.07002e-05,-8.37638e+08,-8.34444e+08,-8.3683e+08,3.39986e+06,-0.0532819,-0.75881,-0,0.760678,4000,-30502.3,0,30763.4,-3.39986e+06
step02_gravity_refstate-intrusion.xmf,38,-5.54798e-06,1.44727e-05,0,3.20777e-05,-8.51532e+08,-8.49315e+08,-8.50917e+08,3.55241e+06,-0.0398788,-0.767827,-0,0.768862,4000,-31001.4,0,31258.4,-3.55241e+06
step02_gravity_refstate-intrusion.xmf,39,2.66089e-05,-6.36765e-05,0,2.69771e-06,-9.88517e+08,-9.98515e+08,-9.91464e+08,298755,0.0133542,-0.839065,0,0.839172,500.717,-36000,0,36003.5,-298755
step02_gravity_refstate-intrusion.xmf,40,2.61952e-05,-6.30464e-05,0,5.43545e-06,-9.88547e+08,-9.9843e+08,-9.91448e+08,601943,0.0265526,-0.831846,0,0.832269,1000.68,-36000,0,36013.9,-601943
step02_gravity_refstate-intrusion.xmf,41,-3.51947e-06,7.72652e-06,0,3.31953e-05,-8.6538e+08,-8.64135e+08,-8.6499e+08,3.67618e+06,-0.0267588,-0.773387,-0,0.77385,4000,-31501.6,0,31754.6,-3.67618e+06
step02_gravity_refstate-intrusion.xmf,42,2.54946e-05,-6.2005e-05,0,8.21349e-06,-9.88601e+08,-9.98291e+08,-9.91424e+08,909594,0.0394571,-0.819742,0,0.820691,1500.17,-36000,0,36031.2,-909594
step02_gravity_refstate-intrusion.xmf,43,-1.32533e-06,1.07283e-06,0,3.39993e-05,-8.7916e+08,-8.78894e+08,-8.79013e+08,3.76521e+06,-0.0138354,-0.775586,-0,0.775709,4000,-32000.7,0,32249.7,-3.76521e+06
step02_gravity_refstate-intrusion.xmf,44,9.02031e-07,-5.49274e-06,0,3.45248e-05,-8.92955e+08,-8.93663e+08,-8.93055e+08,3.82341e+06,-0.00099575,-0.774476,-0,0.774477,4000,-32500.8,0,32746,-3.82341e+06
step02_gravity_refstate-intrusion.xmf,45,3.14583e-06,-1.20731e-05,0,3.47789e-05,-9.06732e+08,-9.08417e+08,-9.0708e+08,3.85155e+06,0.0117478,-0.770083,0,0.770173,4000,-33000.2,0,33241.8,-3.85155e+06
step02_gravity_refstate-intrusion.xmf,46,2.44196e-05,-6.04335e-05,0,1.11483e-05,-9.88685e+08,-9.98082e+08,-9.91389e+08,1.23461e+06,0.0519161,-0.802581,0,0.804258,2000,-36000,0,36055.5,-1.23461e+06
step02_gravity_refstate-intrusion.xmf,47,2.28545e-05,-5.8258e-05,0,1.42318e-05,-9.88815e+08,-9.97798e+08,-9.91346e+08,1.57608e+06,0.0637167,-0.780131,0,0.782729,2499.83,-36000,0,36086.7,-1.57608e+06
step02_gravity_refstate-intrusion.xmf,48,5.38828e-06,-1.86398e-05,0,3.4753e-05,-9.20508e+08,-9.23169e+08,-9.21105e+08,3.84869e+06,0.0244405,-0.762412,0,0.762804,4000,-33499.7,0,33737.7,-3.84869e+06
step02_gravity_refstate-intrusion.xmf,49,2.06146e-05,-5.52412e-05,0,1.74821e-05,-9.89008e+08,-9.97409e+08,-9.91291e+08,1.93604e+06,0.0745624,-0.752013,0,0.7557,2999.32,-36000,0,36124.7,-1.93604e+06
step02_gravity_refstate-intrusion.xmf,50,7.58372e-06,-2.52437e-05,0,3.44697e-05,-9.34312e+08,-9.37948e+08,-9.35152e+08,3.81731e+06,0.0371293,-0.75144,0,0.752357,4000,-33999.8,0,34234.3,-3.81731e+06
step02_gravity_refstate-intrusion.xmf,51,1.74193e-05,-5.03629e-05,0,2.00881e-05,-9.89244e+08,-9.9675e+08,-9.91173e+08,2.22464e+06,0.0840264,-0.717386,0,0.72229,3499.28,-36000,0,36169.7,-2.22464e+06
step02_gravity_refstate-intrusion.xmf,52,9.70409e-06,-3.191e-05,0,3.39333e-05,-9.48106e+08,-9.52714e+08,-9.49181e+08,3.7579e+06,0.0498229,-0.737185,0,0.738867,4000,-34498.8,0,34729.9,-3.7579e+06
step02_gravity_refstate-intrusion.xmf,53,1.17059e-05,-3.87413e-05,0,3.31762e-05,-9.61965e+08,-9.67552e+08,-9.63261e+08,3.67406e+06,0.0626712,-0.719531,0,0.722256,4000,-34999,0,35226.9,-3.67406e+06
step02_gravity_refstate-intrusion.xmf,54,1.32835e-05,-4.63149e-05,0,3.2672e-05,-9.75925e+08,-9.82525e+08,-9.77396e+08,3.61822e+06,0.0758528,-0.698445,0,0.702552,4000,-35498.2,0,35722.9,-3.61822e+06
step02_gravity_refstate-intrusion.xmf,55,1.39114e-05,-5.51004e-05,0,3.23043e-05,-9.90214e+08,-9.97857e+08,-9.91754e+08,3.57751e+06,0.090753,-0.673001,0,0.679092,4000,-36000,0,36221.5,-3.57751e+06
step02_gravity_refstate-intrusion.xmf,56,-8.37028e-06,2.39338e-05,0,-2.64073e-05,-8.33871e+08,-8.30293e+08,-8.32944e+08,-2.92445e+06,0.0542462,-0.786507,0,0.788375,-3635.71,-30364.1,-0,30581,-2.92445e+06
step02_gravity_refstate-intrusion.xmf,57,-7.61745e-06,1.93884e-05,0,-2.75166e-05,-8.44513e+08,-8.41522e+08,-8.43669e+08,-3.0473e+06,0.0438753,-0.797928,0,0.799133,-3596.18,-30744.9,-0,30954.5,-3.0473e+06
step02_gravity_refstate-intrusion.xmf,58,-1.02207e-05,2.49528e-05,0,-2.24909e-05,-8.35529e+08,-8.31633e+08,-8.34397e+08,-2.49074e+06,0.0493759,-0.816346,0,0.817838,-3256.64,-30414.9,-0,30588.7,-2.49074e+06
step02_gravity_refstate-intrusion.xmf,59,-5.64582e-06,1.25927e-05,0,-2.84268e-05,-8.58207e+08,-8.56187e+08,-8.57582e+08,-3.1481e+06,0.0314792,-0.807176,0,0.807789,-3579.55,-31239,-0,31443.4,-3.1481e+06
step02_gravity_refstate-intrusion.xmf,60,-1.25197e-05,2.70107e-05,0,-1.79461e-05,-8.36294e+08,-8.31916e+08,-8.34907e+08,-1.98742e+06,0.0431658,-0.849613,0,0.850709,-2747.44,-30432.9,-0,30556.6,-1.98742e+06
step02_gravity_refstate-intrusion.xmf,61,-8.0589e-06,1.79602e-05,0,-2.30178e-05,-8.5026e+08,-8.47379e+08,-8.49368e+08,-2.54908e+06,0.0351312,-0.838333,0,0.839069,-3105.15,-30947.5,-0,31102.9,-2.54908e+06
step02_gravity_refstate-intrusion.xmf,62,-1.41932e-05,2.87517e-05,0,-1.41995e-05,-8.36707e+08,-8.31951e+08,-8.35135e+08,-1.5725e+06,0.0363333,-0.876091,0,0.876844,-2248.57,-30441.3,-0,30524.3,-1.5725e+06
step02_gravity_refstate-intrusion.xmf,63,-5.15746e-06,1.01088e-05,0,-2.52809e-05,-8.64699e+08,-8.63008e+08,-8.64127e+08,-2.79971e+06,0.0240901,-0.837355,0,0.837701,-3222.53,-31472.1,-0,31636.7,-2.79971e+06
step02_gravity_refstate-intrusion.xmf,64,-3.2176e-06,5.44062e-06,0,-2.90118e-05,-8.72391e+08,-8.71432e+08,-8.72034e+08,-3.21288e+06,0.0189917,-0.813595,0,0.813816,-3557.71,-31753,-0,31951.7,-3.21288e+06
step02_gravity_refstate-intrusion.xmf,65,-9.92649e-06,2.01533e-05,0,-1.76933e-05,-8.49563e+08,-8.46232e+08,-8.48463e+08,-1.95942e+06,0.030622,-0.873386,0,0.873922,-2528.11,-30915.4,-0,31018.6,-1.95942e+06
step02_gravity_refstate-intrusion.xmf,66,-6.3268e-06,1.2088e-05,0,-2.12097e-05,-8.62751e+08,-8.60712e+08,-8.6205e+08,-2.34884e+06,0.0232678,-0.864739,0,0.865052,-2806.75,-31398.6,-0,31523.8,-2.34884e+06
step02_gravity_refstate-intrusion.xmf,67,-1.54265e-05,3.01051e-05,0,-1.06515e-05,-8.37024e+08,-8.31982e+08,-8.35316e+08,-1.17959e+06,0.0284901,-0.897852,0,0.898304,-1726.51,-30448.2,-0,30497.1,-1.17959e+06
step02_gravity_refstate-intrusion.xmf,68,-1.13385e-05,2.17721e-05,0,-1.33486e-05,-8.49349e+08,-8.45682e+08,-8.48093e+08,-1.47827e+06,0.0250867,-0.899478,0,0.899827,-1985.71,-30902.5,-0,30966.2,-1.47827e+06
step02_gravity_refstate-intrusion.xmf,69,-3.20572e-06,4.45286e-06,0,-2.44889e-05,-8.75977e+08,-8.75129e+08,-8.75622e+08,-2.71199e+06,0.0145632,-0.850571,0,0.850695,-3079.59,-31881.1,-0,32029.5,-2.71199e+06
step02_gravity_refstate-intrusion.xmf,70,-2.20068e-07,-2.9762e-06,0,-2.86894e-05,-8.89312e+08,-8.89617e+08,-8.89288e+08,-3.17718e+06,0.00444644,-0.821932,0,0.821944,-3464.15,-32367.2,-0,32552,-3.17718e+06
step02_gravity_refstate-intrusion.xmf,71,-7.40817e-06,1.3368e-05,0,-1.65024e-05,-8.62502e+08,-8.60201e+08,-8.61681e+08,-1.82754e+06,0.019843,-0.89465,0,0.89487,-2272.73,-31385.7,-0,31467.9,-1.82754e+06
step02_gravity_refstate-intrusion.xmf,72,-3.80851e-06,5.08865e-06,0,-1.96307e-05,-8.76331e+08,-8.75346e+08,-8.75909e+08,-2.17398e+06,0.0125126,-0.884029,0,0.884118,-2556.18,-31891.6,-0,31993.9,-2.17398e+06
step02_gravity_refstate-intrusion.xmf,73,-1.62366e-05,3.10064e-05,0,-7.25267e-06,-8.37333e+08,-8.32101e+08,-8.35535e+08,-803189,0.0199468,-0.914124,0,0.914342,-1193.19,-30456.4,-0,30479.8,-803189
step02_gravity_refstate-intrusion.xmf,74,-1.22228e-05,2.26464e-05,0,-9.29715e-06,-8.49834e+08,-8.45972e+08,-8.4848e+08,-1.0296e+06,0.0182206,-0.920293,0,0.920473,-1418.94,-30916.5,-0,30949.1,-1.0296e+06
step02_gravity_refstate-intrusion.xmf,75,-8.36433e-06,1.44821e-05,0,-1.19115e-05,-8.62366e+08,-8.59836e+08,-8.6144e+08,-1.31912e+06,0.0154374,-0.919487,0,0.919617,-1697.83,-31377.3,-0,31423.2,-1.31912e+06
step02_gravity_refstate-intrusion.xmf,76,-5.36149e-07,-2.83369e-06,0,-2.2979e-05,-8.90096e+08,-8.90351e+08,-8.90037e+08,-2.54478e+06,0.00364374,-0.865146,0,0.865153,-2871.35,-32394,-0,32521,-2.54478e+06
step02_gravity_refstate-intrusion.xmf,77,2.16203e-06,-9.39136e-06,0,-3.05281e-05,-9.01585e+08,-9.02864e+08,-9.01824e+08,-3.3808e+06,-0.00612031,-0.806621,-0,0.806644,-3615.8,-32813.2,-0,33011.9,-3.3808e+06
step02_gravity_refstate-intrusion.xmf,78,-4.49939e-06,5.94955e-06,0,-1.48444e-05,-8.7611e+08,-8.74953e+08,-8.75612e+08,-1.64393e+06,0.0103673,-0.91238,0,0.912439,-1998.33,-31881.3,-0,31943.8,-1.64393e+06
step02_gravity_refstate-intrusion.xmf,79,-8.89588e-07,-2.4372e-06,0,-1.77869e-05,-8.90299e+08,-8.9047e+08,-8.902e+08,-1.96979e+06,0.00312389,-0.898678,0,0.898683,-2300.72,-32400.1,-0,32481.7,-1.96979e+06
step02_gravity_refstate-intrusion.xmf,80,2.36008e-06,-1.01697e-05,0,-2.60791e-05,-9.03587e+08,-9.04975e+08,-9.03848e+08,-2.8881e+06,-0.00675265,-0.840714,-0,0.840741,-3175.99,-32885.4,-0,33038.4,-2.8881e+06
step02_gravity_refstate-intrusion.xmf,81,-1.69198e-05,3.2024e-05,0,-4.23476e-06,-8.36677e+08,-8.31256e+08,-8.34803e+08,-468973,0.0120316,-0.922798,0,0.922877,-703.679,-30430.6,-0,30438.8,-468973
step02_gravity_refstate-intrusion.xmf,82,-1.26555e-05,2.29436e-05,0,-5.23525e-06,-8.50621e+08,-8.46678e+08,-8.49219e+08,-579772,0.0104316,-0.93516,0,0.935219,-812.227,-30943.1,-0,30953.8,-579772
step02_gravity_refstate-intrusion.xmf,83,-9.03918e-06,1.5244e-05,0,-7.493e-06,-8.6239e+08,-8.597e+08,-8.61388e+08,-829805,0.0102055,-0.937668,0,0.937723,-1094.43,-31375.6,-0,31394.7,-829805
step02_gravity_refstate-intrusion.xmf,84,-5.1958e-06,6.89427e-06,0,-1.006e-05,-8.75579e+08,-8.7424e+08,-8.75003e+08,-1.11409e+06,0.00771307,-0.93487,0,0.934902,-1394.52,-31859.7,-0,31890.2,-1.11409e+06
step02_gravity_refstate-intrusion.xmf,85,2.4653e-06,-1.05979e-05,0,-2.07833e-05,-9.04627e+08,-9.06074e+08,-9.049e+08,-2.30162e+06,-0.00613695,-0.877904,-0,0.877926,-2611.39,-32922.9,-0,33026.3,-2.30162e+06
step02_gravity_refstate-intrusion.xmf,86,4.63178e-06,-1.62691e-05,0,-2.99654e-05,-9.15375e+08,-9.17689e+08,-9.15887e+08,-3.31848e+06,-0.0176628,-0.805348,-0,0.805541,-3554.39,-33313.9,-0,33503,-3.31848e+06
step02_gravity_refstate-intrusion.xmf,87,-1.80047e-05,3.40899e-05,0,-1.39769e-06,-8.33988e+08,-8.28219e+08,-8.31994e+08,-154786,0.00422449,-0.923965,0,0.923975,-234.551,-30330.9,-0,30331.8,-154786
step02_gravity_refstate-intrusion.xmf,88,-1.29234e-06,-1.8836e-06,0,-1.27889e-05,-8.89997e+08,-8.90062e+08,-8.89854e+08,-1.4163e+06,0.00265011,-0.92551,0,0.925514,-1704.56,-32387.9,-0,32432.7,-1.4163e+06
step02_gravity_refstate-intrusion.xmf,89,2.33378e-06,-1.03727e-05,0,-1.54577e-05,-9.04509e+08,-9.05916e+08,-9.04767e+08,-1.71185e+06,-0.00463014,-0.909433,-0,0.909444,-2011.2,-32918.3,-0,32979.7,-1.71185e+06
step02_gravity_refstate-intrusion.xmf,90,5.65335e-06,-1.88999e-05,0,-2.41342e-05,-9.20075e+08,-9.22794e+08,-9.20701e+08,-2.67272e+06,-0.0183856,-0.846627,-0,0.846827,-2970.06,-33485,-0,33616.5,-2.67272e+06
step02_gravity_refstate-intrusion.xmf,91,-1.73744e-05,3.27171e-05,0,1.2792e-06,-8.36072e+08,-8.30524e+08,-8.34148e+08,141664,-0.00380219,-0.926595,-0,0.926603,218.89,-30407.4,0,30408.2,-141664
step02_gravity_refstate-intrusion.xmf,92,-1.40586e-05,2.56025e-05,0,-1.25066e-06,-8.47014e+08,-8.42622e+08,-8.45457e+08,-138503,0.00273154,-0.938414,0,0.938418,-194.682,-30809.4,-0,30810,-138503
step02_gravity_refstate-intrusion.xmf,93,-9.69145e-06,1.62581e-05,0,-3.1351e-06,-8.61473e+08,-8.586e+08,-8.604e+08,-347194,0.00451319,-0.947643,0,0.947653,-464.014,-31340.6,-0,31344,-347194
step02_gravity_refstate-intrusion.xmf,94,-5.57044e-06,7.31476e-06,0,-5.50079e-06,-8.75575e+08,-8.74148e+08,-8.74958e+08,-609179,0.00439937,-0.949534,0,0.949545,-776.641,-31858.2,-0,31867.7,-609179
step02_gravity_refstate-intrusion.xmf,95,-1.63342e-06,-1.39923e-06,0,-7.97301e-06,-8.89649e+08,-8.89623e+08,-8.89468e+08,-882963,0.00188921,-0.944659,0,0.944661,-1087.9,-32374.2,-0,32392.5,-882963
step02_gravity_refstate-intrusion.xmf,96,5.66849e-06,-1.8604e-05,0,-1.81765e-05,-9.19099e+08,-9.21787e+08,-9.19726e+08,-2.01293e+06,-0.0141016,-0.88623,-0,0.886342,-2326.47,-33450.3,-0,33531.1,-2.01293e+06
step02_gravity_refstate-intrusion.xmf,97,6.7362e-06,-2.22158e-05,0,-3.17074e-05,-9.27384e+08,-9.3059e+08,-9.2813e+08,-3.51141e+06,-0.0289757,-0.782242,-0,0.782779,-3726.59,-33749.7,-0,33954.9,-3.51141e+06
step02_gravity_refstate-intrusion.xmf,98,6.94659e-06,-2.2626e-05,0,-2.81803e-05,-9.27714e+08,-9.30989e+08,-9.28483e+08,-3.1208e+06,-0.0269645,-0.809954,-0,0.810403,-3389.99,-33762.1,-0,33931.8,-3.1208e+06
step02_gravity_refstate-intrusion.xmf,99,2.2696e-06,-1.02654e-05,0,-1.04984e-05,-9.04392e+08,-9.0578e+08,-9.04643e+08,-1.16264e+06,-0.00317768,-0.932727,-0,0.932732,-1404,-32913.9,-0,32943.8,-1.16264e+06
step02_gravity_refstate-intrusion.xmf,100,5.88924e-06,-1.87613e-05,0,-1.2967e-05,-9.18995e+08,-9.21725e+08,-9.19648e+08,-1.43601e+06,-0.0105699,-0.913818,-0,0.913879,-1722.43,-33447.6,-0,33491.9,-1.43601e+06
step02_gravity_refstate-intrusion.xmf,101,8.86586e-06,-2.83914e-05,0,-2.99307e-05,-9.39534e+08,-9.4366e+08,-9.40516e+08,-3.31464e+06,-0.0383773,-0.78319,-0,0.78413,-3585.19,-34190.3,-0,34377.7,-3.31464e+06
step02_gravity_refstate-intrusion.xmf,102,8.72794e-06,-2.72585e-05,0,-2.51503e-05,-9.36265e+08,-9.40251e+08,-9.37232e+08,-2.78524e+06,-0.03154,-0.823505,-0,0.824109,-3106.45,-34073.3,-0,34214.6,-2.78524e+06
step02_gravity_refstate-intrusion.xmf,103,8.76804e-06,-2.66461e-05,0,-2.02976e-05,-9.34084e+08,-9.38006e+08,-9.35055e+08,-2.24783e+06,-0.0255314,-0.85888,-0,0.85926,-2595.2,-33995.7,-0,34094.6,-2.24783e+06
step02_gravity_refstate-intrusion.xmf,104,-1.67993e-05,3.18756e-05,0,4.62309e-06,-8.36806e+08,-8.31415e+08,-8.34945e+08,511979,-0.013129,-0.921958,-0,0.922051,770.664,-30435.7,0,30445.5,-511979
step02_gravity_refstate-intrusion.xmf,105,-1.34531e-05,2.43793e-05,0,2.95041e-06,-8.48702e+08,-8.44512e+08,-8.47212e+08,326739,-0.00632159,-0.938079,-0,0.9381,468.581,-30871.7,0,30875.2,-326739
step02_gravity_refstate-intrusion.xmf,106,-9.82825e-06,1.6445e-05,0,9.64369e-07,-8.613e+08,-8.58391e+08,-8.60212e+08,106798,-0.00144585,-0.949597,-0,0.949598,147.53,-31333.9,0,31334.2,-106798
step02_gravity_refstate-intrusion.xmf,107,-5.90653e-06,7.86392e-06,0,-1.10248e-06,-8.74966e+08,-8.73441e+08,-8.74312e+08,-122093,0.000916038,-0.955658,0,0.955659,-155.366,-31835.2,-0,31835.6,-122093
step02_gravity_refstate-intrusion.xmf,108,-1.84789e-06,-1.08986e-06,0,-3.35609e-06,-8.89382e+08,-8.89298e+08,-8.89177e+08,-371667,0.000862623,-0.955351,0,0.955351,-463.627,-32363.8,-0,32367.2,-371667
step02_gravity_refstate-intrusion.xmf,109,2.23069e-06,-1.02028e-05,0,-5.69736e-06,-9.04279e+08,-9.05656e+08,-9.04526e+08,-630948,-0.00173193,-0.947965,-0,0.947967,-776.663,-32909.7,-0,32918.9,-630948
step02_gravity_refstate-intrusion.xmf,110,9.15029e-06,-2.68626e-05,0,-1.52251e-05,-9.33355e+08,-9.37343e+08,-9.34369e+08,-1.68609e+06,-0.0199904,-0.889251,-0,0.889476,-2023.31,-33971.1,-0,34031.3,-1.68609e+06
step02_gravity_refstate-intrusion.xmf,111,-1.63601e-05,3.14015e-05,0,7.87059e-06,-8.36387e+08,-8.31098e+08,-8.34575e+08,871620,-0.0221193,-0.910201,-0,0.91047,1304.82,-30422.2,0,30450.2,-871620
step02_gravity_refstate-intrusion.xmf,112,6.25222e-06,-1.93417e-05,0,-7.92239e-06,-9.19503e+08,-9.22338e+08,-9.20196e+08,-877356,-0.00688438,-0.93341,-0,0.933435,-1082.58,-33467,-0,33484.5,-877356
step02_gravity_refstate-intrusion.xmf,113,9.92493e-06,-2.78926e-05,0,-1.01891e-05,-9.34114e+08,-9.38302e+08,-9.35213e+08,-1.12838e+06,-0.0145543,-0.911639,-0,0.911756,-1413.74,-34001.2,-0,34030.6,-1.12838e+06
step02_gravity_refstate-intrusion.xmf,114,1.06532e-05,-3.30549e-05,0,-2.62675e-05,-9.48073e+08,-9.52913e+08,-9.49253e+08,-2.90897e+06,-0.0423393,-0.79935,-0,0.800471,-3260.36,-34500.9,-0,34654.7,-2.90897e+06
step02_gravity_refstate-intrusion.xmf,115,1.13006e-05,-3.37728e-05,0,-2.19365e-05,-9.48153e+08,-9.53144e+08,-9.49404e+08,-2.42934e+06,-0.0377359,-0.828949,-0,0.829808,-2831.1,-34506.3,-0,34622.2,-2.42934e+06
step02_gravity_refstate-intrusion.xmf,116,1.20682e-05,-3.4489e-05,0,-1.70572e-05,-9.47618e+08,-9.52774e+08,-9.48954e+08,-1.88898e+06,-0.0312834,-0.859668,-0,0.860237,-2306.52,-34490,-0,34567.1,-1.88898e+06
step02_gravity_refstate-intrusion.xmf,117,-1.26968e-05,2.33585e-05,0,7.04449e-06,-8.49411e+08,-8.45418e+08,-8.48005e+08,780135,-0.0142844,-0.928615,-0,0.928725,1089.68,-30899.8,0,30919.1,-780135
step02_gravity_refstate-intrusion.xmf,118,-1.63483e-05,3.20833e-05,0,1.05129e-05,-8.33799e+08,-8.28435e+08,-8.31988e+08,1.16424e+06,-0.0305273,-0.893453,-0,0.893974,1746.55,-30329.8,0,30380,-1.16424e+06
step02_gravity_refstate-intrusion.xmf,119,-9.51557e-06,1.59876e-05,0,5.23916e-06,-8.61549e+08,-8.58725e+08,-8.60496e+08,580205,-0.00752158,-0.943503,-0,0.943533,779.407,-31343.8,0,31353.5,-580205
step02_gravity_refstate-intrusion.xmf,120,-5.88072e-06,7.84172e-06,0,3.24066e-06,-8.74865e+08,-8.73345e+08,-8.74214e+08,358883,-0.00274281,-0.953547,-0,0.953551,464.722,-31831.7,0,31835.1,-358883
step02_gravity_refstate-intrusion.xmf,121,-1.9737e-06,-8.62796e-07,0,1.10777e-06,-8.89032e+08,-8.88909e+08,-8.88814e+08,122679,-0.000305597,-0.957459,-0,0.957459,155.576,-32350.9,0,32351.2,-122679
step02_gravity_refstate-intrusion.xmf,122,2.18821e-06,-1.01319e-05,0,-1.07371e-06,-9.04126e+08,-9.0549e+08,-9.04368e+08,-118907,-0.000321347,-0.954448,-0,0.954448,-147.015,-32904,-0,32904.3,-118907
step02_gravity_refstate-intrusion.xmf,123,6.43795e-06,-1.96224e-05,0,-3.1461e-06,-9.19621e+08,-9.22507e+08,-9.20334e+08,-348412,-0.00281272,-0.944139,-0,0.944143,-436.426,-33471.8,-0,33474.7,-348412
step02_gravity_refstate-intrusion.xmf,124,1.30403e-05,-3.56404e-05,0,-1.23261e-05,-9.47783e+08,-9.53174e+08,-9.49227e+08,-1.36505e+06,-0.0243038,-0.884443,-0,0.884777,-1742.07,-34499.5,-0,34543.4,-1.36505e+06
step02_gravity_refstate-intrusion.xmf,125,1.11739e-05,-3.58571e-05,0,-2.95454e-05,-9.54742e+08,-9.59951e+08,-9.5598e+08,-3.27197e+06,-0.0515603,-0.764642,-0,0.766378,-3595.86,-34740,-0,34925.6,-3.27197e+06
step02_gravity_refstate-intrusion.xmf,126,-1.2541e-05,2.37894e-05,0,1.12966e-05,-8.46807e+08,-8.42784e+08,-8.45418e+08,1.25103e+06,-0.0235315,-0.907173,-0,0.907478,1736.24,-30807.2,0,30856.1,-1.25103e+06
step02_gravity_refstate-intrusion.xmf,127,-1.44991e-05,2.91753e-05,0,1.36812e-05,-8.36133e+08,-8.31297e+08,-8.34528e+08,1.51511e+06,-0.0359793,-0.877902,-0,0.878639,2195.8,-30419.5,0,30498.7,-1.51511e+06
step02_gravity_refstate-intrusion.xmf,128,1.10425e-05,-3.00464e-05,0,-5.14628e-06,-9.36751e+08,-9.41301e+08,-9.37974e+08,-569919,-0.00827294,-0.924659,-0,0.924696,-739.5,-34099.1,-0,34107.1,-569919
step02_gravity_refstate-intrusion.xmf,129,1.42378e-05,-3.7376e-05,0,-7.98666e-06,-9.49258e+08,-9.54974e+08,-9.50834e+08,-884474,-0.0172359,-0.900147,-0,0.900312,-1177.85,-34556.6,-0,34576.7,-884474
step02_gravity_refstate-intrusion.xmf,130,1.28856e-05,-4.00601e-05,0,-2.40416e-05,-9.61897e+08,-9.67761e+08,-9.63324e+08,-2.66246e+06,-0.051942,-0.790969,-0,0.792673,-3124.06,-35001,-0,35140.1,-2.66246e+06
step02_gravity_refstate-intrusion.xmf,131,1.4546e-05,-4.15732e-05,0,-1.83002e-05,-9.61622e+08,-9.67837e+08,-9.63233e+08,-2.02664e+06,-0.044047,-0.826586,-0,0.827758,-2562.32,-34998,-0,35091.7,-2.02664e+06
step02_gravity_refstate-intrusion.xmf,132,1.60363e-05,-4.31647e-05,0,-1.36963e-05,-9.61502e+08,-9.68059e+08,-9.63278e+08,-1.51678e+06,-0.0357421,-0.853287,-0,0.854035,-2023.44,-34999.4,-0,35057.9,-1.51678e+06
step02_gravity_refstate-intrusion.xmf,133,-9.15591e-06,1.59403e-05,0,9.77681e-06,-8.60571e+08,-8.57792e+08,-8.59557e+08,1.08272e+06,-0.0137912,-0.9279,-0,0.928002,1418.09,-31310.5,0,31342.6,-1.08272e+06
step02_gravity_refstate-intrusion.xmf,134,-5.58667e-06,7.46647e-06,0,7.76593e-06,-8.7491e+08,-8.73465e+08,-8.74291e+08,860030,-0.00633662,-0.942877,-0,0.942899,1094.08,-31834.3,0,31853.1,-860030
step02_gravity_refstate-intrusion.xmf,135,-1.90011e-06,-9.53527e-07,0,5.64739e-06,-8.88977e+08,-8.88872e+08,-8.88767e+08,625414,-0.00152182,-0.951034,-0,0.951035,780.116,-32349.1,0,32358.5,-625414
step02_gravity_refstate-intrusion.xmf,136,2.10135e-06,-9.96173e-06,0,3.49367e-06,-9.0381e+08,-9.05146e+08,-9.04043e+08,386903,0.00100891,-0.95226,0,0.952261,480.059,-32892.4,0,32895.9,-386903
step02_gravity_refstate-intrusion.xmf,137,6.26262e-06,-1.92357e-05,0,1.41581e-06,-9.18914e+08,-9.21738e+08,-9.19608e+08,156792,0.0012314,-0.946309,0,0.94631,196.76,-33445.9,0,33446.5,-156792
step02_gravity_refstate-intrusion.xmf,138,1.05385e-05,-2.86983e-05,0,-4.77008e-07,-9.34169e+08,-9.38514e+08,-9.35336e+08,-52825.8,-0.00073178,-0.933294,-0,0.933294,-69.5592,-34005.2,-0,34005.2,-52825.8
step02_gravity_refstate-intrusion.xmf,139,1.7437e-05,-4.50516e-05,0,-9.65462e-06,-9.62414e+08,-9.69335e+08,-9.64345e+08,-1.06919e+06,-0.0272736,-0.871518,-0,0.871944,-1489.4,-35037,-0,35068.7,-1.06919e+06
step02_gravity_refstate-intrusion.xmf,140,1.2491e-05,-4.22854e-05,0,-2.8998e-05,-9.6872e+08,-9.74786e+08,-9.70103e+08,-3.21135e+06,-0.0639602,-0.74441,-0,0.747153,-3603.51,-35241,-0,35424.8,-3.21135e+06
step02_gravity_refstate-intrusion.xmf,141,-8.19547e-06,1.45636e-05,0,1.43313e-05,-8.61085e+08,-8.58565e+08,-8.60177e+08,1.5871e+06,-0.0187511,-0.905748,-0,0.905942,2020.94,-31332,0,31397.1,-1.5871e+06
step02_gravity_refstate-intrusion.xmf,142,-1.26801e-05,2.69453e-05,0,1.74084e-05,-8.36549e+08,-8.3216e+08,-8.35144e+08,1.92787e+06,-0.0422681,-0.85311,-0,0.854156,2690.49,-30440.9,0,30559.6,-1.92787e+06
step02_gravity_refstate-intrusion.xmf,143,-1.05702e-05,2.08596e-05,0,1.59875e-05,-8.49089e+08,-8.45609e+08,-8.47919e+08,1.77052e+06,-0.0290075,-0.883206,-0,0.883683,2333.76,-30895.8,0,30983.8,-1.77052e+06
step02_gravity_refstate-intrusion.xmf,144,1.53923e-05,-3.95845e-05,0,-4.78482e-06,-9.51954e+08,-9.58042e+08,-9.53659e+08,-529890,-0.0112782,-0.905467,-0,0.905537,-725.157,-34656.7,-0,34664.3,-529890
step02_gravity_refstate-intrusion.xmf,145,1.46598e-05,-3.78441e-05,0,-1.78348e-06,-9.48787e+08,-9.54602e+08,-9.50411e+08,-197509,-0.00396267,-0.914749,-0,0.914758,-269.574,-34541.1,-0,34542.1,-197509
step02_gravity_refstate-intrusion.xmf,146,1.84382e-05,-4.63701e-05,0,-6.15255e-06,-9.63079e+08,-9.70256e+08,-9.65121e+08,-681358,-0.0183978,-0.88338,-0,0.883572,-980.495,-35064.4,-0,35078.1,-681358
step02_gravity_refstate-intrusion.xmf,147,1.44241e-05,-4.6818e-05,0,-2.32469e-05,-9.77661e+08,-9.84443e+08,-9.79259e+08,-2.57446e+06,-0.0677854,-0.755706,-0,0.75874,-3271.63,-35567.7,-0,35717.8,-2.57446e+06
step02_gravity_refstate-intrusion.xmf,148,1.68202e-05,-4.82167e-05,0,-1.86567e-05,-9.75247e+08,-9.82449e+08,-9.7711e+08,-2.06612e+06,-0.058171,-0.790971,-0,0.793107,-2793.02,-35492,-0,35601.7,-2.06612e+06
step02_gravity_refstate-intrusion.xmf,149,1.90816e-05,-5.06513e-05,0,-1.43936e-05,-9.75332e+08,-9.83055e+08,-9.77446e+08,-1.594e+06,-0.0491079,-0.817806,-0,0.819279,-2282.82,-35503.8,-0,35577.1,-1.594e+06
step02_gravity_refstate-intrusion.xmf,150,2.06894e-05,-5.25646e-05,0,-1.06672e-05,-9.75379e+08,-9.83491e+08,-9.7767e+08,-1.18133e+06,-0.0387119,-0.839343,-0,0.840235,-1757.75,-35511.2,-0,35554.6,-1.18133e+06
step02_gravity_refstate-intrusion.xmf,151,-5.15232e-06,7.15282e-06,0,1.25323e-05,-8.74533e+08,-8.7317e+08,-8.73962e+08,1.38788e+06,-0.00979632,-0.923702,-0,0.923753,1713.47,-31822.6,0,31868.7,-1.38788e+06
step02_gravity_refstate-intrusion.xmf,152,-1.70264e-06,-1.18465e-06,0,1.04082e-05,-8.88927e+08,-8.8887e+08,-8.88739e+08,1.15265e+06,-0.00266374,-0.935823,-0,0.935827,1408.66,-32348,0,32378.7,-1.15265e+06
step02_gravity_refstate-intrusion.xmf,153,2.05444e-06,-9.86639e-06,0,8.18051e-06,-9.03602e+08,-9.04922e+08,-9.0383e+08,905941,0.00226587,-0.941326,0,0.941329,1106.68,-32884.8,0,32903.4,-905941
step02_gravity_refstate-intrusion.xmf,154,6.07762e-06,-1.89437e-05,0,5.91466e-06,-9.1858e+08,-9.21351e+08,-9.19253e+08,655013,0.00498807,-0.939695,0,0.939708,813.334,-33433.3,0,33443.2,-655013
step02_gravity_refstate-intrusion.xmf,155,1.02408e-05,-2.81474e-05,0,3.76467e-06,-9.33428e+08,-9.3768e+08,-9.34562e+08,416914,0.00550938,-0.931011,0,0.931027,535.81,-33977.7,0,33981.9,-416914
step02_gravity_refstate-intrusion.xmf,156,1.44611e-05,-3.74261e-05,0,1.91165e-06,-9.48136e+08,-9.53882e+08,-9.49738e+08,211704,0.00415753,-0.91555,0,0.915559,286.436,-34517.1,0,34518.3,-211704
step02_gravity_refstate-intrusion.xmf,157,2.18506e-05,-5.41348e-05,0,-7.36719e-06,-9.75784e+08,-9.84199e+08,-9.78204e+08,-815872,-0.0280399,-0.853938,-0,0.854398,-1247.05,-35529.5,-0,35551.4,-815872
step02_gravity_refstate-intrusion.xmf,158,1.88329e-05,-4.68947e-05,0,-3.05856e-06,-9.63073e+08,-9.70351e+08,-9.65158e+08,-338717,-0.00933783,-0.890746,-0,0.890795,-494.071,-35065.5,-0,35068.9,-338717
step02_gravity_refstate-intrusion.xmf,159,1.25395e-05,-4.58182e-05,0,-2.74604e-05,-9.79818e+08,-9.8628e+08,-9.81206e+08,-3.04107e+06,-0.0748822,-0.724118,-0,0.727979,-3636.59,-35636.3,-0,35821.4,-3.04107e+06
step02_gravity_refstate-intrusion.xmf,160,-9.75649e-06,2.41785e-05,0,2.2561e-05,-8.36998e+08,-8.3324e+08,-8.35917e+08,2.4985e+06,-0.0477335,-0.819416,-0,0.820805,3232.06,-30469.5,0,30640.4,-2.4985e+06
step02_gravity_refstate-intrusion.xmf,161,-4.5483e-06,6.4177e-06,0,1.74474e-05,-8.74376e+08,-8.73162e+08,-8.73872e+08,1.93219e+06,-0.0127862,-0.896692,-0,0.896783,2316.74,-31819,0,31903.2,-1.93219e+06
step02_gravity_refstate-intrusion.xmf,162,-7.09804e-06,1.33216e-05,0,1.92133e-05,-8.61155e+08,-8.58893e+08,-8.60369e+08,2.12776e+06,-0.0230514,-0.876525,-0,0.876828,2598.05,-31338.6,0,31446.1,-2.12776e+06
step02_gravity_refstate-intrusion.xmf,163,-9.17011e-06,1.97567e-05,0,2.07361e-05,-8.47951e+08,-8.44748e+08,-8.46936e+08,2.2964e+06,-0.0351784,-0.851144,-0,0.851871,2886.45,-30860.7,0,30995.4,-2.2964e+06
step02_gravity_refstate-intrusion.xmf,164,1.86841e-05,-4.65339e-05,0,8.18119e-08,-9.62242e+08,-9.69465e+08,-9.64312e+08,9060.17,0.000245166,-0.894674,0,0.894674,13.0836,-35035.2,0,35035.2,-9060.17
step02_gravity_refstate-intrusion.xmf,165,2.25848e-05,-5.51206e-05,0,-4.34038e-06,-9.76039e+08,-9.84644e+08,-9.7854e+08,-480670,-0.017068,-0.863267,-0,0.863436,-749.449,-35541.1,-0,35549,-480670
step02_gravity_refstate-intrusion.xmf,166,-1.39591e-06,-1.43194e-06,0,1.54612e-05,-8.88787e+08,-8.88791e+08,-8.88632e+08,1.71224e+06,-0.00367449,-0.912113,-0,0.91212,2027.17,-32344.3,0,32407.7,-1.71224e+06
step02_gravity_refstate-intrusion.xmf,167,2.05799e-06,-9.85408e-06,0,1.3079e-05,-9.03488e+08,-9.04807e+08,-9.03716e+08,1.44841e+06,0.00349832,-0.921768,0,0.921774,1726.68,-32880.6,0,32926,-1.44841e+06
step02_gravity_refstate-intrusion.xmf,168,5.82116e-06,-1.85839e-05,0,1.05991e-05,-9.18297e+08,-9.21e+08,-9.18942e+08,1.17379e+06,0.00854487,-0.924687,0,0.924727,1426.5,-33422.2,0,33452.6,-1.17379e+06
step02_gravity_refstate-intrusion.xmf,169,1.41406e-05,-3.69303e-05,0,5.74642e-06,-9.47847e+08,-9.53503e+08,-9.49413e+08,636381,0.0122175,-0.909104,0,0.909186,852.529,-34505.8,0,34516.3,-636381
step02_gravity_refstate-intrusion.xmf,170,9.81273e-06,-2.75231e-05,0,8.12221e-06,-9.32943e+08,-9.37077e+08,-9.34029e+08,899486,0.0114012,-0.920602,0,0.920673,1135.36,-33958.8,0,33977.8,-899486
step02_gravity_refstate-intrusion.xmf,171,1.85137e-05,-4.63183e-05,0,3.4661e-06,-9.62241e+08,-9.69421e+08,-9.64291e+08,383849,0.0103451,-0.891526,0,0.891586,555.005,-35034.6,0,35039,-383849
step02_gravity_refstate-intrusion.xmf,172,2.27829e-05,-5.53293e-05,0,-1.42918e-06,-9.7573e+08,-9.8438e+08,-9.78253e+08,-158273,-0.00566044,-0.868828,-0,0.868846,-248.485,-35530.7,-0,35531.5,-158273
step02_gravity_refstate-intrusion.xmf,173,-1.18445e-06,-1.53604e-06,0,2.05796e-05,-8.8803e+08,-8.88069e+08,-8.87899e+08,2.27906e+06,-0.00488184,-0.880965,-0,0.880979,2621.37,-32317.9,0,32424,-2.27906e+06
step02_gravity_refstate-intrusion.xmf,174,-8.04405e-06,2.39173e-05,0,2.68773e-05,-8.33813e+08,-8.30273e+08,-8.32922e+08,2.9765e+06,-0.0542434,-0.786505,-0,0.788373,3635.71,-30364.1,0,30581,-2.9765e+06
step02_gravity_refstate-intrusion.xmf,175,-7.64819e-06,1.76365e-05,0,2.4781e-05,-8.49735e+08,-8.46935e+08,-8.48888e+08,2.74434e+06,-0.0369606,-0.825174,-0,0.826002,3286.11,-30930.3,0,31104.4,-2.74434e+06
step02_gravity_refstate-intrusion.xmf,176,-3.87442e-06,5.7484e-06,0,2.25965e-05,-8.7403e+08,-8.72964e+08,-8.73601e+08,2.50243e+06,-0.0153926,-0.862911,-0,0.863048,2892.25,-31809.1,0,31940.3,-2.50243e+06
step02_gravity_refstate-intrusion.xmf,177,-6.12713e-06,1.24432e-05,0,2.41335e-05,-8.60607e+08,-8.5855e+08,-8.59928e+08,2.67264e+06,-0.0268909,-0.842316,-0,0.842745,3129.79,-31322.8,0,31478.8,-2.67264e+06
step02_gravity_refstate-intrusion.xmf,178,1.84069e-05,-4.65841e-05,0,7.16107e-06,-9.63663e+08,-9.7086e+08,-9.65701e+08,793045,0.0214496,-0.878997,0,0.879259,1136.67,-35084.9,0,35103.3,-793045
step02_gravity_refstate-intrusion.xmf,179,2.26865e-05,-5.51666e-05,0,1.53354e-06,-9.75493e+08,-9.84115e+08,-9.78006e+08,169830,0.00602609,-0.869229,0,0.86925,265.365,-35521.8,0,35522.8,-169830
step02_gravity_refstate-intrusion.xmf,180,2.00072e-06,-9.50816e-06,0,1.83929e-05,-9.02781e+08,-9.04055e+08,-9.03002e+08,2.0369e+06,0.00438139,-0.893523,0,0.893534,2346.71,-32855.4,0,32939.1,-2.0369e+06
step02_gravity_refstate-intrusion.xmf,181,-7.50864e-06,1.9241e-05,0,2.77902e-05,-8.44671e+08,-8.41708e+08,-8.43839e+08,3.0776e+06,-0.0439537,-0.795546,-0,0.79676,3627.1,-30750.9,0,30964.1,-3.0776e+06
step02_gravity_refstate-intrusion.xmf,182,-9.34139e-07,-1.53827e-06,0,2.58463e-05,-8.86971e+08,-8.87038e+08,-8.86867e+08,2.86232e+06,-0.00621398,-0.843677,-0,0.8437,3183.84,-32280.9,0,32437.6,-2.86232e+06
step02_gravity_refstate-intrusion.xmf,183,5.49065e-06,-1.80992e-05,0,1.56842e-05,-9.1788e+08,-9.20493e+08,-9.18488e+08,1.73693e+06,0.0118492,-0.900872,0,0.90095,2046.54,-33406.1,0,33468.7,-1.73693e+06
step02_gravity_refstate-intrusion.xmf,184,9.24461e-06,-2.67783e-05,0,1.28057e-05,-9.32566e+08,-9.36555e+08,-9.3359e+08,1.41815e+06,0.0169687,-0.901972,0,0.902132,1737.08,-33943.2,0,33987.6,-1.41815e+06
step02_gravity_refstate-intrusion.xmf,185,1.33963e-05,-3.57727e-05,0,9.94182e-06,-9.47277e+08,-9.52723e+08,-9.48761e+08,1.101e+06,0.0200998,-0.895462,0,0.895687,1439.79,-34483.1,0,34513.2,-1.101e+06
step02_gravity_refstate-intrusion.xmf,186,2.24533e-05,-5.49122e-05,0,4.48312e-06,-9.75759e+08,-9.84327e+08,-9.78246e+08,496478,0.0175054,-0.863505,0,0.863683,771.868,-35530.6,0,35539,-496478
step02_gravity_refstate-intrusion.xmf,187,1.70307e-06,-8.67715e-06,0,2.36468e-05,-9.00836e+08,-9.01986e+08,-9.01025e+08,2.61874e+06,0.00416292,-0.859148,0,0.859158,2927.74,-32784.8,0,32915.3,-2.61874e+06
step02_gravity_refstate-intrusion.xmf,188,-5.59056e-06,1.26794e-05,0,2.85859e-05,-8.57924e+08,-8.55901e+08,-8.57305e+08,3.16572e+06,-0.0318434,-0.805202,-0,0.805831,3602.3,-31229.3,0,31436.3,-3.16572e+06
step02_gravity_refstate-intrusion.xmf,189,-3.18932e-06,5.32182e-06,0,2.84443e-05,-8.73015e+08,-8.72072e+08,-8.72662e+08,3.15004e+06,-0.0182858,-0.818099,-0,0.818304,3503.7,-31775.6,0,31968.2,-3.15004e+06
step02_gravity_refstate-intrusion.xmf,190,1.66037e-05,-4.36656e-05,0,1.15209e-05,-9.61104e+08,-9.67778e+08,-9.62943e+08,1.27587e+06,0.030947,-0.865104,0,0.865658,1742.04,-34987.4,0,35030.7,-1.27587e+06
step02_gravity_refstate-intrusion.xmf,191,2.28511e-05,-5.61098e-05,0,6.619e-06,-9.78498e+08,-9.87242e+08,-9.81028e+08,733014,0.0266874,-0.850925,0,0.851343,1141.9,-35629.9,0,35648.2,-733014
step02_gravity_refstate-intrusion.xmf,192,5.10239e-06,-1.73181e-05,0,2.17042e-05,-9.16864e+08,-9.19347e+08,-9.17429e+08,2.40361e+06,0.0147514,-0.865307,0,0.865433,2716.24,-33368.5,0,33478.9,-2.40361e+06
step02_gravity_refstate-intrusion.xmf,193,1.76714e-06,-8.40728e-06,0,2.92641e-05,-8.99791e+08,-9.00918e+08,-8.99987e+08,3.24082e+06,0.00436425,-0.816758,0,0.81677,3501.01,-32747.9,0,32934.5,-3.24082e+06
step02_gravity_refstate-intrusion.xmf,194,-5.79002e-07,-1.75551e-06,0,3.04168e-05,-8.8638e+08,-8.8651e+08,-8.86316e+08,3.36848e+06,-0.00700436,-0.80776,-0,0.807791,3638.77,-32261.2,0,32465.8,-3.36848e+06
step02_gravity_refstate-intrusion.xmf,195,1.22176e-05,-3.40652e-05,0,1.47747e-05,-9.46119e+08,-9.51245e+08,-9.47472e+08,1.63621e+06,0.0272141,-0.874164,0,0.874588,2042.34,-34437.5,0,34498.1,-1.63621e+06
step02_gravity_refstate-intrusion.xmf,196,8.59397e-06,-2.59573e-05,0,1.81214e-05,-9.32269e+08,-9.36096e+08,-9.33221e+08,2.00684e+06,0.0223237,-0.87384,0,0.874126,2358.75,-33930.2,0,34012.1,-2.00684e+06
step02_gravity_refstate-intrusion.xmf,197,2.08473e-05,-5.22285e-05,0,8.84749e-06,-9.73625e+08,-9.81718e+08,-9.75934e+08,979806,0.0317586,-0.85227,0,0.852862,1463.36,-35449.2,0,35479.4,-979806
step02_gravity_refstate-intrusion.xmf,198,2.0735e-05,-5.27878e-05,0,1.12151e-05,-9.76192e+08,-9.84334e+08,-9.78488e+08,1.242e+06,0.0411145,-0.834305,0,0.835317,1852.34,-35540.5,0,35588.7,-1.242e+06
step02_gravity_refstate-intrusion.xmf,199,1.75541e-05,-4.65795e-05,0,1.38506e-05,-9.67523e+08,-9.74626e+08,-9.69467e+08,1.53386e+06,0.0409315,-0.839347,0,0.840344,2115.33,-35219.9,0,35283.3,-1.53386e+06
step02_gravity_refstate-intrusion.xmf,200,3.71749e-06,-1.37773e-05,0,2.61418e-05,-9.1049e+08,-9.12427e+08,-9.10901e+08,2.89504e+06,0.0121184,-0.837574,0,0.837661,3177.66,-33136.4,0,33288.4,-2.89504e+06
step02_gravity_refstate-intrusion.xmf,201,1.44286e-05,-4.02636e-05,0,1.6615e-05,-9.57883e+08,-9.6394e+08,-9.59481e+08,1.84001e+06,0.0383947,-0.843613,0,0.844486,2347.05,-34864.5,0,34943.4,-1.84001e+06
step02_gravity_refstate-intrusion.xmf,202,1.97576e-05,-5.20448e-05,0,1.43593e-05,-9.7776e+08,-9.85712e+08,-9.79948e+08,1.59021e+06,0.0514612,-0.811637,0,0.813267,2315.95,-35593,0,35668.3,-1.59021e+06
step02_gravity_refstate-intrusion.xmf,203,5.71962e-06,-1.90398e-05,0,2.58925e-05,-9.20484e+08,-9.23226e+08,-9.21118e+08,2.86744e+06,0.0197365,-0.833384,0,0.833618,3153.37,-33500,0,33648.1,-2.86744e+06
step02_gravity_refstate-intrusion.xmf,204,4.43547e-06,-1.56998e-05,0,3.0179e-05,-9.14156e+08,-9.16386e+08,-9.14647e+08,3.34214e+06,0.0167254,-0.804304,0,0.804477,3575.37,-33269.7,0,33461.3,-3.34214e+06
step02_gravity_refstate-intrusion.xmf,205,1.11482e-05,-3.27538e-05,0,2.00746e-05,-9.45652e+08,-9.50513e+08,-9.46886e+08,2.22314e+06,0.0337182,-0.844346,0,0.845019,2629.31,-34416.8,0,34517.1,-2.22314e+06
step02_gravity_refstate-intrusion.xmf,206,8.23243e-06,-2.56186e-05,0,2.40398e-05,-9.32802e+08,-9.3655e+08,-9.33713e+08,2.66227e+06,0.0279314,-0.835109,0,0.835576,2987.91,-33948.1,0,34079.3,-2.66227e+06
step02_gravity_refstate-intrusion.xmf,207,1.58295e-05,-4.45754e-05,0,1.83175e-05,-9.67338e+08,-9.74027e+08,-9.69091e+08,2.02855e+06,0.0495075,-0.81298,0,0.814486,2643.49,-35206.9,0,35306,-2.02855e+06
step02_gravity_refstate-intrusion.xmf,208,6.81973e-06,-2.22412e-05,0,2.97521e-05,-9.27157e+08,-9.30375e+08,-9.27912e+08,3.29487e+06,0.0275408,-0.79822,0,0.798695,3540.87,-33742,0,33927.2,-3.29487e+06
step02_gravity_refstate-intrusion.xmf,209,1.28807e-05,-3.84694e-05,0,2.2165e-05,-9.57588e+08,-9.63274e+08,-9.59014e+08,2.45464e+06,0.0460174,-0.810284,0,0.81159,2928.48,-34848.1,0,34971,-2.45464e+06
step02_gravity_refstate-intrusion.xmf,210,1.79059e-05,-4.99609e-05,0,1.8348e-05,-9.7829e+08,-9.85805e+08,-9.80273e+08,2.03192e+06,0.061258,-0.783795,0,0.786185,2819.78,-35605.5,0,35716.9,-2.03192e+06
step02_gravity_refstate-intrusion.xmf,211,1.06085e-05,-3.2524e-05,0,2.47624e-05,-9.46579e+08,-9.51356e+08,-9.47754e+08,2.74229e+06,0.0395769,-0.812012,0,0.812976,3110.78,-34447.6,0,34587.8,-2.74229e+06
step02_gravity_refstate-intrusion.xmf,212,1.39372e-05,-4.2798e-05,0,2.37925e-05,-9.67834e+08,-9.74117e+08,-9.69377e+08,2.63487e+06,0.0577402,-0.777934,0,0.780074,3181.61,-35217,0,35360.4,-2.63487e+06
step02_gravity_refstate-intrusion.xmf,213,9.1942e-06,-2.90596e-05,0,2.93312e-05,-9.40736e+08,-9.44972e+08,-9.41754e+08,3.24825e+06,0.038906,-0.7866,0,0.787561,3528.58,-34234.5,0,34415.8,-3.24825e+06
step02_gravity_refstate-intrusion.xmf,214,1.16461e-05,-3.67898e-05,0,2.81836e-05,-9.56113e+08,-9.61477e+08,-9.57403e+08,3.12117e+06,0.0514433,-0.772284,0,0.773996,3479.6,-34790.6,0,34964.2,-3.12117e+06
step02_gravity_refstate-intrusion.xmf,215,1.54098e-05,-4.75581e-05,0,2.31227e-05,-9.78934e+08,-9.85908e+08,-9.80641e+08,2.56069e+06,0.0693112,-0.752487,0,0.755673,3282.8,-35618.6,0,35769.6,-2.56069e+06
step02_gravity_refstate-intrusion.xmf,216,1.31167e-05,-4.27849e-05,0,2.8808e-05,-9.69793e+08,-9.75984e+08,-9.71246e+08,3.19031e+06,0.0650553,-0.742439,0,0.745284,3605.79,-35283,0,35466.7,-3.19031e+06
step02_gravity_refstate-intrusion.xmf,217,1.26952e-05,-4.47021e-05,0,2.80872e-05,-9.79704e+08,-9.86061e+08,-9.8111e+08,3.11049e+06,0.0748771,-0.724151,0,0.728012,3636.36,-35636.1,0,35821.1,-3.11049e+06
step02_gravity_refstate-crust.xmf,0,-2.84889e-06,-6.3439e-07,0,-3.22835e-07,-1.09906e+09,-1.09891e+09,-1.09887e+09,-22146.5,-0.00629582,0.0198103,-0,0.0207866,-37797.2,-40000,-0,55033,-22146.5
step02_gravity_refstate-crust.xmf,1,-2.8687e-06,-5.76678e-07,0,-4.18942e-09,-1.09906e+09,-1.09891e+09,-1.09887e+09,-287.394,-6.60751e-19,0.0207434,-0,0.0207434,-40000,-40000,-0,56568.5,-287.394
step02_gravity_refstate-crust.xmf,2,-2.79668e-06,-7.81268e-07,0,-6.39379e-07,-1.09906e+09,-1.09893e+09,-1.09887e+09,-43861.4,-0.0122216,0.0171624,-0,0.0210692,-35698.5,-40000,-0,53613.3,-43861.4
step02_gravity_refstate-crust.xmf,3,-2.71904e-06,-1.00634e-06,0,-9.66332e-07,-1.09906e+09,-1.09895e+09,-1.09888e+09,-66290.4,-0.0177387,0.0129841,-0,0.0219829,-33698.8,-40000,-0,52303,-66290.4
step02_gravity_refstate-crust.xmf,4,-2.62256e-06,-1.29918e-06,0,-1.31213e-06,-1.09907e+09,-1.09898e+09,-1.09889e+09,-90012.4,-0.0228307,0.00741448,-0,0.0240045,-31793.3,-40000,-0,51096.1,-90012.4
step02_gravity_refstate-crust.xmf,5,-2.51422e-06,-1.64847e-06,0,-1.6868e-06,-1.09907e+09,-1.09901e+09,-1.0989e+09,-115714,-0.0274974,0.00055883,-0,0.0275031,-29977.6,-40000,-0,49986.5,-115714
step02_gravity_refstate-crust.xmf,6,-2.40051e-06,-2.04599e-06,0,-2.0997e-06,-1.09907e+09,-1.09905e+09,-1.09891e+09,-144039,-0.0317529,-0.00750174,-0,0.032627,-28247.1,-40000,-0,48968.3,-144039
step02_gravity_refstate-crust.xmf,7,-2.28716e-06,-2.48506e-06,0,-2.5576e-06,-1.09908e+09,-1.09909e+09,-1.09892e+09,-175451,-0.0356218,-0.0167042,-0,0.039344,-26597.7,-40000,-0,48035.8,-175451
step02_gravity_refstate-crust.xmf,8,-2.17978e-06,-2.96366e-06,0,-3.06446e-06,-1.09909e+09,-1.09914e+09,-1.09894e+09,-210222,-0.0391366,-0.0269985,-0,0.0475457,-25025.6,-40000,-0,47183.5,-210222
step02_gravity_refstate-crust.xmf,9,-2.08154e-06,-3.47543e-06,0,-3.63793e-06,-1.0991e+09,-1.09919e+09,-1.09896e+09,-249562,-0.0423326,-0.0383445,-0,0.0571169,-23526.8,-40000,-0,46405.9,-249562
step02_gravity_refstate-crust.xmf,10,-1.99801e-06,-4.02227e-06,0,-4.28433e-06,-1.09911e+09,-1.09925e+09,-1.09898e+09,-293905,-0.0452506,-0.0507098,-0,0.067964,-22097.7,-40000,-0,45698,-293905
step02_gravity_refstate-crust.xmf,11,-1.8264e-06,-6.69297e-06,0,-7.77366e-06,-1.09921e+09,-1.09954e+09,-1.09908e+09,-533273,-0.0548986,-0.109858,-0,0.122812,-17010.7,-40000,-0,43466.8,-533273
step02_gravity_refstate-crust.xmf,12,-1.84977e-06,-5.89668e-06,0,-6.71106e-06,-1.09918e+09,-1.09945e+09,-1.09905e+09,-460379,-0.0527234,-0.0936599,-0,0.10748,-18194.5,-40000,-0,43943.6,-460379
step02_gravity_refstate-crust.xmf,13,-1.8149e-06,-7.54254e-06,0,-8.93066e-06,-1.09924e+09,-1.09964e+09,-1.09912e+09,-612644,-0.0569583,-0.126966,-0,0.139157,-15880.5,-40000,-0,43037.1,-612644
step02_gravity_refstate-crust.xmf,14,-1.80163e-06,-8.50587e-06,0,-1.0227e-05,-1.09928e+09,-1.09974e+09,-1.09916e+09,-701575,-0.058915,-0.144965,-0,0.15648,-14800.9,-40000,-0,42650.5,-701575
step02_gravity_refstate-crust.xmf,15,-1.93033e-06,-4.613e-06,0,-5.0053e-06,-1.09913e+09,-1.09931e+09,-1.099e+09,-343364,-0.0479313,-0.0640654,-0,0.0800112,-20734.8,-40000,-0,45054.8,-343364
step02_gravity_refstate-crust.xmf,16,-1.88361e-06,-5.21203e-06,0,-5.79628e-06,-1.09915e+09,-1.09938e+09,-1.09902e+09,-397625,-0.0504104,-0.0783892,-0,0.0931991,-19434.8,-40000,-0,44471.5,-397625
step02_gravity_refstate-crust.xmf,17,-1.78507e-06,-9.61329e-06,0,-1.16744e-05,-1.09933e+09,-1.09986e+09,-1.0992e+09,-800864,-0.0607692,-0.163834,-0,0.174741,-13769.1,-40000,-0,42303.5,-800864
step02_gravity_refstate-crust.xmf,18,-1.2425e-06,-1.6367e-05,0,-1.90587e-05,-1.09955e+09,-1.10059e+09,-1.09947e+09,-1.30742e+06,-0.0667347,-0.247425,-0,0.256267,-10064.5,-40000,-0,41246.8,-1.30742e+06
step02_gravity_refstate-crust.xmf,19,-1.49941e-06,-1.41764e-05,0,-1.69292e-05,-1.09949e+09,-1.10036e+09,-1.09939e+09,-1.16134e+06,-0.0655454,-0.225388,-0,0.234725,-10932.8,-40000,-0,41467.2,-1.16134e+06
step02_gravity_refstate-crust.xmf,20,-1.65491e-06,-1.23647e-05,0,-1.50013e-05,-1.09943e+09,-1.10016e+09,-1.09932e+09,-1.02909e+06,-0.0641181,-0.204078,-0,0.213913,-11837.8,-40000,-0,41714.9,-1.02909e+06
step02_gravity_refstate-crust.xmf,21,-8.46924e-07,-1.8962e-05,0,-2.12006e-05,-1.09962e+09,-1.10086e+09,-1.09956e+09,-1.45436e+06,-0.0676029,-0.270101,-0,0.278432,-9230.72,-40000,-0,41051.3,-1.45436e+06
step02_gravity_refstate-crust.xmf,22,-1.74575e-06,-1.08427e-05,0,-1.32388e-05,-1.09938e+09,-1.1e+09,-1.09926e+09,-908178,-0.0625113,-0.183548,-0,0.193901,-12782.4,-40000,-0,41992.7,-908178
step02_gravity_refstate-crust.xmf,23,-2.61256e-07,-2.20748e-05,0,-2.34294e-05,-1.09969e+09,-1.10118e+09,-1.09967e+09,-1.60726e+06,-0.0680428,-0.293299,-0,0.301088,-8429.03,-40000,-0,40878.5,-1.60726e+06
step02_gravity_refstate-crust.xmf,24,1.63117e-06,-2.99903e-05,0,-2.74796e-05,-1.09981e+09,-1.10198e+09,-1.09993e+09,-1.8851e+06,-0.067104,-0.340641,-0,0.347187,-6909.43,-40000,-0,40592.4,-1.8851e+06
step02_gravity_refstate-crust.xmf,25,5.54784e-07,-2.5713e-05,0,-2.54968e-05,-1.09975e+09,-1.10155e+09,-1.09979e+09,-1.74908e+06,-0.0679295,-0.316877,-0,0.324076,-7656.37,-40000,-0,40726.2,-1.74908e+06
step02_gravity_refstate-crust.xmf,26,3.03486e-06,-3.49194e-05,0,-2.89263e-05,-1.09987e+09,-1.10247e+09,-1.10008e+09,-1.98434e+06,-0.0653984,-0.364332,-0,0.370155,-6184.51,-40000,-0,40475.3,-1.98434e+06
step02_gravity_refstate-crust.xmf,27,4.73782e-06,-4.04649e-05,0,-2.96499e-05,-1.09991e+09,-1.10302e+09,-1.10024e+09,-2.03398e+06,-0.0626355,-0.387601,-0,0.392629,-5477.46,-40000,-0,40373.3,-2.03398e+06
step02_gravity_refstate-crust.xmf,28,6.66409e-06,-4.64202e-05,0,-2.93434e-05,-1.09995e+09,-1.1036e+09,-1.10041e+09,-2.01296e+06,-0.0586615,-0.410012,-0,0.414187,-4783.65,-40000,-0,40285,-2.01296e+06
step02_gravity_refstate-crust.xmf,29,8.70123e-06,-5.24525e-05,0,-2.78086e-05,-1.09998e+09,-1.10418e+09,-1.10058e+09,-1.90767e+06,-0.053379,-0.43105,-0,0.434342,-4097.91,-40000,-0,40209.4,-1.90767e+06
step02_gravity_refstate-crust.xmf,30,1.06309e-05,-5.81475e-05,0,-2.49942e-05,-1.10001e+09,-1.10473e+09,-1.10074e+09,-1.7146e+06,-0.0467718,-0.45015,-0,0.452573,-3414.86,-40000,-0,40145.5,-1.7146e+06
step02_gravity_refstate-crust.xmf,31,1.22894e-05,-6.30861e-05,0,-2.10895e-05,-1.10004e+09,-1.10521e+09,-1.10088e+09,-1.44674e+06,-0.0389346,-0.466692,-0,0.468313,-2731.89,-40000,-0,40093.2,-1.44674e+06
step02_gravity_refstate-crust.xmf,32,1.35995e-05,-6.70215e-05,0,-1.63764e-05,-1.10006e+09,-1.10559e+09,-1.10099e+09,-1.12342e+06,-0.0300831,-0.48009,-0,0.481032,-2048.93,-40000,-0,40052.4,-1.12342e+06
step02_gravity_refstate-crust.xmf,33,1.4538e-05,-6.98546e-05,0,-1.11317e-05,-1.10008e+09,-1.10586e+09,-1.10107e+09,-763637,-0.0204718,-0.489925,-0,0.490352,-1365.96,-40000,-0,40023.3,-763637
step02_gravity_refstate-crust.xmf,34,1.50828e-05,-7.15845e-05,0,5.7281e-06,-1.10009e+09,-1.10603e+09,-1.10112e+09,392948,0.0103575,-0.495923,0,0.496031,682.988,-40000,0,40005.8,-392948
step02_gravity_refstate-crust.xmf,35,1.525e-05,-7.2139e-05,0,-5.49222e-08,-1.10009e+09,-1.10609e+09,-1.10114e+09,-3767.67,-1.18295e-06,-0.497939,-0,0.497939,0,-40000,0,40000,-3767.67
step02_gravity_refstate-crust.xmf,36,1.50759e-05,-7.15772e-05,0,-5.72983e-06,-1.10009e+09,-1.10603e+09,-1.10112e+09,-393066,-0.0103591,-0.495924,-0,0.496032,-682.988,-40000,-0,40005.8,-393066
step02_gravity_refstate-crust.xmf,37,1.45414e-05,-6.99513e-05,0,1.12488e-05,-1.10008e+09,-1.10588e+09,-1.10108e+09,771670,0.0204717,-0.489924,0,0.490351,1365.96,-40000,0,40023.3,-771670
step02_gravity_refstate-crust.xmf,38,1.36282e-05,-6.71801e-05,0,1.64678e-05,-1.10006e+09,-1.10561e+09,-1.101e+09,1.12969e+06,0.0300842,-0.480088,0,0.48103,2048.93,-40000,0,40052.4,-1.12969e+06
step02_gravity_refstate-crust.xmf,39,1.06801e-05,-5.8441e-05,0,2.50527e-05,-1.10002e+09,-1.10476e+09,-1.10075e+09,1.71862e+06,0.0467675,-0.450151,0,0.452574,3414.86,-40000,0,40145.5,-1.71862e+06
step02_gravity_refstate-crust.xmf,40,1.22831e-05,-6.30842e-05,0,2.10889e-05,-1.10004e+09,-1.10521e+09,-1.10088e+09,1.4467e+06,0.0389325,-0.466691,0,0.468313,2731.89,-40000,0,40093.2,-1.4467e+06
step02_gravity_refstate-crust.xmf,41,8.7433e-06,-5.28084e-05,0,2.78394e-05,-1.09999e+09,-1.10422e+09,-1.10059e+09,1.90978e+06,0.0533779,-0.431048,0,0.434341,4097.91,-40000,0,40209.4,-1.90978e+06
step02_gravity_refstate-crust.xmf,42,6.71723e-06,-4.67825e-05,0,2.93539e-05,-1.09996e+09,-1.10363e+09,-1.10042e+09,2.01368e+06,0.0586621,-0.410011,0,0.414186,4783.65,-40000,0,40285,-2.01368e+06
step02_gravity_refstate-crust.xmf,43,4.77779e-06,-4.07819e-05,0,2.96393e-05,-1.09992e+09,-1.10305e+09,-1.10025e+09,2.03325e+06,0.0626355,-0.387598,0,0.392627,5477.46,-40000,0,40373.3,-2.03325e+06
step02_gravity_refstate-crust.xmf,44,3.06074e-06,-3.51448e-05,0,2.88996e-05,-1.09987e+09,-1.1025e+09,-1.10008e+09,1.98251e+06,0.0653987,-0.364328,0,0.370151,6184.51,-40000,0,40475.3,-1.98251e+06
step02_gravity_refstate-crust.xmf,45,1.65387e-06,-3.01099e-05,0,2.74273e-05,-1.09982e+09,-1.102e+09,-1.09993e+09,1.88152e+06,0.0671059,-0.340639,0,0.347186,6909.43,-40000,0,40592.4,-1.88152e+06
step02_gravity_refstate-crust.xmf,46,5.61137e-07,-2.57385e-05,0,2.55026e-05,-1.09975e+09,-1.10156e+09,-1.09979e+09,1.74948e+06,0.0679282,-0.316876,0,0.324075,7656.37,-40000,0,40726.2,-1.74948e+06
step02_gravity_refstate-crust.xmf,47,-2.50667e-07,-2.20482e-05,0,2.33721e-05,-1.09969e+09,-1.10118e+09,-1.09967e+09,1.60332e+06,0.0680429,-0.293298,0,0.301087,8429.03,-40000,0,40878.5,-1.60332e+06
step02_gravity_refstate-crust.xmf,48,-8.34247e-07,-1.89612e-05,0,2.11597e-05,-1.09962e+09,-1.10086e+09,-1.09956e+09,1.45156e+06,0.0676018,-0.270099,0,0.27843,9230.72,-40000,0,41051.3,-1.45156e+06
step02_gravity_refstate-crust.xmf,49,-1.23653e-06,-1.63416e-05,0,1.89873e-05,-1.09955e+09,-1.10059e+09,-1.09947e+09,1.30253e+06,0.0667339,-0.247424,0,0.256265,10064.5,-40000,0,41246.8,-1.30253e+06
step02_gravity_refstate-crust.xmf,50,-1.49969e-06,-1.4173e-05,0,1.69241e-05,-1.09949e+09,-1.10036e+09,-1.09939e+09,1.16099e+06,0.0655454,-0.225388,0,0.234725,10932.8,-40000,0,41467.2,-1.16099e+06
step02_gravity_refstate-crust.xmf,51,-1.65858e-06,-1.23593e-05,0,1.49993e-05,-1.09943e+09,-1.10016e+09,-1.09932e+09,1.02895e+06,0.0641183,-0.204079,0,0.213914,11837.8,-40000,0,41714.9,-1.02895e+06
step02_gravity_refstate-crust.xmf,52,-1.74808e-06,-1.08378e-05,0,1.32373e-05,-1.09938e+09,-1.1e+09,-1.09926e+09,908078,0.0625122,-0.183548,0,0.193902,12782.4,-40000,0,41992.7,-908078
step02_gravity_refstate-crust.xmf,53,-1.79094e-06,-9.54696e-06,0,1.16334e-05,-1.09933e+09,-1.09986e+09,-1.0992e+09,798049,0.0607691,-0.163834,0,0.174741,13769.1,-40000,0,42303.5,-798049
step02_gravity_refstate-crust.xmf,54,-1.80905e-06,-8.44639e-06,0,1.01897e-05,-1.09928e+09,-1.09974e+09,-1.09916e+09,699011,0.0589141,-0.144965,0,0.156479,14800.9,-40000,0,42650.5,-699011
step02_gravity_refstate-crust.xmf,55,-1.8185e-06,-7.4916e-06,0,8.8955e-06,-1.09924e+09,-1.09963e+09,-1.09912e+09,610231,0.056958,-0.126967,0,0.139157,15880.5,-40000,0,43037.1,-610231
step02_gravity_refstate-crust.xmf,56,-1.82946e-06,-6.64989e-06,0,7.73948e-06,-1.09921e+09,-1.09954e+09,-1.09908e+09,530928,0.0548987,-0.109859,0,0.122812,17010.7,-40000,0,43466.8,-530928
step02_gravity_refstate-crust.xmf,57,-1.85154e-06,-5.8907e-06,0,6.70584e-06,-1.09918e+09,-1.09945e+09,-1.09905e+09,460021,0.0527241,-0.0936605,0,0.107481,18194.5,-40000,0,43943.6,-460021
step02_gravity_refstate-crust.xmf,58,-1.88504e-06,-5.20003e-06,0,5.79022e-06,-1.09915e+09,-1.09938e+09,-1.09902e+09,397209,0.0504106,-0.0783901,0,0.0932,19434.8,-40000,0,44471.5,-397209
step02_gravity_refstate-crust.xmf,59,-1.93396e-06,-4.57753e-06,0,4.98114e-06,-1.09913e+09,-1.09931e+09,-1.099e+09,341706,0.0479305,-0.0640656,0,0.0800109,20734.8,-40000,0,45054.8,-341706
step02_gravity_refstate-crust.xmf,60,-2.00178e-06,-3.99563e-06,0,4.26107e-06,-1.09911e+09,-1.09925e+09,-1.09898e+09,292309,0.0452508,-0.0507092,0,0.0679637,22097.7,-40000,0,45698,-292309
step02_gravity_refstate-crust.xmf,61,-2.08725e-06,-3.44544e-06,0,3.61668e-06,-1.0991e+09,-1.09919e+09,-1.09896e+09,248104,0.0423332,-0.0383448,0,0.0571176,23526.8,-40000,0,46405.9,-248104
step02_gravity_refstate-crust.xmf,62,-2.18382e-06,-2.93402e-06,0,3.04869e-06,-1.09909e+09,-1.09914e+09,-1.09894e+09,209140,0.039136,-0.026999,0,0.0475455,25025.6,-40000,0,47183.5,-209140
step02_gravity_refstate-crust.xmf,63,-2.29061e-06,-2.46363e-06,0,2.54252e-06,-1.09908e+09,-1.09909e+09,-1.09892e+09,174417,0.0356218,-0.0167043,0,0.0393439,26597.7,-40000,0,48035.8,-174417
step02_gravity_refstate-crust.xmf,64,-2.40324e-06,-2.03098e-06,0,2.08966e-06,-1.09907e+09,-1.09905e+09,-1.09891e+09,143351,0.031753,-0.00750145,0,0.032627,28247.1,-40000,0,48968.3,-143351
step02_gravity_refstate-crust.xmf,65,-2.51742e-06,-1.63674e-06,0,1.67654e-06,-1.09907e+09,-1.09901e+09,-1.0989e+09,115010,0.0274977,0.000559254,0,0.0275034,29977.6,-40000,0,49986.5,-115010
step02_gravity_refstate-crust.xmf,66,-2.62541e-06,-1.28586e-06,0,1.30281e-06,-1.09907e+09,-1.09897e+09,-1.09889e+09,89373.1,0.0228304,0.00741471,0,0.0240043,31793.3,-40000,0,51096.1,-89373.1
step02_gravity_refstate-crust.xmf,67,-2.72104e-06,-9.97172e-07,0,9.57794e-07,-1.09906e+09,-1.09895e+09,-1.09888e+09,65704.6,0.0177385,0.0129842,0,0.0219828,33698.8,-40000,0,52303,-65704.6
step02_gravity_refstate-crust.xmf,68,-2.79838e-06,-7.74118e-07,0,6.30286e-07,-1.09906e+09,-1.09893e+09,-1.09887e+09,43237.7,0.0122218,0.0171621,0,0.0210692,35698.5,-40000,0,53613.3,-43237.7
step02_gravity_refstate-crust.xmf,69,-2.86867e-06,-5.76776e-07,0,4.30059e-09,-1.09906e+09,-1.09891e+09,-1.09887e+09,295.02,2.13342e-19,0.0207433,0,0.0207433,40000,-40000,0,56568.5,-295.02
step02_gravity_refstate-crust.xmf,70,-2.849e-06,-6.34025e-07,0,3.23699e-07,-1.09906e+09,-1.09891e+09,-1.09887e+09,22205.8,0.00629562,0.0198101,0,0.0207864,37797.2,-40000,0,55033,-22205.8
step02_gravity_refstate-crust.xmf,71,5.0739e-06,-1.80526e-06,0,4.29922e-09,-1.46408e+08,-1.4688e+08,-1.46756e+08,294.927,1.99851e-18,-0.0264275,0,0.0264275,-40000,-5347.88,-0,40355.9,-294.927
step02_gravity_refstate-crust.xmf,72,5.62124e-06,-1.99229e-06,0,-3.32818e-07,-1.11726e+08,-1.12249e+08,-1.12112e+08,-22831.3,0.0123514,-0.030778,0,0.0331639,-37823.8,-4087.17,-0,38044,-22831.3
step02_gravity_refstate-crust.xmf,73,6.44611e-06,-2.31211e-06,0,-3.76448e-09,-7.39079e+07,-7.45088e+07,-7.43501e+07,-258.243,9.39242e-19,-0.0318366,0,0.0318366,-40000,-2713.19,-0,40091.9,-258.243
step02_gravity_refstate-crust.xmf,74,4.50878e-06,-1.64732e-06,0,-4.8066e-07,-1.8133e+08,-1.81752e+08,-1.81639e+08,-32973.3,0.00988348,-0.0261718,0,0.0279758,-37824.5,-6617.18,-0,38399,-32973.3
step02_gravity_refstate-crust.xmf,75,4.06722e-06,-1.55881e-06,0,-9.67026e-07,-2.07909e+08,-2.08295e+08,-2.08188e+08,-66338,0.0167094,-0.0293278,0,0.0337539,-35985.1,-7583.18,-0,36775.5,-66338
step02_gravity_refstate-crust.xmf,76,4.86984e-06,-1.74203e-06,0,-8.64987e-07,-1.46063e+08,-1.46517e+08,-1.46397e+08,-59338.1,0.0226136,-0.0347387,0,0.0414506,-35503.6,-5334.58,-0,35902.1,-59338.1
step02_gravity_refstate-crust.xmf,77,4.03766e-06,-1.5451e-06,0,-1.44925e-06,-2.01002e+08,-2.01385e+08,-2.01279e+08,-99418.7,0.0252359,-0.0379748,0,0.0455954,-33993.1,-7331.61,-0,34774.7,-99418.7
step02_gravity_refstate-crust.xmf,78,6.88054e-06,-2.50032e-06,0,-1.55527e-07,-5.24722e+07,-5.31158e+07,-5.29442e+07,-10669.2,0.0133915,-0.0352299,0,0.0376893,-38064.7,-1934.27,-0,38113.8,-10669.2
step02_gravity_refstate-crust.xmf,79,8.32247e-06,-3.1831e-06,0,3.26168e-08,789509,226.865,218588,2237.51,6.73239e-19,-0.0392189,0,0.0392189,-40000,0,-0,40000,-2237.51
step02_gravity_refstate-crust.xmf,80,3.49087e-06,-1.49549e-06,0,-1.36359e-06,-2.56743e+08,-2.57085e+08,-2.56982e+08,-93542.3,0.0178082,-0.0301406,0,0.0350084,-35039.2,-9358.79,-0,36267.5,-93542.3
step02_gravity_refstate-crust.xmf,81,3.62638e-06,-1.49546e-06,0,-6.62824e-07,-2.54391e+08,-2.54743e+08,-2.5464e+08,-45469.7,0.00886842,-0.0225041,0,0.0241885,-37565.3,-9273.73,-0,38693.1,-45469.7
step02_gravity_refstate-crust.xmf,82,4.07317e-06,-1.55504e-06,0,2.13065e-09,-2.16915e+08,-2.17301e+08,-2.17194e+08,146.163,1.79177e-18,-0.0221242,0,0.0221242,-40000,-7911.08,-0,40774.8,-146.163
step02_gravity_refstate-crust.xmf,83,3.8263e-06,-1.49051e-06,0,-2.00227e-06,-1.99218e+08,-1.99583e+08,-1.99481e+08,-137355,0.0340884,-0.0509989,0,0.0613425,-31781.7,-7265.91,-0,32601.7,-137355
step02_gravity_refstate-crust.xmf,84,3.39369e-06,-1.48812e-06,0,-1.98957e-06,-2.53291e+08,-2.53626e+08,-2.53524e+08,-136484,0.0257454,-0.0415261,0,0.0488594,-32813.8,-9232.74,-0,34087.9,-136484
step02_gravity_refstate-crust.xmf,85,4.5689e-06,-1.65506e-06,0,-1.39362e-06,-1.50204e+08,-1.50631e+08,-1.50517e+08,-95602.6,0.0341734,-0.0462992,0,0.0575451,-32986,-5484.23,-0,33438.8,-95602.6
step02_gravity_refstate-crust.xmf,86,6.38762e-06,-2.28634e-06,0,-4.38374e-07,-6.73855e+07,-6.79805e+07,-6.78237e+07,-30072.5,0.0275674,-0.0395363,0,0.0481984,-35771.6,-2475.54,-0,35857.2,-30072.5
step02_gravity_refstate-crust.xmf,87,8.1977e-06,-3.12155e-06,0,2.38436e-08,778261,1760.72,215899,1635.67,0.0228173,-0.0421639,0,0.0479419,-37239.8,0,-0,37239.8,-1635.67
step02_gravity_refstate-crust.xmf,88,3.27219e-06,-1.46044e-06,0,-2.61997e-06,-2.49554e+08,-2.49879e+08,-2.49778e+08,-179730,0.0332951,-0.0564763,0,0.0655601,-30648.3,-9096.24,-0,31969.7,-179730
step02_gravity_refstate-crust.xmf,89,5.43121e-06,-1.92662e-06,0,-8.9071e-07,-1.04132e+08,-1.04636e+08,-1.04504e+08,-61102.7,0.0341875,-0.043935,0,0.0556692,-34004.8,-3810,-0,34217.6,-61102.7
step02_gravity_refstate-crust.xmf,90,2.90352e-06,-1.54137e-06,0,-3.18465e-06,-2.98253e+08,-2.98558e+08,-2.98452e+08,-218467,0.0324132,-0.0623814,0,0.0702998,-29592.6,-10867.6,-0,31525,-218467
step02_gravity_refstate-crust.xmf,91,2.71982e-06,-1.48606e-06,0,-3.96279e-06,-2.90708e+08,-2.90996e+08,-2.90894e+08,-271848,0.0398507,-0.0856328,0,0.0944513,-27180,-10592.2,-0,29171,-271848
step02_gravity_refstate-crust.xmf,92,2.69641e-06,-1.68638e-06,0,-3.8172e-06,-3.37425e+08,-3.37726e+08,-3.3761e+08,-261860,0.0333977,-0.0731653,0,0.0804274,-28154.7,-12292.6,-0,30721.3,-261860
step02_gravity_refstate-crust.xmf,93,2.57466e-06,-1.6658e-06,0,-4.52422e-06,-3.34733e+08,-3.35024e+08,-3.34909e+08,-310361,0.0387533,-0.0937224,0,0.101419,-26195.3,-12194.1,-0,28894.5,-310361
step02_gravity_refstate-crust.xmf,94,2.57699e-06,-1.90242e-06,0,-4.31573e-06,-3.80692e+08,-3.81e+08,-3.80869e+08,-296059,0.0332234,-0.0815033,0,0.0880146,-27047.9,-13867,-0,30395.4,-296059
step02_gravity_refstate-crust.xmf,95,2.99339e-06,-1.54813e-06,0,-2.52026e-06,-3.03687e+08,-3.03999e+08,-3.03892e+08,-172890,0.0259095,-0.0461191,0,0.0528987,-31664.6,-11065.7,-0,33542.5,-172890
step02_gravity_refstate-crust.xmf,96,3.02662e-06,-1.52441e-06,0,-1.84268e-06,-3.07866e+08,-3.08178e+08,-3.08073e+08,-126408,0.0191076,-0.0328921,0,0.0380393,-33835.5,-11218,-0,35646.6,-126408
step02_gravity_refstate-crust.xmf,97,3.05886e-06,-1.50095e-06,0,-1.1865e-06,-3.10307e+08,-3.1062e+08,-3.10517e+08,-81393.6,0.0124003,-0.0236743,0,0.0267253,-35993.1,-11307.1,-0,37727.4,-81393.6
step02_gravity_refstate-crust.xmf,98,3.3225e-06,-1.47103e-06,0,-1.06355e-09,-2.85628e+08,-2.85957e+08,-2.85856e+08,-72.9599,1.1545e-18,-0.0183401,0,0.0183401,-40000,-10409.7,-0,41332.3,-72.9599
step02_gravity_refstate-crust.xmf,99,3.00581e-06,-1.39652e-06,0,-3.25337e-06,-2.45882e+08,-2.46184e+08,-2.46088e+08,-223181,0.0405364,-0.0752619,0,0.0854843,-28467.2,-8961.58,-0,29844.5,-223181
step02_gravity_refstate-crust.xmf,100,3.53255e-06,-1.40271e-06,0,-2.56428e-06,-1.97182e+08,-1.97521e+08,-1.97424e+08,-175910,0.0424127,-0.0678088,0,0.0799804,-29581.4,-7190.73,-0,30442.8,-175910
step02_gravity_refstate-crust.xmf,101,4.21769e-06,-1.53781e-06,0,-1.86968e-06,-1.49558e+08,-1.49953e+08,-1.49848e+08,-128260,0.0442604,-0.0613666,0,0.0756627,-30708.8,-5459.5,-0,31190.3,-128260
step02_gravity_refstate-crust.xmf,102,5.13181e-06,-1.82201e-06,0,-1.19311e-06,-1.01521e+08,-1.01998e+08,-1.01873e+08,-81847.2,0.0457555,-0.0561237,0,0.0724116,-31879.4,-3713.9,-0,32095,-81847.2
step02_gravity_refstate-crust.xmf,103,6.29176e-06,-2.27349e-06,0,-5.75317e-07,-5.38233e+07,-5.44109e+07,-5.42549e+07,-39466.8,0.0457136,-0.052025,0,0.0692556,-33172.8,-1981.43,-0,33231.9,-39466.8
step02_gravity_refstate-crust.xmf,104,7.88002e-06,-3.00138e-06,0,8.21699e-09,748068,1603.56,207498,563.686,0.0442001,-0.0505351,0,0.0671376,-34578.2,0,-0,34578.2,-563.686
step02_gravity_refstate-crust.xmf,105,2.52628e-06,-1.90116e-06,0,-5.03913e-06,-3.7771e+08,-3.78014e+08,-3.77883e+08,-345684,0.0382163,-0.10271,0,0.10959,-25176.7,-13758.2,-0,28690.6,-345684
step02_gravity_refstate-crust.xmf,106,2.67944e-06,-1.71149e-06,0,-3.09549e-06,-3.59074e+08,-3.59375e+08,-3.59258e+08,-212350,0.0260508,-0.0526791,0,0.0587684,-30334.5,-13080.6,-0,33034.6,-212350
step02_gravity_refstate-crust.xmf,107,2.58911e-06,-1.87139e-06,0,-3.69812e-06,-3.84775e+08,-3.85081e+08,-3.84953e+08,-253691,0.0286929,-0.0649945,0,0.0710463,-28697.2,-14015.7,-0,31937,-253691
step02_gravity_refstate-crust.xmf,108,2.99257e-06,-1.48364e-06,0,-5.67619e-07,-3.22587e+08,-3.22895e+08,-3.22793e+08,-38938.7,0.00573047,-0.0178685,0,0.0187649,-38088.4,-11753.9,-0,39860.7,-38938.7
step02_gravity_refstate-crust.xmf,109,2.49689e-06,-1.40599e-06,0,-4.60431e-06,-2.88818e+08,-2.89085e+08,-2.88989e+08,-315856,0.0449241,-0.106537,0,0.115621,-25301.5,-10522.6,-0,27402.4,-315856
step02_gravity_refstate-crust.xmf,110,2.40903e-06,-1.59127e-06,0,-5.22896e-06,-3.32475e+08,-3.3275e+08,-3.32641e+08,-358706,0.0436524,-0.116349,0,0.124268,-24298.4,-12111.4,-0,27149.5,-358706
step02_gravity_refstate-crust.xmf,111,2.70468e-06,-2.42644e-06,0,-6.08619e-06,-4.5113e+08,-4.51482e+08,-4.51316e+08,-417512,0.0396834,-0.127508,0,0.133541,-22804.2,-16431,-0,28107.1,-417512
step02_gravity_refstate-crust.xmf,112,2.51218e-06,-2.05547e-06,0,-6.33503e-06,-4.11398e+08,-4.11711e+08,-4.1157e+08,-434583,0.0435038,-0.138888,0,0.145542,-22223,-14984.3,-0,26802.8,-434583
step02_gravity_refstate-crust.xmf,113,2.66766e-06,-2.32983e-06,0,-6.82445e-06,-4.49081e+08,-4.49424e+08,-4.49264e+08,-468158,0.044101,-0.150859,0,0.157173,-21200,-16356.4,-0,26776.3,-468158
step02_gravity_refstate-crust.xmf,114,2.73427e-06,-1.29273e-06,0,-3.89605e-06,-2.43238e+08,-2.43515e+08,-2.43426e+08,-267269,0.0468905,-0.0966813,0,0.107452,-26368.2,-8864.4,-0,27818.3,-267269
step02_gravity_refstate-crust.xmf,115,2.58699e-06,-2.1695e-06,0,-5.54021e-06,-4.17687e+08,-4.18013e+08,-4.17864e+08,-380059,0.0383978,-0.113356,0,0.119683,-24077.5,-15213.4,-0,28481.1,-380059
step02_gravity_refstate-crust.xmf,116,2.4207e-06,-1.81211e-06,0,-5.81201e-06,-3.73315e+08,-3.73606e+08,-3.73481e+08,-398704,0.0432996,-0.127491,0,0.134643,-23243.8,-13597.9,-0,26929.1,-398704
step02_gravity_refstate-crust.xmf,117,2.57219e-06,-2.17138e-06,0,-4.72853e-06,-4.23098e+08,-4.23423e+08,-4.23275e+08,-324377,0.0329872,-0.0893366,0,0.0952322,-26039.2,-15410.4,-0,30257.5,-324377
step02_gravity_refstate-crust.xmf,118,2.89457e-06,-2.64542e-06,0,-7.17633e-06,-4.86078e+08,-4.86458e+08,-4.86276e+08,-492296,0.0443342,-0.159727,0,0.165765,-20409.6,-17703.8,-0,27018,-492296
step02_gravity_refstate-crust.xmf,119,2.55125e-06,-2.06977e-06,0,-7.59456e-06,-4.44108e+08,-4.44425e+08,-4.44283e+08,-520987,0.0485,-0.176327,0,0.182875,-19600.4,-16175.3,-0,25412.9,-520987
step02_gravity_refstate-crust.xmf,120,2.87215e-06,-2.73784e-06,0,-6.44007e-06,-4.87754e+08,-4.88138e+08,-4.87951e+08,-441789,0.0399944,-0.137166,0,0.142878,-21882.3,-17764.5,-0,28185.3,-441789
step02_gravity_refstate-crust.xmf,121,2.51506e-06,-2.08867e-06,0,-3.97113e-06,-4.2545e+08,-4.25766e+08,-4.25623e+08,-272420,0.027908,-0.0688779,0,0.074317,-27975.9,-15495.9,-0,31980.8,-272420
step02_gravity_refstate-crust.xmf,122,2.7025e-06,-1.63819e-06,0,-2.28384e-06,-3.57742e+08,-3.5804e+08,-3.57928e+08,-156671,0.0197581,-0.0363046,0,0.0413328,-32704.7,-13032.4,-0,35205.7,-156671
step02_gravity_refstate-crust.xmf,123,2.67113e-06,-1.57786e-06,0,-1.59825e-06,-3.62608e+08,-3.62899e+08,-3.62791e+08,-109640,0.0138323,-0.0251692,0,0.0287197,-34826.8,-13209.5,-0,37247.8,-109640
step02_gravity_refstate-crust.xmf,124,2.71125e-06,-1.53131e-06,0,-1.0333e-06,-3.57755e+08,-3.58046e+08,-3.57941e+08,-70884.6,0.00916559,-0.0191522,0,0.0212324,-36618.4,-13033,-0,38868.5,-70884.6
step02_gravity_refstate-crust.xmf,125,2.74505e-06,-1.49241e-06,0,-1.82914e-09,-3.52742e+08,-3.53033e+08,-3.52931e+08,-125.479,9.60152e-19,-0.014724,0,0.014724,-40000,-12850.7,-0,42013.6,-125.479
step02_gravity_refstate-crust.xmf,126,2.35138e-06,-1.84249e-06,0,-7.06217e-06,-4.06958e+08,-4.07246e+08,-4.0712e+08,-484465,0.0478202,-0.164089,0,0.170915,-20541.6,-14822.4,-0,25331,-484465
step02_gravity_refstate-crust.xmf,127,2.84683e-06,-2.4565e-06,0,-7.88353e-06,-4.85285e+08,-4.85649e+08,-4.8548e+08,-540810,0.0482768,-0.182077,0,0.188368,-19049.9,-17675,-0,25986.6,-540810
step02_gravity_refstate-crust.xmf,128,2.52157e-06,-1.97361e-06,0,-8.16673e-06,-4.56269e+08,-4.56577e+08,-4.56442e+08,-560238,0.0509151,-0.19431,0,0.20087,-18470.4,-16618.1,-0,24845.8,-560238
step02_gravity_refstate-crust.xmf,129,2.9956e-06,-2.38524e-06,0,-8.93959e-06,-5.13833e+08,-5.14202e+08,-5.14038e+08,-613256,0.0527105,-0.213446,0,0.219858,-17150,-18715,-0,25384.5,-613256
step02_gravity_refstate-crust.xmf,130,3.41499e-06,-3.04596e-06,0,-8.55134e-06,-5.48409e+08,-5.48852e+08,-5.48643e+08,-586622,0.0495776,-0.200828,0,0.206857,-17641.1,-19974.5,-0,26649.3,-586622
step02_gravity_refstate-crust.xmf,131,3.27088e-06,-2.60937e-06,0,-9.32433e-06,-5.41708e+08,-5.42111e+08,-5.41932e+08,-639649,0.053753,-0.223635,0,0.230004,-16489.1,-19730.6,-0,25713.6,-639649
step02_gravity_refstate-crust.xmf,132,3.1287e-06,-2.76016e-06,0,-8.21392e-06,-5.18362e+08,-5.18766e+08,-5.18577e+08,-563475,0.0488253,-0.190943,0,0.197087,-18358.1,-18879.9,-0,26333.8,-563475
step02_gravity_refstate-crust.xmf,133,2.73412e-06,-2.1638e-06,0,-8.54492e-06,-4.84185e+08,-4.84521e+08,-4.84372e+08,-586182,0.0517377,-0.203527,0,0.21,-17824.6,-17634.9,-0,25074.1,-586182
step02_gravity_refstate-crust.xmf,134,3.59619e-06,-2.88029e-06,0,-9.71384e-06,-5.70545e+08,-5.70989e+08,-5.70791e+08,-666369,0.0547373,-0.234265,0,0.240575,-15822.6,-20781.3,-0,26119.3,-666369
step02_gravity_refstate-crust.xmf,135,3.05252e-06,-2.05933e-06,0,-1.01223e-05,-5.39748e+08,-5.40099e+08,-5.39958e+08,-694391,0.0575553,-0.247806,0,0.254402,-15305.2,-19659.2,-0,24914.5,-694391
step02_gravity_refstate-crust.xmf,136,3.11428e-06,-1.27547e-06,0,-3.11924e-06,-1.9611e+08,-1.96411e+08,-1.96323e+08,-213980,0.0496833,-0.087561,0,0.100674,-27449.2,-7150.2,-0,28365.2,-213980
step02_gravity_refstate-crust.xmf,137,3.76954e-06,-1.38352e-06,0,-2.34441e-06,-1.48567e+08,-1.48921e+08,-1.48826e+08,-160827,0.0532564,-0.0798278,0,0.0959621,-28495.4,-5421.85,-0,29006.6,-160827
step02_gravity_refstate-crust.xmf,138,4.6386e-06,-1.64464e-06,0,-1.54426e-06,-1.00261e+08,-1.00692e+08,-1.00579e+08,-105936,0.0572302,-0.0731136,0,0.0928488,-29575.8,-3666.32,-0,29802.1,-105936
step02_gravity_refstate-crust.xmf,139,5.80819e-06,-2.09893e-06,0,-7.56527e-07,-5.09467e+07,-5.14891e+07,-5.13451e+07,-51897.7,0.060918,-0.0674621,0,0.0908963,-30747,-1875.01,-0,30804.1,-51897.7
step02_gravity_refstate-crust.xmf,140,7.33463e-06,-2.79274e-06,0,9.16263e-09,696331,1593.55,193176,628.556,0.0637607,-0.0636803,0,0.0901144,-32008.2,0,-0,32008.2,-628.556
step02_gravity_refstate-crust.xmf,141,3.38756e-06,-2.26809e-06,0,-1.06025e-05,-5.68457e+08,-5.68845e+08,-5.68689e+08,-727331,0.0588591,-0.259236,0,0.265834,-14665.9,-20705.4,-0,25373.3,-727331
step02_gravity_refstate-crust.xmf,142,2.67091e-06,-2.51372e-06,0,-5.18238e-06,-4.68147e+08,-4.68502e+08,-4.6833e+08,-355511,0.0332487,-0.100055,0,0.105435,-24797.2,-17050.3,-0,30093.4,-355511
step02_gravity_refstate-crust.xmf,143,2.80082e-06,-2.73684e-06,0,-5.77298e-06,-4.89033e+08,-4.89412e+08,-4.89225e+08,-396027,0.0359288,-0.117323,0,0.122701,-23291.2,-17810.8,-0,29320.7,-396027
step02_gravity_refstate-crust.xmf,144,3.93742e-06,-3.17308e-06,0,-1.00791e-05,-5.97662e+08,-5.9815e+08,-5.97932e+08,-691423,0.0555187,-0.244657,0,0.250877,-15197.2,-21769.5,-0,26549.3,-691423
step02_gravity_refstate-crust.xmf,145,3.73895e-06,-2.4922e-06,0,-1.11076e-05,-5.9636e+08,-5.96787e+08,-5.96616e+08,-761978,0.0601391,-0.271639,0,0.278217,-14013.6,-21722.3,-0,25850.4,-761978
step02_gravity_refstate-crust.xmf,146,3.69884e-06,-3.31976e-06,0,-8.87394e-06,-5.75232e+08,-5.75713e+08,-5.75485e+08,-608752,0.0503427,-0.210915,0,0.21684,-16951.7,-20951.7,-0,26950.6,-608752
step02_gravity_refstate-crust.xmf,147,2.44832e-06,-1.97044e-06,0,-3.27888e-06,-4.25047e+08,-4.2535e+08,-4.25215e+08,-224931,0.0232983,-0.0521883,0,0.0571527,-29847.1,-15481.1,-0,33623.1,-224931
step02_gravity_refstate-crust.xmf,148,2.45578e-06,-1.8038e-06,0,-2.64733e-06,-4.08267e+08,-4.0856e+08,-4.08436e+08,-181607,0.0197163,-0.0395592,0,0.0442003,-31696.2,-14870.5,-0,35011.2,-181607
step02_gravity_refstate-crust.xmf,149,2.51373e-06,-1.53301e-06,0,-5.80612e-07,-3.83792e+08,-3.84069e+08,-3.83964e+08,-39830,0.00478089,-0.014498,0,0.0152659,-38097.6,-13980.1,-0,40581.6,-39830
step02_gravity_refstate-crust.xmf,150,2.36432e-06,-1.14298e-06,0,-4.50668e-06,-2.42163e+08,-2.42404e+08,-2.42326e+08,-309159,0.0520319,-0.119507,0,0.130342,-24401.7,-8823.99,-0,25948.1,-309159
step02_gravity_refstate-crust.xmf,151,2.19783e-06,-1.25941e-06,0,-5.25775e-06,-2.87024e+08,-2.87261e+08,-2.87175e+08,-360682,0.049573,-0.130305,0,0.139416,-23392.5,-10456.3,-0,25623.1,-360682
step02_gravity_refstate-crust.xmf,152,2.21549e-06,-1.62257e-06,0,-6.54465e-06,-3.69474e+08,-3.69738e+08,-3.69626e+08,-448963,0.0477885,-0.153453,0,0.160722,-21408,-13457.5,-0,25286.5,-448963
step02_gravity_refstate-crust.xmf,153,2.16323e-06,-1.43071e-06,0,-5.93283e-06,-3.29837e+08,-3.30083e+08,-3.29985e+08,-406992,0.0481823,-0.141508,0,0.149486,-22402.5,-12014.6,-0,25420.9,-406992
step02_gravity_refstate-crust.xmf,154,2.13508e-06,-1.58468e-06,0,-7.58596e-06,-4.01454e+08,-4.01709e+08,-4.016e+08,-520397,0.0509249,-0.184727,0,0.191618,-19256.6,-14621.5,-0,24178.6,-520397
step02_gravity_refstate-crust.xmf,155,2.16919e-06,-1.5446e-06,0,-8.15919e-06,-4.23758e+08,-4.24013e+08,-4.23907e+08,-559720,0.0523559,-0.200079,0,0.206816,-18255.1,-15433.7,-0,23905,-559720
step02_gravity_refstate-crust.xmf,156,2.74862e-06,-1.87065e-06,0,-9.6484e-06,-5.10025e+08,-5.10341e+08,-5.10213e+08,-661881,0.056225,-0.236678,0,0.243265,-15959.2,-18576.2,-0,24490.2,-661881
step02_gravity_refstate-crust.xmf,157,2.48327e-06,-1.70675e-06,0,-9.173e-06,-4.79728e+08,-4.80015e+08,-4.79898e+08,-629268,0.054936,-0.225608,0,0.2322,-16637.6,-17472.4,-0,24126.7,-629268
step02_gravity_refstate-crust.xmf,158,2.27121e-06,-1.57605e-06,0,-8.69585e-06,-4.50125e+08,-4.50389e+08,-4.50281e+08,-596535,0.0537534,-0.214356,0,0.220993,-17349.5,-16394,-0,23869.8,-596535
step02_gravity_refstate-crust.xmf,159,2.66654e-06,-1.11183e-06,0,-3.67569e-06,-1.95994e+08,-1.96253e+08,-1.96177e+08,-252152,0.0556404,-0.109332,0,0.122676,-25421,-7144.42,-0,26405.8,-252152
step02_gravity_refstate-crust.xmf,160,3.00597e-06,-1.42113e-06,0,-1.15071e-05,-5.67053e+08,-5.67357e+08,-5.67259e+08,-789387,0.0626603,-0.286053,0,0.292836,-13484.8,-20654.1,-0,24666.4,-789387
step02_gravity_refstate-crust.xmf,161,4.67224e-06,-1.80913e-06,0,-1.4897e-05,-6.79451e+08,-6.79896e+08,-6.79772e+08,-1.02193e+06,0.0691393,-0.356421,0,0.363065,-10656.7,-24752.2,-0,26948.8,-1.02193e+06
step02_gravity_refstate-crust.xmf,162,5.04311e-06,-3.0281e-06,0,-1.34732e-05,-6.79598e+08,-6.80152e+08,-6.79944e+08,-924261,0.0646312,-0.327683,0,0.333996,-11582,-24757.2,-0,27332.4,-924261
step02_gravity_refstate-crust.xmf,163,5.5203e-06,-3.39408e-06,0,-1.39719e-05,-7.00433e+08,-7.01045e+08,-7.00812e+08,-958475,0.0643037,-0.339213,0,0.345254,-11131.9,-25517.1,-0,27839.5,-958475
step02_gravity_refstate-crust.xmf,164,3.84087e-06,-1.40246e-06,0,-1.36007e-05,-6.37016e+08,-6.37375e+08,-6.37279e+08,-933011,0.0677001,-0.330922,0,0.337776,-11586.6,-23204.6,-0,25936.5,-933011
step02_gravity_refstate-crust.xmf,165,4.25864e-06,-2.46822e-06,0,-1.2541e-05,-6.38954e+08,-6.39416e+08,-6.39247e+08,-860313,0.0640272,-0.306458,0,0.313075,-12470.5,-23275.2,-0,26405.5,-860313
step02_gravity_refstate-crust.xmf,166,4.6116e-06,-2.70152e-06,0,-1.2988e-05,-6.58294e+08,-6.58796e+08,-6.58611e+08,-890978,0.064492,-0.316427,0,0.322932,-12043.5,-23980.3,-0,26834.7,-890978
step02_gravity_refstate-crust.xmf,167,4.19818e-06,-1.5206e-06,0,-1.42679e-05,-6.57875e+08,-6.58268e+08,-6.58163e+08,-978775,0.0687224,-0.344263,0,0.351055,-11090.1,-23965.2,-0,26406.9,-978775
step02_gravity_refstate-crust.xmf,168,3.91199e-06,1.85396e-06,0,-1.99195e-05,-7.18332e+08,-7.18473e+08,-7.18601e+08,-1.36648e+06,0.0772872,-0.449074,0,0.455676,-8112.15,-26170.3,-0,27398.8,-1.36648e+06
step02_gravity_refstate-crust.xmf,169,4.47837e-06,1.78623e-06,0,-2.11374e-05,-7.36782e+08,-7.36967e+08,-7.3709e+08,-1.45002e+06,0.0771729,-0.46674,0,0.473077,-7734.86,-26844.2,-0,27936.3,-1.45002e+06
step02_gravity_refstate-crust.xmf,170,5.48359e-06,-6.35137e-07,0,-1.91764e-05,-7.36772e+08,-7.37192e+08,-7.37148e+08,-1.3155e+06,0.0734773,-0.434151,0,0.440325,-8475.3,-26844.1,-0,28150.3,-1.3155e+06
step02_gravity_refstate-crust.xmf,171,2.69277e-06,-1.30268e-06,0,-1.09345e-05,-5.38907e+08,-5.39181e+08,-5.39092e+08,-750107,0.0610077,-0.273443,0,0.280166,-14106.3,-19628.3,-0,24171.5,-750107
step02_gravity_refstate-crust.xmf,172,5.12595e-06,1.58632e-06,0,-2.23632e-05,-7.54562e+08,-7.54805e+08,-7.54913e+08,-1.53412e+06,0.07633,-0.484401,0,0.490378,-7385.28,-27493.8,-0,28468.4,-1.53412e+06
step02_gravity_refstate-crust.xmf,173,2.93142e-06,5.21516e-06,0,-2.32666e-05,-7.37346e+08,-7.37189e+08,-7.37547e+08,-1.59609e+06,0.0799901,-0.502782,0,0.509105,-6964.54,-26863.7,-0,27751.9,-1.59609e+06
step02_gravity_refstate-crust.xmf,174,6.02908e-06,-8.70488e-07,0,-2.01627e-05,-7.5355e+08,-7.54023e+08,-7.53963e+08,-1.38316e+06,0.0725987,-0.450757,0,0.456565,-8090.67,-27456.8,-0,28624,-1.38316e+06
step02_gravity_refstate-crust.xmf,175,5.14737e-06,-2.08526e-06,0,-1.5581e-05,-6.99964e+08,-7.0046e+08,-7.00317e+08,-1.06886e+06,0.069302,-0.369964,0,0.376399,-10205.3,-25500.5,-0,27466.8,-1.06886e+06
step02_gravity_refstate-crust.xmf,176,3.33234e-06,-1.47579e-06,0,-1.21772e-05,-5.93891e+08,-5.94221e+08,-5.94119e+08,-835358,0.0643809,-0.300205,0,0.307031,-12835.8,-21632.4,-0,25153.9,-835358
step02_gravity_refstate-crust.xmf,177,4.19341e-06,-2.75225e-06,0,-1.1719e-05,-6.26002e+08,-6.26479e+08,-6.2629e+08,-803922,0.0613335,-0.285949,0,0.292453,-13307.3,-22802.9,-0,26401.9,-803922
step02_gravity_refstate-crust.xmf,178,3.16084e-06,-2.99696e-06,0,-7.47391e-06,-5.22713e+08,-5.23135e+08,-5.2293e+08,-512710,0.044567,-0.168512,0,0.174306,-19636.5,-19038,-0,27350.3,-512710
step02_gravity_refstate-crust.xmf,179,2.5123e-06,-2.37294e-06,0,-4.28346e-06,-4.68179e+08,-4.68515e+08,-4.68352e+08,-293845,0.0276025,-0.0753498,0,0.0802464,-26986.8,-17051,-0,31922.2,-293845
step02_gravity_refstate-crust.xmf,180,3.08618e-06,-3.08068e-06,0,-6.69713e-06,-5.23701e+08,-5.24124e+08,-5.23912e+08,-459423,0.0399961,-0.145339,0,0.150742,-21081.4,-19073.6,-0,28429.3,-459423
step02_gravity_refstate-crust.xmf,181,2.936e-06,-3.0336e-06,0,-5.9332e-06,-5.22041e+08,-5.2245e+08,-5.22242e+08,-407018,0.0354255,-0.122684,0,0.127697,-22645.2,-19012.6,-0,29568.3,-407018
step02_gravity_refstate-crust.xmf,182,4.32755e-06,-3.50082e-06,0,-1.04732e-05,-6.25119e+08,-6.25656e+08,-6.25416e+08,-718458,0.0561127,-0.255956,0,0.262035,-14550.7,-22770.2,-0,27022.2,-718458
step02_gravity_refstate-crust.xmf,183,3.98821e-06,-3.61967e-06,0,-9.14995e-06,-6.00479e+08,-6.01001e+08,-6.00752e+08,-627687,0.0508376,-0.220304,0,0.226094,-16326.2,-21871.6,-0,27293,-627687
step02_gravity_refstate-crust.xmf,184,3.43942e-06,-3.34959e-06,0,-7.74786e-06,-5.55773e+08,-5.56238e+08,-5.56008e+08,-531503,0.0449474,-0.178058,0,0.183643,-18853.3,-20242.2,-0,27662.1,-531503
step02_gravity_refstate-crust.xmf,185,3.72115e-06,-3.65213e-06,0,-8.05256e-06,-5.84136e+08,-5.84642e+08,-5.84392e+08,-552406,0.0455213,-0.188555,0,0.193972,-18067.8,-21275.5,-0,27912.2,-552406
step02_gravity_refstate-crust.xmf,186,3.58569e-06,-1.42619e-06,0,-1.29036e-05,-6.1683e+08,-6.17174e+08,-6.17076e+08,-885186,0.0662004,-0.316183,0,0.323039,-12164.4,-22468.6,-0,25550.2,-885186
step02_gravity_refstate-crust.xmf,187,4.76814e-06,-3.4885e-06,0,-1.17955e-05,-6.56992e+08,-6.57559e+08,-6.57319e+08,-809171,0.0600867,-0.290142,0,0.296298,-13009.4,-23932.4,-0,27239.7,-809171
step02_gravity_refstate-crust.xmf,188,5.19041e-06,-3.89412e-06,0,-1.2133e-05,-6.79677e+08,-6.803e+08,-6.80033e+08,-832322,0.0597299,-0.299943,0,0.305832,-12538.3,-24759.3,-0,27753,-832322
step02_gravity_refstate-crust.xmf,189,5.59714e-06,-4.29871e-06,0,-1.24859e-05,-7.00757e+08,-7.01436e+08,-7.01141e+08,-856532,0.0591282,-0.310735,0,0.316311,-12055.4,-25527.8,-0,28231.2,-856532
step02_gravity_refstate-crust.xmf,190,2.37121e-06,-2.21359e-06,0,-3.56393e-06,-4.68429e+08,-4.68744e+08,-4.68592e+08,-244486,0.0229724,-0.0570919,0,0.0615403,-28884,-17059.8,-0,33545.8,-244486
step02_gravity_refstate-crust.xmf,191,2.38614e-06,-1.70338e-06,0,-1.91405e-06,-4.10863e+08,-4.11144e+08,-4.11027e+08,-131304,0.0143354,-0.026698,0,0.0303032,-33870.5,-14964.9,-0,37029.2,-131304
step02_gravity_refstate-crust.xmf,192,2.33539e-06,-1.60494e-06,0,-1.14517e-06,-4.11169e+08,-4.11439e+08,-4.11329e+08,-78558.9,0.00859985,-0.0170415,0,0.0190885,-36294.8,-14976,-0,39263.1,-78558.9
step02_gravity_refstate-crust.xmf,193,2.25844e-06,-1.55702e-06,0,-9.27399e-10,-4.1845e+08,-4.18712e+08,-4.18605e+08,-63.6196,7.04307e-19,-0.0110826,0,0.0110826,-40000,-15240.8,-0,42805.2,-63.6196
step02_gravity_refstate-crust.xmf,194,1.92254e-06,-1.33638e-06,0,-7.21164e-06,-3.6702e+08,-3.67243e+08,-3.67152e+08,-494719,0.0514768,-0.179655,0,0.186885,-19688.9,-13367.4,-0,23797.9,-494719
step02_gravity_refstate-crust.xmf,195,2.40147e-06,-1.20185e-06,0,-1.03741e-05,-5.09373e+08,-5.0962e+08,-5.09538e+08,-711660,0.0593819,-0.261442,0,0.268101,-14734.7,-18552.1,-0,23691.6,-711660
step02_gravity_refstate-crust.xmf,196,3.18646e-06,-1.18694e-06,0,-2.81454e-06,-1.49225e+08,-1.49525e+08,-1.49443e+08,-193077,0.0605225,-0.100622,0,0.117421,-26388.2,-5443.72,-0,26943.9,-193077
step02_gravity_refstate-crust.xmf,197,3.99423e-06,-1.40918e-06,0,-1.90997e-06,-1.00063e+08,-1.00433e+08,-1.00337e+08,-131024,0.0670588,-0.0935028,0,0.115064,-27312.4,-3656.86,-0,27556.1,-131024
step02_gravity_refstate-crust.xmf,198,5.11204e-06,-1.83794e-06,0,-9.58412e-07,-5.02477e+07,-5.07244e+07,-5.05984e+07,-65747,0.0740369,-0.0865069,0,0.113863,-28377.2,-1847.15,-0,28437.2,-65747
step02_gravity_refstate-crust.xmf,199,6.59316e-06,-2.50797e-06,0,5.76384e-09,626042,1704.64,173751,395.399,0.0810886,-0.0809505,0,0.114579,-29522.7,0,-0,29522.7,-395.399
step02_gravity_refstate-crust.xmf,200,4.02339e-06,-2.08774e-07,0,-1.63286e-05,-6.79307e+08,-6.79598e+08,-6.79583e+08,-1.12014e+06,0.073028,-0.385897,0,0.392746,-9764.3,-24746.8,-0,26603.5,-1.12014e+06
step02_gravity_refstate-crust.xmf,201,5.60699e-06,-2.24876e-06,0,-1.6448e-05,-7.19006e+08,-7.19545e+08,-7.19391e+08,-1.12833e+06,0.0695182,-0.386874,0,0.39307,-9689.49,-26195.3,-0,27929.9,-1.12833e+06
step02_gravity_refstate-crust.xmf,202,4.47484e-06,-3.11898e-07,0,-1.72324e-05,-6.99334e+08,-6.99662e+08,-6.99641e+08,-1.18214e+06,0.0736123,-0.401284,0,0.40798,-9322.8,-25477.6,-0,27129.7,-1.18214e+06
step02_gravity_refstate-crust.xmf,203,4.9768e-06,-4.64176e-07,0,-1.81951e-05,-7.18792e+08,-7.19166e+08,-7.19134e+08,-1.24819e+06,0.0737704,-0.417487,0,0.423955,-8889.63,-26187.8,-0,27655.5,-1.24819e+06
step02_gravity_refstate-crust.xmf,204,3.78498e-06,4.67018e-06,0,-2.4551e-05,-7.5627e+08,-7.5621e+08,-7.5653e+08,-1.6842e+06,0.0790702,-0.518683,0,0.524675,-6715.91,-27555.3,-0,28361.9,-1.6842e+06
step02_gravity_refstate-crust.xmf,205,1.80147e-06,7.77788e-06,0,-2.50306e-05,-7.44422e+08,-7.44012e+08,-7.44546e+08,-1.7171e+06,0.0809656,-0.532711,0,0.538829,-6393.04,-27120.8,-0,27864.1,-1.7171e+06
step02_gravity_refstate-crust.xmf,206,2.53211e-06,4.60621e-06,0,-2.14872e-05,-7.18445e+08,-7.18303e+08,-7.18619e+08,-1.47402e+06,0.0796544,-0.4801,0,0.486663,-7386.41,-26173.1,-0,27195.4,-1.47402e+06
step02_gravity_refstate-crust.xmf,207,2.16908e-06,-3.23877e-07,0,-1.17068e-05,-5.38687e+08,-5.38858e+08,-5.38836e+08,-803083,0.063856,-0.299641,0,0.30637,-12933,-19619.7,-0,23498.8,-803083
step02_gravity_refstate-crust.xmf,208,1.9242e-06,8.60811e-06,0,-2.66152e-05,-7.57246e+08,-7.56787e+08,-7.57378e+08,-1.8258e+06,0.0807717,-0.55252,0,0.558393,-6091.31,-27589.4,-0,28253.8,-1.8258e+06
step02_gravity_refstate-crust.xmf,209,6.2058e-06,-2.67167e-06,0,-1.71945e-05,-7.39821e+08,-7.4043e+08,-7.40246e+08,-1.17955e+06,0.0683616,-0.401733,0,0.407508,-9255.15,-26954.9,-0,28499.5,-1.17955e+06
step02_gravity_refstate-crust.xmf,210,6.48807e-06,-2.49842e-06,0,-1.83462e-05,-7.52809e+08,-7.53426e+08,-7.53255e+08,-1.25855e+06,0.0688314,-0.422594,0,0.428162,-8723.44,-27429.2,-0,28782.9,-1.25855e+06
step02_gravity_refstate-crust.xmf,211,6.08774e-06,-3.93425e-06,0,-1.44055e-05,-7.22949e+08,-7.23636e+08,-7.23366e+08,-988218,0.0629832,-0.350745,0,0.356355,-10692.3,-26338.2,-0,28425.8,-988218
step02_gravity_refstate-crust.xmf,212,2.74262e-06,-2.87502e-06,0,-5.20133e-06,-5.16096e+08,-5.16481e+08,-5.16284e+08,-356811,0.0311249,-0.101155,0,0.105835,-24327,-18795.6,-0,30742.1,-356811
step02_gravity_refstate-crust.xmf,213,4.3115e-06,-3.97626e-06,0,-9.38318e-06,-6.26631e+08,-6.272e+08,-6.26927e+08,-643686,0.0508774,-0.229264,0,0.234841,-15730.9,-22824.4,-0,27720.3,-643686
step02_gravity_refstate-crust.xmf,214,3.96261e-06,-3.88348e-06,0,-8.37541e-06,-6.04967e+08,-6.05506e+08,-6.05239e+08,-574553,0.0464785,-0.199768,0,0.205103,-17323.6,-22034.5,-0,28029,-574553
step02_gravity_refstate-crust.xmf,215,6.0203e-06,-4.66715e-06,0,-1.28586e-05,-7.1932e+08,-7.20053e+08,-7.19733e+08,-882098,0.0581996,-0.321229,0,0.326459,-11612.4,-26204.7,-0,28662.4,-882098
step02_gravity_refstate-crust.xmf,216,2.25375e-06,-2.03206e-06,0,-2.88436e-06,-4.6423e+08,-4.64524e+08,-4.64384e+08,-197867,0.0187515,-0.0417639,0,0.0457804,-30825.3,-16906.7,-0,35157.3,-197867
step02_gravity_refstate-crust.xmf,217,2.15049e-06,-1.86811e-06,0,-2.2073e-06,-4.61295e+08,-4.61571e+08,-4.61443e+08,-151421,0.0144396,-0.0288082,0,0.0322244,-32858.4,-16799.7,-0,36904,-151421
step02_gravity_refstate-crust.xmf,218,2.17696e-06,-1.57938e-06,0,-4.9571e-07,-4.30806e+08,-4.31064e+08,-4.30955e+08,-34005.7,0.00354314,-0.0114456,0,0.0119814,-38370.7,-15690.3,-0,41454.7,-34005.7
step02_gravity_refstate-crust.xmf,219,2.1839e-06,-8.98246e-07,0,-4.224e-06,-1.96141e+08,-1.96353e+08,-1.96291e+08,-289766,0.0603899,-0.132823,0,0.145907,-23469.7,-7148.17,-0,24534.1,-289766
step02_gravity_refstate-crust.xmf,220,1.92226e-06,-9.31917e-07,0,-5.10299e-06,-2.4176e+08,-2.41956e+08,-2.41892e+08,-350065,0.0562147,-0.144275,0,0.15484,-22473.9,-8807.85,-0,24138.2,-350065
step02_gravity_refstate-crust.xmf,221,1.81656e-06,-1.03278e-06,0,-5.89534e-06,-2.85877e+08,-2.86072e+08,-2.86001e+08,-404420,0.0534804,-0.156147,0,0.165051,-21498.6,-10413.4,-0,23887.8,-404420
step02_gravity_refstate-crust.xmf,222,1.82413e-06,-1.16959e-06,0,-6.61017e-06,-3.27985e+08,-3.2819e+08,-3.2811e+08,-453457,0.0520357,-0.168494,0,0.176346,-20534.2,-11946.2,-0,23756.4,-453457
step02_gravity_refstate-crust.xmf,223,1.66365e-06,-1.02011e-06,0,-7.96584e-06,-3.77935e+08,-3.7812e+08,-3.7805e+08,-546457,0.0540876,-0.206542,0,0.213507,-17998.4,-13764.3,-0,22658.2,-546457
step02_gravity_refstate-crust.xmf,224,1.71815e-06,-9.66235e-07,0,-8.69518e-06,-4.1307e+08,-4.13254e+08,-4.13188e+08,-596490,0.0553234,-0.225239,0,0.231934,-16834.5,-15043.7,-0,22576.8,-596490
step02_gravity_refstate-crust.xmf,225,2.131e-06,-1.10234e-06,0,-9.82436e-06,-4.78196e+08,-4.78418e+08,-4.78342e+08,-673951,0.0578453,-0.249768,0,0.256379,-15380.9,-17416.1,-0,23235.6,-673951
step02_gravity_refstate-crust.xmf,226,1.89971e-06,-1.02134e-06,0,-9.27463e-06,-4.46184e+08,-4.46384e+08,-4.46314e+08,-636239,0.0564807,-0.23804,0,0.244649,-16061.4,-16249.9,-0,22847.9,-636239
step02_gravity_refstate-crust.xmf,227,2.60089e-06,-9.67059e-07,0,-3.28546e-06,-1.51065e+08,-1.5131e+08,-1.51244e+08,-225383,0.0658675,-0.122371,0,0.138972,-24447.4,-5508.71,-0,25060.3,-225383
step02_gravity_refstate-crust.xmf,228,2.41493e-06,-2.97254e-07,0,-1.23811e-05,-5.65702e+08,-5.65888e+08,-5.65867e+08,-849342,0.0657874,-0.313555,0,0.320382,-12327.9,-20604.2,-0,24010.7,-849342
step02_gravity_refstate-crust.xmf,229,2.64954e-06,-1.45771e-07,0,-1.31626e-05,-5.90994e+08,-5.91185e+08,-5.91175e+08,-902957,0.0677544,-0.328867,0,0.335774,-11708.7,-21526.2,-0,24504.5,-902957
step02_gravity_refstate-crust.xmf,230,3.56856e-06,-6.19412e-08,0,-1.55144e-05,-6.58072e+08,-6.58321e+08,-6.58317e+08,-1.06428e+06,0.072227,-0.372166,0,0.37911,-10185.7,-23972.1,-0,26046.3,-1.06428e+06
step02_gravity_refstate-crust.xmf,231,2.86508e-06,5.11228e-09,0,-1.39562e-05,-6.13866e+08,-6.14062e+08,-6.14062e+08,-957398,0.069597,-0.344545,0,0.351504,-11120.4,-22360,-0,24972.6,-957398
step02_gravity_refstate-crust.xmf,232,3.16791e-06,4.24858e-08,0,-1.47489e-05,-6.36323e+08,-6.36537e+08,-6.3654e+08,-1.01177e+06,0.0711271,-0.359071,0,0.366048,-10613.4,-23178.9,-0,25493.2,-1.01177e+06
step02_gravity_refstate-crust.xmf,233,-1.24663e-06,1.5808e-05,0,-3.04914e-05,-7.71219e+08,-7.70049e+08,-7.71134e+08,-2.09171e+06,0.0803493,-0.613988,0,0.619223,-5141.64,-28096.4,-0,28563,-2.09171e+06
step02_gravity_refstate-crust.xmf,234,2.06479e-06,9.6023e-06,0,-2.85572e-05,-7.71249e+08,-7.70732e+08,-7.71391e+08,-1.95902e+06,0.080079,-0.576262,0,0.581799,-5759.48,-28101.3,-0,28685.5,-1.95902e+06
step02_gravity_refstate-crust.xmf,235,2.16924e-06,1.06943e-05,0,-3.07464e-05,-7.85273e+08,-7.84688e+08,-7.85422e+08,-2.1092e+06,0.0786654,-0.601974,0,0.607092,-5435.35,-28614,-0,29125.6,-2.1092e+06
step02_gravity_refstate-crust.xmf,236,3.47346e-06,1.87348e-06,0,-1.88017e-05,-6.99251e+08,-6.9936e+08,-6.99489e+08,-1.2898e+06,0.0769003,-0.432316,0,0.439102,-8497.11,-25473.9,-0,26853.7,-1.2898e+06
step02_gravity_refstate-crust.xmf,237,3.06422e-06,1.81155e-06,0,-1.77176e-05,-6.79452e+08,-6.79538e+08,-6.79662e+08,-1.21543e+06,0.0760728,-0.415892,0,0.422792,-8903.76,-24751.3,-0,26304.1,-1.21543e+06
step02_gravity_refstate-crust.xmf,238,-8.33955e-07,1.3635e-05,0,-2.81688e-05,-7.57053e+08,-7.5606e+08,-7.56996e+08,-1.93238e+06,0.0811208,-0.586715,0,0.592297,-5476.46,-27579,-0,28117.5,-1.93238e+06
step02_gravity_refstate-crust.xmf,239,-3.7666e-07,1.1662e-05,0,-2.61642e-05,-7.43227e+08,-7.42401e+08,-7.43201e+08,-1.79486e+06,0.0813768,-0.560573,0,0.566449,-5843.5,-27074.4,-0,27697.9,-1.79486e+06
step02_gravity_refstate-crust.xmf,240,3.73849e-07,9.43838e-06,0,-2.43222e-05,-7.3023e+08,-7.29609e+08,-7.30256e+08,-1.6685e+06,0.0812378,-0.532511,0,0.538672,-6307.27,-26600.9,-0,27338.4,-1.6685e+06
step02_gravity_refstate-crust.xmf,241,6.78159e-07,8.0334e-06,0,-2.27387e-05,-7.16291e+08,-7.15787e+08,-7.16338e+08,-1.55987e+06,0.0807536,-0.509535,0,0.515894,-6708.87,-26092.5,-0,26941.2,-1.55987e+06
step02_gravity_refstate-crust.xmf,242,2.08015e-06,4.49568e-06,0,-2.02237e-05,-6.99928e+08,-6.99762e+08,-7.0007e+08,-1.38735e+06,0.0791021,-0.463593,0,0.470293,-7706.27,-25496.9,-0,26636.1,-1.38735e+06
step02_gravity_refstate-crust.xmf,243,1.9008e-06,-3.21934e-07,0,-1.10732e-05,-5.09692e+08,-5.09845e+08,-5.09823e+08,-759620,0.0620337,-0.287354,0,0.293974,-13504.4,-18563,-0,22955.5,-759620
step02_gravity_refstate-crust.xmf,244,-1.83099e-06,1.79389e-05,0,-3.28512e-05,-7.8502e+08,-7.83664e+08,-7.84895e+08,-2.25359e+06,0.0789256,-0.642087,0,0.646919,-4838.97,-28599.8,-0,29006.3,-2.25359e+06
step02_gravity_refstate-crust.xmf,245,4.28476e-06,4.89434e-06,0,-2.61277e-05,-7.71225e+08,-7.71183e+08,-7.71519e+08,-1.79236e+06,0.0780601,-0.539082,0,0.544704,-6392.03,-28102.1,-0,28819.9,-1.79236e+06
step02_gravity_refstate-crust.xmf,246,6.66413e-06,-1.34564e-06,0,-2.10287e-05,-7.70677e+08,-7.71227e+08,-7.71134e+08,-1.44257e+06,0.0705645,-0.466521,0,0.471828,-7747.37,-28082.1,-0,29131.2,-1.44257e+06
step02_gravity_refstate-crust.xmf,247,5.80095e-06,1.30083e-06,0,-2.3567e-05,-7.71325e+08,-7.71634e+08,-7.71723e+08,-1.6167e+06,0.074705,-0.502475,0,0.507998,-7051.93,-28106.3,-0,28977.5,-1.6167e+06
step02_gravity_refstate-crust.xmf,248,4.85057e-06,5.09975e-06,0,-2.78249e-05,-7.86143e+08,-7.86126e+08,-7.86475e+08,-1.90879e+06,0.0762055,-0.561481,0,0.566629,-6064.81,-28647.8,-0,29282.8,-1.90879e+06
step02_gravity_refstate-crust.xmf,249,7.08521e-06,-3.23973e-06,0,-1.86662e-05,-7.69253e+08,-7.69961e+08,-7.69739e+08,-1.2805e+06,0.0660236,-0.431862,0,0.43688,-8476.58,-28029.1,-0,29282.8,-1.2805e+06
step02_gravity_refstate-crust.xmf,250,6.39747e-06,-3.94801e-06,0,-1.53592e-05,-7.38348e+08,-7.39058e+08,-7.38787e+08,-1.05364e+06,0.0636514,-0.371101,0,0.37652,-10056.8,-26900.1,-0,28718.5,-1.05364e+06
step02_gravity_refstate-crust.xmf,251,4.7343e-06,-3.84381e-06,0,-1.08672e-05,-6.50649e+08,-6.51237e+08,-6.50974e+08,-745491,0.0563982,-0.267383,0,0.273266,-13932.5,-23700.7,-0,27492.5,-745491
step02_gravity_refstate-crust.xmf,252,3.32921e-06,-3.44118e-06,0,-6.92672e-06,-5.58103e+08,-5.58568e+08,-5.58332e+08,-475173,0.0399941,-0.154046,0,0.159153,-20267.1,-20326.5,-0,28704,-475173
step02_gravity_refstate-crust.xmf,253,2.54817e-06,-2.68878e-06,0,-4.50491e-06,-5.11918e+08,-5.12277e+08,-5.12092e+08,-309037,0.0269075,-0.0813693,0,0.0857029,-26048.9,-18643,-0,32032.9,-309037
step02_gravity_refstate-crust.xmf,254,2.33569e-06,-2.49077e-06,0,-3.78362e-06,-5.12548e+08,-5.1288e+08,-5.12709e+08,-259556,0.0223362,-0.0622138,0,0.066102,-27913.4,-18665.4,-0,33579.1,-259556
step02_gravity_refstate-crust.xmf,255,3.12161e-06,-3.39608e-06,0,-6.10944e-06,-5.58487e+08,-5.58934e+08,-5.58701e+08,-419107,0.0349962,-0.130278,0,0.134897,-21813.9,-20339.6,-0,29825.3,-419107
step02_gravity_refstate-crust.xmf,256,2.85572e-06,-3.22051e-06,0,-5.32268e-06,-5.5524e+08,-5.55657e+08,-5.55436e+08,-365136,0.0301695,-0.106934,0,0.111109,-23533.5,-20220.6,-0,31027.4,-365136
step02_gravity_refstate-crust.xmf,257,4.6861e-06,-4.37764e-06,0,-9.61372e-06,-6.53756e+08,-6.54378e+08,-6.54078e+08,-659501,0.0504354,-0.238614,0,0.243886,-15124.8,-23812.8,-0,28210.1,-659501
step02_gravity_refstate-crust.xmf,258,4.18109e-06,-4.22803e-06,0,-8.40996e-06,-6.28271e+08,-6.28848e+08,-6.28557e+08,-576923,0.0456933,-0.204485,0,0.209529,-16910.1,-22883.2,-0,28453.3,-576923
step02_gravity_refstate-crust.xmf,259,3.61257e-06,-3.87301e-06,0,-7.06182e-06,-5.9608e+08,-5.96593e+08,-5.96328e+08,-484441,0.0392559,-0.16204,0,0.166728,-19476.3,-21709.5,-0,29165.6,-484441
step02_gravity_refstate-crust.xmf,260,3.94048e-06,-4.2389e-06,0,-7.57092e-06,-6.23783e+08,-6.24344e+08,-6.24053e+08,-519365,0.0411144,-0.180986,0,0.185597,-18170.5,-22718.8,-0,29091.4,-519365
step02_gravity_refstate-crust.xmf,261,5.17062e-06,-4.49186e-06,0,-1.08909e-05,-6.80209e+08,-6.80872e+08,-6.80564e+08,-747116,0.054597,-0.273515,0,0.278911,-13514.9,-24777.7,-0,28223.8,-747116
step02_gravity_refstate-crust.xmf,262,5.5437e-06,-4.93953e-06,0,-1.10993e-05,-7.03193e+08,-7.03913e+08,-7.03574e+08,-761410,0.0533254,-0.282852,0,0.287835,-13018.5,-25615.2,-0,28733.6,-761410
step02_gravity_refstate-crust.xmf,263,5.85464e-06,-5.19354e-06,0,-1.15084e-05,-7.18856e+08,-7.19614e+08,-7.19258e+08,-789475,0.0531154,-0.29481,0,0.299557,-12492.2,-26186.3,-0,29013.4,-789475
step02_gravity_refstate-crust.xmf,264,2.13387e-06,-2.27675e-06,0,-3.10192e-06,-5.12704e+08,-5.13007e+08,-5.1285e+08,-212792,0.0180772,-0.0455735,0,0.0490278,-29825.8,-18670.6,-0,35187.7,-212792
step02_gravity_refstate-crust.xmf,265,2.04144e-06,-1.74033e-06,0,-1.51284e-06,-4.62563e+08,-4.62822e+08,-4.62703e+08,-103781,0.0098846,-0.0183823,0,0.0208714,-35011.3,-16845.6,-0,38853.1,-103781
step02_gravity_refstate-crust.xmf,266,1.92166e-06,-1.65065e-06,0,-8.17807e-07,-4.70835e+08,-4.7108e+08,-4.70967e+08,-56101.5,0.00519464,-0.0109958,0,0.0121611,-37269.8,-17146.4,-0,41024.9,-56101.5
step02_gravity_refstate-crust.xmf,267,1.80664e-06,-1.62361e-06,0,-5.99014e-09,-4.82943e+08,-4.83178e+08,-4.83067e+08,-410.924,6.30368e-19,-0.00735495,0,0.00735495,-40000,-17586.8,-0,43695.5,-410.924
step02_gravity_refstate-crust.xmf,268,1.41784e-06,-8.2078e-07,0,-7.24964e-06,-3.29837e+08,-3.2999e+08,-3.29934e+08,-497325,0.0548363,-0.196013,0,0.203539,-18745,-12012.5,-0,22263.8,-497325
step02_gravity_refstate-crust.xmf,269,1.65433e-06,-3.15149e-07,0,-1.04603e-05,-4.7879e+08,-4.78925e+08,-4.78903e+08,-717580,0.0602766,-0.275277,0,0.281799,-14100.6,-17437,-0,22424.9,-717580
step02_gravity_refstate-crust.xmf,270,1.97714e-06,-6.90294e-07,0,-3.72993e-06,-1.50838e+08,-1.51021e+08,-1.50974e+08,-255873,0.0703046,-0.145953,0,0.162003,-22545.8,-5498.36,-0,23206.6,-255873
step02_gravity_refstate-crust.xmf,271,3.20906e-06,-1.12587e-06,0,-2.31196e-06,-1.03708e+08,-1.04005e+08,-1.03928e+08,-158601,0.0738236,-0.115309,0,0.136916,-25216.7,-3786.82,-0,25499.4,-158601
step02_gravity_refstate-crust.xmf,272,4.21622e-06,-1.49721e-06,0,-1.19208e-06,-5.1228e+07,-5.16199e+07,-5.15172e+07,-81776.6,0.0846461,-0.108803,0,0.137851,-26052.8,-1879.75,-0,26120.5,-81776.6
step02_gravity_refstate-crust.xmf,273,5.65316e-06,-2.14757e-06,0,6.9228e-10,536907,1776.36,149100,47.4904,0.0958617,-0.101705,0,0.139762,-27114.8,0,-0,27114.8,-47.4904
step02_gravity_refstate-crust.xmf,274,1.45017e-06,9.04291e-07,0,-1.23899e-05,-5.38277e+08,-5.38315e+08,-5.38377e+08,-849946,0.0659035,-0.326014,0,0.332608,-11792.6,-19603.8,-0,22877.4,-849946
step02_gravity_refstate-crust.xmf,275,2.65631e-06,1.77857e-06,0,-1.67184e-05,-6.58536e+08,-6.58597e+08,-6.58719e+08,-1.14688e+06,0.0749788,-0.400876,0,0.407827,-9300.46,-23988.2,-0,25728,-1.14688e+06
step02_gravity_refstate-crust.xmf,276,8.30865e-07,6.95814e-06,0,-2.13909e-05,-7.02701e+08,-7.02281e+08,-7.02758e+08,-1.46742e+06,0.0800729,-0.489911,0,0.496412,-7078.28,-25596.7,-0,26557.3,-1.46742e+06
step02_gravity_refstate-crust.xmf,277,1.31036e-06,6.8079e-07,0,-1.16812e-05,-5.11811e+08,-5.11855e+08,-5.11901e+08,-801329,0.0639186,-0.312049,0,0.318528,-12372.5,-18639.4,-0,22372,-801329
step02_gravity_refstate-crust.xmf,278,-5.57031e-06,2.30462e-05,0,-3.09782e-05,-7.71352e+08,-7.69389e+08,-7.7097e+08,-2.12511e+06,0.078304,-0.651275,0,0.655965,-4537.64,-28095,-0,28459.1,-2.12511e+06
step02_gravity_refstate-crust.xmf,279,-6.83577e-06,2.69213e-05,0,-3.32563e-05,-7.85103e+08,-7.82787e+08,-7.84634e+08,-2.28138e+06,0.076537,-0.680747,0,0.685036,-4269.66,-28596.5,-0,28913.5,-2.28138e+06
step02_gravity_refstate-crust.xmf,280,-2.08354e-06,2.13147e-05,0,-3.62526e-05,-7.98166e+08,-7.96561e+08,-7.98023e+08,-2.48693e+06,0.0766392,-0.672613,0,0.676966,-4546.15,-29082.6,-0,29435.8,-2.48693e+06
step02_gravity_refstate-crust.xmf,281,2.42663e-06,1.20827e-05,0,-3.32724e-05,-7.98431e+08,-7.97769e+08,-7.98598e+08,-2.28249e+06,0.0764398,-0.630008,0,0.634629,-5114.09,-29096.2,-0,29542.2,-2.28249e+06
step02_gravity_refstate-crust.xmf,282,5.21693e-06,5.79554e-06,0,-2.97933e-05,-7.99634e+08,-7.99594e+08,-7.99992e+08,-2.04382e+06,0.0737874,-0.588156,0,0.592767,-5702.7,-29141.6,-0,29694.3,-2.04382e+06
step02_gravity_refstate-crust.xmf,283,6.99764e-06,-4.36677e-06,0,-1.65393e-05,-7.62774e+08,-7.63554e+08,-7.63254e+08,-1.1346e+06,0.0624408,-0.39808,0,0.402947,-9273.62,-27791.1,-0,29297.5,-1.1346e+06
step02_gravity_refstate-crust.xmf,284,6.68345e-06,-4.13043e-06,0,-1.59075e-05,-7.50469e+08,-7.5121e+08,-7.50927e+08,-1.09125e+06,0.0631338,-0.383603,0,0.388764,-9680.56,-27342.2,-0,29005.3,-1.09125e+06
step02_gravity_refstate-crust.xmf,285,6.37322e-06,-5.38616e-06,0,-1.26377e-05,-7.40246e+08,-7.41053e+08,-7.40683e+08,-866948,0.05445,-0.323307,0,0.32786,-11427.3,-26966.9,-0,29288.1,-866948
step02_gravity_refstate-crust.xmf,286,2.59184e-06,-3.00462e-06,0,-4.61297e-06,-5.53061e+08,-5.53445e+08,-5.53238e+08,-316450,0.025747,-0.0862788,0,0.0900385,-25236.3,-20140.6,-0,32288,-316450
step02_gravity_refstate-crust.xmf,287,4.47097e-06,-4.62545e-06,0,-8.55061e-06,-6.55141e+08,-6.55765e+08,-6.55448e+08,-586572,0.0449733,-0.213105,0,0.217799,-16280,-23862,-0,28886.6,-586572
step02_gravity_refstate-crust.xmf,288,6.1251e-06,-5.75678e-06,0,-1.13204e-05,-7.38622e+08,-7.39437e+08,-7.39042e+08,-776579,0.0496787,-0.297462,0,0.301582,-12268.5,-26906.1,-0,29571.2,-776579
step02_gravity_refstate-crust.xmf,289,1.95605e-06,-2.06266e-06,0,-2.43179e-06,-5.11314e+08,-5.1159e+08,-5.11448e+08,-166821,0.0140319,-0.0312449,0,0.0342511,-31855.5,-18619.6,-0,36898,-166821
step02_gravity_refstate-crust.xmf,290,1.8078e-06,-1.88359e-06,0,-1.78779e-06,-5.11112e+08,-5.11366e+08,-5.11236e+08,-122642,0.0101984,-0.0199581,0,0.0224128,-33909,-18612,-0,38681.1,-122642
step02_gravity_refstate-crust.xmf,291,1.59438e-06,-6.26361e-07,0,-4.7386e-06,-1.96307e+08,-1.9646e+08,-1.96417e+08,-325068,0.0640101,-0.158187,0,0.170647,-21542.9,-7152.25,-0,22699.2,-325068
step02_gravity_refstate-crust.xmf,292,1.38264e-06,-6.32678e-07,0,-5.67548e-06,-2.41336e+08,-2.41474e+08,-2.41431e+08,-389338,0.0594986,-0.171506,0,0.181533,-20520,-8790.68,-0,22323.7,-389338
step02_gravity_refstate-crust.xmf,293,1.33844e-06,-7.11134e-07,0,-6.52092e-06,-2.86978e+08,-2.87118e+08,-2.8707e+08,-447335,0.0564312,-0.18435,0,0.192793,-19574.8,-10452,-0,22190.4,-447335
step02_gravity_refstate-crust.xmf,294,9.77385e-07,-3.754e-07,0,-7.86168e-06,-3.36219e+08,-3.36312e+08,-3.36286e+08,-539311,0.0566085,-0.223501,0,0.230559,-17043.8,-12243.8,-0,20985.7,-539311
step02_gravity_refstate-crust.xmf,295,1.07553e-06,-3.39332e-07,0,-8.57655e-06,-3.75061e+08,-3.75158e+08,-3.75135e+08,-588351,0.0566733,-0.238082,0,0.244734,-16155.1,-13658.3,-0,21155,-588351
step02_gravity_refstate-crust.xmf,296,1.23205e-06,-3.2148e-07,0,-9.23294e-06,-4.11824e+08,-4.11931e+08,-4.11909e+08,-633380,0.0574566,-0.251227,0,0.257713,-15392.4,-14997.4,-0,21490.6,-633380
step02_gravity_refstate-crust.xmf,297,1.43488e-06,-3.25918e-07,0,-9.84046e-06,-4.46045e+08,-4.46165e+08,-4.46143e+08,-675056,0.0586779,-0.262978,0,0.269445,-14743.4,-16244,-0,21937.1,-675056
step02_gravity_refstate-crust.xmf,298,2.52812e-06,-8.64447e-07,0,-2.80827e-06,-1.12887e+08,-1.13119e+08,-1.1306e+08,-192647,0.0765349,-0.134888,0,0.155088,-23512.2,-4118.64,-0,23870.2,-192647
step02_gravity_refstate-crust.xmf,299,1.58823e-06,1.11656e-06,0,-1.31474e-05,-5.64083e+08,-5.64115e+08,-5.64192e+08,-901914,0.0679824,-0.341204,0,0.347911,-11204.8,-20544.2,-0,23401.1,-901914
step02_gravity_refstate-crust.xmf,300,1.72829e-06,1.46827e-06,0,-1.40117e-05,-5.88565e+08,-5.88583e+08,-5.88683e+08,-961200,0.0700352,-0.357125,0,0.363927,-10633.5,-21436.6,-0,23929,-961200
step02_gravity_refstate-crust.xmf,301,2.23239e-06,1.81298e-06,0,-1.5809e-05,-6.36107e+08,-6.36135e+08,-6.3626e+08,-1.08449e+06,0.0736641,-0.387466,0,0.394407,-9673.95,-23169.9,-0,25108.4,-1.08449e+06
step02_gravity_refstate-crust.xmf,302,1.91054e-06,1.74304e-06,0,-1.49191e-05,-6.1261e+08,-6.12622e+08,-6.12741e+08,-1.02345e+06,0.0720063,-0.373283,0,0.380165,-10099.9,-22313.1,-0,24492.5,-1.02345e+06
step02_gravity_refstate-crust.xmf,303,-4.57269e-06,1.98623e-05,0,-2.88014e-05,-7.56906e+08,-7.5523e+08,-7.56593e+08,-1.97577e+06,0.0793954,-0.622616,0,0.627657,-4836.7,-27568.2,-0,27989.3,-1.97577e+06
step02_gravity_refstate-crust.xmf,304,1.48302e-06,3.96473e-06,0,-1.78018e-05,-6.59429e+08,-6.59259e+08,-6.5953e+08,-1.2212e+06,0.0767369,-0.429293,0,0.436097,-8461.04,-24019.3,-0,25466,-1.2212e+06
step02_gravity_refstate-crust.xmf,305,1.69826e-06,4.36531e-06,0,-1.89993e-05,-6.79527e+08,-6.79344e+08,-6.79644e+08,-1.30335e+06,0.0781055,-0.446933,0,0.453706,-8051.81,-24752.5,-0,26029.2,-1.30335e+06
step02_gravity_refstate-crust.xmf,306,-3.54454e-06,1.69079e-05,0,-2.68472e-05,-7.4253e+08,-7.41127e+08,-7.42287e+08,-1.84172e+06,0.0800798,-0.593833,0,0.599208,-5194.67,-27044.4,-0,27538.8,-1.84172e+06
step02_gravity_refstate-crust.xmf,307,-2.60183e-06,1.42756e-05,0,-2.50346e-05,-7.27919e+08,-7.26761e+08,-7.2774e+08,-1.71737e+06,0.0803443,-0.565552,0,0.57123,-5598.28,-26512.2,-0,27096.8,-1.71737e+06
step02_gravity_refstate-crust.xmf,308,-1.81911e-06,1.20317e-05,0,-2.3355e-05,-7.12878e+08,-7.11928e+08,-7.12753e+08,-1.60215e+06,0.0801807,-0.53856,0,0.544496,-6029.23,-25964.3,-0,26655.1,-1.60215e+06
step02_gravity_refstate-crust.xmf,309,-1.21366e-06,1.01622e-05,0,-2.17778e-05,-6.96866e+08,-6.96085e+08,-6.96783e+08,-1.49396e+06,0.0796112,-0.512784,0,0.518927,-6482.74,-25380.9,-0,26195.7,-1.49396e+06
step02_gravity_refstate-crust.xmf,310,-3.07496e-07,7.75712e-06,0,-2.01738e-05,-6.82008e+08,-6.81454e+08,-6.81987e+08,-1.38392e+06,0.0789311,-0.483168,0,0.489572,-7107.14,-24839.9,-0,25836.7,-1.38392e+06
step02_gravity_refstate-crust.xmf,311,1.00145e-06,7.3803e-07,0,-1.10658e-05,-4.80595e+08,-4.80613e+08,-4.80664e+08,-759117,0.062093,-0.30251,0,0.308817,-12779.4,-17501.7,-0,21670.8,-759117
step02_gravity_refstate-crust.xmf,312,5.13906e-07,1.9464e-06,0,-1.21769e-05,-5.12655e+08,-5.12557e+08,-5.1269e+08,-835339,0.0649842,-0.337094,0,0.343301,-11253.3,-18668.8,-0,21798.2,-835339
step02_gravity_refstate-crust.xmf,313,-8.91259e-06,3.16908e-05,0,-3.54849e-05,-7.98559e+08,-7.95774e+08,-7.97948e+08,-2.43426e+06,0.073663,-0.713436,0,0.717229,-4005.95,-29085.4,-0,29359.9,-2.43426e+06
step02_gravity_refstate-crust.xmf,314,7.57455e-06,-3.79661e-06,0,-1.93479e-05,-7.86819e+08,-7.87599e+08,-7.87339e+08,-1.32727e+06,0.0627295,-0.44821,0,0.452579,-8085.95,-28669.7,-0,29788.2,-1.32727e+06
step02_gravity_refstate-crust.xmf,315,6.43667e-06,1.06079e-06,0,-2.48166e-05,-7.86877e+08,-7.87245e+08,-7.87318e+08,-1.70242e+06,0.0723379,-0.522071,0,0.527058,-6715.13,-28674.7,-0,29450.5,-1.70242e+06
step02_gravity_refstate-crust.xmf,316,7.25193e-06,-1.81166e-06,0,-2.19487e-05,-7.87269e+08,-7.87891e+08,-7.87767e+08,-1.50568e+06,0.0676629,-0.484268,0,0.488973,-7387.11,-28687.9,-0,29623.7,-1.50568e+06
step02_gravity_refstate-crust.xmf,317,6.82589e-06,7.75279e-07,0,-2.60205e-05,-8.02487e+08,-8.02902e+08,-8.02955e+08,-1.78501e+06,0.0686716,-0.544204,0,0.54852,-6364.17,-29244.2,-0,29928.6,-1.78501e+06
step02_gravity_refstate-crust.xmf,318,7.5555e-06,-5.42473e-06,0,-1.6567e-05,-7.87076e+08,-7.87966e+08,-7.87594e+08,-1.13649e+06,0.0562286,-0.408029,0,0.411885,-8942.35,-28676.5,-0,30038.4,-1.13649e+06
step02_gravity_refstate-crust.xmf,319,6.90717e-06,-5.36731e-06,0,-1.44966e-05,-7.61029e+08,-7.61871e+08,-7.61503e+08,-994464,0.057018,-0.364372,0,0.368806,-10135.1,-27725.7,-0,29520,-994464
step02_gravity_refstate-crust.xmf,320,6.54534e-06,-4.99321e-06,0,-1.38841e-05,-7.44522e+08,-7.45313e+08,-7.44971e+08,-952446,0.0581144,-0.347654,0,0.352477,-10680.5,-27123.8,-0,29150.9,-952446
step02_gravity_refstate-crust.xmf,321,5.04714e-06,-4.84444e-06,0,-9.763e-06,-6.80731e+08,-6.8141e+08,-6.81078e+08,-669742,0.0492329,-0.247501,0,0.25235,-14552.2,-24795.6,-0,28750.5,-669742
step02_gravity_refstate-crust.xmf,322,3.32999e-06,-3.74949e-06,0,-6.27705e-06,-5.91226e+08,-5.91711e+08,-5.91454e+08,-430606,0.0346097,-0.138639,0,0.142893,-20971.4,-21531.8,-0,30056.9,-430606
step02_gravity_refstate-crust.xmf,323,2.32261e-06,-2.77119e-06,0,-3.92173e-06,-5.54027e+08,-5.54376e+08,-5.54186e+08,-269030,0.0213428,-0.0670829,0,0.0703963,-27007.8,-20175,-0,33711.3,-269030
step02_gravity_refstate-crust.xmf,324,2.05485e-06,-2.52293e-06,0,-3.25724e-06,-5.56391e+08,-5.56705e+08,-5.56532e+08,-223447,0.0171498,-0.0497478,0,0.0526208,-28854.3,-20260.4,-0,35257,-223447
step02_gravity_refstate-crust.xmf,325,2.65784e-06,-3.32162e-06,0,-4.70485e-06,-5.90405e+08,-5.90815e+08,-5.90587e+08,-322753,0.0246093,-0.0922593,0,0.095485,-24367.5,-21499.9,-0,32496.5,-322753
step02_gravity_refstate-crust.xmf,326,2.98699e-06,-3.56751e-06,0,-5.42314e-06,-5.91216e+08,-5.91666e+08,-5.91421e+08,-372028,0.0292038,-0.113638,0,0.117331,-22698.2,-21530.4,-0,31285.2,-372028
step02_gravity_refstate-crust.xmf,327,4.78131e-06,-5.05176e-06,0,-8.64806e-06,-6.82478e+08,-6.83153e+08,-6.82806e+08,-593257,0.0434763,-0.221419,0,0.225647,-15671.3,-24857.8,-0,29385.4,-593257
step02_gravity_refstate-crust.xmf,328,4.18592e-06,-4.68035e-06,0,-7.61003e-06,-6.55809e+08,-6.56418e+08,-6.56097e+08,-522048,0.0396543,-0.188682,0,0.192804,-17487.5,-23885.1,-0,29602.6,-522048
step02_gravity_refstate-crust.xmf,329,3.69167e-06,-4.28315e-06,0,-6.68831e-06,-6.32776e+08,-6.33323e+08,-6.33029e+08,-458818,0.0352988,-0.15777,0,0.161671,-19407,-23045.1,-0,30128.3,-458818
step02_gravity_refstate-crust.xmf,330,5.68347e-06,-5.88931e-06,0,-1.00573e-05,-7.31919e+08,-7.32713e+08,-7.32309e+08,-689928,0.045473,-0.269986,0,0.273789,-13283.5,-26660.1,-0,29786.1,-689928
step02_gravity_refstate-crust.xmf,331,5.34645e-06,-5.40521e-06,0,-9.7792e-06,-7.08201e+08,-7.08939e+08,-7.08568e+08,-670853,0.0469782,-0.255994,0,0.260269,-14001.4,-25796,-0,29350.9,-670853
step02_gravity_refstate-crust.xmf,332,1.80457e-06,-2.26894e-06,0,-2.60967e-06,-5.57853e+08,-5.58132e+08,-5.57977e+08,-179023,0.013283,-0.0344301,0,0.0369035,-30822.3,-20313,-0,36913.8,-179023
step02_gravity_refstate-crust.xmf,333,1.68079e-06,-1.75449e-06,0,-1.16534e-06,-5.12762e+08,-5.12998e+08,-5.12877e+08,-79942.5,0.00657442,-0.0118508,0,0.0135523,-35959.1,-18671.7,-0,40517.8,-79942.5
step02_gravity_refstate-crust.xmf,334,1.53147e-06,-1.68139e-06,0,-5.73884e-07,-5.25393e+08,-5.25614e+08,-5.25498e+08,-39368.4,0.00305391,-0.00637091,0,0.00706504,-37985.4,-19131.1,-0,42531.1,-39368.4
step02_gravity_refstate-crust.xmf,335,8.61796e-07,-3.42799e-07,0,-7.11836e-06,-2.94378e+08,-2.94461e+08,-2.94437e+08,-488319,0.0578527,-0.211456,0,0.219228,-17820,-10720.1,-0,20795.9,-488319
step02_gravity_refstate-crust.xmf,336,8.64273e-07,4.82721e-07,0,-1.03054e-05,-4.47583e+08,-4.47609e+08,-4.47642e+08,-706949,0.0601628,-0.287339,0,0.29357,-13492.5,-16299,-0,21159,-706949
step02_gravity_refstate-crust.xmf,337,1.23402e-06,-3.64379e-07,0,-4.08122e-06,-1.48444e+08,-1.48554e+08,-1.48529e+08,-279972,0.0738656,-0.171493,0,0.186725,-20637.1,-5408.69,-0,21334.1,-279972
step02_gravity_refstate-crust.xmf,338,1.80893e-06,-5.49961e-07,0,-2.88814e-06,-1.02255e+08,-1.02417e+08,-1.02379e+08,-198127,0.0831183,-0.157733,0,0.178293,-21723.4,-3729.16,-0,22041.2,-198127
step02_gravity_refstate-crust.xmf,339,3.04077e-06,-1.0265e-06,0,-1.66019e-06,-5.99709e+07,-6.02499e+07,-6.01795e+07,-113889,0.0909004,-0.135637,0,0.16328,-23600.4,-2194.01,-0,23702.2,-113889
step02_gravity_refstate-crust.xmf,340,4.51319e-06,-1.70919e-06,0,-3.15142e-09,428865,2008.82,119260,-216.187,0.107789,-0.125297,0,0.165281,-24778,0,-0,24778,-216.187
step02_gravity_refstate-crust.xmf,341,5.26508e-07,2.37952e-06,0,-1.29295e-05,-5.37737e+08,-5.37609e+08,-5.37773e+08,-886964,0.0669684,-0.35234,0,0.358648,-10680,-19582.7,-0,22305.7,-886964
step02_gravity_refstate-crust.xmf,342,1.18728e-06,3.73164e-06,0,-1.67531e-05,-6.38489e+08,-6.38314e+08,-6.3857e+08,-1.14926e+06,0.0752289,-0.414666,0,0.421435,-8814.44,-23255.4,-0,24869.8,-1.14926e+06
step02_gravity_refstate-crust.xmf,343,5.94506e-07,1.50946e-06,0,-1.16038e-05,-4.92897e+08,-4.92834e+08,-4.92938e+08,-796020,0.0634584,-0.323016,0,0.329191,-11836.3,-17949.2,-0,21500.5,-796020
step02_gravity_refstate-crust.xmf,344,-8.65318e-06,2.63328e-05,0,-2.8008e-05,-7.57091e+08,-7.54691e+08,-7.56497e+08,-1.92135e+06,0.0753411,-0.656454,0,0.660763,-4222.29,-27568.4,-0,27889.9,-1.92135e+06
step02_gravity_refstate-crust.xmf,345,-9.99209e-06,2.99996e-05,0,-2.95235e-05,-7.71148e+08,-7.68404e+08,-7.70462e+08,-2.02531e+06,0.0739383,-0.68432,0,0.688303,-3977.73,-28080.4,-0,28360.8,-2.02531e+06
step02_gravity_refstate-crust.xmf,346,-1.1724e-05,3.42537e-05,0,-3.07918e-05,-7.8519e+08,-7.82036e+08,-7.84385e+08,-2.11232e+06,0.0716087,-0.714964,0,0.718541,-3737.81,-28591.2,-0,28834.5,-2.11232e+06
step02_gravity_refstate-crust.xmf,347,-3.03076e-06,2.53009e-05,0,-4.00208e-05,-8.103e+08,-8.08356e+08,-8.10092e+08,-2.74543e+06,0.0733228,-0.705374,0,0.709175,-4269,-29526.7,-0,29833.7,-2.74543e+06
step02_gravity_refstate-crust.xmf,348,2.73734e-06,1.36515e-05,0,-3.58322e-05,-8.1074e+08,-8.09991e+08,-8.10927e+08,-2.45809e+06,0.0730884,-0.660221,0,0.664254,-4803.45,-29548,-0,29935.9,-2.45809e+06
step02_gravity_refstate-crust.xmf,349,6.7048e-06,2.12935e-06,0,-2.83079e-05,-8.14174e+08,-8.14488e+08,-8.14634e+08,-1.94192e+06,0.0660836,-0.577311,0,0.581081,-5886.25,-29671.3,-0,30249.5,-1.94192e+06
step02_gravity_refstate-crust.xmf,350,5.54349e-06,6.65572e-06,0,-3.17452e-05,-8.11915e+08,-8.11838e+08,-8.12295e+08,-2.17772e+06,0.0703338,-0.616255,0,0.620255,-5357.93,-29591.3,-0,30072.4,-2.17772e+06
step02_gravity_refstate-crust.xmf,351,7.21291e-06,-6.10519e-06,0,-1.45596e-05,-7.81737e+08,-7.82651e+08,-7.82232e+08,-998792,0.0523192,-0.374308,0,0.377947,-9769.12,-28479.7,-0,30108.6,-998792
step02_gravity_refstate-crust.xmf,352,6.31845e-06,-6.38129e-06,0,-1.11401e-05,-7.60906e+08,-7.61778e+08,-7.6134e+08,-764210,0.04519,-0.302708,0,0.306063,-11935.8,-27717.2,-0,30177.9,-764210
step02_gravity_refstate-crust.xmf,353,6.69894e-06,-6.05072e-06,0,-1.26542e-05,-7.61638e+08,-7.62513e+08,-7.62098e+08,-868081,0.0506949,-0.331683,0,0.335535,-11042.6,-27745.9,-0,29862.6,-868081
step02_gravity_refstate-crust.xmf,354,2.33004e-06,-3.05499e-06,0,-4.0324e-06,-5.91982e+08,-5.92351e+08,-5.92141e+08,-276622,0.0202464,-0.0727735,0,0.0755374,-26067.5,-21556.4,-0,33825.9,-276622
step02_gravity_refstate-crust.xmf,355,4.40534e-06,-5.09444e-06,0,-7.64811e-06,-6.83743e+08,-6.84395e+08,-6.84046e+08,-524660,0.0379804,-0.196836,0,0.200466,-16824.3,-24902.3,-0,30053,-524660
step02_gravity_refstate-crust.xmf,356,3.39664e-06,-4.08981e-06,0,-6.06821e-06,-6.26559e+08,-6.27073e+08,-6.26792e+08,-416279,0.0316476,-0.138304,0,0.141878,-20666.6,-22817.9,-0,30785.8,-416279
step02_gravity_refstate-crust.xmf,357,3.85612e-06,-4.62472e-06,0,-6.76532e-06,-6.57624e+08,-6.58205e+08,-6.57888e+08,-464101,0.0344565,-0.165731,0,0.169275,-18714.2,-23949.9,-0,30394.4,-464101
step02_gravity_refstate-crust.xmf,358,5.87324e-06,-6.4976e-06,0,-9.84442e-06,-7.60054e+08,-7.60902e+08,-7.60456e+08,-675327,0.0399424,-0.275623,0,0.278503,-12853.5,-27684.2,-0,30522.6,-675327
step02_gravity_refstate-crust.xmf,359,1.58919e-06,-2.03899e-06,0,-1.98353e-06,-5.59101e+08,-5.5935e+08,-5.5921e+08,-136070,0.00976818,-0.0217703,0,0.0238613,-32868.1,-20357.9,-0,38662.1,-136070
step02_gravity_refstate-crust.xmf,360,1.41853e-06,-1.86232e-06,0,-1.402e-06,-5.61456e+08,-5.61681e+08,-5.61553e+08,-96177.2,0.00668385,-0.0124484,0,0.0141293,-34865.1,-20443.2,-0,40416.6,-96177.2
step02_gravity_refstate-crust.xmf,361,1.35627e-06,-1.66394e-06,0,-5.53341e-09,-5.46405e+08,-5.46612e+08,-5.46498e+08,-379.592,4.32487e-19,-0.00356264,0,0.00356264,-40000,-19895.3,-0,44674.6,-379.592
step02_gravity_refstate-crust.xmf,362,8.8568e-07,-2.63069e-07,0,-5.20125e-06,-1.95191e+08,-1.9527e+08,-1.95252e+08,-356806,0.0666713,-0.186471,0,0.198031,-19538.3,-7109.29,-0,20791.5,-356806
step02_gravity_refstate-crust.xmf,363,6.96144e-07,-1.93045e-07,0,-6.285e-06,-2.43827e+08,-2.43888e+08,-2.43875e+08,-431151,0.0614918,-0.203807,0,0.212882,-18343.8,-8879.28,-0,20379.8,-431151
step02_gravity_refstate-crust.xmf,364,3.46689e-07,1.35866e-07,0,-7.60398e-06,-3.00804e+08,-3.00818e+08,-3.00828e+08,-521633,0.0584955,-0.237472,0,0.24457,-16206.2,-10952.7,-0,19560.2,-521633
step02_gravity_refstate-crust.xmf,365,4.08607e-07,2.3617e-07,0,-8.32245e-06,-3.38831e+08,-3.38843e+08,-3.38859e+08,-570920,0.0576762,-0.250917,0,0.257461,-15414.6,-12337.5,-0,19744,-570920
step02_gravity_refstate-crust.xmf,366,4.94879e-07,3.69945e-07,0,-9.03143e-06,-3.76774e+08,-3.76783e+08,-3.76808e+08,-619556,0.0578712,-0.264941,0,0.271188,-14632,-13719.4,-0,20057.9,-619556
step02_gravity_refstate-crust.xmf,367,6.77047e-07,4.28626e-07,0,-9.68666e-06,-4.13703e+08,-4.1372e+08,-4.13749e+08,-664505,0.0587836,-0.276415,0,0.282597,-14032.4,-15064.7,-0,20587.6,-664505
step02_gravity_refstate-crust.xmf,368,5.19999e-07,2.81939e-06,0,-1.37474e-05,-5.62581e+08,-5.62423e+08,-5.62616e+08,-943073,0.0690492,-0.36883,0,0.375238,-10106.3,-20487.8,-0,22844.8,-943073
step02_gravity_refstate-crust.xmf,369,5.39233e-07,3.42459e-06,0,-1.47078e-05,-5.87282e+08,-5.87084e+08,-5.87319e+08,-1.00895e+06,0.0711727,-0.385997,0,0.392504,-9560.82,-21388.1,-0,23427.7,-1.00895e+06
step02_gravity_refstate-crust.xmf,370,5.84813e-07,4.00158e-06,0,-1.57841e-05,-6.12629e+08,-6.12395e+08,-6.12669e+08,-1.08279e+06,0.0733527,-0.404431,0,0.411029,-9029.73,-22311.9,-0,24069.9,-1.08279e+06
step02_gravity_refstate-crust.xmf,371,-7.24736e-06,2.27555e-05,0,-2.64803e-05,-7.42368e+08,-7.4031e+08,-7.41871e+08,-1.81655e+06,0.0765124,-0.627161,0,0.631811,-4536.85,-27032.6,-0,27410.6,-1.81655e+06
step02_gravity_refstate-crust.xmf,372,-1.73385e-07,6.04726e-06,0,-1.74811e-05,-6.3925e+08,-6.38824e+08,-6.39239e+08,-1.1992e+06,0.0756979,-0.441304,0,0.447749,-7991.47,-23281.2,-0,24614.6,-1.1992e+06
step02_gravity_refstate-crust.xmf,373,-1.4907e-07,6.77138e-06,0,-1.8712e-05,-6.59803e+08,-6.59329e+08,-6.59793e+08,-1.28364e+06,0.0773381,-0.4597,0,0.46616,-7587.38,-24030.7,-0,25200,-1.28364e+06
step02_gravity_refstate-crust.xmf,374,-5.90741e-06,1.94531e-05,0,-2.49249e-05,-7.27009e+08,-7.25269e+08,-7.26604e+08,-1.70985e+06,0.0773176,-0.597565,0,0.602546,-4908.6,-26473.7,-0,26924.9,-1.70985e+06
step02_gravity_refstate-crust.xmf,375,-4.73125e-06,1.65669e-05,0,-2.34149e-05,-7.11316e+08,-7.09855e+08,-7.10991e+08,-1.60627e+06,0.0776878,-0.568993,0,0.574272,-5317.88,-25902.7,-0,26442.9,-1.60627e+06
step02_gravity_refstate-crust.xmf,376,-3.78962e-06,1.41267e-05,0,-2.18996e-05,-6.94469e+08,-6.9324e+08,-6.94209e+08,-1.50231e+06,0.0775176,-0.54169,0,0.547208,-5747.87,-25289.4,-0,25934.4,-1.50231e+06
step02_gravity_refstate-crust.xmf,377,-3.18724e-06,1.22953e-05,0,-2.04627e-05,-6.76768e+08,-6.75706e+08,-6.76549e+08,-1.40374e+06,0.0767756,-0.51769,0,0.523353,-6148.51,-24644.6,-0,25400,-1.40374e+06
step02_gravity_refstate-crust.xmf,378,1.41019e-07,1.51198e-06,0,-1.0605e-05,-4.43817e+08,-4.43723e+08,-4.43826e+08,-727506,0.0606095,-0.310738,0,0.316594,-12301.2,-16160.5,-0,20309.6,-727506
step02_gravity_refstate-crust.xmf,379,1.54288e-08,2.02091e-06,0,-1.12239e-05,-4.68673e+08,-4.68535e+08,-4.68674e+08,-769956,0.0620689,-0.326839,0,0.332681,-11582.2,-17065.7,-0,20624.9,-769956
step02_gravity_refstate-crust.xmf,380,-2.43798e-07,2.72243e-06,0,-1.18399e-05,-4.90478e+08,-4.90275e+08,-4.90461e+08,-812215,0.0634754,-0.34493,0,0.350722,-10812.8,-17859.6,-0,20877.7,-812215
step02_gravity_refstate-crust.xmf,381,-4.32432e-07,3.3959e-06,0,-1.25182e-05,-5.13624e+08,-5.13361e+08,-5.13594e+08,-858751,0.065098,-0.361672,0,0.367484,-10170.3,-18702.5,-0,21288.9,-858751
step02_gravity_refstate-crust.xmf,382,-1.36237e-05,4.03506e-05,0,-3.07914e-05,-7.99085e+08,-7.95382e+08,-7.9815e+08,-2.11229e+06,0.067831,-0.749369,0,0.752433,-3491.85,-29098.8,-0,29307.6,-2.11229e+06
step02_gravity_refstate-crust.xmf,383,-1.13732e-05,4.02815e-05,0,-3.48568e-05,-8.1131e+08,-8.07767e+08,-8.1053e+08,-2.39118e+06,0.0692277,-0.749446,0,0.752637,-3749.22,-29552.9,-0,29789.8,-2.39118e+06
step02_gravity_refstate-crust.xmf,384,7.12107e-06,-3.01323e-07,0,-2.59123e-05,-8.14894e+08,-8.15403e+08,-8.15382e+08,-1.77758e+06,0.0628605,-0.54841,0,0.552001,-6302.35,-29695.4,-0,30356.8,-1.77758e+06
step02_gravity_refstate-crust.xmf,385,2.30675e-06,1.61729e-05,0,-3.83713e-05,-8.19561e+08,-8.1861e+08,-8.19719e+08,-2.63227e+06,0.0694094,-0.690187,0,0.693669,-4517.7,-29871.3,-0,30211,-2.63227e+06
step02_gravity_refstate-crust.xmf,386,7.82229e-06,-5.86021e-06,0,-1.74171e-05,-8.04984e+08,-8.05923e+08,-8.05521e+08,-1.19481e+06,0.0521581,-0.429442,0,0.432598,-8403.47,-29328.8,-0,30509,-1.19481e+06
step02_gravity_refstate-crust.xmf,387,7.91105e-06,-4.40493e-06,0,-1.9972e-05,-8.04262e+08,-8.05106e+08,-8.04804e+08,-1.37008e+06,0.0579192,-0.465315,0,0.468905,-7703.61,-29305.1,-0,30300.8,-1.37008e+06
step02_gravity_refstate-crust.xmf,388,7.69225e-06,-2.31865e-06,0,-2.2782e-05,-8.03255e+08,-8.03942e+08,-8.03783e+08,-1.56285e+06,0.063438,-0.502371,0,0.50636,-7044.72,-29270.8,-0,30106.6,-1.56285e+06
step02_gravity_refstate-crust.xmf,389,7.29009e-06,-6.70297e-06,0,-1.44371e-05,-7.98277e+08,-7.99237e+08,-7.98777e+08,-990386,0.0469753,-0.380216,0,0.383107,-9530.64,-29081.2,-0,30603.1,-990386
step02_gravity_refstate-crust.xmf,390,5.03467e-06,-5.51634e-06,0,-8.68084e-06,-7.09137e+08,-7.09861e+08,-7.09483e+08,-595505,0.0412694,-0.229951,0,0.233625,-15068.2,-25828.7,-0,29902.7,-595505
step02_gravity_refstate-crust.xmf,391,3.07817e-06,-3.89829e-06,0,-5.41252e-06,-6.26268e+08,-6.26746e+08,-6.26479e+08,-371299,0.0274122,-0.11863,0,0.121756,-21996.6,-22806.3,-0,31685.6,-371299
step02_gravity_refstate-crust.xmf,392,1.97546e-06,-2.76818e-06,0,-3.33889e-06,-5.98507e+08,-5.98832e+08,-5.98642e+08,-229048,0.015681,-0.0538135,0,0.0560516,-27929.1,-21792.9,-0,35425.5,-229048
step02_gravity_refstate-crust.xmf,393,1.67152e-06,-2.4816e-06,0,-2.73418e-06,-6.02409e+08,-6.02694e+08,-6.02523e+08,-187565,0.0120177,-0.0381215,0,0.0399709,-29780.8,-21934.2,-0,36986.6,-187565
step02_gravity_refstate-crust.xmf,394,2.36511e-06,-3.34882e-06,0,-4.13001e-06,-6.26846e+08,-6.27238e+08,-6.27008e+08,-283318,0.0190415,-0.0795171,0,0.0817652,-25079.5,-22825.3,-0,33911.3,-283318
step02_gravity_refstate-crust.xmf,395,2.70853e-06,-3.63088e-06,0,-4.72731e-06,-6.26216e+08,-6.26651e+08,-6.26402e+08,-324293,0.0229363,-0.0977329,0,0.100388,-23559.4,-22803.4,-0,32787.8,-324293
step02_gravity_refstate-crust.xmf,396,4.6199e-06,-5.49637e-06,0,-7.67644e-06,-7.10512e+08,-7.11206e+08,-7.10829e+08,-526604,0.0356878,-0.205168,0,0.208249,-16173.5,-25877.1,-0,30515.7,-526604
step02_gravity_refstate-crust.xmf,397,4.00532e-06,-5.00234e-06,0,-6.75252e-06,-6.86044e+08,-6.86662e+08,-6.86319e+08,-463223,0.0324633,-0.172947,0,0.175967,-18039.9,-24984.6,-0,30816.7,-463223
step02_gravity_refstate-crust.xmf,398,3.50728e-06,-4.45873e-06,0,-6.0045e-06,-6.59845e+08,-6.60391e+08,-6.60085e+08,-411909,0.0293853,-0.143555,0,0.146531,-20007.5,-24029.6,-0,31268.6,-411909
step02_gravity_refstate-crust.xmf,399,5.18861e-06,-6.0152e-06,0,-8.64597e-06,-7.34701e+08,-7.3547e+08,-7.35057e+08,-593113,0.0383365,-0.238904,0,0.24196,-14467.8,-26759.2,-0,30419.9,-593113
step02_gravity_refstate-crust.xmf,400,5.2898e-06,-6.48569e-06,0,-8.60632e-06,-7.5938e+08,-7.60187e+08,-7.59743e+08,-590393,0.0344908,-0.248156,0,0.250542,-13876.1,-27657.3,-0,30943.1,-590393
step02_gravity_refstate-crust.xmf,401,1.3957e-06,-2.20115e-06,0,-2.13717e-06,-6.04723e+08,-6.0497e+08,-6.04819e+08,-146610,0.0088032,-0.0243374,0,0.0258806,-31794.3,-22017.8,-0,38673.8,-146610
step02_gravity_refstate-crust.xmf,402,1.34449e-06,-1.75105e-06,0,-9.28789e-07,-5.58075e+08,-5.58287e+08,-5.58167e+08,-63715,0.00442729,-0.00720312,0,0.00845493,-36581.5,-20320,-0,41846.2,-63715
step02_gravity_refstate-crust.xmf,403,1.1145e-06,-1.69376e-06,0,-4.94246e-07,-5.81827e+08,-5.82019e+08,-5.81903e+08,-33905.3,0.00206017,-0.00269731,0,0.00339408,-38128.7,-21183.9,-0,43618.3,-33905.3
step02_gravity_refstate-crust.xmf,404,3.02599e-07,9.00502e-08,0,-6.95671e-06,-2.66919e+08,-2.66934e+08,-2.6694e+08,-477230,0.0602289,-0.226796,0,0.234658,-16861.8,-9718.82,-0,19462.2,-477230
step02_gravity_refstate-crust.xmf,405,1.71945e-07,1.15083e-06,0,-1.00301e-05,-4.18188e+08,-4.18121e+08,-4.182e+08,-688065,0.0593796,-0.297186,0,0.30306,-12937.5,-15227,-0,19981,-688065
step02_gravity_refstate-crust.xmf,406,3.88848e-07,2.43939e-08,0,-4.38068e-06,-1.46331e+08,-1.46356e+08,-1.46358e+08,-300515,0.0758712,-0.198578,0,0.212578,-18715.4,-5328.95,-0,19459.3,-300515
step02_gravity_refstate-crust.xmf,407,9.30598e-07,-1.96963e-07,0,-3.07212e-06,-9.87668e+07,-9.88441e+07,-9.88306e+07,-210748,0.0865772,-0.18214,0,0.20167,-19899.3,-3599.16,-0,20222.2,-210748
step02_gravity_refstate-crust.xmf,408,1.92063e-06,-6.09564e-07,0,-1.56789e-06,-4.88159e+07,-4.89895e+07,-4.89477e+07,-107557,0.100356,-0.164334,0,0.192554,-21300.3,-1784.02,-0,21374.9,-107557
step02_gravity_refstate-crust.xmf,409,3.21449e-06,-1.21779e-06,0,-1.43726e-08,305437,1383.53,84923.7,-985.962,0.116587,-0.151051,0,0.190811,-22506.7,0,-0,22506.7,-985.962
step02_gravity_refstate-crust.xmf,410,-6.00061e-07,4.09028e-06,0,-1.32679e-05,-5.37061e+08,-5.36739e+08,-5.3702e+08,-910181,0.0668692,-0.378246,0,0.384112,-9593.91,-19556.1,-0,21782.7,-910181
step02_gravity_refstate-crust.xmf,411,-1.94867e-07,5.51843e-06,0,-1.65799e-05,-6.2223e+08,-6.21838e+08,-6.22217e+08,-1.13738e+06,0.074267,-0.427556,0,0.433958,-8314.25,-22660.7,-0,24137.8,-1.13738e+06
step02_gravity_refstate-crust.xmf,412,-2.371e-06,1.01019e-05,0,-1.90725e-05,-6.59076e+08,-6.58221e+08,-6.58914e+08,-1.30837e+06,0.0761485,-0.490904,0,0.496775,-6690.88,-24000.4,-0,24915.6,-1.30837e+06
step02_gravity_refstate-crust.xmf,413,-1.36359e-05,3.56647e-05,0,-2.66553e-05,-7.70499e+08,-7.67117e+08,-7.69563e+08,-1.82855e+06,0.0677177,-0.712106,0,0.715318,-3454.27,-28050.8,-0,28262.7,-1.82855e+06
step02_gravity_refstate-crust.xmf,414,-1.1039e-05,2.86032e-05,0,-2.4824e-05,-7.42638e+08,-7.39918e+08,-7.41881e+08,-1.70293e+06,0.0705351,-0.658929,0,0.662694,-3881.13,-27036.1,-0,27313.3,-1.70293e+06
step02_gravity_refstate-crust.xmf,415,-1.23367e-05,3.20486e-05,0,-2.5838e-05,-7.57009e+08,-7.53964e+08,-7.56163e+08,-1.77249e+06,0.0693291,-0.685643,0,0.689139,-3651.16,-27559.4,-0,27800.2,-1.77249e+06
step02_gravity_refstate-crust.xmf,416,-1.52013e-05,4.04215e-05,0,-2.69722e-05,-7.86024e+08,-7.82208e+08,-7.84981e+08,-1.85029e+06,0.0647123,-0.745696,0,0.748499,-3225.98,-28617.1,-0,28798.3,-1.85029e+06
step02_gravity_refstate-crust.xmf,417,-3.71695e-06,3.05139e-05,0,-4.24109e-05,-8.23155e+08,-8.20807e+08,-8.229e+08,-2.90939e+06,0.0677449,-0.745642,0,0.748713,-4000,-30000,-0,30265.5,-2.90939e+06
step02_gravity_refstate-crust.xmf,418,7.76e-06,-2.79576e-06,0,-2.34748e-05,-8.18597e+08,-8.19322e+08,-8.1913e+08,-1.61037e+06,0.0575149,-0.51988,0,0.523052,-6735.07,-29828.9,-0,30579.8,-1.61037e+06
step02_gravity_refstate-crust.xmf,419,7.10882e-06,-1.08146e-06,0,-2.60365e-05,-8.25706e+08,-8.26268e+08,-8.26194e+08,-1.78611e+06,0.0569998,-0.55645,0,0.559361,-6182.08,-30087.8,-0,30716.3,-1.78611e+06
step02_gravity_refstate-crust.xmf,420,4.38078e-06,8.36327e-06,0,-3.37483e-05,-8.25209e+08,-8.24935e+08,-8.25509e+08,-2.31513e+06,0.06421,-0.650173,0,0.653336,-4989.14,-30073.2,-0,30484.3,-2.31513e+06
step02_gravity_refstate-crust.xmf,421,6.14241e-06,2.50115e-06,0,-2.94901e-05,-8.26168e+08,-8.26418e+08,-8.26589e+08,-2.02302e+06,0.0604093,-0.59939,0,0.602427,-5605.29,-30106.2,-0,30623.6,-2.02302e+06
step02_gravity_refstate-crust.xmf,422,7.52718e-06,-6.71828e-06,0,-1.5411e-05,-8.06098e+08,-8.07075e+08,-8.06614e+08,-1.05719e+06,0.0467699,-0.399371,0,0.402101,-9042.78,-29366.9,-0,30727.6,-1.05719e+06
step02_gravity_refstate-crust.xmf,423,6.86207e-06,-6.69432e-06,0,-1.27233e-05,-7.82111e+08,-7.83041e+08,-7.82581e+08,-872820,0.0464571,-0.343136,0,0.346266,-10584.4,-28490.9,-0,30393.5,-872820
step02_gravity_refstate-crust.xmf,424,6.91814e-06,-7.3067e-06,0,-1.28062e-05,-8.02258e+08,-8.03233e+08,-8.02732e+08,-878504,0.0408992,-0.355278,0,0.357625,-10125.9,-29223.7,-0,30928.2,-878504
step02_gravity_refstate-crust.xmf,425,5.89843e-06,-7.02773e-06,0,-9.71646e-06,-7.83102e+08,-7.83988e+08,-7.83506e+08,-666549,0.0346947,-0.283705,0,0.285819,-12381.6,-28522.6,-0,31094.1,-666549
step02_gravity_refstate-crust.xmf,426,6.46446e-06,-6.94952e-06,0,-1.11517e-05,-7.82267e+08,-7.83188e+08,-7.82711e+08,-765007,0.0406239,-0.312826,0,0.315453,-11459,-28494.6,-0,30712.4,-765007
step02_gravity_refstate-crust.xmf,427,1.99964e-06,-3.04523e-06,0,-3.52492e-06,-6.30718e+08,-6.31064e+08,-6.30855e+08,-241809,0.0150577,-0.0616962,0,0.0635071,-26730.9,-22965.3,-0,35241.3,-241809
step02_gravity_refstate-crust.xmf,428,4.12465e-06,-5.35785e-06,0,-6.75901e-06,-7.1146e+08,-7.12111e+08,-7.11743e+08,-463668,0.0303205,-0.180973,0,0.183495,-17361.2,-25909.8,-0,31188.6,-463668
step02_gravity_refstate-crust.xmf,429,3.12199e-06,-4.21951e-06,0,-5.32304e-06,-6.6035e+08,-6.60853e+08,-6.60564e+08,-365161,0.0248765,-0.122784,0,0.125279,-21357.6,-24046.8,-0,32162,-365161
step02_gravity_refstate-crust.xmf,430,3.57297e-06,-4.81988e-06,0,-5.95234e-06,-6.89618e+08,-6.90193e+08,-6.89863e+08,-408330,0.0271106,-0.150388,0,0.152812,-19286.6,-25113.2,-0,31664.6,-408330
step02_gravity_refstate-crust.xmf,431,5.30536e-06,-6.92713e-06,0,-8.51043e-06,-7.83693e+08,-7.84532e+08,-7.84057e+08,-583816,0.0291936,-0.256389,0,0.258046,-13339.6,-28541.9,-0,31505.3,-583816
step02_gravity_refstate-crust.xmf,432,1.17009e-06,-1.96834e-06,0,-1.57381e-06,-6.07239e+08,-6.07454e+08,-6.07319e+08,-107963,0.00608375,-0.0135533,0,0.0148561,-33828,-22108.8,-0,40412.1,-107963
step02_gravity_refstate-crust.xmf,433,9.70883e-07,-1.78773e-06,0,-9.67451e-07,-6.11284e+08,-6.11473e+08,-6.11351e+08,-66367.1,0.0035163,-0.00507569,0,0.00617471,-36096.6,-22255.6,-0,42406.1,-66367.1
step02_gravity_refstate-crust.xmf,434,8.81815e-07,-1.65821e-06,0,-5.84181e-09,-6.09023e+08,-6.09197e+08,-6.09084e+08,-400.748,2.61548e-19,0.000220438,0,0.000220438,-40000,-22173.1,-0,45734.5,-400.748
step02_gravity_refstate-crust.xmf,435,8.87072e-08,1.76753e-07,0,-5.50201e-06,-1.91253e+08,-1.91247e+08,-1.91259e+08,-377438,0.0682047,-0.215073,0,0.225629,-17600.8,-6963.39,-0,18928.2,-377438
step02_gravity_refstate-crust.xmf,436,-1.11258e-07,3.41643e-07,0,-6.40727e-06,-2.30355e+08,-2.30324e+08,-2.30348e+08,-439538,0.0633754,-0.231882,0,0.240387,-16520,-8386.4,-0,18526.8,-439538
step02_gravity_refstate-crust.xmf,437,-2.60682e-07,5.48531e-07,0,-7.17502e-06,-2.6556e+08,-2.65504e+08,-2.65542e+08,-492206,0.0603508,-0.248753,0,0.255969,-15482.5,-9667.76,-0,18253,-492206
step02_gravity_refstate-crust.xmf,438,-2.82586e-07,7.46062e-07,0,-7.90717e-06,-3.02559e+08,-3.02488e+08,-3.02539e+08,-542432,0.0584862,-0.26326,0,0.269679,-14641.5,-11015,-0,18322.2,-542432
step02_gravity_refstate-crust.xmf,439,-2.64599e-07,9.87334e-07,0,-8.62767e-06,-3.40224e+08,-3.40138e+08,-3.40206e+08,-591858,0.0577796,-0.277728,0,0.283675,-13850.7,-12386.7,-0,18581.5,-591858
step02_gravity_refstate-crust.xmf,440,-2.33976e-07,1.33053e-06,0,-9.43591e-06,-3.82005e+08,-3.81898e+08,-3.81989e+08,-647304,0.0581807,-0.294281,0,0.299978,-13006.8,-13908.4,-0,19042.6,-647304
step02_gravity_refstate-crust.xmf,441,-5.66006e-07,2.05153e-06,0,-1.00567e-05,-4.10149e+08,-4.09969e+08,-4.1011e+08,-689890,0.0588177,-0.316499,0,0.321918,-11888.6,-14932.8,-0,19087.4,-689890
step02_gravity_refstate-crust.xmf,442,-7.65006e-07,4.76976e-06,0,-1.41127e-05,-5.61391e+08,-5.61011e+08,-5.61338e+08,-968133,0.0688128,-0.395816,0,0.401754,-9040.83,-20442.3,-0,22352.3,-968133
step02_gravity_refstate-crust.xmf,443,-8.75866e-07,5.60055e-06,0,-1.51004e-05,-5.85678e+08,-5.85234e+08,-5.85618e+08,-1.03589e+06,0.0708568,-0.413219,0,0.41925,-8554.37,-21327.3,-0,22978.9,-1.03589e+06
step02_gravity_refstate-crust.xmf,444,-9.42406e-06,2.48343e-05,0,-2.37942e-05,-7.27052e+08,-7.24702e+08,-7.26406e+08,-1.63229e+06,0.0720053,-0.628818,0,0.632927,-4216.67,-26469.4,-0,26803.2,-1.63229e+06
step02_gravity_refstate-crust.xmf,445,-9.20599e-07,6.10802e-06,0,-1.59057e-05,-6.05029e+08,-6.04547e+08,-6.04966e+08,-1.09113e+06,0.0725375,-0.427081,0,0.433197,-8207.71,-22032.4,-0,23511.6,-1.09113e+06
step02_gravity_refstate-crust.xmf,446,-1.81673e-06,7.83723e-06,0,-1.6621e-05,-6.15766e+08,-6.15104e+08,-6.15641e+08,-1.1402e+06,0.0727858,-0.449796,0,0.455647,-7527.88,-22422.4,-0,23652.3,-1.1402e+06
step02_gravity_refstate-crust.xmf,447,-1.96784e-06,8.87547e-06,0,-1.78664e-05,-6.38783e+08,-6.38039e+08,-6.38648e+08,-1.22563e+06,0.0747089,-0.469374,0,0.475283,-7123.1,-23261.3,-0,24327.5,-1.22563e+06
step02_gravity_refstate-crust.xmf,448,-7.96507e-06,2.14738e-05,0,-2.26442e-05,-7.10872e+08,-7.08853e+08,-7.10326e+08,-1.55339e+06,0.0729777,-0.599585,0,0.60401,-4587.26,-25881,-0,26284.4,-1.55339e+06
step02_gravity_refstate-crust.xmf,449,-6.7003e-06,1.85532e-05,0,-2.14525e-05,-6.94271e+08,-6.92539e+08,-6.93812e+08,-1.47164e+06,0.0734634,-0.571834,0,0.576533,-4982.36,-25277.3,-0,25763.6,-1.47164e+06
step02_gravity_refstate-crust.xmf,450,-5.68836e-06,1.60761e-05,0,-2.01723e-05,-6.76221e+08,-6.74728e+08,-6.75831e+08,-1.38382e+06,0.0732973,-0.545517,0,0.550419,-5384.53,-24620.4,-0,25202.3,-1.38382e+06
step02_gravity_refstate-crust.xmf,451,-4.74633e-06,1.3828e-05,0,-1.89854e-05,-6.57933e+08,-6.56659e+08,-6.57608e+08,-1.3024e+06,0.0729514,-0.520055,0,0.525147,-5830.41,-23954.9,-0,24654.3,-1.3024e+06
step02_gravity_refstate-crust.xmf,452,-7.37725e-07,2.64932e-06,0,-1.06751e-05,-4.38446e+08,-4.38214e+08,-4.38396e+08,-732309,0.0599447,-0.333348,0,0.338695,-11130.8,-15963.2,-0,19460.7,-732309
step02_gravity_refstate-crust.xmf,453,-1.00148e-06,3.40144e-06,0,-1.13074e-05,-4.65027e+08,-4.64725e+08,-4.64959e+08,-775691,0.0612079,-0.351447,0,0.356738,-10367.2,-16931,-0,19852.9,-775691
step02_gravity_refstate-crust.xmf,454,-1.30691e-06,4.24095e-06,0,-1.19526e-05,-4.90001e+08,-4.89621e+08,-4.89912e+08,-819949,0.062546,-0.369457,0,0.374714,-9667.29,-17840.3,-0,20291.2,-819949
step02_gravity_refstate-crust.xmf,455,-1.6074e-06,5.07844e-06,0,-1.25858e-05,-5.12373e+08,-5.11914e+08,-5.12263e+08,-863385,0.0638627,-0.386032,0,0.391279,-9079.1,-18654.8,-0,20746.9,-863385
step02_gravity_refstate-crust.xmf,456,-1.63691e-05,4.04678e-05,0,-2.36651e-05,-7.73905e+08,-7.70006e+08,-7.72782e+08,-1.62342e+06,0.0605034,-0.740825,0,0.743292,-2964.41,-28171.2,-0,28326.7,-1.62342e+06
step02_gravity_refstate-crust.xmf,457,-1.62798e-05,4.53296e-05,0,-2.6081e-05,-7.99609e+08,-7.95383e+08,-7.98493e+08,-1.78916e+06,0.0602135,-0.780147,0,0.782467,-2985.59,-29114.9,-0,29267.6,-1.78916e+06
step02_gravity_refstate-crust.xmf,458,-1.4337e-05,4.54803e-05,0,-2.96793e-05,-8.11717e+08,-8.07614e+08,-8.10734e+08,-2.036e+06,0.0626898,-0.785092,0,0.787591,-3246.26,-29563.8,-0,29741.5,-2.036e+06
step02_gravity_refstate-crust.xmf,459,-1.16211e-05,4.5411e-05,0,-3.43681e-05,-8.234e+08,-8.19488e+08,-8.22603e+08,-2.35765e+06,0.0637293,-0.787573,0,0.790147,-3497.18,-30000,-0,30203.2,-2.35765e+06
step02_gravity_refstate-crust.xmf,460,-3.29952e-07,1.60558e-05,0,-3.77802e-05,-8.316e+08,-8.30476e+08,-8.31577e+08,-2.59172e+06,0.0604097,-0.701466,0,0.704062,-4471.65,-30298.7,-0,30626.9,-2.59172e+06
step02_gravity_refstate-crust.xmf,461,7.01069e-06,-7.69206e-06,0,-1.33785e-05,-8.18601e+08,-8.1961e+08,-8.19082e+08,-917767,0.0363751,-0.373282,0,0.37505,-9569.61,-29818.4,-0,31316.4,-917767
step02_gravity_refstate-crust.xmf,462,7.40904e-06,-7.31698e-06,0,-1.54167e-05,-8.2188e+08,-8.2289e+08,-8.22388e+08,-1.05758e+06,0.0402645,-0.408587,0,0.410566,-8754.58,-29940,-0,31193.7,-1.05758e+06
step02_gravity_refstate-crust.xmf,463,7.74911e-06,-6.45102e-06,0,-1.7757e-05,-8.2168e+08,-8.22654e+08,-8.22212e+08,-1.21813e+06,0.0456487,-0.443812,0,0.446154,-8044.99,-29935.5,-0,30997.6,-1.21813e+06
step02_gravity_refstate-crust.xmf,464,7.89456e-06,-5.04863e-06,0,-2.03971e-05,-8.20795e+08,-8.21683e+08,-8.21337e+08,-1.39924e+06,0.0512545,-0.480402,0,0.483129,-7381.76,-29906,-0,30803.5,-1.39924e+06
step02_gravity_refstate-crust.xmf,465,4.73762e-06,-5.90413e-06,0,-7.62674e-06,-7.35595e+08,-7.36325e+08,-7.3592e+08,-523195,0.0326377,-0.21291,0,0.215397,-15577,-26790.1,-0,30989.5,-523195
step02_gravity_refstate-crust.xmf,466,2.73164e-06,-3.93626e-06,0,-4.69825e-06,-6.61375e+08,-6.61833e+08,-6.61563e+08,-322300,0.0206649,-0.103185,0,0.105234,-22761.2,-24083,-0,33137,-322300
step02_gravity_refstate-crust.xmf,467,1.20449e-06,-2.36266e-06,0,-2.23914e-06,-6.49022e+08,-6.49267e+08,-6.49105e+08,-153605,0.00714637,-0.0273696,0,0.0282872,-30723.9,-23629.5,-0,38759.6,-153605
step02_gravity_refstate-crust.xmf,468,1.55072e-06,-2.72384e-06,0,-2.83742e-06,-6.47413e+08,-6.47706e+08,-6.47519e+08,-194647,0.0101983,-0.0433378,0,0.0445216,-28577.1,-23571.8,-0,37044.3,-194647
step02_gravity_refstate-crust.xmf,469,1.99238e-06,-3.29882e-06,0,-3.60331e-06,-6.62782e+08,-6.63145e+08,-6.62918e+08,-247187,0.0135554,-0.0680623,0,0.069399,-25735.7,-24132.2,-0,35280.2,-247187
step02_gravity_refstate-crust.xmf,470,2.34963e-06,-3.61984e-06,0,-4.12434e-06,-6.61948e+08,-6.62358e+08,-6.6211e+08,-282930,0.0168778,-0.0847549,0,0.086419,-24237.2,-24102.8,-0,34181.7,-282930
step02_gravity_refstate-crust.xmf,471,4.22642e-06,-5.69307e-06,0,-6.74243e-06,-7.35491e+08,-7.36172e+08,-7.35781e+08,-462531,0.0275398,-0.188532,0,0.190533,-16732.7,-26784.6,-0,31581.6,-462531
step02_gravity_refstate-crust.xmf,472,3.61502e-06,-5.15534e-06,0,-5.891e-06,-7.18531e+08,-7.19133e+08,-7.18779e+08,-404123,0.0241868,-0.157476,0,0.159323,-18567.1,-26165.5,-0,32083.8,-404123
step02_gravity_refstate-crust.xmf,473,3.15131e-06,-4.54294e-06,0,-5.25117e-06,-6.92676e+08,-6.93204e+08,-6.92892e+08,-360230,0.0221304,-0.128636,0,0.130526,-20618.1,-25223.3,-0,32577.9,-360230
step02_gravity_refstate-crust.xmf,474,4.66547e-06,-6.71936e-06,0,-7.48379e-06,-7.84122e+08,-7.84903e+08,-7.84443e+08,-513388,0.0242087,-0.231135,0,0.2324,-14318,-28555.2,-0,31943.8,-513388
step02_gravity_refstate-crust.xmf,475,4.72056e-06,-6.34151e-06,0,-7.50721e-06,-7.60866e+08,-7.61625e+08,-7.6119e+08,-514994,0.0286139,-0.221231,0,0.223074,-14963.5,-27709.4,-0,31491.5,-514994
step02_gravity_refstate-crust.xmf,476,9.35964e-07,-2.0888e-06,0,-1.72677e-06,-6.52312e+08,-6.5252e+08,-6.52377e+08,-118457,0.00487145,-0.0157795,0,0.0165143,-32667.7,-23748.6,-0,40387.8,-118457
step02_gravity_refstate-crust.xmf,477,6.44795e-07,-1.66543e-06,0,-4.42812e-07,-6.41871e+08,-6.42029e+08,-6.41915e+08,-30376.9,0.00117653,0.000967662,0,0.00152335,-38127,-23368,-0,44718.3,-30376.9
step02_gravity_refstate-crust.xmf,478,-5.47338e-07,4.71533e-07,0,-4.587e-06,-1.44098e+08,-1.44028e+08,-1.4406e+08,-314668,0.0761883,-0.226534,0,0.239002,-16791.1,-5244.53,-0,17591.1,-314668
step02_gravity_refstate-crust.xmf,479,-1.32467e-07,2.42176e-07,0,-3.2848e-06,-9.7765e+07,-9.77393e+07,-9.77559e+07,-225338,0.0876711,-0.209784,0,0.227367,-17913.8,-3559.07,-0,18264,-225338
step02_gravity_refstate-crust.xmf,480,5.98631e-07,-1.00083e-07,0,-1.74398e-06,-4.89705e+07,-4.90185e+07,-4.90116e+07,-119637,0.103112,-0.193201,0,0.218995,-19105.9,-1785.09,-0,19189.1,-119637
step02_gravity_refstate-crust.xmf,481,1.72066e-06,-6.50161e-07,0,-1.26568e-08,163568,929.394,45530.4,-868.258,0.12209,-0.178286,0,0.216083,-20294.4,0,-0,20294.4,-868.258
step02_gravity_refstate-crust.xmf,482,-1.90535e-06,6.00138e-06,0,-1.33475e-05,-5.36529e+08,-5.35987e+08,-5.36399e+08,-915635,0.0654727,-0.403494,0,0.408772,-8527.59,-19534.5,-0,21314.7,-915635
step02_gravity_refstate-crust.xmf,483,-4.06441e-06,1.19561e-05,0,-1.78395e-05,-6.40015e+08,-6.38916e+08,-6.39736e+08,-1.22379e+06,0.0722466,-0.497787,0,0.503003,-6253.55,-23302.4,-0,24127,-1.22379e+06
step02_gravity_refstate-crust.xmf,484,-1.2749e-05,2.98701e-05,0,-2.15963e-05,-7.27361e+08,-7.24438e+08,-7.26487e+08,-1.48151e+06,0.0645292,-0.657177,0,0.660337,-3540.02,-26475,-0,26710.6,-1.48151e+06
step02_gravity_refstate-crust.xmf,485,-1.52211e-05,3.65887e-05,0,-2.29122e-05,-7.57026e+08,-7.53472e+08,-7.55982e+08,-1.57178e+06,0.0620814,-0.709921,0,0.71263,-3125.72,-27555.4,-0,27732.1,-1.57178e+06
step02_gravity_refstate-crust.xmf,486,-1.4329e-05,3.37086e-05,0,-2.21512e-05,-7.43258e+08,-7.39963e+08,-7.42275e+08,-1.51957e+06,0.0627101,-0.686728,0,0.689586,-3259.11,-27053.3,-0,27248.9,-1.51957e+06
step02_gravity_refstate-crust.xmf,487,-1.75577e-05,4.49578e-05,0,-2.28721e-05,-7.87696e+08,-7.83408e+08,-7.86492e+08,-1.56903e+06,0.0564185,-0.773635,0,0.77569,-2721.93,-28675.5,-0,28804.4,-1.56903e+06
step02_gravity_refstate-crust.xmf,488,-1.67242e-05,4.95741e-05,0,-2.48598e-05,-8.12054e+08,-8.07506e+08,-8.10907e+08,-1.70538e+06,0.0548802,-0.814811,0,0.816657,-2745.74,-29572.7,-0,29699.9,-1.70538e+06
step02_gravity_refstate-crust.xmf,489,-6.21833e-06,2.15118e-05,0,-4.87658e-05,-8.37612e+08,-8.3571e+08,-8.37185e+08,-3.34534e+06,0.0532883,-0.758824,0,0.760692,-4000,-30502.3,-0,30763.4,-3.34534e+06
step02_gravity_refstate-crust.xmf,490,6.86861e-06,-3.81088e-06,0,-2.384e-05,-8.38684e+08,-8.39417e+08,-8.39155e+08,-1.63542e+06,0.0455011,-0.534398,0,0.536331,-6480.61,-30555,-0,31234.7,-1.63542e+06
step02_gravity_refstate-crust.xmf,491,5.85126e-06,-1.13794e-06,0,-2.72618e-05,-8.40271e+08,-8.40751e+08,-8.40672e+08,-1.87016e+06,0.0479013,-0.576545,0,0.578532,-5902.89,-30612.8,-0,31176.7,-1.87016e+06
step02_gravity_refstate-crust.xmf,492,1.75892e-06,8.47227e-06,0,-3.53098e-05,-8.38615e+08,-8.38154e+08,-8.38736e+08,-2.42225e+06,0.0537557,-0.66653,0,0.668694,-4855.08,-30550.8,-0,30934.2,-2.42225e+06
step02_gravity_refstate-crust.xmf,493,4.10833e-06,3.00111e-06,0,-3.12619e-05,-8.40206e+08,-8.40282e+08,-8.40487e+08,-2.14457e+06,0.0508306,-0.622483,0,0.624555,-5341.83,-30609.8,-0,31072.4,-2.14457e+06
step02_gravity_refstate-crust.xmf,494,-2.37426e-06,1.21901e-05,0,-4.14688e-05,-8.45618e+08,-8.44619e+08,-8.45455e+08,-2.84476e+06,0.0472917,-0.70887,0,0.710445,-4467.99,-30794.8,-0,31117.3,-2.84476e+06
step02_gravity_refstate-crust.xmf,495,7.27047e-06,-5.67371e-06,0,-2.0855e-05,-8.37791e+08,-8.38679e+08,-8.3829e+08,-1.43065e+06,0.0420093,-0.495284,0,0.497063,-7078.78,-30521.2,-0,31331.4,-1.43065e+06
step02_gravity_refstate-crust.xmf,496,6.32664e-06,-7.56067e-06,0,-1.1048e-05,-8.04214e+08,-8.05167e+08,-8.04648e+08,-757894,0.0344068,-0.323603,0,0.325427,-10972.2,-29292.1,-0,31279.7,-757894
step02_gravity_refstate-crust.xmf,497,6.08252e-06,-8.00148e-06,0,-1.11392e-05,-8.23135e+08,-8.24101e+08,-8.23552e+08,-764150,0.0278646,-0.335068,0,0.336225,-10506.1,-29979.3,-0,31766.9,-764150
step02_gravity_refstate-crust.xmf,498,4.49509e-06,-7.06855e-06,0,-7.40564e-06,-8.07036e+08,-8.07829e+08,-8.07344e+08,-508027,0.0183435,-0.239603,0,0.240304,-13751.9,-29388.2,-0,32446.6,-508027
step02_gravity_refstate-crust.xmf,499,5.10106e-06,-7.34639e-06,0,-8.37872e-06,-8.06527e+08,-8.07381e+08,-8.06877e+08,-574780,0.0229528,-0.264895,0,0.265888,-12818.3,-29371.7,-0,32046.9,-574780
step02_gravity_refstate-crust.xmf,500,5.7671e-06,-7.53519e-06,0,-9.61335e-06,-8.05749e+08,-8.06661e+08,-8.06144e+08,-659476,0.0283269,-0.293321,0,0.294686,-11872.7,-29345.7,-0,31656.5,-659476
step02_gravity_refstate-crust.xmf,501,1.67517e-06,-3.02041e-06,0,-3.15253e-06,-6.66396e+08,-6.66718e+08,-6.66511e+08,-216264,0.0106771,-0.0542781,0,0.0553183,-27096.4,-24262.9,-0,36371.8,-216264
step02_gravity_refstate-crust.xmf,502,3.76306e-06,-5.42656e-06,0,-6.06102e-06,-7.3444e+08,-7.3507e+08,-7.34698e+08,-415786,0.0234422,-0.16765,0,0.169281,-17829.6,-26744.8,-0,32143.1,-415786
step02_gravity_refstate-crust.xmf,503,2.70057e-06,-4.22383e-06,0,-4.61382e-06,-6.95696e+08,-6.96171e+08,-6.95882e+08,-316508,0.0176333,-0.10828,0,0.109706,-22000.6,-25331.9,-0,33551.9,-316508
step02_gravity_refstate-crust.xmf,504,3.12631e-06,-4.88795e-06,0,-5.18755e-06,-7.23761e+08,-7.24311e+08,-7.23976e+08,-355866,0.0190813,-0.136507,0,0.137834,-19768.1,-26354.3,-0,32944.3,-355866
step02_gravity_refstate-crust.xmf,505,7.04417e-07,-1.87267e-06,0,-1.24794e-06,-6.5813e+08,-6.58307e+08,-6.58179e+08,-85608.8,0.00301673,-0.00692055,0,0.00754948,-34579.1,-23959.8,-0,42068.9,-85608.8
step02_gravity_refstate-crust.xmf,506,3.75275e-07,-1.60032e-06,0,-5.57585e-09,-6.7098e+08,-6.71116e+08,-6.71006e+08,-382.503,7.36785e-20,0.00389211,0,0.00389211,-40000,-24426.7,-0,46868.6,-382.503
step02_gravity_refstate-crust.xmf,507,-7.7678e-07,6.73209e-07,0,-5.66537e-06,-1.87414e+08,-1.87315e+08,-1.87361e+08,-388645,0.0681197,-0.243125,0,0.252487,-15734.7,-6820.9,-0,17149.5,-388645
step02_gravity_refstate-crust.xmf,508,-9.03082e-07,8.93097e-07,0,-6.55112e-06,-2.27257e+08,-2.27134e+08,-2.27195e+08,-449407,0.0627867,-0.258956,0,0.266459,-14771.6,-8271.25,-0,16929.7,-449407
step02_gravity_refstate-crust.xmf,509,-9.71361e-07,1.155e-06,0,-7.32592e-06,-2.65468e+08,-2.65322e+08,-2.65401e+08,-502558,0.0593807,-0.274118,0,0.280476,-13893.8,-9662.48,-0,16923.4,-502558
step02_gravity_refstate-crust.xmf,510,-1.01289e-06,1.47772e-06,0,-8.04384e-06,-3.03174e+08,-3.03003e+08,-3.03104e+08,-551808,0.0574646,-0.288991,0,0.294649,-13081.2,-11035.5,-0,17114.4,-551808
step02_gravity_refstate-crust.xmf,511,-1.07562e-06,1.9012e-06,0,-8.73831e-06,-3.4055e+08,-3.40346e+08,-3.40477e+08,-599448,0.0567251,-0.304659,0,0.309895,-12275.5,-12396.7,-0,17446.1,-599448
step02_gravity_refstate-crust.xmf,512,-1.46783e-06,3.17911e-06,0,-9.99485e-06,-4.06732e+08,-4.06413e+08,-4.06631e+08,-685647,0.0573371,-0.339579,0,0.344386,-10622.8,-14806.5,-0,18223,-685647
step02_gravity_refstate-crust.xmf,513,-1.23987e-06,2.48644e-06,0,-9.38862e-06,-3.7535e+08,-3.75095e+08,-3.75265e+08,-644059,0.0567807,-0.322085,0,0.327051,-11423.2,-13663.8,-0,17809.8,-644059
step02_gravity_refstate-crust.xmf,514,-2.24365e-06,6.93581e-06,0,-1.4188e-05,-5.6075e+08,-5.6012e+08,-5.60596e+08,-973298,0.0671663,-0.422072,0,0.427383,-7996.95,-20416.3,-0,21926.6,-973298
step02_gravity_refstate-crust.xmf,515,-2.59081e-06,8.211e-06,0,-1.52697e-05,-5.86622e+08,-5.85881e+08,-5.86444e+08,-1.0475e+06,0.0691415,-0.442179,0,0.447552,-7496.35,-21358.8,-0,22636.1,-1.0475e+06
step02_gravity_refstate-crust.xmf,516,-1.11468e-05,2.62345e-05,0,-2.0948e-05,-7.11105e+08,-7.08541e+08,-7.10341e+08,-1.43703e+06,0.0661706,-0.627898,0,0.631375,-3873.09,-25884,-0,26172.2,-1.43703e+06
step02_gravity_refstate-crust.xmf,517,-3.71449e-06,1.08419e-05,0,-1.67997e-05,-6.20452e+08,-6.19453e+08,-6.20197e+08,-1.15246e+06,0.070742,-0.479885,0,0.485072,-6572.22,-22589.9,-0,23526.6,-1.15246e+06
step02_gravity_refstate-crust.xmf,518,-9.69489e-06,2.29829e-05,0,-2.01182e-05,-6.94115e+08,-6.91873e+08,-6.9345e+08,-1.38011e+06,0.0672382,-0.599792,0,0.603549,-4227.93,-25266.3,-0,25617.6,-1.38011e+06
step02_gravity_refstate-crust.xmf,519,-8.39583e-06,2.00781e-05,0,-1.91883e-05,-6.76308e+08,-6.74354e+08,-6.75732e+08,-1.31631e+06,0.0678138,-0.572795,0,0.576795,-4606.32,-24618.8,-0,25046,-1.31631e+06
step02_gravity_refstate-crust.xmf,520,-7.22167e-06,1.74702e-05,0,-1.82439e-05,-6.57942e+08,-6.56248e+08,-6.57447e+08,-1.25153e+06,0.0680606,-0.546889,0,0.551108,-5015.6,-23950.9,-0,24470.4,-1.25153e+06
step02_gravity_refstate-crust.xmf,521,-6.16398e-06,1.51563e-05,0,-1.73752e-05,-6.39944e+08,-6.38482e+08,-6.39521e+08,-1.19194e+06,0.0681404,-0.522662,0,0.527085,-5452.79,-23296.3,-0,23926,-1.19194e+06
step02_gravity_refstate-crust.xmf,522,-1.74066e-06,3.96915e-06,0,-1.06006e-05,-4.3633e+08,-4.35938e+08,-4.36211e+08,-727204,0.0582506,-0.357012,0,0.361733,-9889.23,-15884.1,-0,18711,-727204
step02_gravity_refstate-crust.xmf,523,-2.09913e-06,4.89816e-06,0,-1.12056e-05,-4.63953e+08,-4.63473e+08,-4.63809e+08,-768701,0.0592719,-0.375154,0,0.379807,-9179.67,-16889.8,-0,19223.2,-768701
step02_gravity_refstate-crust.xmf,524,-2.46735e-06,5.85171e-06,0,-1.1807e-05,-4.88929e+08,-4.88358e+08,-4.8876e+08,-809957,0.0603747,-0.392202,0,0.396821,-8575.01,-17799,-0,19756.9,-809957
step02_gravity_refstate-crust.xmf,525,-2.90382e-06,6.92422e-06,0,-1.24264e-05,-5.1282e+08,-5.12146e+08,-5.12621e+08,-852450,0.0614666,-0.409903,0,0.414486,-7997.02,-18668.7,-0,20309.4,-852450
step02_gravity_refstate-crust.xmf,526,-1.73138e-05,4.06097e-05,0,-2.05968e-05,-7.63111e+08,-7.59138e+08,-7.61923e+08,-1.41294e+06,0.0553394,-0.736705,0,0.73878,-2686.04,-27774.7,-0,27904.2,-1.41294e+06
step02_gravity_refstate-crust.xmf,527,-1.84801e-05,4.43962e-05,0,-1.98072e-05,-7.75538e+08,-7.71225e+08,-7.7427e+08,-1.35877e+06,0.0516068,-0.765213,0,0.766951,-2451.84,-28228.2,-0,28334.5,-1.35877e+06
step02_gravity_refstate-crust.xmf,528,-1.82136e-05,4.90305e-05,0,-2.15878e-05,-8.00445e+08,-7.95832e+08,-7.99196e+08,-1.48092e+06,0.0514337,-0.806705,0,0.808343,-2480.31,-29143.2,-0,29248.6,-1.48092e+06
step02_gravity_refstate-crust.xmf,529,-1.49085e-05,5.0094e-05,0,-2.86255e-05,-8.23566e+08,-8.19107e+08,-8.22543e+08,-1.96371e+06,0.0571002,-0.821597,0,0.823579,-2997.53,-30000,-0,30149.4,-1.96371e+06
step02_gravity_refstate-crust.xmf,530,1.29344e-06,3.50218e-06,0,-3.5839e-05,-8.5449e+08,-8.54338e+08,-8.54579e+08,-2.45855e+06,0.0385839,-0.654938,0,0.656074,-5009.4,-31119.2,-0,31519.8,-2.45855e+06
step02_gravity_refstate-crust.xmf,531,6.47155e-06,-8.30828e-06,0,-1.35004e-05,-8.39305e+08,-8.40319e+08,-8.39749e+08,-926127,0.0269296,-0.386727,0,0.387663,-9122.41,-30569.1,-0,31901.2,-926127
step02_gravity_refstate-crust.xmf,532,6.9166e-06,-7.89584e-06,0,-1.56582e-05,-8.3942e+08,-8.40436e+08,-8.39895e+08,-1.07415e+06,0.0316897,-0.421794,0,0.422983,-8384.38,-30575.7,-0,31704.4,-1.07415e+06
step02_gravity_refstate-crust.xmf,533,7.21983e-06,-7.06121e-06,0,-1.80854e-05,-8.38679e+08,-8.39659e+08,-8.39174e+08,-1.24066e+06,0.036842,-0.457518,0,0.458999,-7715.11,-30551.2,-0,31510.3,-1.24066e+06
step02_gravity_refstate-crust.xmf,534,5.9017e-06,-8.43277e-06,0,-1.16728e-05,-8.39682e+08,-8.40666e+08,-8.40087e+08,-800755,0.0220364,-0.353934,0,0.354619,-9890.55,-30580.3,-0,32140,-800755
step02_gravity_refstate-crust.xmf,535,4.02348e-06,-6.76258e-06,0,-6.73619e-06,-8.05742e+08,-8.06482e+08,-8.06018e+08,-462103,0.0153318,-0.219438,0,0.219973,-14584.4,-29339.7,-0,32764.6,-462103
step02_gravity_refstate-crust.xmf,536,4.19115e-06,-6.05028e-06,0,-6.626e-06,-7.61615e+08,-7.62317e+08,-7.61902e+08,-454543,0.0233329,-0.195791,0,0.197176,-16108.3,-27734.9,-0,32073.4,-454543
step02_gravity_refstate-crust.xmf,537,6.98528e-07,-2.19333e-06,0,-1.81634e-06,-6.9472e+08,-6.94918e+08,-6.94767e+08,-124601,0.00289194,-0.0181261,0,0.0183553,-31618,-25291.4,-0,40488.9,-124601
step02_gravity_refstate-crust.xmf,538,2.28288e-06,-3.87463e-06,0,-4.06364e-06,-6.97058e+08,-6.97481e+08,-6.97215e+08,-278765,0.0139095,-0.089665,0,0.0907375,-23427.8,-25380.3,-0,34540.2,-278765
step02_gravity_refstate-crust.xmf,539,9.82996e-07,-2.49969e-06,0,-2.27237e-06,-6.92369e+08,-6.92608e+08,-6.92436e+08,-155885,0.00462554,-0.0301231,0,0.0304761,-29752.7,-25206.5,-0,38994.7,-155885
step02_gravity_refstate-crust.xmf,540,1.27336e-06,-2.82873e-06,0,-2.70941e-06,-6.92975e+08,-6.93257e+08,-6.93063e+08,-185866,0.00649033,-0.0433059,0,0.0437895,-28023.9,-25229.2,-0,37707.5,-185866
step02_gravity_refstate-crust.xmf,541,1.54739e-06,-3.16896e-06,0,-3.11596e-06,-6.9809e+08,-6.98414e+08,-6.98196e+08,-213755,0.00815105,-0.057128,0,0.0577066,-26414.5,-25416,-0,36656.5,-213755
step02_gravity_refstate-crust.xmf,542,1.89232e-06,-3.51483e-06,0,-3.5633e-06,-6.97905e+08,-6.98276e+08,-6.98035e+08,-244442,0.0107216,-0.0724284,0,0.0732176,-24915.5,-25410.1,-0,35587.4,-244442
step02_gravity_refstate-crust.xmf,543,3.64913e-06,-5.67621e-06,0,-5.86392e-06,-7.59035e+08,-7.59675e+08,-7.59286e+08,-402265,0.0191209,-0.171132,0,0.172197,-17376.2,-27639.4,-0,32647.7,-402265
step02_gravity_refstate-crust.xmf,544,3.19273e-06,-5.25494e-06,0,-5.2571e-06,-7.52749e+08,-7.53328e+08,-7.52968e+08,-360637,0.0161211,-0.148334,0,0.149208,-18721.8,-27409.4,-0,33193.1,-360637
step02_gravity_refstate-crust.xmf,545,2.65305e-06,-4.52087e-06,0,-4.55328e-06,-7.28337e+08,-7.28829e+08,-7.28519e+08,-312355,0.0142929,-0.115243,0,0.116126,-21129.1,-26519.6,-0,33907.6,-312355
step02_gravity_refstate-crust.xmf,546,3.95755e-06,-6.42499e-06,0,-6.42728e-06,-7.89353e+08,-7.90065e+08,-7.89624e+08,-440911,0.0175573,-0.203502,0,0.204258,-15456.6,-28743.2,-0,32635.6,-440911
step02_gravity_refstate-crust.xmf,547,4.33497e-07,-1.71196e-06,0,-7.87954e-07,-6.75205e+08,-6.75352e+08,-6.75234e+08,-54053.7,0.00134384,-0.000232536,0,0.00136381,-36394.2,-24580.6,-0,43917.5,-54053.7
step02_gravity_refstate-crust.xmf,548,4.44569e-07,-1.94168e-06,0,-1.3835e-06,-7.00248e+08,-7.00412e+08,-7.00278e+08,-94907.9,0.0015038,-0.00855669,0,0.00868783,-33451.7,-25492,-0,42057.8,-94907.9
step02_gravity_refstate-crust.xmf,549,1.26261e-07,-1.58066e-06,0,-3.84761e-07,-7.02857e+08,-7.02974e+08,-7.02866e+08,-26394.6,0.000204492,0.00460904,0,0.00461357,-38159,-25586.3,-0,45943.1,-26394.6
step02_gravity_refstate-crust.xmf,550,-1.51652e-06,9.53107e-07,0,-4.69096e-06,-1.42692e+08,-1.42523e+08,-1.42588e+08,-321800,0.0745606,-0.253774,0,0.2645,-14929.6,-5190.19,-0,15806.1,-321800
step02_gravity_refstate-crust.xmf,551,-1.26354e-06,7.20681e-07,0,-3.41346e-06,-9.6768e+07,-9.66319e+07,-9.66813e+07,-234163,0.0866019,-0.237676,0,0.252962,-15950.4,-3518.94,-0,16333.9,-234163
step02_gravity_refstate-crust.xmf,552,-7.52462e-07,4.23318e-07,0,-1.84457e-06,-4.84222e+07,-4.83416e+07,-4.83706e+07,-126538,0.103205,-0.221305,0,0.244186,-17047.2,-1760.47,-0,17137.8,-126538
step02_gravity_refstate-crust.xmf,553,9.73683e-08,-3.27885e-08,0,-2.21971e-08,9426.17,497.414,2746.71,-1522.72,0.124102,-0.206283,0,0.240737,-18134.4,0,-0,18134.4,-1522.72
step02_gravity_refstate-crust.xmf,554,-3.36256e-06,7.96921e-06,0,-1.30995e-05,-5.36332e+08,-5.35555e+08,-5.36101e+08,-898629,0.0626616,-0.427868,0,0.432432,-7472.85,-19524.4,-0,20905.7,-898629
step02_gravity_refstate-crust.xmf,555,-3.62862e-06,1.00926e-05,0,-1.57926e-05,-6.00369e+08,-5.99428e+08,-6.0012e+08,-1.08338e+06,0.0688277,-0.465501,0,0.470562,-6807.84,-21858,-0,22893.6,-1.08338e+06
step02_gravity_refstate-crust.xmf,556,-5.32028e-06,1.33123e-05,0,-1.66831e-05,-6.24871e+08,-6.23593e+08,-6.24506e+08,-1.14446e+06,0.068142,-0.502858,0,0.507454,-5857.1,-22748.2,-0,23490.1,-1.14446e+06
step02_gravity_refstate-crust.xmf,557,-1.4042e-05,3.05661e-05,0,-1.8376e-05,-7.11711e+08,-7.08651e+08,-7.10748e+08,-1.26059e+06,0.0573922,-0.653208,0,0.655724,-3170.35,-25901.1,-0,26094.4,-1.26059e+06
step02_gravity_refstate-crust.xmf,558,-1.56559e-05,3.43619e-05,0,-1.8522e-05,-7.28508e+08,-7.25077e+08,-7.27434e+08,-1.27061e+06,0.0550759,-0.683064,0,0.685281,-2865.25,-26511.9,-0,26666.3,-1.27061e+06
step02_gravity_refstate-crust.xmf,559,-1.72994e-05,3.87e-05,0,-1.86284e-05,-7.47112e+08,-7.4327e+08,-7.45925e+08,-1.27791e+06,0.0526191,-0.716882,0,0.718811,-2596.28,-27189.3,-0,27313,-1.27791e+06
step02_gravity_refstate-crust.xmf,560,-1.9099e-05,4.34202e-05,0,-1.6827e-05,-7.61747e+08,-7.57458e+08,-7.60437e+08,-1.15433e+06,0.0460429,-0.752717,0,0.754124,-2179.6,-27722.1,-0,27807.7,-1.15433e+06
step02_gravity_refstate-crust.xmf,561,-1.92942e-05,4.83493e-05,0,-1.85735e-05,-7.88919e+08,-7.84278e+08,-7.87595e+08,-1.27414e+06,0.0468998,-0.797369,0,0.798747,-2207.12,-28718.2,-0,28802.9,-1.27414e+06
step02_gravity_refstate-crust.xmf,562,-1.8495e-05,5.27114e-05,0,-2.01375e-05,-8.12401e+08,-8.07516e+08,-8.11132e+08,-1.38143e+06,0.0459723,-0.839622,0,0.84088,-2241.69,-29583.1,-0,29667.9,-1.38143e+06
step02_gravity_refstate-crust.xmf,563,-1.70843e-05,5.35534e-05,0,-2.33888e-05,-8.23661e+08,-8.18815e+08,-8.22489e+08,-1.60447e+06,0.0490968,-0.849771,0,0.851188,-2497.35,-30000,-0,30103.8,-1.60447e+06
step02_gravity_refstate-crust.xmf,564,-5.22976e-06,1.44816e-05,0,-5.15446e-05,-8.51512e+08,-8.5016e+08,-8.51154e+08,-3.53596e+06,0.0398869,-0.767827,0,0.768862,-4000,-31001.4,-0,31258.4,-3.53596e+06
step02_gravity_refstate-crust.xmf,565,6.06349e-06,-6.32006e-06,0,-2.17705e-05,-8.54739e+08,-8.55588e+08,-8.55154e+08,-1.49346e+06,0.0304148,-0.511027,0,0.511931,-6779.55,-31132.4,-0,31862,-1.49346e+06
step02_gravity_refstate-crust.xmf,566,5.39217e-06,-4.31774e-06,0,-2.52641e-05,-8.54535e+08,-8.55201e+08,-8.54905e+08,-1.73312e+06,0.0339176,-0.552247,0,0.553288,-6202.11,-31125.3,-0,31737.2,-1.73312e+06
step02_gravity_refstate-crust.xmf,567,3.89452e-06,-1.25864e-06,0,-2.96803e-05,-8.54773e+08,-8.55127e+08,-8.55041e+08,-2.03607e+06,0.0365308,-0.599236,0,0.600348,-5616.78,-31132.7,-0,31635.3,-2.03607e+06
step02_gravity_refstate-crust.xmf,568,-2.08122e-06,7.13889e-06,0,-4.41967e-05,-8.59435e+08,-8.58803e+08,-8.59292e+08,-3.03189e+06,0.0337334,-0.714519,0,0.715315,-4460.34,-31291.2,-0,31607.5,-3.03189e+06
step02_gravity_refstate-crust.xmf,569,6.24932e-06,-7.63865e-06,0,-1.87333e-05,-8.55101e+08,-8.56054e+08,-8.5553e+08,-1.2851e+06,0.0263947,-0.472115,0,0.472852,-7389.09,-31144.3,-0,32008.8,-1.2851e+06
step02_gravity_refstate-crust.xmf,570,5.30335e-06,-8.04256e-06,0,-9.53873e-06,-8.30395e+08,-8.31311e+08,-8.30759e+08,-654357,0.0196023,-0.305327,0,0.305955,-11289.4,-30240.4,-0,32279,-654357
step02_gravity_refstate-crust.xmf,571,5.32931e-06,-8.41659e-06,0,-1.03991e-05,-8.41286e+08,-8.42229e+08,-8.41652e+08,-713379,0.0176777,-0.329663,0,0.330137,-10506.8,-30636.4,-0,32388,-713379
step02_gravity_refstate-crust.xmf,572,3.46485e-06,-6.93149e-06,0,-6.41003e-06,-8.29657e+08,-8.3037e+08,-8.29895e+08,-439728,0.00719951,-0.22073,0,0.220848,-14280.6,-30207.8,-0,33413.3,-439728
step02_gravity_refstate-crust.xmf,573,4.02479e-06,-7.34985e-06,0,-7.24076e-06,-8.29723e+08,-8.30503e+08,-8.29999e+08,-496716,0.0108974,-0.246355,0,0.246596,-13267.5,-30211.8,-0,32996.6,-496716
step02_gravity_refstate-crust.xmf,574,4.62729e-06,-7.72362e-06,0,-8.2308e-06,-8.29923e+08,-8.3077e+08,-8.3024e+08,-564633,0.0148985,-0.273453,0,0.273858,-12303.3,-30220.9,-0,32629.4,-564633
step02_gravity_refstate-crust.xmf,575,2.16466e-06,-4.12104e-06,0,-3.98462e-06,-7.31882e+08,-7.32313e+08,-7.3203e+08,-273345,0.0102079,-0.0951331,0,0.0956792,-22582.2,-26647.3,-0,34929,-273345
step02_gravity_refstate-crust.xmf,576,2.5312e-06,-4.80113e-06,0,-4.51752e-06,-7.5756e+08,-7.58063e+08,-7.57734e+08,-309902,0.0107382,-0.123319,0,0.123785,-20237.5,-27582.5,-0,34210.4,-309902
step02_gravity_refstate-crust.xmf,577,3.28737e-06,-6.5444e-06,0,-5.96546e-06,-8.19904e+08,-8.20578e+08,-8.20129e+08,-409231,0.00781296,-0.201458,0,0.201609,-15222.9,-29852.6,-0,33509.9,-409231
step02_gravity_refstate-crust.xmf,578,2.72444e-07,-1.76914e-06,0,-1.03042e-06,-7.03743e+08,-7.03883e+08,-7.03762e+08,-70686.8,0.000765268,-0.00228606,0,0.00241075,-35039.7,-25618.8,-0,43406.3,-70686.8
step02_gravity_refstate-crust.xmf,579,1.77862e-07,-1.99869e-06,0,-1.47814e-06,-7.40494e+08,-7.40644e+08,-7.40507e+08,-101400,-0.000727661,-0.0104857,-0,0.010511,-32406.8,-26956.1,-0,42152.5,-101400
step02_gravity_refstate-crust.xmf,580,-1.60956e-07,-1.49109e-06,0,-5.0488e-09,-7.32458e+08,-7.32549e+08,-7.32447e+08,-346.347,-1.15663e-19,0.00734912,-0,0.00734912,-40000,-26662.9,-0,48071.9,-346.347
step02_gravity_refstate-crust.xmf,581,-1.63476e-06,1.19624e-06,0,-5.73349e-06,-1.86251e+08,-1.86057e+08,-1.86139e+08,-393317,0.0661637,-0.269495,0,0.277498,-13976.5,-6775.89,-0,15532.4,-393317
step02_gravity_refstate-crust.xmf,582,-1.69693e-06,1.4859e-06,0,-6.58111e-06,-2.26743e+08,-2.26524e+08,-2.26626e+08,-451464,0.0606743,-0.284454,0,0.290853,-13109.9,-8250.22,-0,15489.9,-451464
step02_gravity_refstate-crust.xmf,583,-1.75122e-06,1.85025e-06,0,-7.31337e-06,-2.6548e+08,-2.65233e+08,-2.6536e+08,-501697,0.0572154,-0.299153,0,0.304575,-12301.3,-9660.83,-0,15641.4,-501697
step02_gravity_refstate-crust.xmf,584,-1.83135e-06,2.31464e-06,0,-7.97957e-06,-3.03139e+08,-3.02854e+08,-3.03013e+08,-547399,0.055253,-0.314114,0,0.318936,-11525.4,-11032.2,-0,15954.5,-547399
step02_gravity_refstate-crust.xmf,585,-1.97742e-06,2.90735e-06,0,-8.59593e-06,-3.39324e+08,-3.38989e+08,-3.39188e+08,-589681,0.054372,-0.329912,0,0.334362,-10753.4,-12349.9,-0,16375.5,-589681
step02_gravity_refstate-crust.xmf,586,-2.50244e-06,4.48356e-06,0,-9.73043e-06,-4.05585e+08,-4.05106e+08,-4.05413e+08,-667507,0.0545852,-0.363439,0,0.367515,-9276.54,-14762.5,-0,17435.2,-667507
step02_gravity_refstate-crust.xmf,587,-2.20685e-06,3.63596e-06,0,-9.16929e-06,-3.73347e+08,-3.72946e+08,-3.73195e+08,-629013,0.0542172,-0.346506,0,0.350722,-9992.03,-13588.8,-0,16867,-629013
step02_gravity_refstate-crust.xmf,588,-3.91947e-06,9.29234e-06,0,-1.38574e-05,-5.59618e+08,-5.58712e+08,-5.59349e+08,-950616,0.063792,-0.447346,0,0.451871,-6952.76,-20372,-0,21525.8,-950616
step02_gravity_refstate-crust.xmf,589,-1.24817e-05,2.70885e-05,0,-1.80211e-05,-6.94598e+08,-6.91884e+08,-6.93742e+08,-1.23624e+06,0.0592069,-0.624808,0,0.627607,-3498.27,-25279,-0,25519.9,-1.23624e+06
step02_gravity_refstate-crust.xmf,590,-4.69379e-06,1.11001e-05,0,-1.45837e-05,-5.8106e+08,-5.79977e+08,-5.80738e+08,-1.00044e+06,0.0643673,-0.468983,0,0.47338,-6394.33,-21152.3,-0,22097.7,-1.00044e+06
step02_gravity_refstate-crust.xmf,591,-5.60141e-06,1.30854e-05,0,-1.54427e-05,-6.04129e+08,-6.02847e+08,-6.03745e+08,-1.05937e+06,0.0649627,-0.493102,0,0.497362,-5850.04,-21991.5,-0,22756.3,-1.05937e+06
step02_gravity_refstate-crust.xmf,592,-1.10521e-05,2.3948e-05,0,-1.74522e-05,-6.76654e+08,-6.74253e+08,-6.75896e+08,-1.19722e+06,0.0603847,-0.597708,0,0.60075,-3838.36,-24626.6,-0,24924,-1.19722e+06
step02_gravity_refstate-crust.xmf,593,-9.68819e-06,2.10354e-05,0,-1.68373e-05,-6.58121e+08,-6.56013e+08,-6.57456e+08,-1.15504e+06,0.0613377,-0.57133,0,0.574613,-4219.07,-23952.9,-0,24321.7,-1.15504e+06
step02_gravity_refstate-crust.xmf,594,-8.41498e-06,1.83869e-05,0,-1.62481e-05,-6.39713e+08,-6.37874e+08,-6.39135e+08,-1.11462e+06,0.0621607,-0.546224,0,0.54975,-4639.7,-23283.8,-0,23741.6,-1.11462e+06
step02_gravity_refstate-crust.xmf,595,-7.13602e-06,1.58577e-05,0,-1.57691e-05,-6.21806e+08,-6.20228e+08,-6.21316e+08,-1.08176e+06,0.0631966,-0.521348,0,0.525165,-5141.24,-22633.1,-0,23209.7,-1.08176e+06
step02_gravity_refstate-crust.xmf,596,-2.87903e-06,5.45507e-06,0,-1.02726e-05,-4.35412e+08,-4.3484e+08,-4.35214e+08,-704701,0.0551891,-0.38078,0,0.384759,-8598.35,-15848.4,-0,18030.6,-704701
step02_gravity_refstate-crust.xmf,597,-3.32019e-06,6.53562e-06,0,-1.08171e-05,-4.6326e+08,-4.62584e+08,-4.63032e+08,-742050,0.0559274,-0.398304,0,0.402211,-7971.93,-16862.1,-0,18651.6,-742050
step02_gravity_refstate-crust.xmf,598,-3.85335e-06,7.75127e-06,0,-1.13491e-05,-4.89057e+08,-4.88261e+08,-4.88793e+08,-778546,0.0565905,-0.416369,0,0.420197,-7373.48,-17801,-0,19267.7,-778546
step02_gravity_refstate-crust.xmf,599,-4.33318e-06,8.91652e-06,0,-1.19387e-05,-5.13994e+08,-5.13085e+08,-5.13697e+08,-818997,0.0576414,-0.433277,0,0.437094,-6901.78,-18708.7,-0,19941.2,-818997
step02_gravity_refstate-crust.xmf,600,-4.87523e-06,1.00743e-05,0,-1.25279e-05,-5.36432e+08,-5.35407e+08,-5.36098e+08,-859414,0.0584717,-0.450328,0,0.454108,-6455.73,-19525.2,-0,20564.8,-859414
step02_gravity_refstate-crust.xmf,601,-2.01036e-05,4.74076e-05,0,-1.54584e-05,-7.76394e+08,-7.71762e+08,-7.75014e+08,-1.06044e+06,0.0410554,-0.78569,0,0.786762,-1904.45,-28257.5,-0,28321.6,-1.06044e+06
step02_gravity_refstate-crust.xmf,602,-1.97238e-05,5.18932e-05,0,-1.69338e-05,-8.00995e+08,-7.96082e+08,-7.99641e+08,-1.16166e+06,0.041367,-0.828985,0,0.830016,-1951.46,-29161.6,-0,29226.8,-1.16166e+06
step02_gravity_refstate-crust.xmf,603,1.29101e-07,1.83205e-06,0,-4.00524e-05,-8.6674e+08,-8.66623e+08,-8.66749e+08,-2.7476e+06,0.0266448,-0.67897,0,0.679492,-4788.59,-31557.9,-0,31919.1,-2.7476e+06
step02_gravity_refstate-crust.xmf,604,5.12654e-06,-8.87563e-06,0,-1.18922e-05,-8.57808e+08,-8.58768e+08,-8.58159e+08,-815803,0.0125971,-0.366195,0,0.366412,-9459.12,-31236.3,-0,32637.2,-815803
step02_gravity_refstate-crust.xmf,605,5.62854e-06,-8.83005e-06,0,-1.38282e-05,-8.57399e+08,-8.58391e+08,-8.57786e+08,-948616,0.0168005,-0.400011,0,0.400364,-8716.6,-31223.6,-0,32417.5,-948616
step02_gravity_refstate-crust.xmf,606,6.03636e-06,-8.4587e-06,0,-1.61069e-05,-8.5647e+08,-8.57464e+08,-8.56884e+08,-1.10493e+06,0.0214462,-0.435374,0,0.435902,-8027.3,-31192,-0,32208.3,-1.10493e+06
step02_gravity_refstate-crust.xmf,607,4.61495e-06,-8.70451e-06,0,-1.03566e-05,-8.57702e+08,-8.58615e+08,-8.58018e+08,-710460,0.009077,-0.335745,0,0.335868,-10211.1,-31230.7,-0,32857.6,-710460
step02_gravity_refstate-crust.xmf,608,3.42117e-06,-5.93957e-06,0,-5.68255e-06,-7.86123e+08,-7.86765e+08,-7.86357e+08,-389823,0.0136604,-0.176539,0,0.177066,-16796,-28624.2,-0,33188.1,-389823
step02_gravity_refstate-crust.xmf,609,4.41932e-07,-2.28447e-06,0,-1.86798e-06,-7.36075e+08,-7.36262e+08,-7.36106e+08,-128144,0.000155803,-0.020667,0,0.0206676,-30613.6,-26795.8,-0,40684.3,-128144
step02_gravity_refstate-crust.xmf,610,1.73618e-06,-3.71687e-06,0,-3.49689e-06,-7.33361e+08,-7.33735e+08,-7.3348e+08,-239887,0.00708831,-0.0770054,0,0.0773309,-24079.6,-26700,-0,35954.4,-239887
step02_gravity_refstate-crust.xmf,611,7.33465e-07,-2.61298e-06,0,-2.26936e-06,-7.33731e+08,-7.3396e+08,-7.33781e+08,-155678,0.0013956,-0.0328108,0,0.0328404,-28846,-26711.1,-0,39313.8,-155678
step02_gravity_refstate-crust.xmf,612,1.03356e-06,-2.96453e-06,0,-2.66351e-06,-7.33959e+08,-7.34233e+08,-7.34029e+08,-182717,0.00282433,-0.0462304,0,0.0463166,-27171.2,-26720.1,-0,38108.2,-182717
step02_gravity_refstate-crust.xmf,613,1.36134e-06,-3.33152e-06,0,-3.06344e-06,-7.34197e+08,-7.34519e+08,-7.34291e+08,-210152,0.00464749,-0.0608169,0,0.0609942,-25598.4,-26729.5,-0,37010.1,-210152
step02_gravity_refstate-crust.xmf,614,2.92679e-06,-5.50173e-06,0,-5.06842e-06,-7.83805e+08,-7.84384e+08,-7.84006e+08,-347694,0.0103278,-0.153513,0,0.15386,-18068.8,-28538.5,-0,33777.7,-347694
step02_gravity_refstate-crust.xmf,615,1.96829e-06,-4.38439e-06,0,-3.91578e-06,-7.68471e+08,-7.68906e+08,-7.68606e+08,-268623,0.00549479,-0.102678,0,0.102825,-21568.5,-27978.1,-0,35326.7,-268623
step02_gravity_refstate-crust.xmf,616,2.47396e-06,-5.0928e-06,0,-4.55893e-06,-7.83385e+08,-7.83904e+08,-7.83555e+08,-312742,0.00721211,-0.13345,0,0.133645,-19278.2,-28522,-0,34426.1,-312742
step02_gravity_refstate-crust.xmf,617,2.94888e-06,-6.15144e-06,0,-5.44254e-06,-8.14427e+08,-8.15051e+08,-8.14629e+08,-373358,0.00650599,-0.180936,0,0.181053,-16259.6,-29652.4,-0,33817.8,-373358
step02_gravity_refstate-crust.xmf,618,-7.73572e-08,-1.61013e-06,0,-6.98673e-07,-7.33191e+08,-7.33296e+08,-7.33185e+08,-47928.9,-0.000486614,0.00321524,-0,0.00325186,-36369.2,-26689.7,-0,45111.7,-47928.9
step02_gravity_refstate-crust.xmf,619,-1.24069e-07,-1.7371e-06,0,-1.04199e-06,-7.5194e+08,-7.52051e+08,-7.51932e+08,-71480.7,-0.00146252,-0.00136213,-0,0.00199859,-34404.4,-27372,-0,43964.6,-71480.7
step02_gravity_refstate-crust.xmf,620,-4.04609e-07,-1.45358e-06,0,-3.3872e-07,-7.62228e+08,-7.623e+08,-7.622e+08,-23236.2,-0.000769288,0.00788683,-0,0.00792426,-38159.6,-27745.8,-0,47180.3,-23236.2
step02_gravity_refstate-crust.xmf,621,-2.47266e-06,1.46404e-06,0,-4.73969e-06,-1.44334e+08,-1.44064e+08,-1.44165e+08,-325143,0.0706298,-0.280205,0,0.288969,-13101.6,-5246.9,-0,14113.2,-325143
step02_gravity_refstate-crust.xmf,622,-2.40722e-06,1.22167e-06,0,-3.48722e-06,-9.72876e+07,-9.70386e+07,-9.71224e+07,-239223,0.0829546,-0.264947,0,0.27763,-14023.5,-3534,-0,14461.9,-239223
step02_gravity_refstate-crust.xmf,623,-2.15655e-06,9.73119e-07,0,-1.92959e-06,-4.89429e+07,-4.87282e+07,-4.87949e+07,-132370,0.100109,-0.249288,0,0.268637,-15015.7,-1774.6,-0,15120.2,-132370
step02_gravity_refstate-crust.xmf,624,-1.62782e-06,6.2227e-07,0,-3.13878e-08,-154436,-80.1841,-42767.9,-2153.2,0.12254,-0.2343,0,0.26441,-16020.4,0,-0,16020.4,-2153.2
step02_gravity_refstate-crust.xmf,625,-1.49593e-05,3.07231e-05,0,-1.5115e-05,-6.95022e+08,-6.91888e+08,-6.93996e+08,-1.03689e+06,0.0491872,-0.646537,0,0.648405,-2764.57,-25290,-0,25440.7,-1.03689e+06
step02_gravity_refstate-crust.xmf,626,-5.55713e-06,1.06167e-05,0,-1.13581e-05,-5.17895e+08,-5.16786e+08,-5.17514e+08,-779165,0.0536968,-0.452407,0,0.455583,-6006.45,-18848.5,-0,19782.4,-779165
step02_gravity_refstate-crust.xmf,627,-3.57254e-06,5.83567e-06,0,-9.2187e-06,-4.05788e+08,-4.05143e+08,-4.05543e+08,-632403,0.0506022,-0.385611,0,0.388917,-7960.98,-14767.7,-0,16776.8,-632403
step02_gravity_refstate-crust.xmf,628,-1.64671e-05,3.42194e-05,0,-1.50688e-05,-7.12479e+08,-7.09002e+08,-7.1135e+08,-1.03372e+06,0.046863,-0.674779,0,0.676404,-2474.42,-25924.9,-0,26042.7,-1.03372e+06
step02_gravity_refstate-crust.xmf,629,-1.80327e-05,3.80621e-05,0,-1.46057e-05,-7.29551e+08,-7.25703e+08,-7.28314e+08,-1.00195e+06,0.0435351,-0.705154,0,0.706496,-2174.17,-26546,-0,26634.9,-1.00195e+06
step02_gravity_refstate-crust.xmf,630,-2.06126e-05,4.60422e-05,0,-1.23092e-05,-7.61998e+08,-7.57425e+08,-7.60584e+08,-844412,0.0341879,-0.769778,0,0.770537,-1582.01,-27729.2,-0,27774.3,-844412
step02_gravity_refstate-crust.xmf,631,-1.95267e-05,4.21757e-05,0,-1.35684e-05,-7.46241e+08,-7.42008e+08,-7.44902e+08,-930793,0.0389335,-0.73771,0,0.738737,-1856.96,-27154,-0,27217.4,-930793
step02_gravity_refstate-crust.xmf,632,-2.06321e-05,5.09184e-05,0,-1.39214e-05,-7.89547e+08,-7.84639e+08,-7.88132e+08,-955007,0.0358584,-0.816788,0,0.817575,-1654.79,-28739.6,-0,28787.2,-955007
step02_gravity_refstate-crust.xmf,633,-1.98006e-05,5.51071e-05,0,-1.53423e-05,-8.12756e+08,-8.07617e+08,-8.11397e+08,-1.05248e+06,0.0359426,-0.860082,0,0.860833,-1719.33,-29594.4,-0,29644.3,-1.05248e+06
step02_gravity_refstate-crust.xmf,634,-1.86027e-05,5.61309e-05,0,-1.84434e-05,-8.2372e+08,-8.18593e+08,-8.22444e+08,-1.26521e+06,0.0401781,-0.872483,0,0.873408,-1997.54,-30000,-0,30066.4,-1.26521e+06
step02_gravity_refstate-crust.xmf,635,5.02671e-06,-8.29447e-06,0,-1.99158e-05,-8.70418e+08,-8.71332e+08,-8.70763e+08,-1.36622e+06,0.0149974,-0.487863,0,0.488094,-7067.21,-31695.9,-0,32474.3,-1.36622e+06
step02_gravity_refstate-crust.xmf,636,-3.62743e-06,7.7225e-06,0,-5.34989e-05,-8.65362e+08,-8.64583e+08,-8.65113e+08,-3.67003e+06,0.0267594,-0.773386,0,0.773849,-4000,-31501.6,-0,31754.6,-3.67003e+06
step02_gravity_refstate-crust.xmf,637,4.77924e-06,-7.12132e-06,0,-2.3158e-05,-8.6924e+08,-8.70056e+08,-8.69568e+08,-1.58864e+06,0.0187608,-0.525597,0,0.525932,-6521.28,-31653.9,-0,32318.6,-1.58864e+06
step02_gravity_refstate-crust.xmf,638,3.83009e-06,-5.22039e-06,0,-2.77996e-05,-8.69659e+08,-8.70279e+08,-8.69921e+08,-1.90705e+06,0.0210635,-0.573022,0,0.573409,-5907.33,-31668.2,-0,32214.5,-1.90705e+06
step02_gravity_refstate-crust.xmf,639,1.96339e-06,-2.2119e-06,0,-3.45159e-05,-8.70709e+08,-8.70996e+08,-8.70844e+08,-2.36779e+06,0.0220569,-0.631389,0,0.631774,-5253.53,-31703.6,-0,32135.9,-2.36779e+06
step02_gravity_refstate-crust.xmf,640,-1.25882e-06,2.084e-06,0,-4.65828e-05,-8.72396e+08,-8.72167e+08,-8.7231e+08,-3.19558e+06,0.0209177,-0.721231,0,0.721534,-4421.74,-31758.6,-0,32064.9,-3.19558e+06
step02_gravity_refstate-crust.xmf,641,4.90879e-06,-9.08624e-06,0,-1.69762e-05,-8.72577e+08,-8.73537e+08,-8.72913e+08,-1.16457e+06,0.0101535,-0.450459,0,0.450573,-7666.59,-31772.8,-0,32684.7,-1.16457e+06
step02_gravity_refstate-crust.xmf,642,4.19078e-06,-8.44546e-06,0,-9.11006e-06,-8.55597e+08,-8.56464e+08,-8.55885e+08,-624950,0.00701793,-0.308247,0,0.308326,-10983.8,-31152.7,-0,33032.4,-624950
step02_gravity_refstate-crust.xmf,643,2.74286e-06,-6.60808e-06,0,-5.74635e-06,-8.40178e+08,-8.4082e+08,-8.40367e+08,-394199,0.000895917,-0.202027,0,0.202029,-14978.6,-30588.4,-0,34058.9,-394199
step02_gravity_refstate-crust.xmf,644,2.84532e-06,-7.14504e-06,0,-6.40121e-06,-8.52118e+08,-8.52803e+08,-8.52313e+08,-439123,-0.000541365,-0.229377,-0,0.229377,-13695.5,-31022.7,-0,33911.2,-439123
step02_gravity_refstate-crust.xmf,645,3.31034e-06,-7.58112e-06,0,-7.14862e-06,-8.52359e+08,-8.53106e+08,-8.52586e+08,-490396,0.00212295,-0.253545,0,0.253554,-12779,-31032.6,-0,33560.8,-490396
step02_gravity_refstate-crust.xmf,646,3.77946e-06,-8.00367e-06,0,-8.04925e-06,-8.53438e+08,-8.54246e+08,-8.53697e+08,-552179,0.00470346,-0.279605,0,0.279645,-11879.5,-31073.2,-0,33266.6,-552179
step02_gravity_refstate-crust.xmf,647,1.50613e-06,-3.88812e-06,0,-3.41791e-06,-7.68081e+08,-7.68451e+08,-7.68185e+08,-234469,0.00266353,-0.0815667,0,0.0816102,-23263.1,-27962.8,-0,36374.3,-234469
step02_gravity_refstate-crust.xmf,648,2.08235e-06,-4.74142e-06,0,-4.1553e-06,-7.84713e+08,-7.85181e+08,-7.84856e+08,-285054,0.00451603,-0.11716,0,0.117247,-20335.8,-28569.3,-0,35067.9,-285054
step02_gravity_refstate-crust.xmf,649,2.36453e-06,-6.24861e-06,0,-5.29154e-06,-8.40986e+08,-8.41576e+08,-8.41148e+08,-363000,-0.00145625,-0.184402,-0,0.184408,-15794.8,-30616.8,-0,34450.9,-363000
step02_gravity_refstate-crust.xmf,650,-8.55412e-08,-2.05876e-06,0,-1.55592e-06,-7.78701e+08,-7.78836e+08,-7.78695e+08,-106736,-0.00356034,-0.0129395,-0,0.0134203,-31374.3,-28345.9,-0,42282.8,-106736
step02_gravity_refstate-crust.xmf,651,-2.81502e-07,-1.8224e-06,0,-1.24882e-06,-7.81233e+08,-7.81339e+08,-7.81214e+08,-85669.3,-0.00344804,-0.0050273,-0,0.00609613,-32979.8,-28437.6,-0,43547.3,-85669.3
step02_gravity_refstate-crust.xmf,652,-7.13068e-07,-1.34098e-06,0,-4.25467e-09,-7.93637e+08,-7.9368e+08,-7.93588e+08,-291.871,-3.07956e-19,0.0105007,-0,0.0105007,-40000,-28888.2,-0,49340.9,-291.871
step02_gravity_refstate-crust.xmf,653,-2.4949e-06,1.70824e-06,0,-5.68038e-06,-1.8643e+08,-1.86142e+08,-1.86259e+08,-389674,0.0626081,-0.294636,0,0.301215,-12259.9,-6779.73,-0,14009.6,-389674
step02_gravity_refstate-crust.xmf,654,-2.50052e-06,2.12014e-06,0,-6.45442e-06,-2.27084e+08,-2.26767e+08,-2.26913e+08,-442773,0.0572636,-0.308516,0,0.313785,-11493.3,-8260.4,-0,14153.8,-442773
step02_gravity_refstate-crust.xmf,655,-2.56185e-06,2.60697e-06,0,-7.12224e-06,-2.66261e+08,-2.65906e+08,-2.66085e+08,-488586,0.0538133,-0.322967,0,0.32742,-10731.9,-9687.17,-0,14457.3,-488586
step02_gravity_refstate-crust.xmf,656,-2.70141e-06,3.22624e-06,0,-7.69853e-06,-3.03384e+08,-3.02978e+08,-3.03199e+08,-528119,0.0517575,-0.337987,0,0.341927,-9981.91,-11039.1,-0,14882.9,-528119
step02_gravity_refstate-crust.xmf,657,-2.91643e-06,3.97301e-06,0,-8.22201e-06,-3.39044e+08,-3.38572e+08,-3.38844e+08,-564030,0.050722,-0.353435,0,0.357056,-9265.56,-12337.6,-0,15429.4,-564030
step02_gravity_refstate-crust.xmf,658,-3.19824e-06,4.83588e-06,0,-8.72906e-06,-3.73343e+08,-3.72792e+08,-3.73123e+08,-598814,0.0504579,-0.369161,0,0.372594,-8601.42,-13586.5,-0,16080.3,-598814
step02_gravity_refstate-crust.xmf,659,-5.68899e-06,1.17237e-05,0,-1.30485e-05,-5.58154e+08,-5.56959e+08,-5.57764e+08,-895129,0.058607,-0.470662,0,0.474297,-5918.26,-20315.3,-0,21159.8,-895129
step02_gravity_refstate-crust.xmf,660,-1.34649e-05,2.74478e-05,0,-1.5019e-05,-6.77219e+08,-6.74412e+08,-6.76295e+08,-1.0303e+06,0.0511965,-0.619477,0,0.621589,-3082.91,-24642.8,-0,24834.9,-1.0303e+06
step02_gravity_refstate-crust.xmf,661,-6.70087e-06,1.38895e-05,0,-1.35654e-05,-5.80378e+08,-5.78966e+08,-5.79919e+08,-930589,0.0583585,-0.493602,0,0.49704,-5359.5,-21123.6,-0,21792.9,-930589
step02_gravity_refstate-crust.xmf,662,-1.20283e-05,2.43918e-05,0,-1.47638e-05,-6.58702e+08,-6.56204e+08,-6.57877e+08,-1.0128e+06,0.0527928,-0.59337,0,0.595714,-3425.15,-23969.8,-0,24213.3,-1.0128e+06
step02_gravity_refstate-crust.xmf,663,-1.06424e-05,2.15483e-05,0,-1.44824e-05,-6.3992e+08,-6.37712e+08,-6.3919e+08,-993494,0.0542876,-0.56814,0,0.570727,-3811.56,-23287.2,-0,23597.1,-993494
step02_gravity_refstate-crust.xmf,664,-9.27261e-06,1.88361e-05,0,-1.42152e-05,-6.2073e+08,-6.18802e+08,-6.20094e+08,-975163,0.0558264,-0.543096,0,0.545958,-4265.02,-22590,-0,22989.1,-975163
step02_gravity_refstate-crust.xmf,665,-7.95321e-06,1.62959e-05,0,-1.39474e-05,-6.0144e+08,-5.99777e+08,-6.00894e+08,-956792,0.05731,-0.518513,0,0.52167,-4782.79,-21889.1,-0,22405.5,-956792
step02_gravity_refstate-crust.xmf,666,-6.37555e-06,1.2092e-05,0,-1.15485e-05,-5.35389e+08,-5.34122e+08,-5.34952e+08,-792228,0.0528074,-0.469876,0,0.472834,-5476.06,-19484.3,-0,20239.2,-792228
step02_gravity_refstate-crust.xmf,667,-4.05272e-06,6.98789e-06,0,-9.67664e-06,-4.35884e+08,-4.35127e+08,-4.35606e+08,-663817,0.0508578,-0.40283,0,0.406028,-7336.91,-15863.2,-0,17477.8,-663817
step02_gravity_refstate-crust.xmf,668,-4.64663e-06,8.2952e-06,0,-1.00767e-05,-4.63331e+08,-4.62444e+08,-4.63013e+08,-691261,0.0509508,-0.4208,0,0.423874,-6722.16,-16862.1,-0,18152.6,-691261
step02_gravity_refstate-crust.xmf,669,-5.4487e-06,9.93429e-06,0,-1.04861e-05,-4.92011e+08,-4.90956e+08,-4.91637e+08,-719343,0.050902,-0.441528,0,0.444453,-6072.98,-17905.5,-0,18907.3,-719343
step02_gravity_refstate-crust.xmf,670,-2.127e-05,4.95742e-05,0,-1.07973e-05,-7.76816e+08,-7.71957e+08,-7.75357e+08,-740696,0.0291252,-0.801436,0,0.801965,-1327.71,-28271.5,-0,28302.6,-740696
step02_gravity_refstate-crust.xmf,671,-2.08329e-05,5.41303e-05,0,-1.21001e-05,-8.01752e+08,-7.96609e+08,-8.00322e+08,-830068,0.0300445,-0.847339,0,0.847871,-1395.02,-29188.1,-0,29221.4,-830068
step02_gravity_refstate-crust.xmf,672,4.79145e-07,-1.58698e-06,0,-4.10035e-05,-8.76707e+08,-8.76849e+08,-8.7674e+08,-2.81284e+06,0.0166633,-0.677991,0,0.678196,-4797.92,-31916.9,-0,32275.5,-2.81284e+06
step02_gravity_refstate-crust.xmf,673,3.56161e-06,-9.06872e-06,0,-1.05667e-05,-8.76049e+08,-8.76915e+08,-8.76293e+08,-724878,-0.00158342,-0.345302,-0,0.345305,-9819.13,-31893.8,-0,33371.1,-724878
step02_gravity_refstate-crust.xmf,674,4.02129e-06,-9.34281e-06,0,-1.22808e-05,-8.75779e+08,-8.76696e+08,-8.76055e+08,-842460,0.00143811,-0.377958,0,0.377961,-9059.11,-31885.4,-0,33147.4,-842460
step02_gravity_refstate-crust.xmf,675,4.47266e-06,-9.40216e-06,0,-1.44415e-05,-8.74886e+08,-8.75838e+08,-8.75193e+08,-990688,0.00518884,-0.413664,0,0.413696,-8326.85,-31854.6,-0,32925,-990688
step02_gravity_refstate-crust.xmf,676,3.12818e-06,-8.6816e-06,0,-9.20273e-06,-8.75825e+08,-8.76635e+08,-8.7604e+08,-631308,-0.00402117,-0.315313,-0,0.315339,-10607,-31884.5,-0,33602.5,-631308
step02_gravity_refstate-crust.xmf,677,2.39661e-06,-6.75144e-06,0,-5.84537e-06,-8.53481e+08,-8.54108e+08,-8.53645e+08,-400992,-0.00321834,-0.209634,-0,0.209659,-14500.7,-31071.1,-0,34288.2,-400992
step02_gravity_refstate-crust.xmf,678,2.54375e-06,-5.68931e-06,0,-4.92033e-06,-8.12263e+08,-8.12827e+08,-8.12437e+08,-337534,0.00397101,-0.158911,0,0.15896,-17440.4,-29572.7,-0,34332.4,-337534
step02_gravity_refstate-crust.xmf,679,1.64628e-07,-2.36482e-06,0,-1.90454e-06,-7.7617e+08,-7.76344e+08,-7.76182e+08,-130651,-0.00327588,-0.0235342,-0,0.0237611,-29625.3,-28254.3,-0,40938.5,-130651
step02_gravity_refstate-crust.xmf,680,1.12169e-06,-3.4765e-06,0,-3.00954e-06,-7.69818e+08,-7.70134e+08,-7.69895e+08,-206454,0.000439693,-0.0648931,0,0.0648946,-24760.3,-28025.2,-0,37396.3,-206454
step02_gravity_refstate-crust.xmf,681,4.54068e-07,-2.71306e-06,0,-2.26469e-06,-7.73859e+08,-7.74076e+08,-7.7389e+08,-155358,-0.00251384,-0.035978,-0,0.0360657,-27916.8,-28170.7,-0,39660.3,-155358
step02_gravity_refstate-crust.xmf,682,7.66814e-07,-3.08566e-06,0,-2.62822e-06,-7.72405e+08,-7.7267e+08,-7.72458e+08,-180296,-0.001359,-0.0497795,-0,0.0497981,-26292.2,-28118.5,-0,38495.8,-180296
step02_gravity_refstate-crust.xmf,683,2.11782e-06,-5.25457e-06,0,-4.4428e-06,-8.11959e+08,-8.12465e+08,-8.12104e+08,-304776,0.00133678,-0.138613,0,0.13862,-18623.9,-29560.6,-0,34938.2,-304776
step02_gravity_refstate-crust.xmf,684,1.18879e-06,-4.03092e-06,0,-3.35032e-06,-8.02629e+08,-8.02988e+08,-8.02711e+08,-229832,-0.00264211,-0.0864106,-0,0.0864509,-22436.7,-29219.1,-0,36839.7,-229832
step02_gravity_refstate-crust.xmf,685,1.77402e-06,-4.85429e-06,0,-4.05606e-06,-8.10426e+08,-8.1088e+08,-8.10547e+08,-278246,-0.000486067,-0.120871,-0,0.120872,-19778.8,-29504,-0,35520.2,-278246
step02_gravity_refstate-crust.xmf,686,1.49822e-06,-4.46439e-06,0,-3.71671e-06,-8.063e+08,-8.06709e+08,-8.06403e+08,-254967,-0.0014975,-0.104245,-0,0.104256,-20999.1,-29353.3,-0,36091.2,-254967
step02_gravity_refstate-crust.xmf,687,1.98077e-06,-5.81661e-06,0,-4.79614e-06,-8.39686e+08,-8.40221e+08,-8.39822e+08,-329015,-0.0033169,-0.163705,-0,0.163738,-16867.5,-30568.6,-0,34913.5,-329015
step02_gravity_refstate-crust.xmf,688,-5.7663e-07,-1.48351e-06,0,-6.35657e-07,-7.87843e+08,-7.87906e+08,-7.87804e+08,-43606.1,-0.00232654,0.00612267,-0,0.0065498,-36294.9,-28677.6,-0,46257.2,-43606.1
step02_gravity_refstate-crust.xmf,689,-7.28929e-07,-1.56942e-06,0,-9.45574e-07,-8.16808e+08,-8.16865e+08,-8.16757e+08,-64866.4,-0.00487686,0.00217114,-0,0.00533831,-34294.5,-29731.3,-0,45387.9,-64866.4
step02_gravity_refstate-crust.xmf,690,-9.35903e-07,-1.29649e-06,0,-3.02574e-07,-8.20748e+08,-8.20773e+08,-8.20684e+08,-20756.6,-0.0017502,0.0108065,-0,0.0109473,-38152.9,-29874.3,-0,48457.4,-20756.6
step02_gravity_refstate-crust.xmf,691,-3.44341e-06,1.99481e-06,0,-4.57687e-06,-1.44084e+08,-1.43711e+08,-1.43848e+08,-313974,0.0653123,-0.305262,0,0.312171,-11285.3,-5234.67,-0,12440.3,-313974
step02_gravity_refstate-crust.xmf,692,-3.56538e-06,1.74436e-06,0,-3.44031e-06,-9.79237e+07,-9.75594e+07,-9.76791e+07,-236005,0.0770111,-0.2916,0,0.301598,-12076.9,-3553.29,-0,12588.8,-236005
step02_gravity_refstate-crust.xmf,693,-3.58879e-06,1.53767e-06,0,-1.93865e-06,-4.92723e+07,-4.89206e+07,-4.90261e+07,-132992,0.0942037,-0.276695,0,0.292292,-12983.7,-1781.67,-0,13105.4,-132992
step02_gravity_refstate-crust.xmf,694,-3.40128e-06,1.29429e-06,0,-3.98747e-08,-322942,-826.482,-89614.6,-2735.4,0.117382,-0.261575,0,0.286705,-13945.9,0,-0,13945.9,-2735.4
step02_gravity_refstate-crust.xmf,695,-3.31492e-06,2.27766e-06,0,-5.49224e-06,-1.88063e+08,-1.8768e+08,-1.87836e+08,-376768,0.0576632,-0.317718,0,0.322908,-10611.1,-6836.75,-0,12622.8,-376768
step02_gravity_refstate-crust.xmf,696,-1.69282e-05,3.36923e-05,0,-1.17584e-05,-6.96242e+08,-6.9277e+08,-6.95081e+08,-806627,0.038055,-0.664526,0,0.665615,-2057.36,-25331.1,-0,25414.5,-806627
step02_gravity_refstate-crust.xmf,697,-1.55612e-05,3.04868e-05,0,-1.1842e-05,-6.7783e+08,-6.74671e+08,-6.76762e+08,-812361,0.0399639,-0.638098,0,0.639348,-2304.11,-24661.3,-0,24768.7,-812361
step02_gravity_refstate-crust.xmf,698,-6.72808e-06,1.20627e-05,0,-1.01637e-05,-5.11648e+08,-5.10359e+08,-5.11186e+08,-697231,0.0475024,-0.465755,0,0.468172,-5125.71,-18618.5,-0,19311.2,-697231
step02_gravity_refstate-crust.xmf,699,-4.11233e-06,5.95882e-06,0,-8.11666e-06,-3.74933e+08,-3.74242e+08,-3.7465e+08,-556803,0.0459556,-0.38844,0,0.391149,-7343.06,-13642.4,-0,15493.1,-556803
step02_gravity_refstate-crust.xmf,700,-4.60508e-06,7.13005e-06,0,-8.45518e-06,-4.06079e+08,-4.05274e+08,-4.05763e+08,-580025,0.0455387,-0.404876,0,0.407429,-6717.91,-14776.1,-0,16231.6,-580025
step02_gravity_refstate-crust.xmf,701,-1.83075e-05,3.70221e-05,0,-1.12805e-05,-7.13265e+08,-7.0947e+08,-7.12009e+08,-773839,0.0350613,-0.691734,0,0.692622,-1791.3,-25950.4,-0,26012.1,-773839
step02_gravity_refstate-crust.xmf,702,-1.97061e-05,4.06736e-05,0,-1.01262e-05,-7.29795e+08,-7.25653e+08,-7.28444e+08,-694654,0.0303524,-0.721143,0,0.721781,-1474.9,-26552.2,-0,26593.1,-694654
step02_gravity_refstate-crust.xmf,703,-2.15766e-05,4.79904e-05,0,-8.07085e-06,-7.63655e+08,-7.58883e+08,-7.62175e+08,-553660,0.0225995,-0.783435,0,0.783761,-1029.98,-27788.6,-0,27807.7,-553660
step02_gravity_refstate-crust.xmf,704,-2.08804e-05,4.44747e-05,0,-8.8131e-06,-7.46835e+08,-7.42351e+08,-7.45402e+08,-604578,0.0254612,-0.752536,0,0.752966,-1188.63,-27173.6,-0,27199.6,-604578
step02_gravity_refstate-crust.xmf,705,-2.15736e-05,5.27841e-05,0,-8.95603e-06,-7.9015e+08,-7.8505e+08,-7.88671e+08,-614384,0.0234208,-0.831695,0,0.832025,-1066,-28760.7,-0,28780.4,-614384
step02_gravity_refstate-crust.xmf,706,-2.19855e-05,5.09382e-05,0,-6.13425e-06,-7.77172e+08,-7.7217e+08,-7.75664e+08,-420809,0.0167131,-0.811738,0,0.81191,-753.777,-28283.7,-0,28293.7,-420809
step02_gravity_refstate-crust.xmf,707,-2.15543e-05,5.59147e-05,0,-6.76653e-06,-8.03454e+08,-7.9814e+08,-8.01976e+08,-464184,0.0169772,-0.862923,0,0.86309,-781.223,-29249.9,-0,29260.4,-464184
step02_gravity_refstate-crust.xmf,708,-2.06608e-05,5.68713e-05,0,-1.06331e-05,-8.13545e+08,-8.08226e+08,-8.12128e+08,-729428,0.0253313,-0.876204,0,0.87657,-1197.31,-29622.4,-0,29646.6,-729428
step02_gravity_refstate-crust.xmf,709,-1.96548e-05,5.80003e-05,0,-1.36934e-05,-8.23757e+08,-8.1843e+08,-8.22409e+08,-939364,0.030631,-0.889957,0,0.890484,-1498.34,-30000,-0,30037.4,-939364
step02_gravity_refstate-crust.xmf,710,3.8098e-06,-9.68255e-06,0,-1.81092e-05,-8.85435e+08,-8.86361e+08,-8.85697e+08,-1.24229e+06,8.38457e-05,-0.464786,0,0.464786,-7354.48,-32235.6,-0,33063.9,-1.24229e+06
step02_gravity_refstate-crust.xmf,711,3.90973e-06,-9.30242e-06,0,-2.098e-05,-8.83886e+08,-8.84793e+08,-8.84155e+08,-1.43923e+06,0.00345629,-0.497838,0,0.49785,-6853.89,-32180.2,-0,32902,-1.43923e+06
step02_gravity_refstate-crust.xmf,712,-1.7703e-06,1.09458e-06,0,-5.48427e-05,-8.79145e+08,-8.78949e+08,-8.79024e+08,-3.76221e+06,0.0138354,-0.775583,0,0.775707,-4000,-32000.7,-0,32249.7,-3.76221e+06
step02_gravity_refstate-crust.xmf,713,3.52362e-06,-8.45495e-06,0,-2.54222e-05,-8.84104e+08,-8.84926e+08,-8.84346e+08,-1.74396e+06,0.00559366,-0.54362,0,0.543648,-6227.56,-32187.9,-0,32784.8,-1.74396e+06
step02_gravity_refstate-crust.xmf,714,2.68586e-06,-7.11835e-06,0,-3.12711e-05,-8.84756e+08,-8.85428e+08,-8.8494e+08,-2.1452e+06,0.00691934,-0.595672,0,0.595712,-5608.27,-32210.3,-0,32694.9,-2.1452e+06
step02_gravity_refstate-crust.xmf,715,3.65914e-07,-4.07534e-06,0,-4.68658e-05,-8.86817e+08,-8.87122e+08,-8.86842e+08,-3.21499e+06,0.00672952,-0.713547,0,0.713579,-4480.93,-32280.6,-0,32590.2,-3.21499e+06
step02_gravity_refstate-crust.xmf,716,1.58757e-06,-5.83414e-06,0,-3.83075e-05,-8.86462e+08,-8.86971e+08,-8.8657e+08,-2.62789e+06,0.00647474,-0.650878,0,0.65091,-5038.11,-32269.9,-0,32660.8,-2.62789e+06
step02_gravity_refstate-crust.xmf,717,3.01219e-06,-1.02106e-05,0,-1.58629e-05,-8.92942e+08,-8.93849e+08,-8.93148e+08,-1.0882e+06,-0.00829668,-0.433306,-0,0.433385,-7843.12,-32504.8,-0,33437.7,-1.0882e+06
step02_gravity_refstate-crust.xmf,718,2.71221e-06,-8.25972e-06,0,-8.05292e-06,-8.75003e+08,-8.75756e+08,-8.75189e+08,-552430,-0.00593417,-0.28701,-0,0.287072,-11444.6,-31853.5,-0,33847.1,-552430
step02_gravity_refstate-crust.xmf,719,1.6943e-06,-6.38979e-06,0,-5.32507e-06,-8.6519e+08,-8.65744e+08,-8.65306e+08,-365300,-0.00924576,-0.192395,-0,0.192617,-15149.7,-31495.1,-0,34949.3,-365300
step02_gravity_refstate-crust.xmf,720,1.71329e-06,-6.80883e-06,0,-5.82427e-06,-8.7258e+08,-8.73165e+08,-8.72698e+08,-399545,-0.0105862,-0.213145,-0,0.213407,-14149.1,-31763.6,-0,34772.4,-399545
step02_gravity_refstate-crust.xmf,721,2.00198e-06,-7.26749e-06,0,-6.42405e-06,-8.73765e+08,-8.74401e+08,-8.73903e+08,-440690,-0.00943597,-0.235603,-0,0.235792,-13231.4,-31807.2,-0,34449.4,-440690
step02_gravity_refstate-crust.xmf,722,2.33935e-06,-7.7505e-06,0,-7.17282e-06,-8.74672e+08,-8.75364e+08,-8.74832e+08,-492055,-0.00793397,-0.260446,-0,0.260567,-12317.5,-31840.8,-0,34140.2,-492055
step02_gravity_refstate-crust.xmf,723,8.48569e-07,-3.60327e-06,0,-2.98765e-06,-8.02115e+08,-8.0242e+08,-8.02173e+08,-204953,-0.00404154,-0.0695602,-0,0.0696775,-23921.3,-29199.7,-0,37747.1,-204953
step02_gravity_refstate-crust.xmf,724,1.30498e-06,-5.87988e-06,0,-4.80227e-06,-8.6655e+08,-8.67043e+08,-8.66639e+08,-329436,-0.0114401,-0.168928,-0,0.169315,-16290.2,-31543.8,-0,35501.9,-329436
step02_gravity_refstate-crust.xmf,725,-5.94702e-07,-1.81409e-06,0,-1.29316e-06,-8.19973e+08,-8.20056e+08,-8.19932e+08,-88710.8,-0.00645681,-0.00587982,-0,0.00873285,-32210.3,-29846.7,-0,43912.7,-88710.8
step02_gravity_refstate-crust.xmf,726,-3.92578e-07,-2.0991e-06,0,-1.61329e-06,-8.18257e+08,-8.18375e+08,-8.18231e+08,-110672,-0.00720935,-0.0152969,-0,0.0169107,-30409.7,-29784.6,-0,42566.1,-110672
step02_gravity_refstate-crust.xmf,727,-1.26022e-06,-1.16557e-06,0,-3.80748e-09,-8.54696e+08,-8.5469e+08,-8.5461e+08,-261.193,-5.07107e-19,0.0132842,-0,0.0132842,-40000,-31109.2,-0,50673.3,-261.193
step02_gravity_refstate-crust.xmf,728,-3.27945e-06,2.78437e-06,0,-6.18585e-06,-2.2937e+08,-2.28954e+08,-2.29145e+08,-424349,0.0526024,-0.330838,0,0.334993,-9920.44,-8341.49,-0,12961.3,-424349
step02_gravity_refstate-crust.xmf,729,-3.3782e-06,3.40673e-06,0,-6.73875e-06,-2.67968e+08,-2.67503e+08,-2.67737e+08,-462278,0.0491952,-0.345142,0,0.34863,-9183.69,-9747.26,-0,13392.1,-462278
step02_gravity_refstate-crust.xmf,730,-3.59978e-06,4.19008e-06,0,-7.17536e-06,-3.04249e+08,-3.03715e+08,-3.04002e+08,-492230,0.0468978,-0.360333,0,0.363372,-8433.54,-11068.4,-0,13915.3,-492230
step02_gravity_refstate-crust.xmf,731,-3.83498e-06,5.03822e-06,0,-7.62361e-06,-3.40379e+08,-3.3977e+08,-3.40116e+08,-522979,0.0459561,-0.374588,0,0.377396,-7836.58,-12384.1,-0,14655.3,-522979
step02_gravity_refstate-crust.xmf,732,-4.281e-06,2.49052e-06,0,-4.32188e-06,-1.46393e+08,-1.45928e+08,-1.46099e+08,-296481,0.0583971,-0.32732,0,0.332488,-9579.77,-5316.11,-0,10956,-296481
step02_gravity_refstate-crust.xmf,733,-7.40592e-06,1.40502e-05,0,-1.17951e-05,-5.57066e+08,-5.55594e+08,-5.56558e+08,-809141,0.0518573,-0.491233,0,0.493963,-4912.41,-20272.3,-0,20859,-809141
step02_gravity_refstate-crust.xmf,734,-1.40707e-05,2.72485e-05,0,-1.19716e-05,-6.59422e+08,-6.56587e+08,-6.58457e+08,-821252,0.0424619,-0.612249,0,0.61372,-2627.51,-23992.2,-0,24135.6,-821252
step02_gravity_refstate-crust.xmf,735,-8.59985e-06,1.64634e-05,0,-1.19918e-05,-5.79231e+08,-5.77511e+08,-5.78641e+08,-822636,0.0505454,-0.514465,0,0.516942,-4361.27,-21078.2,-0,21524.6,-822636
step02_gravity_refstate-crust.xmf,736,-1.2653e-05,2.4383e-05,0,-1.21339e-05,-6.40447e+08,-6.37907e+08,-6.39579e+08,-832388,0.0447799,-0.587091,0,0.588797,-2989.75,-23302.7,-0,23493.7,-832388
step02_gravity_refstate-crust.xmf,737,-1.1282e-05,2.16478e-05,0,-1.2149e-05,-6.21223e+08,-6.18964e+08,-6.20449e+08,-833424,0.0468429,-0.563026,0,0.564971,-3384.81,-22604.1,-0,22856.1,-833424
step02_gravity_refstate-crust.xmf,738,-9.92293e-06,1.8986e-05,0,-1.2074e-05,-6.00447e+08,-5.98464e+08,-5.99767e+08,-828274,0.0486909,-0.538616,0,0.540812,-3836.11,-21849.1,-0,22183.3,-828274
step02_gravity_refstate-crust.xmf,739,-7.84304e-06,1.40146e-05,0,-1.00842e-05,-5.33298e+08,-5.31799e+08,-5.3276e+08,-691778,0.0453462,-0.487127,0,0.489233,-4465.89,-19405.2,-0,19912.5,-691778
step02_gravity_refstate-crust.xmf,740,-5.22428e-06,8.4924e-06,0,-8.74652e-06,-4.35976e+08,-4.35035e+08,-4.35618e+08,-600012,0.045094,-0.422529,0,0.424928,-6093.16,-15864.2,-0,16994.1,-600012
step02_gravity_refstate-crust.xmf,741,-5.98676e-06,1.00392e-05,0,-8.92575e-06,-4.63426e+08,-4.62326e+08,-4.63015e+08,-612306,0.044252,-0.441155,0,0.443369,-5460.77,-16862.8,-0,17724.9,-612306
step02_gravity_refstate-crust.xmf,742,-6.87104e-06,1.16691e-05,0,-8.83351e-06,-4.85259e+08,-4.83988e+08,-4.84788e+08,-605979,0.0423307,-0.459455,0,0.4614,-4804.79,-17656.6,-0,18298.7,-605979
step02_gravity_refstate-crust.xmf,743,-2.20879e-05,4.92922e-05,0,-3.58297e-06,-7.66341e+08,-7.61444e+08,-7.64826e+08,-245792,0.0101309,-0.794694,0,0.794759,-457.303,-27886.4,-0,27890.1,-245792
step02_gravity_refstate-crust.xmf,744,-2.10251e-05,5.81133e-05,0,-6.74668e-06,-8.1558e+08,-8.10151e+08,-8.14138e+08,-462822,0.01608,-0.888716,0,0.888861,-758.065,-29696.9,-0,29706.6,-462822
step02_gravity_refstate-crust.xmf,745,1.85731e-06,-8.98053e-06,0,-9.55655e-06,-8.94985e+08,-8.95728e+08,-8.95112e+08,-655579,-0.0155881,-0.324184,-0,0.324559,-10201.4,-32576.4,-0,34136.4,-655579
step02_gravity_refstate-crust.xmf,746,2.23787e-06,-9.49287e-06,0,-1.1064e-05,-8.94484e+08,-8.95289e+08,-8.94638e+08,-758987,-0.0136591,-0.355771,-0,0.356033,-9418.44,-32559,-0,33893.8,-758987
step02_gravity_refstate-crust.xmf,747,2.65646e-06,-9.94321e-06,0,-1.30351e-05,-8.93721e+08,-8.94586e+08,-8.93904e+08,-894208,-0.0112208,-0.390987,-0,0.391148,-8649.33,-32532.2,-0,33662.3,-894208
step02_gravity_refstate-crust.xmf,748,2.68588e-06,-1.0642e-05,0,-1.86757e-05,-8.98826e+08,-8.9974e+08,-8.9901e+08,-1.28115e+06,-0.0118356,-0.469121,-0,0.469271,-7206.62,-32717,-0,33501.3,-1.28115e+06
step02_gravity_refstate-crust.xmf,749,1.50709e-06,-8.43993e-06,0,-8.36514e-06,-8.95396e+08,-8.96078e+08,-8.95499e+08,-573848,-0.0171995,-0.295025,-0,0.295526,-11015.2,-32590.8,-0,34402,-573848
step02_gravity_refstate-crust.xmf,750,1.64163e-06,-5.37025e-06,0,-4.37651e-06,-8.39436e+08,-8.39917e+08,-8.39549e+08,-300229,-0.00525675,-0.143852,-0,0.143948,-17989.7,-30558.8,-0,35460.8,-300229
step02_gravity_refstate-crust.xmf,751,-1.45959e-07,-2.43153e-06,0,-1.94067e-06,-8.15674e+08,-8.15831e+08,-8.15664e+08,-133130,-0.00742739,-0.0266074,-0,0.0276247,-28658.3,-29691.1,-0,41265.7,-133130
step02_gravity_refstate-crust.xmf,752,4.78016e-07,-3.19197e-06,0,-2.61775e-06,-8.07573e+08,-8.07825e+08,-8.07606e+08,-179578,-0.00589977,-0.0537993,-0,0.0541218,-25421.1,-29397.5,-0,38864.4,-179578
step02_gravity_refstate-crust.xmf,753,1.33442e-07,-2.79944e-06,0,-2.27365e-06,-8.13255e+08,-8.13456e+08,-8.13264e+08,-155973,-0.00715795,-0.039539,-0,0.0401817,-26974.8,-29603.6,-0,40050.1,-155973
step02_gravity_refstate-crust.xmf,754,1.3353e-06,-4.96174e-06,0,-4.00801e-06,-8.38701e+08,-8.39133e+08,-8.38793e+08,-274950,-0.00669666,-0.125951,-0,0.126129,-19109.4,-30531.5,-0,36018.6,-274950
step02_gravity_refstate-crust.xmf,755,4.06317e-07,-3.65199e-06,0,-2.93606e-06,-8.39754e+08,-8.40033e+08,-8.39782e+08,-201413,-0.0103375,-0.0722153,-0,0.0729514,-23218.5,-30568.1,-0,38386.3,-201413
step02_gravity_refstate-crust.xmf,756,7.78743e-07,-4.12717e-06,0,-3.31792e-06,-8.35891e+08,-8.36228e+08,-8.35945e+08,-227609,-0.00867514,-0.0909637,-0,0.0913764,-21664.9,-30428.2,-0,37353,-227609
step02_gravity_refstate-crust.xmf,757,1.04444e-06,-4.54438e-06,0,-3.65485e-06,-8.37683e+08,-8.38066e+08,-8.37755e+08,-250723,-0.00788607,-0.108154,-0,0.108441,-20339.3,-30493.9,-0,36654.6,-250723
step02_gravity_refstate-crust.xmf,758,1.00265e-06,-5.43694e-06,0,-4.37535e-06,-8.66876e+08,-8.67318e+08,-8.66945e+08,-300149,-0.0128065,-0.148743,-0,0.149293,-17390.2,-31555.1,-0,36029.8,-300149
step02_gravity_refstate-crust.xmf,759,-1.08314e-06,-1.32039e-06,0,-5.63414e-07,-8.42084e+08,-8.421e+08,-8.42009e+08,-38650.2,-0.00404923,0.00908436,-0,0.00994595,-36387,-30650.5,-0,47575.9,-38650.2
step02_gravity_refstate-crust.xmf,760,-1.09291e-06,-1.56786e-06,0,-1.07863e-06,-8.63276e+08,-8.63308e+08,-8.63201e+08,-73993.8,-0.00867803,0.00033892,-0,0.00868465,-33050.3,-31421.6,-0,45603.1,-73993.8
step02_gravity_refstate-crust.xmf,761,-1.47201e-06,-1.11689e-06,0,-2.82785e-07,-8.81264e+08,-8.8124e+08,-8.81163e+08,-19399,-0.00276712,0.0134399,-0,0.0137218,-38129.8,-32075.6,-0,49827,-19399
step02_gravity_refstate-crust.xmf,762,-4.00332e-06,2.84002e-06,0,-5.23941e-06,-1.93838e+08,-1.93369e+08,-1.93564e+08,-359423,0.0516619,-0.337856,0,0.341783,-9097.56,-7045.07,-0,11506.5,-359423
step02_gravity_refstate-crust.xmf,763,-4.65011e-06,2.26812e-06,0,-3.30396e-06,-1.00904e+08,-1.00429e+08,-1.00585e+08,-226652,0.0683365,-0.31682,0,0.324106,-10119.1,-3658.21,-0,10760,-226652
step02_gravity_refstate-crust.xmf,764,-4.9915e-06,2.0975e-06,0,-1.87771e-06,-4.99989e+07,-4.95126e+07,-4.96565e+07,-128811,0.0852854,-0.302671,0,0.314457,-10949.6,-1803.31,-0,11097.1,-128811
step02_gravity_refstate-crust.xmf,765,-5.16279e-06,1.9601e-06,0,-4.77569e-08,-490385,-1754.5,-136217,-3276.13,0.108699,-0.287338,0,0.307211,-11904.5,0,-0,11904.5,-3276.13
step02_gravity_refstate-crust.xmf,766,-1.57497e-05,2.9683e-05,0,-8.67769e-06,-6.59917e+08,-6.56801e+08,-6.58837e+08,-595290,0.0303835,-0.627011,0,0.627747,-1815.12,-24007.2,-0,24075.7,-595290
step02_gravity_refstate-crust.xmf,767,-1.82788e-05,3.57463e-05,0,-8.15783e-06,-6.96879e+08,-6.93173e+08,-6.95625e+08,-559627,0.0263997,-0.676868,0,0.677382,-1391.7,-25352,-0,25390.2,-559627
step02_gravity_refstate-crust.xmf,768,-1.7194e-05,3.28408e-05,0,-7.85441e-06,-6.78152e+08,-6.7472e+08,-6.76972e+08,-538812,0.026327,-0.652505,0,0.653036,-1470.26,-24670.1,-0,24713.9,-538812
step02_gravity_refstate-crust.xmf,769,-8.02473e-06,1.37397e-05,0,-8.54539e-06,-5.0949e+08,-5.07997e+08,-5.0894e+08,-586214,0.0393987,-0.481303,0,0.482913,-4061.02,-18537.3,-0,18976.9,-586214
step02_gravity_refstate-crust.xmf,770,-4.49992e-06,5.90516e-06,0,-7.17107e-06,-3.48423e+08,-3.47709e+08,-3.48114e+08,-491936,0.0419517,-0.390348,0,0.392596,-6781.56,-12675.6,-0,14375.7,-491936
step02_gravity_refstate-crust.xmf,771,-4.96375e-06,6.97635e-06,0,-7.28487e-06,-3.7487e+08,-3.74051e+08,-3.74529e+08,-499742,0.0406005,-0.404436,0,0.406469,-6165.16,-13638.2,-0,14967,-499742
step02_gravity_refstate-crust.xmf,772,-5.58892e-06,8.35211e-06,0,-7.41035e-06,-4.06011e+08,-4.05055e+08,-4.05628e+08,-508350,0.0392761,-0.421641,0,0.423466,-5491.11,-14771.6,-0,15759.2,-508350
step02_gravity_refstate-crust.xmf,773,-1.95635e-05,3.89707e-05,0,-7.10282e-06,-7.13966e+08,-7.09951e+08,-7.12624e+08,-487254,0.0221043,-0.703876,0,0.704223,-1104.44,-25973.9,-0,25997.3,-487254
step02_gravity_refstate-crust.xmf,774,-2.07456e-05,4.24038e-05,0,-5.47014e-06,-7.30882e+08,-7.2655e+08,-7.29459e+08,-375251,0.016453,-0.732529,0,0.732714,-785.206,-26590.2,-0,26601.8,-375251
step02_gravity_refstate-crust.xmf,775,-2.17647e-05,4.6281e-05,0,-3.36994e-06,-7.50113e+08,-7.45445e+08,-7.4862e+08,-231178,0.00977829,-0.766387,0,0.76645,-448.971,-27292.2,-0,27295.9,-231178
step02_gravity_refstate-crust.xmf,776,-2.21054e-05,5.36445e-05,0,-3.94634e-06,-7.8954e+08,-7.84344e+08,-7.88024e+08,-270719,0.0104441,-0.838349,0,0.838414,-471.429,-28737.6,-0,28741.5,-270719
step02_gravity_refstate-crust.xmf,777,-2.22959e-05,5.1498e-05,0,-1.39282e-06,-7.77122e+08,-7.72059e+08,-7.75592e+08,-95547.3,0.00383104,-0.816,0,0.816009,-171.981,-28281.4,-0,28281.9,-95547.3
step02_gravity_refstate-crust.xmf,778,-2.13917e-05,5.82013e-05,0,-2.74931e-06,-8.13294e+08,-8.07834e+08,-8.11827e+08,-188602,0.00668586,-0.888357,0,0.888382,-312.296,-29612.4,-0,29614,-188602
step02_gravity_refstate-crust.xmf,779,-2.03439e-05,5.92554e-05,0,-9.06903e-06,-8.23781e+08,-8.1832e+08,-8.22385e+08,-622135,0.0206564,-0.902351,0,0.902588,-999.46,-30000,-0,30016.6,-622135
step02_gravity_refstate-crust.xmf,780,2.77343e-06,-1.09073e-05,0,-2.29629e-05,-8.98996e+08,-8.99935e+08,-8.99186e+08,-1.57525e+06,-0.010213,-0.513737,-0,0.513838,-6552.55,-32723.2,-0,33372.8,-1.57525e+06
step02_gravity_refstate-crust.xmf,781,2.08724e-07,-5.51718e-06,0,-5.57309e-05,-8.92943e+08,-8.93335e+08,-8.92957e+08,-3.82314e+06,0.000998021,-0.774479,0,0.774479,-4000,-32500.8,-0,32746,-3.82314e+06
step02_gravity_refstate-crust.xmf,782,2.66918e-06,-1.07363e-05,0,-2.83061e-05,-8.99107e+08,-9.00027e+08,-8.99291e+08,-1.9418e+06,-0.0086091,-0.563216,-0,0.563282,-5924.72,-32727.1,-0,33259,-1.9418e+06
step02_gravity_refstate-crust.xmf,783,2.36134e-06,-1.04029e-05,0,-3.49862e-05,-8.99625e+08,-9.00501e+08,-8.99787e+08,-2.40005e+06,-0.00761392,-0.617719,-0,0.617766,-5326.11,-32745.2,-0,33175.5,-2.40005e+06
step02_gravity_refstate-crust.xmf,784,1.91854e-06,-9.91003e-06,0,-4.27528e-05,-9.00069e+08,-9.0088e+08,-9.002e+08,-2.93284e+06,-0.00684579,-0.675997,-0,0.676031,-4772.57,-32760.3,-0,33106.1,-2.93284e+06
step02_gravity_refstate-crust.xmf,785,1.12096e-06,-1.07827e-05,0,-1.41916e-05,-9.11499e+08,-9.12316e+08,-9.11576e+08,-973542,-0.0250806,-0.404508,-0,0.405284,-8246.95,-33171.9,-0,34181.7,-973542
step02_gravity_refstate-crust.xmf,786,1.18154e-06,-1.1695e-05,0,-1.7066e-05,-9.14223e+08,-9.15106e+08,-9.14304e+08,-1.17073e+06,-0.0266222,-0.442794,-0,0.443594,-7533.7,-33269.9,-0,34112.2,-1.17073e+06
step02_gravity_refstate-crust.xmf,787,1.18982e-06,-7.91814e-06,0,-7.37845e-06,-8.95683e+08,-8.96308e+08,-8.95765e+08,-506161,-0.0185068,-0.267718,-0,0.268357,-11869.9,-32600.8,-0,34694.5,-506161
step02_gravity_refstate-crust.xmf,788,4.74189e-07,-5.91623e-06,0,-4.93725e-06,-8.92298e+08,-8.92736e+08,-8.9233e+08,-338696,-0.0200838,-0.174411,-0,0.175564,-15727.5,-32477.7,-0,36085.4,-338696
step02_gravity_refstate-crust.xmf,789,6.15751e-07,-6.38275e-06,0,-5.42255e-06,-8.93531e+08,-8.94012e+08,-8.93574e+08,-371987,-0.0199758,-0.196042,-0,0.197057,-14679.7,-32522.5,-0,35682,-371987
step02_gravity_refstate-crust.xmf,790,7.53769e-07,-6.85949e-06,0,-5.97588e-06,-8.94945e+08,-8.95468e+08,-8.94997e+08,-409945,-0.0198968,-0.218517,-0,0.219421,-13694.3,-32573.8,-0,35335.3,-409945
step02_gravity_refstate-crust.xmf,791,9.4138e-07,-7.36454e-06,0,-6.62583e-06,-8.95693e+08,-8.96262e+08,-8.95757e+08,-454532,-0.0194564,-0.242354,-0,0.243134,-12758.4,-32601,-0,35008.6,-454532
step02_gravity_refstate-crust.xmf,792,2.68738e-07,-3.31717e-06,0,-2.67948e-06,-8.31533e+08,-8.31779e+08,-8.31552e+08,-183812,-0.00935813,-0.0592068,-0,0.0599418,-24566.6,-30268.8,-0,38983.6,-183812
step02_gravity_refstate-crust.xmf,793,2.74439e-07,-5.46126e-06,0,-4.51708e-06,-8.93132e+08,-8.93526e+08,-8.93151e+08,-309872,-0.0207821,-0.153723,-0,0.155121,-16814.4,-32508,-0,36599.1,-309872
step02_gravity_refstate-crust.xmf,794,-9.25818e-07,-1.83218e-06,0,-1.38463e-06,-8.61122e+08,-8.61185e+08,-8.61059e+08,-94985.8,-0.0103924,-0.00802082,-0,0.0131277,-31193.9,-31343.4,-0,44220.7,-94985.8
step02_gravity_refstate-crust.xmf,795,-7.18864e-07,-2.14566e-06,0,-1.69382e-06,-8.57773e+08,-8.5787e+08,-8.57723e+08,-116196,-0.011562,-0.0182575,-0,0.0216106,-29398.7,-31221.8,-0,42884.6,-116196
step02_gravity_refstate-crust.xmf,796,-1.25591e-06,-1.36351e-06,0,-8.02127e-07,-8.69413e+08,-8.69421e+08,-8.69327e+08,-55025.9,-0.00702211,0.0064031,-0,0.00950314,-34751.9,-31644.7,-0,47000.8,-55025.9
step02_gravity_refstate-crust.xmf,797,-1.77556e-06,-9.84397e-07,0,-3.40994e-09,-9.15744e+08,-9.1569e+08,-9.15622e+08,-233.922,-6.932e-19,0.0156706,-0,0.0156706,-40000,-33329.9,-0,52066.1,-233.922
step02_gravity_refstate-crust.xmf,798,-4.03255e-06,3.44965e-06,0,-5.71996e-06,-2.31296e+08,-2.30783e+08,-2.31019e+08,-392389,0.046915,-0.350924,0,0.354046,-8384.24,-8409.59,-0,11875,-392389
step02_gravity_refstate-crust.xmf,799,-4.2048e-06,4.2205e-06,0,-6.08323e-06,-2.68691e+08,-2.68113e+08,-2.68403e+08,-417309,0.0431987,-0.365597,0,0.36814,-7603.08,-9771.49,-0,12381,-417309
step02_gravity_refstate-crust.xmf,800,-4.52993e-06,5.28888e-06,0,-6.42747e-06,-3.10603e+08,-3.0993e+08,-3.10293e+08,-440924,0.0404599,-0.382383,0,0.384518,-6803.16,-11297.7,-0,13187.9,-440924
step02_gravity_refstate-crust.xmf,801,-4.68282e-06,2.9295e-06,0,-4.35612e-06,-1.62639e+08,-1.62117e+08,-1.62318e+08,-298830,0.0510169,-0.343477,0,0.347245,-8345.55,-5906.62,-0,10224.3,-298830
step02_gravity_refstate-crust.xmf,802,-5.40512e-06,2.80365e-06,0,-3.33717e-06,-1.17551e+08,-1.16988e+08,-1.1718e+08,-228930,0.0556789,-0.340635,0,0.345156,-8178.8,-4262.03,-0,9222.67,-228930
step02_gravity_refstate-crust.xmf,803,-9.02199e-06,1.62117e-05,0,-1.00325e-05,-5.55953e+08,-5.54222e+08,-5.55334e+08,-688233,0.0433364,-0.509118,0,0.510959,-3894.09,-20228.6,-0,20600,-688233
step02_gravity_refstate-crust.xmf,804,-1.42917e-05,2.66474e-05,0,-9.19977e-06,-6.41048e+08,-6.3824e+08,-6.40068e+08,-631104,0.0337476,-0.602426,0,0.60337,-2167.04,-23321.4,-0,23421.9,-631104
step02_gravity_refstate-crust.xmf,805,-1.03035e-05,1.87565e-05,0,-9.9073e-06,-5.7852e+08,-5.76527e+08,-5.77813e+08,-679641,0.0410695,-0.532079,0,0.533662,-3369.49,-21049,-0,21316.9,-679641
step02_gravity_refstate-crust.xmf,806,-1.2958e-05,2.39669e-05,0,-9.55886e-06,-6.21333e+08,-6.188e+08,-6.20444e+08,-655737,0.0363923,-0.578766,0,0.579909,-2522.05,-22604.9,-0,22745.2,-655737
step02_gravity_refstate-crust.xmf,807,-1.16382e-05,2.13414e-05,0,-9.73472e-06,-6.00502e+08,-5.98239e+08,-5.99703e+08,-667802,0.0386724,-0.555535,0,0.556879,-2906.77,-21847.8,-0,22040.3,-667802
step02_gravity_refstate-crust.xmf,808,-9.18236e-06,1.5771e-05,0,-8.18946e-06,-5.31955e+08,-5.30243e+08,-5.31325e+08,-561797,0.0363062,-0.502128,0,0.503439,-3423.15,-19353.6,-0,19654,-561797
step02_gravity_refstate-crust.xmf,809,-6.3704e-06,9.97091e-06,0,-7.46979e-06,-4.37274e+08,-4.36153e+08,-4.36837e+08,-512428,0.0378292,-0.440458,0,0.44208,-4820.27,-15909.1,-0,16623.3,-512428
step02_gravity_refstate-crust.xmf,810,-7.20485e-06,1.16109e-05,0,-7.38763e-06,-4.6371e+08,-4.62419e+08,-4.63216e+08,-506791,0.0360436,-0.458325,0,0.45974,-4212.24,-16870.6,-0,17388.6,-506791
step02_gravity_refstate-crust.xmf,811,-8.11971e-06,1.3305e-05,0,-7.05911e-06,-4.86115e+08,-4.84646e+08,-4.85558e+08,-484255,0.033316,-0.475853,0,0.477018,-3591.39,-17685.3,-0,18046.2,-484255
step02_gravity_refstate-crust.xmf,812,-2.21677e-05,4.90486e-05,0,9.33484e-07,-7.64002e+08,-7.59117e+08,-7.62481e+08,64037,-0.0025861,-0.791974,-0,0.791978,116.619,-27800.5,0,27800.8,-64037
step02_gravity_refstate-crust.xmf,813,-2.19633e-05,5.59106e-05,0,-1.4573e-06,-8.00606e+08,-7.95264e+08,-7.99099e+08,-99970.6,0.00367337,-0.86233,0,0.862337,-167.445,-29144.6,-0,29145.1,-99970.6
step02_gravity_refstate-crust.xmf,814,-2.07323e-05,5.99727e-05,0,-4.52003e-06,-8.23793e+08,-8.18257e+08,-8.22371e+08,-310074,0.0103999,-0.909769,0,0.909829,-500.036,-30000,-0,30004.2,-310074
step02_gravity_refstate-crust.xmf,815,1.46703e-06,-9.33564e-06,0,-4.99023e-05,-9.00012e+08,-9.00753e+08,-9.00112e+08,-3.4233e+06,-0.0060109,-0.728274,-0,0.728299,-4336.14,-32757.3,-0,33043.1,-3.4233e+06
step02_gravity_refstate-crust.xmf,816,1.0609e-07,-8.71319e-06,0,-8.96095e-06,-9.15283e+08,-9.15888e+08,-9.1529e+08,-614721,-0.0291667,-0.304111,-0,0.305506,-10573.2,-33308.7,-0,34946.6,-614721
step02_gravity_refstate-crust.xmf,817,4.06828e-07,-9.37779e-06,0,-1.02588e-05,-9.13791e+08,-9.14462e+08,-9.13819e+08,-703756,-0.0279768,-0.334355,-0,0.335523,-9778.75,-33254.6,-0,34662.5,-703756
step02_gravity_refstate-crust.xmf,818,7.29378e-07,-1.00754e-05,0,-1.19452e-05,-9.12734e+08,-9.13475e+08,-9.12784e+08,-819443,-0.0267684,-0.367424,-0,0.368398,-9006.3,-33216.4,-0,34415.7,-819443
step02_gravity_refstate-crust.xmf,819,1.50979e-06,-1.23587e-05,0,-2.0529e-05,-9.14488e+08,-9.1544e+08,-9.14592e+08,-1.40829e+06,-0.0259914,-0.484491,-0,0.485187,-6873.63,-33279.8,-0,33982.3,-1.40829e+06
step02_gravity_refstate-crust.xmf,820,-1.37471e-07,-8.07114e-06,0,-7.92337e-06,-9.16611e+08,-9.17155e+08,-9.16602e+08,-543543,-0.0299524,-0.275878,-0,0.2775,-11408.7,-33357.1,-0,35254.1,-543543
step02_gravity_refstate-crust.xmf,821,7.47919e-07,-5.00905e-06,0,-4.01817e-06,-8.6733e+08,-8.67725e+08,-8.67382e+08,-275646,-0.0139117,-0.130184,-0,0.130926,-18504.6,-31571.3,-0,36594.7,-275646
step02_gravity_refstate-crust.xmf,822,-4.98102e-07,-2.49243e-06,0,-2.00307e-06,-8.55446e+08,-8.55583e+08,-8.55412e+08,-137411,-0.0123515,-0.0300546,-0,0.0324936,-27675.3,-31137.5,-0,41658.9,-137411
step02_gravity_refstate-crust.xmf,823,-2.01859e-07,-2.92026e-06,0,-2.35037e-06,-8.50479e+08,-8.50665e+08,-8.50465e+08,-161235,-0.0123277,-0.0451426,-0,0.0467956,-25850.4,-30957.2,-0,40331,-161235
step02_gravity_refstate-crust.xmf,824,5.12913e-07,-4.602e-06,0,-3.68393e-06,-8.67519e+08,-8.67869e+08,-8.67554e+08,-252718,-0.0146882,-0.112674,-0,0.113628,-19667,-31577.8,-0,37201.5,-252718
step02_gravity_refstate-crust.xmf,825,-1.84327e-07,-3.2376e-06,0,-2.61287e-06,-8.63694e+08,-8.63904e+08,-8.63682e+08,-179243,-0.0146335,-0.0574292,-0,0.0592643,-24357.2,-31437.9,-0,39769.5,-179243
step02_gravity_refstate-crust.xmf,826,3.19212e-08,-3.7911e-06,0,-3.05294e-06,-8.70218e+08,-8.7048e+08,-8.7022e+08,-209431,-0.0159621,-0.0793782,-0,0.0809672,-22217.2,-31675.4,-0,38690.2,-209431
step02_gravity_refstate-crust.xmf,827,2.83717e-07,-4.1987e-06,0,-3.36496e-06,-8.67972e+08,-8.6828e+08,-8.67992e+08,-230836,-0.0152835,-0.0958099,-0,0.0970212,-20901.2,-31594,-0,37882,-230836
step02_gravity_refstate-crust.xmf,828,9.1638e-08,-5.04591e-06,0,-4.1509e-06,-8.94416e+08,-8.94769e+08,-8.94423e+08,-284751,-0.0213762,-0.134929,-0,0.136611,-17900,-32554.7,-0,37151.3,-284751
step02_gravity_refstate-crust.xmf,829,-1.67642e-06,-1.1295e-06,0,-5.73502e-07,-9.10866e+08,-9.10829e+08,-9.10751e+08,-39342.3,-0.00667204,0.0115674,-0,0.0133536,-36096,-33152.5,-0,49010.3,-39342.3
step02_gravity_refstate-crust.xmf,830,-1.42865e-06,-1.57195e-06,0,-1.20346e-06,-9.06001e+08,-9.06011e+08,-9.05903e+08,-82557.6,-0.0127928,-0.00150556,-0,0.0128811,-31999.4,-32975.7,-0,45949.5,-82557.6
step02_gravity_refstate-crust.xmf,831,-1.58694e-06,-1.31904e-06,0,-8.96913e-07,-9.11035e+08,-9.11017e+08,-9.10926e+08,-61528.2,-0.0101733,0.00599258,-0,0.0118071,-33943.2,-33158.7,-0,47451.5,-61528.2
step02_gravity_refstate-crust.xmf,832,-1.9705e-06,-9.38916e-07,0,-2.68345e-07,-9.42812e+08,-9.42741e+08,-9.42676e+08,-18408.5,-0.00371009,0.0157342,-0,0.0161657,-38122.8,-34314.6,-0,51291.7,-18408.5
step02_gravity_refstate-crust.xmf,833,-4.66828e-06,3.35915e-06,0,-4.75539e-06,-1.95358e+08,-1.94807e+08,-1.95038e+08,-326220,0.0452399,-0.35512,0,0.35799,-7638.64,-7098.52,-0,10427.7,-326220
step02_gravity_refstate-crust.xmf,834,-6.29248e-06,2.6394e-06,0,-1.85015e-06,-5.52939e+07,-5.46812e+07,-5.48623e+07,-126920,0.0710008,-0.329109,0,0.336681,-8685.82,-1991.66,-0,8911.24,-126920
step02_gravity_refstate-crust.xmf,835,-6.8385e-06,2.58887e-06,0,-6.28073e-08,-649867,-3148.44,-180745,-4308.58,0.0966602,-0.310826,0,0.325509,-9889.84,0,-0,9889.84,-4308.58
step02_gravity_refstate-crust.xmf,836,-1.5521e-05,2.84073e-05,0,-6.03964e-06,-6.41939e+08,-6.38926e+08,-6.40875e+08,-414319,0.021921,-0.61352,0,0.613911,-1369.39,-23351.6,-0,23391.8,-414319
step02_gravity_refstate-crust.xmf,837,-1.92774e-05,3.74674e-05,0,-4.43514e-06,-7.0125e+08,-6.97357e+08,-6.99927e+08,-304251,0.0142428,-0.689951,0,0.690098,-731.458,-25509.7,-0,25520.2,-304251
step02_gravity_refstate-crust.xmf,838,-1.6891e-05,3.13309e-05,0,-4.86049e-06,-6.61021e+08,-6.57713e+08,-6.59862e+08,-333429,0.0169395,-0.637705,0,0.63793,-987.062,-24045.3,-0,24065.5,-333429
step02_gravity_refstate-crust.xmf,839,-1.83871e-05,3.47618e-05,0,-3.65127e-06,-6.82701e+08,-6.79055e+08,-6.8144e+08,-250477,0.0122137,-0.666073,0,0.666185,-661.537,-24833.9,-0,24842.7,-250477
step02_gravity_refstate-crust.xmf,840,-5.15477e-06,6.48324e-06,0,-6.23205e-06,-3.39989e+08,-3.39191e+08,-3.39635e+08,-427519,0.0364084,-0.401154,0,0.402803,-5721.53,-12366.8,-0,13626.2,-427519
step02_gravity_refstate-crust.xmf,841,-9.1517e-06,1.51924e-05,0,-6.56076e-06,-5.08626e+08,-5.06956e+08,-5.07999e+08,-450068,0.0299179,-0.494462,0,0.495367,-2967.38,-18503.6,-0,18740,-450068
step02_gravity_refstate-crust.xmf,842,-5.77961e-06,7.93562e-06,0,-6.16053e-06,-3.7363e+08,-3.72689e+08,-3.73234e+08,-422613,0.0338946,-0.41858,0,0.41995,-4931.41,-13591.3,-0,14458.3,-422613
step02_gravity_refstate-crust.xmf,843,-6.49744e-06,9.49346e-06,0,-6.09098e-06,-4.06809e+08,-4.05712e+08,-4.06363e+08,-417841,0.0318049,-0.436239,0,0.437397,-4245.62,-14798.7,-0,15395.7,-417841
step02_gravity_refstate-crust.xmf,844,-2.02511e-05,4.00733e-05,0,-2.75226e-06,-7.15071e+08,-7.10933e+08,-7.13682e+08,-188805,0.0085962,-0.711413,0,0.711465,-423.899,-26013,-0,26016.4,-188805
step02_gravity_refstate-crust.xmf,845,-2.1165e-05,4.31197e-05,0,-5.97924e-07,-7.3163e+08,-7.27221e+08,-7.30179e+08,-41017.6,0.00181497,-0.73755,0,0.737552,-85.9327,-26616.9,-0,26617,-41017.6
step02_gravity_refstate-crust.xmf,846,-2.17273e-05,4.58669e-05,0,2.13529e-06,-7.47297e+08,-7.4266e+08,-7.45806e+08,146481,-0.00624526,-0.76248,-0,0.762506,287.644,-27189.2,0,27190.7,-146481
step02_gravity_refstate-crust.xmf,847,-2.22237e-05,5.37993e-05,0,1.00191e-06,-7.89254e+08,-7.84039e+08,-7.8773e+08,68730.9,-0.00262453,-0.839569,-0,0.839573,118.248,-28727,0,28727.2,-68730.9
step02_gravity_refstate-crust.xmf,848,-2.22193e-05,5.13186e-05,0,3.28691e-06,-7.76905e+08,-7.7186e+08,-7.75381e+08,225482,-0.00895034,-0.814524,-0,0.814573,402.256,-28273.6,0,28276.4,-225482
step02_gravity_refstate-crust.xmf,849,-2.14119e-05,5.83296e-05,0,1.99566e-06,-8.13836e+08,-8.08366e+08,-8.12367e+08,136902,-0.00483643,-0.889954,-0,0.889967,226.05,-29632.2,0,29633.1,-136902
step02_gravity_refstate-crust.xmf,850,-2.18428e-05,5.58784e-05,0,3.69063e-06,-8.01347e+08,-7.96015e+08,-7.99848e+08,253177,-0.00939901,-0.862446,-0,0.862498,429.588,-29172,0,29175.1,-253177
step02_gravity_refstate-crust.xmf,851,-2.08563e-05,6.02192e-05,0,-3.35276e-09,-8.23797e+08,-8.18235e+08,-8.22366e+08,-229.999,-3.86741e-07,-0.91224,-0,0.91224,-4.01542e-10,-30000,-0,30000,-229.999
step02_gravity_refstate-crust.xmf,852,1.99995e-06,-1.33558e-05,0,-2.54255e-05,-9.14047e+08,-9.151e+08,-9.14184e+08,-1.74419e+06,-0.0244553,-0.53142,-0,0.531983,-6234,-33264.2,-0,33843.3,-1.74419e+06
step02_gravity_refstate-crust.xmf,853,2.20503e-06,-1.20785e-05,0,-5.61351e-05,-9.06719e+08,-9.07699e+08,-9.0687e+08,-3.85087e+06,-0.0117455,-0.770084,-0,0.770174,-4000,-33000.2,-0,33241.8,-3.85087e+06
step02_gravity_refstate-crust.xmf,854,3.10448e-06,-1.51591e-05,0,-4.81459e-05,-9.13627e+08,-9.1488e+08,-9.1384e+08,-3.30281e+06,-0.0195095,-0.708024,-0,0.708292,-4449.82,-33250.6,-0,33547,-3.30281e+06
step02_gravity_refstate-crust.xmf,855,2.43171e-06,-1.4129e-05,0,-3.1474e-05,-9.13907e+08,-9.15043e+08,-9.14074e+08,-2.15912e+06,-0.0229935,-0.583358,-0,0.583811,-5621.44,-33259.6,-0,33731.4,-2.15912e+06
step02_gravity_refstate-crust.xmf,856,2.81809e-06,-1.47905e-05,0,-3.88939e-05,-9.13818e+08,-9.15026e+08,-9.14011e+08,-2.66812e+06,-0.0214066,-0.640683,-0,0.64104,-5038.6,-33257,-0,33636.5,-2.66812e+06
step02_gravity_refstate-crust.xmf,857,-8.5275e-07,-1.09097e-05,0,-1.31843e-05,-9.30637e+08,-9.31327e+08,-9.30579e+08,-904440,-0.0404467,-0.379071,-0,0.381223,-8609.01,-33860.4,-0,34937.7,-904440
step02_gravity_refstate-crust.xmf,858,-1.78878e-07,-1.34713e-05,0,-1.87716e-05,-9.31162e+08,-9.32074e+08,-9.3115e+08,-1.28773e+06,-0.0416458,-0.45575,-0,0.457649,-7194.68,-33878.3,-0,34633.8,-1.28773e+06
step02_gravity_refstate-crust.xmf,859,-5.80275e-07,-1.20555e-05,0,-1.56126e-05,-9.30621e+08,-9.31408e+08,-9.30581e+08,-1.07103e+06,-0.0409255,-0.415688,-0,0.417698,-7887.93,-33859.2,-0,34765.8,-1.07103e+06
step02_gravity_refstate-crust.xmf,860,-2.50631e-07,-7.4992e-06,0,-7.05533e-06,-9.17003e+08,-9.175e+08,-9.16986e+08,-483996,-0.0300053,-0.249698,-0,0.251494,-12284.9,-33371.8,-0,35561.2,-483996
step02_gravity_refstate-crust.xmf,861,-5.53726e-07,-5.48747e-06,0,-4.82013e-06,-9.1882e+08,-9.19159e+08,-9.18782e+08,-330661,-0.0291334,-0.158905,-0,0.161554,-16249.8,-33439.8,-0,37179,-330661
step02_gravity_refstate-crust.xmf,862,-4.97552e-07,-5.93537e-06,0,-5.26828e-06,-9.18213e+08,-9.18586e+08,-9.18179e+08,-361404,-0.0294541,-0.179693,-0,0.182091,-15189.7,-33417.3,-0,36707.5,-361404
step02_gravity_refstate-crust.xmf,863,-4.35016e-07,-6.41453e-06,0,-5.77851e-06,-9.17728e+08,-9.18139e+08,-9.17699e+08,-396406,-0.0297126,-0.20176,-0,0.203936,-14173.1,-33399.1,-0,36281.9,-396406
step02_gravity_refstate-crust.xmf,864,-3.84749e-07,-6.92072e-06,0,-6.37325e-06,-9.178e+08,-9.18249e+08,-9.17774e+08,-437205,-0.0301097,-0.224817,-0,0.226824,-13210.4,-33401.2,-0,35918.7,-437205
step02_gravity_refstate-crust.xmf,865,-2.25915e-07,-3.45169e-06,0,-2.80458e-06,-8.75642e+08,-8.75863e+08,-8.75626e+08,-192394,-0.0168747,-0.0662906,-0,0.0684047,-23338.6,-31872.4,-0,39503.6,-192394
step02_gravity_refstate-crust.xmf,866,-6.26609e-07,-5.07519e-06,0,-4.43578e-06,-9.20206e+08,-9.20511e+08,-9.20163e+08,-304295,-0.0289513,-0.139845,-0,0.14281,-17315.7,-33490.6,-0,37702.2,-304295
step02_gravity_refstate-crust.xmf,867,-1.25173e-06,-1.86685e-06,0,-1.50536e-06,-9.01143e+08,-9.01185e+08,-9.01057e+08,-103268,-0.0148625,-0.0106672,-0,0.0182943,-30165.6,-32799.1,-0,44561.7,-103268
step02_gravity_refstate-crust.xmf,868,-1.07233e-06,-2.19127e-06,0,-1.80488e-06,-8.97711e+08,-8.97788e+08,-8.97638e+08,-123815,-0.0165427,-0.0212687,-0,0.0269447,-28425,-32674.3,-0,43308.1,-123815
step02_gravity_refstate-crust.xmf,869,-2.23207e-06,-8.1673e-07,0,-4.20343e-09,-9.76786e+08,-9.76689e+08,-9.76633e+08,-288.355,-9.31369e-19,0.0176704,-0,0.0176704,-40000,-35550.6,-0,53514.9,-288.355
step02_gravity_refstate-crust.xmf,870,-4.74943e-06,4.08374e-06,0,-5.03237e-06,-2.31978e+08,-2.31373e+08,-2.31653e+08,-345221,0.0401874,-0.36853,0,0.370715,-6855.8,-8432.52,-0,10867.8,-345221
step02_gravity_refstate-crust.xmf,871,-4.97351e-06,4.97579e-06,0,-5.18541e-06,-2.68907e+08,-2.68224e+08,-2.68565e+08,-355719,0.0360393,-0.383014,0,0.384706,-6042.32,-9777.4,-0,11493.8,-355719
step02_gravity_refstate-crust.xmf,872,-5.36027e-06,3.28369e-06,0,-3.76393e-06,-1.57017e+08,-1.56424e+08,-1.56649e+08,-258206,0.0447443,-0.357195,0,0.359986,-6993,-5699.75,-0,9021.6,-258206
step02_gravity_refstate-crust.xmf,873,-6.54396e-06,2.98225e-06,0,-2.27177e-06,-8.33206e+07,-8.26671e+07,-8.28717e+07,-155843,0.0547211,-0.348008,0,0.352284,-7086.34,-3011.51,-0,7699.7,-155843
step02_gravity_refstate-crust.xmf,874,-1.04161e-05,1.80692e-05,0,-7.81226e-06,-5.55283e+08,-5.53329e+08,-5.54568e+08,-535921,0.0332655,-0.523795,0,0.52485,-2866.6,-20201.5,-0,20403.8,-535921
step02_gravity_refstate-crust.xmf,875,-1.421e-05,2.57034e-05,0,-6.65537e-06,-6.22677e+08,-6.19939e+08,-6.21702e+08,-456558,0.0252076,-0.591204,0,0.591741,-1690.4,-22651.5,-0,22714.5,-456558
step02_gravity_refstate-crust.xmf,876,-1.17836e-05,2.0755e-05,0,-7.23608e-06,-5.78906e+08,-5.76673e+08,-5.78097e+08,-496395,0.0295671,-0.547113,0,0.547912,-2325.25,-21060.1,-0,21188.1,-496395
step02_gravity_refstate-crust.xmf,877,-1.30206e-05,2.32904e-05,0,-7.01804e-06,-6.02064e+08,-5.99573e+08,-6.01171e+08,-481438,0.027572,-0.569464,0,0.570132,-1993.52,-21902.1,-0,21992.7,-481438
step02_gravity_refstate-crust.xmf,878,-5.35502e-06,6.04475e-06,0,-5.14524e-06,-3.03429e+08,-3.02647e+08,-3.03062e+08,-352963,0.0323238,-0.39819,0,0.3995,-5199.09,-11034.3,-0,12197.8,-352963
step02_gravity_refstate-crust.xmf,879,-1.02398e-05,1.71561e-05,0,-5.98017e-06,-5.3101e+08,-5.29131e+08,-5.30308e+08,-410240,0.0262318,-0.513474,0,0.514143,-2395.46,-19317.1,-0,19465.1,-410240
step02_gravity_refstate-crust.xmf,880,-7.33171e-06,1.1204e-05,0,-5.91996e-06,-4.38166e+08,-4.36895e+08,-4.37663e+08,-406110,0.0295802,-0.454435,0,0.455397,-3605.87,-15939.6,-0,16342.3,-406110
step02_gravity_refstate-crust.xmf,881,-8.16176e-06,1.28207e-05,0,-5.56875e-06,-4.63146e+08,-4.61707e+08,-4.62586e+08,-382016,0.026862,-0.470849,0,0.471614,-3023.45,-16848.1,-0,17117.3,-382016
step02_gravity_refstate-crust.xmf,882,-9.03411e-06,1.44902e-05,0,-5.09326e-06,-4.86444e+08,-4.8483e+08,-4.85824e+08,-349397,0.0238031,-0.487146,0,0.487728,-2479.45,-17695.4,-0,17868.2,-349397
step02_gravity_refstate-crust.xmf,883,-2.18987e-05,4.83494e-05,0,5.25017e-06,-7.62659e+08,-7.5784e+08,-7.61157e+08,360162,-0.0147699,-0.78629,-0,0.786428,669.987,-27751.6,0,27759.7,-360162
step02_gravity_refstate-crust.xmf,884,-2.1182e-05,5.76821e-05,0,6.46937e-06,-8.12953e+08,-8.07543e+08,-8.115e+08,443799,-0.0156085,-0.883486,-0,0.883624,731.1,-29600,0,29609,-443799
step02_gravity_refstate-crust.xmf,885,-1.56611e-06,-8.35585e-06,0,-8.7911e-06,-9.36903e+08,-9.37369e+08,-9.36795e+08,-603069,-0.0416719,-0.28492,-0,0.287951,-10940.5,-34089.6,-0,35802.2,-603069
step02_gravity_refstate-crust.xmf,886,-1.28344e-06,-9.12929e-06,0,-9.88693e-06,-9.33458e+08,-9.33996e+08,-9.3337e+08,-678243,-0.0407799,-0.314341,-0,0.316976,-10128.9,-33964.1,-0,35442.3,-678243
step02_gravity_refstate-crust.xmf,887,-1.09558e-06,-9.95223e-06,0,-1.13201e-05,-9.31706e+08,-9.32313e+08,-9.31631e+08,-776556,-0.040522,-0.345248,-0,0.347618,-9358.88,-33899.8,-0,35168,-776556
step02_gravity_refstate-crust.xmf,888,5.78323e-07,-1.48493e-05,0,-2.26926e-05,-9.30159e+08,-9.31217e+08,-9.30198e+08,-1.55672e+06,-0.0406041,-0.500544,-0,0.502189,-6534.01,-33842.7,-0,34467.7,-1.55672e+06
step02_gravity_refstate-crust.xmf,889,-1.61551e-06,-7.66715e-06,0,-7.84897e-06,-9.38657e+08,-9.39073e+08,-9.38547e+08,-538439,-0.0412591,-0.257509,-0,0.260793,-11806.7,-34154.4,-0,36137.5,-538439
step02_gravity_refstate-crust.xmf,890,-8.83234e-08,-4.64267e-06,0,-3.8247e-06,-8.95972e+08,-8.96284e+08,-8.95966e+08,-262374,-0.0218063,-0.11739,-0,0.119398,-19013.8,-32611.2,-0,37749.4,-262374
step02_gravity_refstate-crust.xmf,891,-8.8522e-07,-2.54755e-06,0,-2.10966e-06,-8.94888e+08,-8.95002e+08,-8.94827e+08,-144722,-0.0178566,-0.0334964,-0,0.0379587,-26734.2,-32571.8,-0,42138.3,-144722
step02_gravity_refstate-crust.xmf,892,-2.66016e-07,-4.24953e-06,0,-3.51017e-06,-8.98061e+08,-8.98334e+08,-8.98043e+08,-240797,-0.0221136,-0.100506,-0,0.10291,-20191.8,-32687.2,-0,38420.8,-240797
step02_gravity_refstate-crust.xmf,893,-7.42613e-07,-2.90133e-06,0,-2.40482e-06,-8.95638e+08,-8.95786e+08,-8.95587e+08,-164971,-0.0192083,-0.0462663,-0,0.0500952,-25175.9,-32599.1,-0,41188.9,-164971
step02_gravity_refstate-crust.xmf,894,-7.02737e-07,-3.19321e-06,0,-2.6662e-06,-9.01774e+08,-9.01944e+08,-9.01725e+08,-182901,-0.0210625,-0.0575529,-0,0.061286,-23888.8,-32822.2,-0,40595.2,-182901
step02_gravity_refstate-crust.xmf,895,-6.05445e-07,-3.49606e-06,0,-2.91793e-06,-9.0283e+08,-9.03028e+08,-9.02788e+08,-200170,-0.0219974,-0.0695054,-0,0.0729033,-22713.9,-32860.6,-0,39946.7,-200170
step02_gravity_refstate-crust.xmf,896,-4.41725e-07,-3.86039e-06,0,-3.2042e-06,-9.00426e+08,-9.00661e+08,-9.00396e+08,-219808,-0.0221902,-0.0842607,-0,0.0871336,-21446.7,-32773.2,-0,39166.8,-219808
step02_gravity_refstate-crust.xmf,897,-6.98601e-07,-4.69309e-06,0,-4.09138e-06,-9.2229e+08,-9.22564e+08,-9.22242e+08,-280669,-0.0288154,-0.122216,-0,0.125567,-18394.5,-33566.8,-0,38276.4,-280669
step02_gravity_refstate-crust.xmf,898,-2.01773e-06,-1.10912e-06,0,-7.68828e-07,-9.59834e+08,-9.59772e+08,-9.59696e+08,-52741.6,-0.0110081,0.0102951,-0,0.0150721,-34685.9,-34933.8,-0,49228.9,-52741.6
step02_gravity_refstate-crust.xmf,899,-1.71503e-06,-1.62043e-06,0,-1.36843e-06,-9.44933e+08,-9.44927e+08,-9.44815e+08,-93874,-0.0172262,-0.00415482,-0,0.0177201,-30905.8,-34391.8,-0,46238.1,-93874
step02_gravity_refstate-crust.xmf,900,-1.9004e-06,-1.32751e-06,0,-1.06068e-06,-9.5476e+08,-9.5472e+08,-9.54629e+08,-72762.3,-0.0144375,0.00423192,-0,0.015045,-32801.9,-34749.2,-0,47785.7,-72762.3
step02_gravity_refstate-crust.xmf,901,-2.11185e-06,-9.5195e-07,0,-4.96209e-07,-9.65115e+08,-9.65035e+08,-9.6497e+08,-34039.9,-0.00742431,0.0144,-0,0.0162013,-36512.9,-35126,-0,50665.8,-34039.9
step02_gravity_refstate-crust.xmf,902,-2.41289e-06,-7.82605e-07,0,-2.92232e-07,-1.00559e+09,-1.00548e+09,-1.00543e+09,-20047.1,-0.00492494,0.0175475,-0,0.0182255,-37953.8,-36598.6,-0,52725.2,-20047.1
step02_gravity_refstate-crust.xmf,903,-5.32439e-06,3.83653e-06,0,-4.03457e-06,-1.93916e+08,-1.93287e+08,-1.9355e+08,-276772,0.0377178,-0.370332,0,0.372248,-6118.47,-7044.09,-0,9330.32,-276772
step02_gravity_refstate-crust.xmf,904,-6.22027e-06,3.23015e-06,0,-2.77442e-06,-1.18217e+08,-1.17569e+08,-1.1779e+08,-190326,0.0446541,-0.359091,0,0.361857,-6295.55,-4283.65,-0,7614.69,-190326
step02_gravity_refstate-crust.xmf,905,-8.36369e-06,3.18405e-06,0,-5.1727e-08,-794050,-1874.25,-220300,-3548.47,0.0815691,-0.331294,0,0.341188,-7895.49,0,-0,7895.49,-3548.47
step02_gravity_refstate-crust.xmf,906,-7.69685e-06,3.13178e-06,0,-1.2605e-06,-4.42828e+07,-4.354e+07,-4.37548e+07,-86470.6,0.0600248,-0.346811,0,0.351967,-6735.41,-1585.87,-0,6919.59,-86470.6
step02_gravity_refstate-crust.xmf,907,-1.62215e-05,2.93994e-05,0,-2.53047e-06,-6.42743e+08,-6.39614e+08,-6.4163e+08,-173590,0.00916848,-0.620141,0,0.620209,-563.504,-23379.6,-0,23386.4,-173590
step02_gravity_refstate-crust.xmf,908,-1.50085e-05,2.67999e-05,0,-3.64303e-06,-6.23042e+08,-6.20174e+08,-6.22012e+08,-249912,0.0137063,-0.598291,0,0.598448,-902.883,-22663.2,-0,22681.2,-249912
step02_gravity_refstate-crust.xmf,909,-1.94569e-05,3.74958e-05,0,-6.12979e-07,-6.98429e+08,-6.94522e+08,-6.97095e+08,-42050.3,0.00194736,-0.688855,0,0.688858,-100.357,-25406.4,-0,25406.6,-42050.3
step02_gravity_refstate-crust.xmf,910,-1.74316e-05,3.21382e-05,0,-9.18689e-07,-6.62466e+08,-6.59066e+08,-6.61271e+08,-63022,0.00323784,-0.643297,0,0.643305,-186.136,-24097,-0,24097.7,-63022
step02_gravity_refstate-crust.xmf,911,-5.89736e-06,7.31272e-06,0,-4.97894e-06,-3.38886e+08,-3.37979e+08,-3.38481e+08,-341555,0.0286956,-0.414714,0,0.415705,-4334.64,-12324.9,-0,13065,-341555
step02_gravity_refstate-crust.xmf,912,-9.9545e-06,1.62073e-05,0,-4.41353e-06,-5.08102e+08,-5.06307e+08,-5.07419e+08,-302768,0.0200093,-0.50345,0,0.503848,-1934.23,-18482.8,-0,18583.7,-302768
step02_gravity_refstate-crust.xmf,913,-6.51224e-06,8.84345e-06,0,-4.79037e-06,-3.74463e+08,-3.73409e+08,-3.74016e+08,-328619,0.0260314,-0.431022,0,0.431807,-3645.06,-13620,-0,14099.3,-328619
step02_gravity_refstate-crust.xmf,914,-7.31414e-06,1.05868e-05,0,-4.53879e-06,-4.113e+08,-4.10072e+08,-4.10799e+08,-311361,0.0233359,-0.44925,0,0.449855,-2980.03,-14960.6,-0,15254.5,-311361
step02_gravity_refstate-crust.xmf,915,-2.0329e-05,4.01886e-05,0,1.7014e-06,-7.15192e+08,-7.1104e+08,-7.13797e+08,116716,-0.00526404,-0.712238,-0,0.712257,259.173,-26017.3,0,26018.5,-116716
step02_gravity_refstate-crust.xmf,916,-2.0946e-05,4.27643e-05,0,4.17363e-06,-7.31622e+08,-7.27251e+08,-7.30185e+08,286311,-0.0125273,-0.735332,-0,0.735439,595.363,-26616.9,0,26623.6,-286311
step02_gravity_refstate-crust.xmf,917,-2.12204e-05,4.50714e-05,0,7.07821e-06,-7.47658e+08,-7.4311e+08,-7.46202e+08,485565,-0.0205278,-0.757368,-0,0.757646,952.397,-27203.2,0,27219.8,-485565
step02_gravity_refstate-crust.xmf,918,-2.1955e-05,5.33757e-05,0,5.8268e-06,-7.89625e+08,-7.84457e+08,-7.88119e+08,399718,-0.0153146,-0.836305,-0,0.836445,692.867,-28740.9,0,28749.3,-399718
step02_gravity_refstate-crust.xmf,919,-2.17541e-05,5.04846e-05,0,7.99142e-06,-7.76984e+08,-7.72029e+08,-7.75492e+08,548212,-0.0216618,-0.808212,-0,0.808502,980.39,-28277,0,28294,-548212
step02_gravity_refstate-crust.xmf,920,-2.14101e-05,5.51055e-05,0,8.43184e-06,-8.01434e+08,-7.96185e+08,-7.99965e+08,578425,-0.0212482,-0.855661,-0,0.855925,977.645,-29175.7,0,29192.1,-578425
step02_gravity_refstate-crust.xmf,921,-2.07323e-05,5.99869e-05,0,4.51431e-06,-8.23793e+08,-8.18255e+08,-8.2237e+08,309682,-0.0103993,-0.909769,-0,0.909829,500.036,-30000,0,30004.2,-309682
step02_gravity_refstate-crust.xmf,922,1.67915e-06,-1.67474e-05,0,-2.80737e-05,-9.289e+08,-9.30164e+08,-9.29015e+08,-1.92586e+06,-0.038729,-0.549557,-0,0.55092,-5912.16,-33798.4,-0,34311.6,-1.92586e+06
step02_gravity_refstate-crust.xmf,923,4.20177e-06,-1.86507e-05,0,-5.61256e-05,-9.20496e+08,-9.22064e+08,-9.20784e+08,-3.85022e+06,-0.0244374,-0.762412,-0,0.762804,-4000,-33499.7,-0,33737.7,-3.85022e+06
step02_gravity_refstate-crust.xmf,924,3.93882e-06,-2.02267e-05,0,-4.26459e-05,-9.27733e+08,-9.29391e+08,-9.28003e+08,-2.92551e+06,-0.0345016,-0.662198,-0,0.663096,-4761.54,-33759.7,-0,34093.8,-2.92551e+06
step02_gravity_refstate-crust.xmf,925,2.84792e-06,-1.85564e-05,0,-3.47377e-05,-9.28127e+08,-9.29596e+08,-9.28323e+08,-2.38301e+06,-0.0367,-0.603803,-0,0.604917,-5316.5,-33772.2,-0,34188.1,-2.38301e+06
step02_gravity_refstate-crust.xmf,926,-1.54705e-06,-1.61836e-05,0,-2.0893e-05,-9.49729e+08,-9.50733e+08,-9.49623e+08,-1.43326e+06,-0.0581642,-0.470593,-0,0.474174,-6808.79,-34544.5,-0,35209.1,-1.43326e+06
step02_gravity_refstate-crust.xmf,927,-2.58219e-06,-1.07923e-05,0,-1.27402e-05,-9.49109e+08,-9.49672e+08,-9.48932e+08,-873976,-0.0530372,-0.356365,-0,0.360291,-8947.7,-34526.1,-0,35666.7,-873976
step02_gravity_refstate-crust.xmf,928,-2.4046e-06,-1.20999e-05,0,-1.47813e-05,-9.48336e+08,-9.49001e+08,-9.48171e+08,-1.014e+06,-0.0542461,-0.390507,-0,0.394256,-8223.62,-34496.7,-0,35463.3,-1.014e+06
step02_gravity_refstate-crust.xmf,929,-2.10881e-06,-1.37643e-05,0,-1.73783e-05,-9.48545e+08,-9.49345e+08,-9.48401e+08,-1.19215e+06,-0.0559196,-0.427285,-0,0.430929,-7529.49,-34502.9,-0,35314.9,-1.19215e+06
step02_gravity_refstate-crust.xmf,930,-1.57581e-06,-7.069e-06,0,-7.0633e-06,-9.40331e+08,-9.40708e+08,-9.40223e+08,-484542,-0.0406247,-0.231916,-0,0.235447,-12713.2,-34216.4,-0,36501.9,-484542
step02_gravity_refstate-crust.xmf,931,-1.37721e-06,-5.13852e-06,0,-4.89387e-06,-9.45551e+08,-9.45809e+08,-9.45457e+08,-335720,-0.0366126,-0.144818,-0,0.149375,-16748.3,-34410.2,-0,38269.7,-335720
step02_gravity_refstate-crust.xmf,932,-1.43976e-06,-5.5522e-06,0,-5.34418e-06,-9.44305e+08,-9.44587e+08,-9.44206e+08,-366611,-0.0377001,-0.164454,-0,0.168719,-15684,-34363.9,-0,37773.9,-366611
step02_gravity_refstate-crust.xmf,933,-1.51069e-06,-6.00688e-06,0,-5.85166e-06,-9.43038e+08,-9.43347e+08,-9.42935e+08,-401424,-0.0387666,-0.185724,-0,0.189727,-14643,-34316.8,-0,37310.4,-401424
step02_gravity_refstate-crust.xmf,934,-1.57001e-06,-6.50757e-06,0,-6.42541e-06,-9.41728e+08,-9.42066e+08,-9.4162e+08,-440783,-0.0397635,-0.208313,-0,0.212074,-13647.8,-34268.1,-0,36885.8,-440783
step02_gravity_refstate-crust.xmf,935,-1.29982e-06,-4.77912e-06,0,-4.50224e-06,-9.46705e+08,-9.46943e+08,-9.46616e+08,-308854,-0.0355483,-0.127446,-0,0.132311,-17786.4,-34453.1,-0,38773.3,-308854
step02_gravity_refstate-crust.xmf,936,-1.56692e-06,-1.92545e-06,0,-1.66821e-06,-9.40434e+08,-9.40459e+08,-9.40326e+08,-114439,-0.0197175,-0.0135897,-0,0.023947,-29155.2,-34228.1,-0,44962.1,-114439
step02_gravity_refstate-crust.xmf,937,-1.4179e-06,-2.26243e-06,0,-1.97749e-06,-9.36509e+08,-9.36567e+08,-9.36412e+08,-135656,-0.0218558,-0.0246374,-0,0.0329344,-27451.6,-34085.3,-0,43765.3,-135656
step02_gravity_refstate-crust.xmf,938,-2.60006e-06,-6.83578e-07,0,-1.03902e-09,-1.03784e+09,-1.03771e+09,-1.03767e+09,-71.2766,-8.06789e-19,0.0193322,-0,0.0193322,-40000,-37772.2,-0,55015.8,-71.2766
step02_gravity_refstate-crust.xmf,939,-5.40866e-06,4.64167e-06,0,-4.1e-06,-2.30799e+08,-2.30109e+08,-2.30427e+08,-281260,0.0322576,-0.383385,0,0.384739,-5289.97,-8387.75,-0,9916.56,-281260
step02_gravity_refstate-crust.xmf,940,-5.62411e-06,5.5691e-06,0,-4.03133e-06,-2.66412e+08,-2.65645e+08,-2.66027e+08,-276549,0.0277986,-0.396524,0,0.397497,-4490.63,-9684.88,-0,10675.3,-276549
step02_gravity_refstate-crust.xmf,941,-6.01468e-06,3.66213e-06,0,-3.01896e-06,-1.54433e+08,-1.53769e+08,-1.5402e+08,-207100,0.0357804,-0.371237,0,0.372957,-5380.98,-5603.61,-0,7768.87,-207100
step02_gravity_refstate-crust.xmf,942,-7.27535e-06,3.28173e-06,0,-1.83406e-06,-8.12694e+07,-8.05452e+07,-8.07703e+07,-125816,0.0443493,-0.360905,0,0.36362,-5536.12,-2934.34,-0,6265.69,-125816
step02_gravity_refstate-crust.xmf,943,-1.14718e-05,1.94861e-05,0,-5.22054e-06,-5.55059e+08,-5.52935e+08,-5.54272e+08,-358129,0.0219911,-0.534576,0,0.535028,-1838.93,-20191.2,-0,20274.8,-358129
step02_gravity_refstate-crust.xmf,944,-1.39487e-05,2.46277e-05,0,-4.60013e-06,-6.06366e+08,-6.0372e+08,-6.05409e+08,-315569,0.0179476,-0.58029,0,0.580568,-1256.66,-22057.1,-0,22092.8,-315569
step02_gravity_refstate-crust.xmf,945,-1.29533e-05,2.24399e-05,0,-4.17063e-06,-5.82373e+08,-5.79945e+08,-5.81484e+08,-286105,0.0167017,-0.559739,0,0.559988,-1264.73,-21184.2,-0,21221.9,-286105
step02_gravity_refstate-crust.xmf,946,-1.84792e-05,3.47775e-05,0,1.16229e-06,-6.811e+08,-6.77446e+08,-6.79832e+08,79732.9,-0.00383369,-0.665913,-0,0.665924,207.897,-24775.2,0,24776.1,-79732.9
step02_gravity_refstate-crust.xmf,947,-5.97884e-06,6.67762e-06,0,-3.82072e-06,-3.01776e+08,-3.00908e+08,-3.01366e+08,-262101,0.0238151,-0.410219,0,0.41091,-3704.89,-10972.6,-0,11581.2,-262101
step02_gravity_refstate-crust.xmf,948,-1.09373e-05,1.80613e-05,0,-3.5398e-06,-5.29823e+08,-5.27834e+08,-5.29073e+08,-242830,0.015431,-0.520545,0,0.520773,-1382.97,-19272.5,-0,19322,-242830
step02_gravity_refstate-crust.xmf,949,-8.06018e-06,1.21236e-05,0,-4.13294e-06,-4.38484e+08,-4.371e+08,-4.37931e+08,-283520,0.0204705,-0.464493,0,0.464944,-2419.88,-15949.6,-0,16132.1,-283520
step02_gravity_refstate-crust.xmf,950,-8.88674e-06,1.379e-05,0,-3.60001e-06,-4.6496e+08,-4.63404e+08,-4.6435e+08,-246960,0.0171721,-0.480403,0,0.48071,-1874.11,-16912.7,-0,17016.2,-246960
step02_gravity_refstate-crust.xmf,951,-9.61823e-06,1.52702e-05,0,-3.16497e-06,-4.87663e+08,-4.85955e+08,-4.87003e+08,-217117,0.0147219,-0.494451,0,0.49467,-1498.37,-17738.6,-0,17801.7,-217117
step02_gravity_refstate-crust.xmf,952,-2.11763e-05,4.71433e-05,0,1.00143e-05,-7.63035e+08,-7.58348e+08,-7.61582e+08,686979,-0.0279294,-0.777993,-0,0.778494,1280.61,-27766.4,0,27795.9,-686979
step02_gravity_refstate-crust.xmf,953,-2.06255e-05,5.66404e-05,0,1.10441e-05,-8.1283e+08,-8.0753e+08,-8.11415e+08,757623,-0.0263577,-0.873601,-0,0.873998,1245.15,-29596.2,0,29622.3,-757623
step02_gravity_refstate-crust.xmf,954,-2.03449e-05,5.92665e-05,0,9.0635e-06,-8.2378e+08,-8.18319e+08,-8.22385e+08,621756,-0.0206547,-0.902352,-0,0.902588,999.46,-30000,0,30016.6,-621756
step02_gravity_refstate-crust.xmf,955,4.63309e-06,-2.13139e-05,0,-5.00377e-05,-9.27454e+08,-9.29234e+08,-9.27771e+08,-3.43259e+06,-0.0323636,-0.715257,-0,0.715989,-4318.98,-33750.6,-0,34025.8,-3.43259e+06
step02_gravity_refstate-crust.xmf,956,4.44716e-08,-1.80094e-05,0,-2.50516e-05,-9.44598e+08,-9.45836e+08,-9.44601e+08,-1.71854e+06,-0.0540887,-0.517481,-0,0.5203,-6189.64,-34361.3,-0,34914.4,-1.71854e+06
step02_gravity_refstate-crust.xmf,957,-2.93621e-06,-8.03034e-06,0,-8.97882e-06,-9.59318e+08,-9.59667e+08,-9.59117e+08,-615947,-0.0521401,-0.266099,-0,0.27116,-11324.1,-34900.6,-0,36691.8,-615947
step02_gravity_refstate-crust.xmf,958,-3.01391e-06,-8.90925e-06,0,-1.0146e-05,-9.58048e+08,-9.58453e+08,-9.57842e+08,-696013,-0.0542251,-0.296537,-0,0.301454,-10401.3,-34852.7,-0,36371.7,-696013
step02_gravity_refstate-crust.xmf,959,-2.64763e-06,-9.7337e-06,0,-1.11508e-05,-9.5034e+08,-9.50826e+08,-9.50159e+08,-764943,-0.0519328,-0.325313,-0,0.329432,-9688.75,-34572.3,-0,35904.3,-764943
step02_gravity_refstate-crust.xmf,960,-2.74157e-06,-7.35876e-06,0,-8.0899e-06,-9.61489e+08,-9.61806e+08,-9.61301e+08,-554967,-0.0506406,-0.240177,-0,0.245457,-12199.4,-34981.5,-0,37047.7,-554967
step02_gravity_refstate-crust.xmf,961,-8.3113e-07,-4.30967e-06,0,-3.7768e-06,-9.26113e+08,-9.26351e+08,-9.26056e+08,-259088,-0.0288866,-0.1053,-0,0.109191,-19517.3,-33706,-0,38948.9,-259088
step02_gravity_refstate-crust.xmf,962,-1.27799e-06,-2.61805e-06,0,-2.29171e-06,-9.33536e+08,-9.33628e+08,-9.33448e+08,-157211,-0.0236771,-0.0369818,-0,0.0439119,-25827.2,-33977.1,-0,42678.9,-157211
step02_gravity_refstate-crust.xmf,963,-9.6239e-07,-3.93726e-06,0,-3.47207e-06,-9.30489e+08,-9.30693e+08,-9.30423e+08,-238184,-0.0287825,-0.0891962,-0,0.093725,-20694.6,-33865.4,-0,39687.9,-238184
step02_gravity_refstate-crust.xmf,964,-1.18096e-06,-2.93719e-06,0,-2.5737e-06,-9.32628e+08,-9.32748e+08,-9.32547e+08,-176556,-0.0252026,-0.0486572,-0,0.0547968,-24468.4,-33943.9,-0,41843.7,-176556
step02_gravity_refstate-crust.xmf,965,-1.11362e-06,-3.24824e-06,0,-2.85645e-06,-9.32967e+08,-9.33113e+08,-9.3289e+08,-195952,-0.0266771,-0.0606881,-0,0.0662927,-23205,-33956.1,-0,41127.7,-195952
step02_gravity_refstate-crust.xmf,966,-1.04716e-06,-3.57562e-06,0,-3.15259e-06,-9.32526e+08,-9.32699e+08,-9.32454e+08,-216268,-0.027918,-0.0739316,-0,0.0790272,-21963.3,-33939.8,-0,40426.4,-216268
step02_gravity_refstate-crust.xmf,967,-1.33618e-06,-4.42187e-06,0,-4.16128e-06,-9.50313e+08,-9.50525e+08,-9.50222e+08,-285464,-0.0350043,-0.111001,-0,0.11639,-18839.3,-34584.8,-0,39383.1,-285464
step02_gravity_refstate-crust.xmf,968,-1.97117e-06,-1.70551e-06,0,-1.56915e-06,-9.83902e+08,-9.83883e+08,-9.83766e+08,-107644,-0.0219179,-0.00692495,-0,0.0229859,-29856.1,-35809.3,-0,46622.9,-107644
step02_gravity_refstate-crust.xmf,969,-2.37119e-06,-9.1192e-07,0,-6.17655e-07,-1.00646e+09,-1.00636e+09,-1.0063e+09,-42371.1,-0.0102881,0.0143377,-0,0.0176469,-35706,-36630.3,-0,51153.6,-42371.1
step02_gravity_refstate-crust.xmf,970,-2.29297e-06,-1.11131e-06,0,-9.27492e-07,-1.00434e+09,-1.00426e+09,-1.00418e+09,-63625.9,-0.0148884,0.00933576,-0,0.0175733,-33689.7,-36553,-0,49710.4,-63625.9
step02_gravity_refstate-crust.xmf,971,-2.19553e-06,-1.38988e-06,0,-1.27485e-06,-1.0024e+09,-1.00235e+09,-1.00225e+09,-87454.8,-0.0194742,0.0019636,-0,0.0195729,-31587.5,-36482.4,-0,48257,-87454.8
step02_gravity_refstate-crust.xmf,972,-2.67865e-06,-6.70782e-07,0,-2.21019e-07,-1.05606e+09,-1.05592e+09,-1.05587e+09,-15161.9,-0.00421214,0.019264,-0,0.0197191,-38430.8,-38435,-0,54352.3,-15161.9
step02_gravity_refstate-crust.xmf,973,-5.90964e-06,4.25582e-06,0,-3.10807e-06,-1.91943e+08,-1.91245e+08,-1.91537e+08,-213214,0.0287446,-0.38318,0,0.384257,-4507.48,-6970.54,-0,8300.96,-213214
step02_gravity_refstate-crust.xmf,974,-6.90363e-06,3.53509e-06,0,-2.06725e-06,-1.14157e+08,-1.13441e+08,-1.13683e+08,-141814,0.0339337,-0.371657,0,0.373203,-4596.77,-4133.54,-0,6181.94,-141814
step02_gravity_refstate-crust.xmf,975,-9.64092e-06,3.66652e-06,0,-4.93399e-08,-915471,-2580.5,-254103,-3384.72,0.0637849,-0.348085,0,0.353881,-5915.08,0,-0,5915.08,-3384.72
step02_gravity_refstate-crust.xmf,976,-8.66616e-06,3.50183e-06,0,-8.97459e-07,-4.21154e+07,-4.12807e+07,-4.15209e+07,-61565.7,0.0446068,-0.36125,0,0.363993,-4796.66,-1503.61,-0,5026.81,-61565.7
step02_gravity_refstate-crust.xmf,977,-1.64216e-05,2.97333e-05,0,9.60227e-07,-6.4422e+08,-6.41054e+08,-6.43094e+08,65871.6,-0.00340399,-0.622759,-0,0.622769,207.742,-23433.1,0,23434,-65871.6
step02_gravity_refstate-crust.xmf,978,-1.53579e-05,2.73167e-05,0,-5.14875e-07,-6.23879e+08,-6.20952e+08,-6.22826e+08,-35320.4,0.00195798,-0.601792,0,0.601796,-127.742,-22693.1,-0,22693.5,-35320.4
step02_gravity_refstate-crust.xmf,979,-1.42137e-05,2.48209e-05,0,-1.76642e-06,-6.02394e+08,-5.99717e+08,-6.01419e+08,-121176,0.00693572,-0.580748,0,0.580789,-487.191,-21911.7,-0,21917.1,-121176
step02_gravity_refstate-crust.xmf,980,-1.92721e-05,3.72275e-05,0,3.58615e-06,-6.98526e+08,-6.9465e+08,-6.97204e+08,246010,-0.0115439,-0.687183,-0,0.68728,596.243,-25410.2,0,25417.2,-246010
step02_gravity_refstate-crust.xmf,981,-1.732e-05,3.20014e-05,0,2.9195e-06,-6.6313e+08,-6.59747e+08,-6.61942e+08,200278,-0.0100484,-0.642806,-0,0.642884,578.093,-24121.4,0,24128.3,-200278
step02_gravity_refstate-crust.xmf,982,-6.53592e-06,8.14206e-06,0,-3.38665e-06,-3.40366e+08,-3.39359e+08,-3.39918e+08,-232324,0.0192328,-0.426415,0,0.426848,-2805.69,-12377.5,-0,12691.5,-232324
step02_gravity_refstate-crust.xmf,983,-1.03335e-05,1.65915e-05,0,-2.08216e-06,-5.04808e+08,-5.02961e+08,-5.04099e+08,-142836,0.00950732,-0.506901,0,0.50699,-913.89,-18361.9,-0,18384.7,-142836
step02_gravity_refstate-crust.xmf,984,-7.13334e-06,9.73307e-06,0,-3.3801e-06,-3.81459e+08,-3.80302e+08,-3.8097e+08,-231875,0.0180601,-0.441887,0,0.442256,-2432.5,-13873.6,-0,14085.2,-231875
step02_gravity_refstate-crust.xmf,985,-7.82295e-06,1.1218e-05,0,-2.82288e-06,-4.11466e+08,-4.1016e+08,-4.1093e+08,-193649,0.0144292,-0.456589,0,0.456817,-1802.4,-14965.6,-0,15073.7,-193649
step02_gravity_refstate-crust.xmf,986,-1.98454e-05,3.94777e-05,0,6.17453e-06,-7.15657e+08,-7.11588e+08,-7.14296e+08,423573,-0.0191099,-0.708124,-0,0.708382,947.666,-26035,0,26052.3,-423573
step02_gravity_refstate-crust.xmf,987,-2.01571e-05,4.15542e-05,0,8.89647e-06,-7.32122e+08,-7.27888e+08,-7.30739e+08,610298,-0.0265542,-0.728031,-0,0.728515,1276.83,-26636.4,0,26667,-610298
step02_gravity_refstate-crust.xmf,988,-2.01882e-05,4.3422e-05,0,1.17957e-05,-7.48175e+08,-7.43812e+08,-7.46791e+08,809184,-0.0338446,-0.746912,-0,0.747678,1594.48,-27223.6,0,27270.3,-809184
step02_gravity_refstate-crust.xmf,989,-2.13183e-05,5.2268e-05,0,1.05924e-05,-7.89976e+08,-7.84928e+08,-7.88513e+08,726636,-0.0275309,-0.827526,-0,0.827984,1257.82,-28754.5,0,28782,-726636
step02_gravity_refstate-crust.xmf,990,-2.08499e-05,4.88924e-05,0,1.27897e-05,-7.77224e+08,-7.7244e+08,-7.75794e+08,877374,-0.0342075,-0.796523,-0,0.797257,1569.34,-28287,0,28330.5,-877374
step02_gravity_refstate-crust.xmf,991,-2.0615e-05,5.36577e-05,0,1.32145e-05,-8.01458e+08,-7.96363e+08,-8.00044e+08,906511,-0.0327901,-0.84326,-0,0.843898,1527.09,-29177.6,0,29217.5,-906511
step02_gravity_refstate-crust.xmf,992,-1.96581e-05,5.80246e-05,0,1.36868e-05,-8.23757e+08,-8.18428e+08,-8.22408e+08,938917,-0.0306283,-0.889957,-0,0.890484,1498.34,-30000,0,30037.4,-938917
step02_gravity_refstate-crust.xmf,993,1.83377e-06,-2.10026e-05,0,-3.06929e-05,-9.43055e+08,-9.44622e+08,-9.43181e+08,-2.10553e+06,-0.0521577,-0.567465,-0,0.569857,-5593,-34307.8,-0,34760.7,-2.10553e+06
step02_gravity_refstate-crust.xmf,994,6.11515e-06,-2.52514e-05,0,-5.57157e-05,-9.343e+08,-9.36452e+08,-9.3472e+08,-3.8221e+06,-0.037128,-0.751442,-0,0.752358,-4000,-33999.8,-0,34234.3,-3.8221e+06
step02_gravity_refstate-crust.xmf,995,5.9199e-06,-2.69325e-05,0,-4.71551e-05,-9.41428e+08,-9.43682e+08,-9.41834e+08,-3.23484e+06,-0.0464446,-0.687931,-0,0.689497,-4441.26,-34255.9,-0,34542.6,-3.23484e+06
step02_gravity_refstate-crust.xmf,996,3.86763e-06,-2.40983e-05,0,-3.77843e-05,-9.42162e+08,-9.4408e+08,-9.42427e+08,-2.592e+06,-0.0498195,-0.6226,-0,0.62459,-5021.7,-34278.7,-0,34644.6,-2.592e+06
step02_gravity_refstate-crust.xmf,997,-1.48451e-06,-1.92489e-05,0,-2.39954e-05,-9.58391e+08,-9.59609e+08,-9.58289e+08,-1.64609e+06,-0.0662133,-0.498558,-0,0.502935,-6320.26,-34855.4,-0,35423.7,-1.64609e+06
step02_gravity_refstate-crust.xmf,998,-3.5058e-06,-1.58701e-05,0,-1.93476e-05,-9.66212e+08,-9.6706e+08,-9.65972e+08,-1.32725e+06,-0.0700537,-0.436777,-0,0.44236,-7201.19,-35137.2,-0,35867.5,-1.32725e+06
step02_gravity_refstate-crust.xmf,999,-3.94466e-06,-1.06432e-05,0,-1.27588e-05,-9.6726e+08,-9.6772e+08,-9.6699e+08,-875252,-0.0629736,-0.335916,-0,0.341768,-9265.66,-35181.6,-0,36381.3,-875252
step02_gravity_refstate-crust.xmf,1000,-3.9543e-06,-1.19912e-05,0,-1.45203e-05,-9.6631e+08,-9.66862e+08,-9.66039e+08,-996094,-0.0651794,-0.367195,-0,0.372935,-8548.3,-35144.9,-0,36169.6,-996094
step02_gravity_refstate-crust.xmf,1001,-3.80169e-06,-1.3701e-05,0,-1.67091e-05,-9.656e+08,-9.66279e+08,-9.65339e+08,-1.14624e+06,-0.0673486,-0.40141,-0,0.40702,-7851.03,-35117,-0,35984,-1.14624e+06
step02_gravity_refstate-crust.xmf,1002,-2.63091e-06,-6.76172e-06,0,-7.39707e-06,-9.64889e+08,-9.65172e+08,-9.64709e+08,-507439,-0.0495292,-0.215963,-0,0.22157,-13099.4,-35106.6,-0,37470.9,-507439
step02_gravity_refstate-crust.xmf,1003,-1.94259e-06,-4.89892e-06,0,-5.06825e-06,-9.71439e+08,-9.71642e+08,-9.71305e+08,-347682,-0.0422134,-0.131868,-0,0.138459,-17238.6,-35350.8,-0,39330,-347682
step02_gravity_refstate-crust.xmf,1004,-2.12377e-06,-5.28802e-06,0,-5.58433e-06,-9.71158e+08,-9.71375e+08,-9.71012e+08,-383085,-0.0442582,-0.15018,-0,0.156566,-16168.9,-35339.2,-0,38862.5,-383085
step02_gravity_refstate-crust.xmf,1005,-2.31817e-06,-5.71854e-06,0,-6.1372e-06,-9.69606e+08,-9.69839e+08,-9.69447e+08,-421012,-0.0461327,-0.170488,-0,0.17662,-15109.3,-35281.2,-0,38380.4,-421012
step02_gravity_refstate-crust.xmf,1006,-2.54307e-06,-6.19996e-06,0,-6.76671e-06,-9.68117e+08,-9.68368e+08,-9.67943e+08,-464196,-0.0481298,-0.192518,-0,0.198444,-14072.9,-35225.4,-0,37932.5,-464196
step02_gravity_refstate-crust.xmf,1007,-1.78636e-06,-4.58524e-06,0,-4.63832e-06,-9.70509e+08,-9.70701e+08,-9.70386e+08,-318189,-0.0402961,-0.117312,-0,0.12404,-18182.6,-35318,-0,39723.7,-318189
step02_gravity_refstate-crust.xmf,1008,-1.85047e-06,-2.03205e-06,0,-1.89484e-06,-9.78798e+08,-9.7881e+08,-9.78671e+08,-129986,-0.0247919,-0.0169186,-0,0.0300146,-28130.8,-35623.5,-0,45391.4,-129986
step02_gravity_refstate-crust.xmf,1009,-1.73134e-06,-2.38327e-06,0,-2.23179e-06,-9.73977e+08,-9.74022e+08,-9.73858e+08,-153101,-0.0272884,-0.028419,-0,0.0393992,-26467.2,-35447.9,-0,44238.8,-153101
step02_gravity_refstate-crust.xmf,1010,-2.25025e-06,-1.61291e-06,0,-1.57538e-06,-1.0244e+09,-1.02436e+09,-1.02425e+09,-108071,-0.0240427,-0.00347328,-0,0.0242923,-30061.2,-37282.8,-0,47892.4,-108071
step02_gravity_refstate-crust.xmf,1011,-2.64496e-06,-7.57931e-07,0,-4.75972e-07,-1.05136e+09,-1.05123e+09,-1.05118e+09,-32651.7,-0.00873923,0.0173775,-0,0.0194513,-36704.5,-38264.1,-0,53022.3,-32651.7
step02_gravity_refstate-crust.xmf,1012,-6.09526e-06,6.00385e-06,0,-2.7865e-06,-2.6486e+08,-2.6403e+08,-2.64441e+08,-191154,0.0191496,-0.405988,0,0.406439,-3016.03,-9627.11,-0,10088.5,-191154
step02_gravity_refstate-crust.xmf,1013,-5.95358e-06,5.06817e-06,0,-2.95215e-06,-2.28067e+08,-2.27311e+08,-2.27659e+08,-202517,0.0231531,-0.394758,0,0.395436,-3681.56,-8286.78,-0,9067.78,-202517
step02_gravity_refstate-crust.xmf,1014,-6.53679e-06,3.97272e-06,0,-2.15464e-06,-1.53106e+08,-1.52385e+08,-1.52658e+08,-147808,0.0253868,-0.382389,0,0.383231,-3711.72,-5553.68,-0,6679.84,-147808
step02_gravity_refstate-crust.xmf,1015,-7.89015e-06,3.55335e-06,0,-1.288e-06,-8.07778e+07,-7.99928e+07,-8.02365e+07,-88357,0.0309846,-0.37231,0,0.373597,-3764.89,-2914.38,-0,4761.09,-88357
step02_gravity_refstate-crust.xmf,1016,-1.20707e-05,2.02851e-05,0,-2.35985e-06,-5.54088e+08,-5.51868e+08,-5.5326e+08,-161885,0.00990209,-0.540165,0,0.540256,-816.081,-20154.7,-0,20171.2,-161885
step02_gravity_refstate-crust.xmf,1017,-1.80292e-05,3.41398e-05,0,5.24566e-06,-6.81446e+08,-6.77868e+08,-6.8021e+08,359853,-0.017433,-0.662295,-0,0.662524,952.169,-24788.7,0,24806.9,-359853
step02_gravity_refstate-crust.xmf,1018,-6.40496e-06,7.08363e-06,0,-2.39339e-06,-2.99734e+08,-2.98809e+08,-2.99295e+08,-164187,0.0148712,-0.417953,0,0.418218,-2265.63,-10897.2,-0,11130.2,-164187
step02_gravity_refstate-crust.xmf,1019,-1.12306e-05,1.84179e-05,0,-9.71996e-07,-5.28169e+08,-5.26135e+08,-5.27399e+08,-66678.9,0.00421152,-0.523118,0,0.523135,-375.472,-19211.6,-0,19215.3,-66678.9
step02_gravity_refstate-crust.xmf,1020,-8.563e-06,1.27923e-05,0,-2.15751e-06,-4.40276e+08,-4.38811e+08,-4.39688e+08,-148005,0.0106303,-0.471524,0,0.471644,-1228.18,-16013.8,-0,16060.9,-148005
step02_gravity_refstate-crust.xmf,1021,-9.52606e-06,1.47795e-05,0,-1.37893e-06,-4.73924e+08,-4.72256e+08,-4.7327e+08,-94594.5,0.00657082,-0.489936,0,0.48998,-689.574,-17238,-0,17251.8,-94594.5
step02_gravity_refstate-crust.xmf,1022,-1.99216e-05,4.5041e-05,0,1.47862e-05,-7.63449e+08,-7.58992e+08,-7.62082e+08,1.01433e+06,-0.0406228,-0.763998,-0,0.765078,1897.6,-27783.2,0,27848,-1.01433e+06
step02_gravity_refstate-crust.xmf,1023,-1.96954e-05,5.49646e-05,0,1.57922e-05,-8.12797e+08,-8.07675e+08,-8.11446e+08,1.08335e+06,-0.0369257,-0.858502,-0,0.859296,1769.46,-29596.1,0,29648.9,-1.08335e+06
step02_gravity_refstate-crust.xmf,1024,-1.73288e-07,-2.18275e-05,0,-2.74351e-05,-9.57648e+08,-9.59134e+08,-9.57636e+08,-1.88205e+06,-0.0659892,-0.53531,-0,0.539362,-5841.02,-34829.6,-0,35316,-1.88205e+06
step02_gravity_refstate-crust.xmf,1025,-3.12977e-06,-1.84494e-05,0,-2.21332e-05,-9.68813e+08,-9.69864e+08,-9.68599e+08,-1.51834e+06,-0.0736581,-0.468619,-0,0.474373,-6656.77,-35229.4,-0,35852.8,-1.51834e+06
step02_gravity_refstate-crust.xmf,1026,-3.82718e-06,-7.82895e-06,0,-9.41154e-06,-9.80868e+08,-9.81143e+08,-9.80606e+08,-645631,-0.0595936,-0.248927,-0,0.255961,-11695.7,-35681.9,-0,37549.8,-645631
step02_gravity_refstate-crust.xmf,1027,-4.13614e-06,-8.6435e-06,0,-1.04708e-05,-9.79253e+08,-9.79563e+08,-9.7897e+08,-718294,-0.0622748,-0.274996,-0,0.281959,-10846.3,-35620.6,-0,37235.3,-718294
step02_gravity_refstate-crust.xmf,1028,-3.71135e-06,-9.72454e-06,0,-1.14953e-05,-9.65204e+08,-9.65616e+08,-9.64949e+08,-788578,-0.0597863,-0.31465,-0,0.32028,-9831.22,-35109.1,-0,36459.6,-788578
step02_gravity_refstate-crust.xmf,1029,-3.51021e-06,-7.21285e-06,0,-8.57132e-06,-9.8313e+08,-9.83384e+08,-9.82889e+08,-587993,-0.0574022,-0.226117,-0,0.233289,-12513.5,-35766.5,-0,37892.3,-587993
step02_gravity_refstate-crust.xmf,1030,-1.46926e-06,-4.05302e-06,0,-3.87465e-06,-9.59224e+08,-9.59401e+08,-9.59123e+08,-265801,-0.0352385,-0.0941643,-0,0.100542,-19974.2,-34909.3,-0,40219.7,-265801
step02_gravity_refstate-crust.xmf,1031,-1.61831e-06,-2.72906e-06,0,-2.55176e-06,-9.68722e+08,-9.68798e+08,-9.68611e+08,-175051,-0.0291685,-0.0404626,-0,0.0498801,-24983.3,-35256.5,-0,43211,-175051
step02_gravity_refstate-crust.xmf,1032,-1.50216e-06,-3.68824e-06,0,-3.51065e-06,-9.62988e+08,-9.63138e+08,-9.62885e+08,-240831,-0.034064,-0.0781685,-0,0.0852683,-21237.5,-35046.8,-0,40979.3,-240831
step02_gravity_refstate-crust.xmf,1033,-1.55988e-06,-3.0211e-06,0,-2.83196e-06,-9.6629e+08,-9.6639e+08,-9.66183e+08,-194272,-0.0307481,-0.0513182,-0,0.0598248,-23780.4,-35167.8,-0,42453.3,-194272
step02_gravity_refstate-crust.xmf,1034,-1.5251e-06,-3.34405e-06,0,-3.15881e-06,-9.648e+08,-9.64925e+08,-9.64695e+08,-216695,-0.0324642,-0.0639884,-0,0.0717526,-22508.9,-35113.2,-0,41708.3,-216695
step02_gravity_refstate-crust.xmf,1035,-2.23519e-06,-4.71904e-06,0,-5.19137e-06,-9.96175e+08,-9.96346e+08,-9.96022e+08,-356128,-0.0457475,-0.117711,-0,0.126288,-17866.6,-36250.4,-0,40414.2,-356128
step02_gravity_refstate-crust.xmf,1036,-1.95719e-06,-4.29534e-06,0,-4.48572e-06,-9.86504e+08,-9.86664e+08,-9.8637e+08,-307721,-0.0415832,-0.101539,-0,0.109724,-19106.3,-35900.1,-0,40667.8,-307721
step02_gravity_refstate-crust.xmf,1037,-2.16951e-06,-1.8776e-06,0,-1.85428e-06,-1.02049e+09,-1.02047e+09,-1.02034e+09,-127203,-0.0268508,-0.0108096,-0,0.028945,-28670.5,-37140.3,-0,46919.1,-127203
step02_gravity_refstate-crust.xmf,1038,-2.59328e-06,-9.25347e-07,0,-7.85324e-07,-1.05224e+09,-1.05213e+09,-1.05206e+09,-53873.2,-0.0140094,0.0137084,-0,0.0196006,-34686.5,-38296,-0,51669.5,-53873.2
step02_gravity_refstate-crust.xmf,1039,-2.5162e-06,-1.16196e-06,0,-1.10802e-06,-1.05141e+09,-1.05132e+09,-1.05124e+09,-76010.5,-0.018917,0.00838411,-0,0.0206917,-32741.2,-38265.7,-0,50361.2,-76010.5
step02_gravity_refstate-crust.xmf,1040,-2.45179e-06,-1.4416e-06,0,-1.44525e-06,-1.05577e+09,-1.0557e+09,-1.0556e+09,-99143.9,-0.0235468,0.00206848,-0,0.0236375,-30930.4,-38424.2,-0,49326.5,-99143.9
step02_gravity_refstate-crust.xmf,1041,-6.35644e-06,4.56467e-06,0,-2.02559e-06,-1.89792e+08,-1.89043e+08,-1.89356e+08,-138956,0.0186184,-0.392505,0,0.392946,-2847.33,-6890.92,-0,7456.01,-138956
step02_gravity_refstate-crust.xmf,1042,-7.31357e-06,3.77359e-06,0,-1.35284e-06,-1.15835e+08,-1.15075e+08,-1.15334e+08,-92804.8,0.021689,-0.381192,0,0.381808,-2891.74,-4193.35,-0,5093.76,-92804.8
step02_gravity_refstate-crust.xmf,1043,-1.06142e-05,4.03492e-06,0,-4.49792e-08,-1.00797e+06,-3036.39,-279832,-3085.58,0.0438323,-0.360586,0,0.363241,-3942.22,0,-0,3942.22,-3085.58
step02_gravity_refstate-crust.xmf,1044,-9.27759e-06,3.7466e-06,0,-5.53301e-07,-4.23791e+07,-4.14857e+07,-4.17427e+07,-37956.4,0.0276786,-0.371184,0,0.372215,-2913.14,-1511.12,-0,3281.75,-37956.4
step02_gravity_refstate-crust.xmf,1045,-1.60906e-05,2.93105e-05,0,4.44079e-06,-6.45443e+08,-6.42328e+08,-6.44339e+08,304638,-0.0158702,-0.620657,-0,0.62086,972.183,-23478.3,0,23498.4,-304638
step02_gravity_refstate-crust.xmf,1046,-1.53393e-05,2.74467e-05,0,2.58087e-06,-6.26991e+08,-6.24056e+08,-6.25938e+08,177048,-0.00953955,-0.60365,-0,0.603725,618.072,-22806.7,0,22815,-177048
step02_gravity_refstate-crust.xmf,1047,-1.32034e-05,2.261e-05,0,-6.93948e-07,-5.78124e+08,-5.75667e+08,-5.77218e+08,-47604.9,0.00275761,-0.560394,0,0.560401,-209.42,-21028.8,-0,21029.8,-47604.9
step02_gravity_refstate-crust.xmf,1048,-1.42631e-05,2.48601e-05,0,1.53293e-06,-6.02694e+08,-6.0001e+08,-6.01715e+08,105159,-0.00577987,-0.581237,-0,0.581266,405.122,-21922.4,0,21926.2,-105159
step02_gravity_refstate-crust.xmf,1049,-1.85179e-05,3.61789e-05,0,7.81823e-06,-6.9927e+08,-6.95518e+08,-6.98e+08,536331,-0.0250894,-0.681098,-0,0.68156,1310.91,-25438.7,0,25472.5,-536331
step02_gravity_refstate-crust.xmf,1050,-1.66769e-05,3.11174e-05,0,6.59204e-06,-6.63945e+08,-6.60666e+08,-6.62801e+08,452214,-0.0227448,-0.637798,-0,0.638203,1322.43,-24152.3,0,24188.5,-452214
step02_gravity_refstate-crust.xmf,1051,-6.80276e-06,8.20784e-06,0,-1.73576e-06,-3.30325e+08,-3.29295e+08,-3.29858e+08,-119073,0.00993607,-0.429504,0,0.429619,-1446.22,-12011,-0,12097.8,-119073
step02_gravity_refstate-crust.xmf,1052,-1.03708e-05,1.65377e-05,0,1.45299e-07,-5.01237e+08,-4.99391e+08,-5.00526e+08,9967.51,-0.000582086,-0.50629,-0,0.50629,56.2454,-18231.7,0,18231.8,-9967.51
step02_gravity_refstate-crust.xmf,1053,-7.04648e-06,9.10457e-06,0,-2.23323e-06,-3.58704e+08,-3.57596e+08,-3.58221e+08,-153200,0.0122254,-0.437567,0,0.437738,-1703.47,-13044.6,-0,13155.3,-153200
step02_gravity_refstate-crust.xmf,1054,-7.54039e-06,1.02849e-05,0,-1.69244e-06,-3.85111e+08,-3.83888e+08,-3.84594e+08,-116101,0.00898936,-0.448629,0,0.448719,-1182.91,-14005.8,-0,14055.6,-116101
step02_gravity_refstate-crust.xmf,1055,-8.13235e-06,1.1636e-05,0,-9.33188e-07,-4.13472e+08,-4.12116e+08,-4.12914e+08,-64016.7,0.00478461,-0.461252,0,0.461276,-588.24,-15038,-0,15049.5,-64016.7
step02_gravity_refstate-crust.xmf,1056,-1.87631e-05,3.78608e-05,0,1.05534e-05,-7.16247e+08,-7.12363e+08,-7.1496e+08,723961,-0.0325283,-0.6987,-0,0.699457,1640.53,-26058.4,0,26110,-723961
step02_gravity_refstate-crust.xmf,1057,-1.87747e-05,3.9428e-05,0,1.3412e-05,-7.32783e+08,-7.2879e+08,-7.31495e+08,920063,-0.0396841,-0.715421,-0,0.716521,1948.71,-26662.8,0,26733.9,-920063
step02_gravity_refstate-crust.xmf,1058,-1.85369e-05,4.07922e-05,0,1.63917e-05,-7.4881e+08,-7.4474e+08,-7.47539e+08,1.12447e+06,-0.0463726,-0.730964,-0,0.732434,2239.13,-27249.4,0,27341.2,-1.12447e+06
step02_gravity_refstate-crust.xmf,1059,-2.02509e-05,5.02964e-05,0,1.54596e-05,-7.89978e+08,-7.85138e+08,-7.88589e+08,1.06053e+06,-0.0394907,-0.812236,-0,0.813195,1833.4,-28755.9,0,28814.3,-1.06053e+06
step02_gravity_refstate-crust.xmf,1060,-1.9437e-05,4.63988e-05,0,1.76052e-05,-7.77393e+08,-7.72877e+08,-7.7606e+08,1.20772e+06,-0.0461352,-0.779006,-0,0.780371,2161.54,-28295,0,28377.4,-1.20772e+06
step02_gravity_refstate-crust.xmf,1061,-1.86011e-05,5.61868e-05,0,1.84545e-05,-8.23717e+08,-8.18587e+08,-8.22441e+08,1.26598e+06,-0.0401773,-0.872483,-0,0.873408,1997.54,-30000,0,30066.4,-1.26598e+06
step02_gravity_refstate-crust.xmf,1062,-1.93806e-05,5.14724e-05,0,1.8119e-05,-8.01619e+08,-7.96759e+08,-8.0029e+08,1.24296e+06,-0.0439271,-0.825289,-0,0.826457,2084.75,-29185,0,29259.4,-1.24296e+06
step02_gravity_refstate-crust.xmf,1063,-2.26846e-06,-2.19626e-05,0,-2.55656e-05,-9.71117e+08,-9.72468e+08,-9.70961e+08,-1.7538e+06,-0.0768752,-0.506105,-0,0.51191,-6084.73,-35311.3,-0,35831.7,-1.7538e+06
step02_gravity_refstate-crust.xmf,1064,2.34888e-06,-2.61173e-05,0,-3.30374e-05,-9.56784e+08,-9.58736e+08,-9.56945e+08,-2.26637e+06,-0.0647454,-0.583848,-0,0.587427,-5283.53,-34801.7,-0,35200.5,-2.26637e+06
step02_gravity_refstate-crust.xmf,1065,7.87821e-06,-3.18919e-05,0,-5.48753e-05,-9.48095e+08,-9.50823e+08,-9.48635e+08,-3.76445e+06,-0.049823,-0.737182,-0,0.738864,-4000,-34498.8,-0,34729.9,-3.76445e+06
step02_gravity_refstate-crust.xmf,1066,5.38733e-06,-3.06917e-05,0,-4.04668e-05,-9.55945e+08,-9.5842e+08,-9.56314e+08,-2.77602e+06,-0.0621165,-0.638659,-0,0.641672,-4740.42,-34776.4,-0,35098,-2.77602e+06
step02_gravity_refstate-crust.xmf,1067,-4.5465e-06,-1.85072e-05,0,-2.17017e-05,-9.82745e+08,-9.83703e+08,-9.82433e+08,-1.48873e+06,-0.0820907,-0.446696,-0,0.454176,-6860.2,-35730.8,-0,36383.4,-1.48873e+06
step02_gravity_refstate-crust.xmf,1068,-4.39693e-06,-9.56565e-06,0,-1.17252e-05,-9.80775e+08,-9.8113e+08,-9.80473e+08,-804346,-0.0660617,-0.299796,-0,0.306988,-10090.2,-35673.5,-0,37073,-804346
step02_gravity_refstate-crust.xmf,1069,-4.90742e-06,-1.57883e-05,0,-1.89758e-05,-9.82388e+08,-9.83135e+08,-9.82052e+08,-1.30174e+06,-0.0790514,-0.411632,-0,0.419154,-7486.37,-35720.5,-0,36496.6,-1.30174e+06
step02_gravity_refstate-crust.xmf,1070,-4.86643e-06,-1.07152e-05,0,-1.32413e-05,-9.83163e+08,-9.83564e+08,-9.82829e+08,-908350,-0.0700272,-0.322926,-0,0.330431,-9438.62,-35756.8,-0,36981.5,-908350
step02_gravity_refstate-crust.xmf,1071,-5.06038e-06,-1.20212e-05,0,-1.48221e-05,-9.83907e+08,-9.84385e+08,-9.8356e+08,-1.0168e+06,-0.0734207,-0.348384,-0,0.356037,-8801.77,-35781,-0,36847.7,-1.0168e+06
step02_gravity_refstate-crust.xmf,1072,-5.06933e-06,-1.36584e-05,0,-1.66746e-05,-9.82994e+08,-9.83583e+08,-9.82646e+08,-1.14388e+06,-0.0761967,-0.378235,-0,0.385834,-8145.43,-35745.2,-0,36661.5,-1.14388e+06
step02_gravity_refstate-crust.xmf,1073,-4.26881e-06,-7.79917e-06,0,-9.95713e-06,-1.00157e+09,-1.00181e+09,-1.00127e+09,-683059,-0.0643475,-0.233309,-0,0.24202,-12048.9,-36433.7,-0,38374.3,-683059
step02_gravity_refstate-crust.xmf,1074,-3.5058e-06,-6.66685e-06,0,-8.13905e-06,-9.9402e+08,-9.94237e+08,-9.93779e+08,-558339,-0.0572771,-0.200958,-0,0.208961,-13431.5,-36163.8,-0,38577.5,-558339
step02_gravity_refstate-crust.xmf,1075,-2.48897e-06,-5.14627e-06,0,-5.84478e-06,-9.96899e+08,-9.97081e+08,-9.96728e+08,-400952,-0.0485896,-0.136339,-0,0.144739,-16685.6,-36275.1,-0,39928.6,-400952
step02_gravity_refstate-crust.xmf,1076,-2.77206e-06,-5.59429e-06,0,-6.52336e-06,-9.9619e+08,-9.96384e+08,-9.96e+08,-447503,-0.0512874,-0.156068,-0,0.164279,-15575.2,-36247.4,-0,39452,-447503
step02_gravity_refstate-crust.xmf,1077,-3.09769e-06,-6.078e-06,0,-7.24776e-06,-9.94796e+08,-9.95e+08,-9.94583e+08,-497197,-0.0540139,-0.177197,-0,0.185247,-14511.6,-36194.6,-0,38995.3,-497197
step02_gravity_refstate-crust.xmf,1078,-1.97077e-06,-2.58247e-06,0,-2.57619e-06,-1.01001e+09,-1.01005e+09,-1.00987e+09,-176727,-0.0325666,-0.0324835,-0,0.0459974,-25483.5,-36758.3,-0,44727.9,-176727
step02_gravity_refstate-crust.xmf,1079,-2.08449e-06,-2.20445e-06,0,-2.19426e-06,-1.01638e+09,-1.01639e+09,-1.01624e+09,-150526,-0.0298323,-0.0204539,-0,0.0361708,-27111.4,-36990.4,-0,45861.9,-150526
step02_gravity_refstate-crust.xmf,1080,-2.3825e-06,-1.75813e-06,0,-1.79449e-06,-1.05944e+09,-1.0594e+09,-1.05928e+09,-123102,-0.0277076,-0.0051553,-0,0.0281831,-29261.7,-38557.7,-0,48404,-123102
step02_gravity_refstate-crust.xmf,1081,-6.38021e-06,6.28308e-06,0,-1.5107e-06,-2.64093e+08,-2.63224e+08,-2.63655e+08,-103634,0.010395,-0.41169,0,0.411821,-1612.51,-9598.47,-0,9732.98,-103634
step02_gravity_refstate-crust.xmf,1082,-6.32869e-06,5.34329e-06,0,-1.61828e-06,-2.25386e+08,-2.24586e+08,-2.24952e+08,-111014,0.0127205,-0.402367,0,0.402568,-1980.88,-8188.08,-0,8424.29,-111014
step02_gravity_refstate-crust.xmf,1083,-6.88098e-06,4.1714e-06,0,-1.22041e-06,-1.52057e+08,-1.51299e+08,-1.51585e+08,-83720.2,0.0144253,-0.389505,0,0.389772,-2071.29,-5514.41,-0,5890.58,-83720.2
step02_gravity_refstate-crust.xmf,1084,-8.28744e-06,3.73607e-06,0,-6.777e-07,-8.01655e+07,-7.93407e+07,-7.9597e+07,-46490.2,0.0164208,-0.379615,0,0.37997,-1959.31,-2890.76,-0,3492.19,-46490.2
step02_gravity_refstate-crust.xmf,1085,-1.21527e-05,2.03673e-05,0,5.43171e-07,-5.52482e+08,-5.50252e+08,-5.51649e+08,37261.6,-0.00231522,-0.540447,-0,0.540452,191.103,-20096,0,20097,-37261.6
step02_gravity_refstate-crust.xmf,1086,-1.70313e-05,3.27289e-05,0,9.12953e-06,-6.82212e+08,-6.78798e+08,-6.81043e+08,626285,-0.0303612,-0.654224,-0,0.654928,1686.15,-24818.4,0,24875.6,-626285
step02_gravity_refstate-crust.xmf,1087,-6.61821e-06,7.27769e-06,0,-9.86866e-07,-2.9811e+08,-2.97157e+08,-2.97656e+08,-67699,0.00616859,-0.421686,0,0.421731,-930.605,-10837.5,-0,10877.4,-67699
step02_gravity_refstate-crust.xmf,1088,-1.11367e-05,1.82748e-05,0,1.6229e-06,-5.26955e+08,-5.24938e+08,-5.26191e+08,111331,-0.00712827,-0.521757,-0,0.521806,638.906,-19167.6,0,19178.2,-111331
step02_gravity_refstate-crust.xmf,1089,-8.81435e-06,1.3161e-05,0,-3.77123e-08,-4.43532e+08,-4.42025e+08,-4.42928e+08,-2587.07,0.00025669,-0.475267,0,0.475267,-29.148,-16132,-0,16132,-2587.07
step02_gravity_refstate-crust.xmf,1090,-9.5106e-06,1.47278e-05,0,1.13394e-06,-4.72967e+08,-4.71305e+08,-4.72315e+08,77788.2,-0.00526673,-0.4897,-0,0.489728,553.867,-17203.2,0,17212.1,-77788.2
step02_gravity_refstate-crust.xmf,1091,-1.80921e-05,4.20088e-05,0,1.93401e-05,-7.63827e+08,-7.59704e+08,-7.62586e+08,1.32673e+06,-0.0520867,-0.744902,-0,0.746721,2499.7,-27799.7,0,27911.9,-1.32673e+06
step02_gravity_refstate-crust.xmf,1092,-1.83365e-05,5.26369e-05,0,2.05936e-05,-8.1293e+08,-8.08061e+08,-8.11672e+08,1.41272e+06,-0.0467519,-0.838672,-0,0.839974,2287.31,-29602.9,0,29691.1,-1.41272e+06
step02_gravity_refstate-crust.xmf,1093,-5.97478e-07,-2.59677e-05,0,-2.93215e-05,-9.71413e+08,-9.73153e+08,-9.71372e+08,-2.01145e+06,-0.0778888,-0.54755,-0,0.553062,-5543.09,-35322.6,-0,35754.9,-2.01145e+06
step02_gravity_refstate-crust.xmf,1094,7.4231e-06,-3.37778e-05,0,-4.80364e-05,-9.55245e+08,-9.58072e+08,-9.55755e+08,-3.29529e+06,-0.0588208,-0.689188,-0,0.691693,-4306.97,-34754.4,-0,35020.2,-3.29529e+06
step02_gravity_refstate-crust.xmf,1095,-4.01675e-06,-2.16858e-05,0,-2.45973e-05,-9.84364e+08,-9.85577e+08,-9.84089e+08,-1.68738e+06,-0.0852499,-0.479544,-0,0.487063,-6318.27,-35786.9,-0,36340.4,-1.68738e+06
step02_gravity_refstate-crust.xmf,1096,-4.67129e-06,-8.57958e-06,0,-1.10162e-05,-1.0004e+09,-1.00067e+09,-1.00008e+09,-755714,-0.0676048,-0.256572,-0,0.265329,-11231.9,-36388.4,-0,38082.4,-755714
step02_gravity_refstate-crust.xmf,1097,-5.07045e-06,-9.59449e-06,0,-1.23131e-05,-9.99687e+08,-9.99998e+08,-9.99339e+08,-844676,-0.0712862,-0.28227,-0,0.291132,-10412.1,-36359.2,-0,37820.7,-844676
step02_gravity_refstate-crust.xmf,1098,-3.93038e-06,-7.23265e-06,0,-9.14817e-06,-1.00142e+09,-1.00165e+09,-1.00115e+09,-627565,-0.0615485,-0.215594,-0,0.224207,-12740.2,-36430.7,-0,38594.1,-627565
step02_gravity_refstate-crust.xmf,1099,-1.89629e-06,-3.88897e-06,0,-4.01069e-06,-9.92183e+08,-9.9232e+08,-9.92053e+08,-275133,-0.0398687,-0.0829243,-0,0.0920106,-20493.7,-36107.7,-0,41518.2,-275133
step02_gravity_refstate-crust.xmf,1100,-1.83979e-06,-2.86248e-06,0,-2.81757e-06,-9.97656e+08,-9.97726e+08,-9.9753e+08,-193285,-0.0335471,-0.0430585,-0,0.0545842,-24329.1,-36308.8,-0,43706.2,-193285
step02_gravity_refstate-crust.xmf,1101,-1.87682e-06,-3.52037e-06,0,-3.58891e-06,-9.96744e+08,-9.96857e+08,-9.96615e+08,-246199,-0.0380614,-0.0673786,-0,0.0773857,-21808.9,-36274.4,-0,42325.7,-246199
step02_gravity_refstate-crust.xmf,1102,-1.8857e-06,-3.15169e-06,0,-3.17568e-06,-1.00034e+09,-1.00043e+09,-1.00021e+09,-217852,-0.0359707,-0.0531648,-0,0.0641902,-23176.1,-36405.9,-0,43157,-217852
step02_gravity_refstate-crust.xmf,1103,-2.56616e-06,-5.08338e-06,0,-5.99868e-06,-1.02129e+09,-1.02146e+09,-1.02111e+09,-411509,-0.0508155,-0.12179,-0,0.131966,-17306.5,-37162.8,-0,40995,-411509
step02_gravity_refstate-crust.xmf,1104,-2.3176e-06,-4.57938e-06,0,-5.18762e-06,-1.01786e+09,-1.01802e+09,-1.0177e+09,-355871,-0.0472934,-0.103374,-0,0.113678,-18604.7,-37039.8,-0,41449.7,-355871
step02_gravity_refstate-crust.xmf,1105,-2.29933e-06,-2.15104e-06,0,-2.21723e-06,-1.06068e+09,-1.06067e+09,-1.06052e+09,-152102,-0.0318895,-0.0146351,-0,0.0350875,-27483.7,-38602.4,-0,47386.7,-152102
step02_gravity_refstate-crust.xmf,1106,-6.61051e-06,4.73428e-06,0,-8.59688e-07,-1.88188e+08,-1.87409e+08,-1.87734e+08,-58974.6,0.00778748,-0.397667,0,0.397743,-1174.46,-6831.74,-0,6931.96,-58974.6
step02_gravity_refstate-crust.xmf,1107,-7.50557e-06,3.90886e-06,0,-6.74564e-07,-1.16975e+08,-1.16192e+08,-1.1646e+08,-46275.1,0.0104171,-0.386172,0,0.386313,-1377.88,-4234.27,-0,4452.81,-46275.1
step02_gravity_refstate-crust.xmf,1108,-1.12217e-05,4.26095e-06,0,-4.13069e-08,-1.06586e+06,-3751.2,-296052,-2833.66,0.0223211,-0.368315,0,0.368991,-1971.11,0,-0,1971.11,-2833.66
step02_gravity_refstate-crust.xmf,1109,-9.52374e-06,3.85566e-06,0,-1.62997e-07,-4.43955e+07,-4.34776e+07,-4.37421e+07,-11181.6,0.00935777,-0.376716,0,0.376832,-981.67,-1583.7,-0,1863.27,-11181.6
step02_gravity_refstate-crust.xmf,1110,-1.48766e-05,2.68389e-05,0,5.71399e-06,-6.28892e+08,-6.2603e+08,-6.27872e+08,391980,-0.021163,-0.600322,-0,0.600695,1379.74,-22876.8,0,22918.4,-391980
step02_gravity_refstate-crust.xmf,1111,-1.52399e-05,2.81208e-05,0,7.74208e-06,-6.4594e+08,-6.42966e+08,-6.44895e+08,531107,-0.0277711,-0.613501,-0,0.614129,1729.56,-23498,0,23561.6,-531107
step02_gravity_refstate-crust.xmf,1112,-1.44171e-05,2.55318e-05,0,4.13063e-06,-6.13405e+08,-6.10665e+08,-6.12416e+08,283361,-0.0156415,-0.588081,-0,0.588289,1066.07,-22312.8,0,22338.3,-283361
step02_gravity_refstate-crust.xmf,1113,-1.2952e-05,2.22197e-05,0,2.48049e-06,-5.75883e+08,-5.73471e+08,-5.74995e+08,170162,-0.010086,-0.557119,-0,0.55721,774.707,-20947.6,0,20961.9,-170162
step02_gravity_refstate-crust.xmf,1114,-1.71598e-05,3.42357e-05,0,1.18323e-05,-6.99916e+08,-6.96391e+08,-6.98739e+08,811699,-0.0379104,-0.669694,-0,0.670766,2026.01,-25464.7,0,25545.2,-811699
step02_gravity_refstate-crust.xmf,1115,-1.54351e-05,2.9371e-05,0,1.01229e-05,-6.643e+08,-6.61226e+08,-6.63241e+08,694431,-0.035119,-0.62735,-0,0.628332,2090.49,-24167.5,0,24257.8,-694431
step02_gravity_refstate-crust.xmf,1116,-7.22802e-06,9.30518e-06,0,-8.35589e-07,-3.58051e+08,-3.56917e+08,-3.57556e+08,-57321.4,0.00452281,-0.440175,0,0.440198,-625.711,-13020.4,-0,13035.4,-57321.4
step02_gravity_refstate-crust.xmf,1117,-6.91388e-06,8.29895e-06,0,-1.27582e-07,-3.28728e+08,-3.27685e+08,-3.28254e+08,-8752.15,0.000672319,-0.431213,0,0.431213,-97.5318,-11952.6,-0,11953,-8752.15
step02_gravity_refstate-crust.xmf,1118,-1.0143e-05,1.62213e-05,0,2.55026e-06,-5.00572e+08,-4.98763e+08,-4.99876e+08,174948,-0.0115187,-0.503579,-0,0.503711,1123.64,-18207.9,0,18242.5,-174948
step02_gravity_refstate-crust.xmf,1119,-7.68445e-06,1.04845e-05,0,5.37004e-08,-3.8678e+08,-3.85534e+08,-3.86253e+08,3683.85,-0.000216758,-0.450966,-0,0.450966,28.2096,-14066.3,0,14066.3,-3683.85
step02_gravity_refstate-crust.xmf,1120,-8.17925e-06,1.17372e-05,0,1.00978e-06,-4.15904e+08,-4.14538e+08,-4.15343e+08,69271.2,-0.00503483,-0.462241,-0,0.462268,615.362,-15126.5,0,15139,-69271.2
step02_gravity_refstate-crust.xmf,1121,-1.70335e-05,3.52797e-05,0,1.47368e-05,-7.17028e+08,-7.13439e+08,-7.1586e+08,1.01094e+06,-0.0452062,-0.683965,-0,0.685457,2343.97,-26089.8,0,26194.9,-1.01094e+06
step02_gravity_refstate-crust.xmf,1122,-1.63064e-05,3.73491e-05,0,2.0513e-05,-7.49801e+08,-7.4612e+08,-7.48682e+08,1.40719e+06,-0.0571706,-0.711237,-0,0.713531,2853.79,-27289.1,0,27437.9,-1.40719e+06
step02_gravity_refstate-crust.xmf,1123,-1.6689e-05,3.6276e-05,0,1.77389e-05,-7.33901e+08,-7.30268e+08,-7.32756e+08,1.21689e+06,-0.051953,-0.697595,-0,0.699527,2633.63,-26707,0,26836.6,-1.21689e+06
step02_gravity_refstate-crust.xmf,1124,-1.86145e-05,4.73458e-05,0,2.05426e-05,-7.90249e+08,-7.85724e+08,-7.88972e+08,1.40922e+06,-0.051065,-0.79084,-0,0.792487,2429.66,-28767.8,0,28870.2,-1.40922e+06
step02_gravity_refstate-crust.xmf,1125,-1.56483e-05,3.80109e-05,0,2.34004e-05,-7.63796e+08,-7.60115e+08,-7.62722e+08,1.60527e+06,-0.0617525,-0.721441,-0,0.724079,3072.53,-27802.3,0,27971.6,-1.60527e+06
step02_gravity_refstate-crust.xmf,1126,-1.73731e-05,4.28581e-05,0,2.24328e-05,-7.77665e+08,-7.73533e+08,-7.76473e+08,1.53889e+06,-0.0571095,-0.755898,-0,0.758052,2757.78,-28307.8,0,28441.8,-1.53889e+06
step02_gravity_refstate-crust.xmf,1127,-1.70828e-05,5.36236e-05,0,2.34267e-05,-8.23658e+08,-8.18807e+08,-8.22486e+08,1.60707e+06,-0.0490965,-0.84977,-0,0.851188,2497.35,-30000,0,30103.8,-1.60707e+06
step02_gravity_refstate-crust.xmf,1128,-1.75963e-05,4.84277e-05,0,2.33057e-05,-8.02236e+08,-7.97707e+08,-8.01029e+08,1.59877e+06,-0.054517,-0.801394,-0,0.803247,2661.6,-29210,0,29331,-1.59877e+06
step02_gravity_refstate-crust.xmf,1129,-3.06231e-06,-2.57771e-05,0,-2.79773e-05,-9.8516e+08,-9.86718e+08,-9.84949e+08,-1.91925e+06,-0.0875365,-0.517358,-0,0.524712,-5766.68,-35813.4,-0,36274.7,-1.91925e+06
step02_gravity_refstate-crust.xmf,1130,2.80295e-06,-3.21461e-05,0,-3.4925e-05,-9.70741e+08,-9.73138e+08,-9.70933e+08,-2.39585e+06,-0.0768957,-0.597824,-0,0.60275,-4979.34,-35302.4,-0,35651.8,-2.39585e+06
step02_gravity_refstate-crust.xmf,1131,9.478e-06,-3.87434e-05,0,-5.38411e-05,-9.61948e+08,-9.65256e+08,-9.62598e+08,-3.6935e+06,-0.0626706,-0.719533,-0,0.722257,-4000,-34999,-0,35226.9,-3.6935e+06
step02_gravity_refstate-crust.xmf,1132,7.25471e-06,-3.87737e-05,0,-4.30548e-05,-9.69597e+08,-9.72754e+08,-9.70094e+08,-2.95356e+06,-0.0733131,-0.657392,-0,0.661467,-4417.04,-35268.5,-0,35544,-2.95356e+06
step02_gravity_refstate-crust.xmf,1133,-5.01233e-06,-2.17199e-05,0,-2.43685e-05,-9.98693e+08,-9.99839e+08,-9.98349e+08,-1.67168e+06,-0.0916003,-0.454642,-0,0.463778,-6534.9,-36304.5,-0,36888,-1.67168e+06
step02_gravity_refstate-crust.xmf,1134,-5.49047e-06,-1.85227e-05,0,-2.16018e-05,-9.9851e+08,-9.99404e+08,-9.98134e+08,-1.48188e+06,-0.0886134,-0.421638,-0,0.430849,-7114.71,-36300.9,-0,36991.5,-1.48188e+06
step02_gravity_refstate-crust.xmf,1135,-5.29106e-06,-1.08381e-05,0,-1.37886e-05,-9.9941e+08,-9.99791e+08,-9.99047e+08,-945901,-0.0752671,-0.309911,-0,0.31892,-9615.51,-36346.3,-0,37596.7,-945901
step02_gravity_refstate-crust.xmf,1136,-5.74758e-06,-1.58751e-05,0,-1.9133e-05,-9.99585e+08,-1.00028e+09,-9.99191e+08,-1.31252e+06,-0.0855235,-0.387868,-0,0.397185,-7760.1,-36343.1,-0,37162.3,-1.31252e+06
step02_gravity_refstate-crust.xmf,1137,-5.73486e-06,-1.22405e-05,0,-1.54743e-05,-1.00234e+09,-1.00278e+09,-1.00194e+09,-1.06154e+06,-0.0793584,-0.331031,-0,0.34041,-9027.4,-36448.9,-0,37550.2,-1.06154e+06
step02_gravity_refstate-crust.xmf,1138,-5.81527e-06,-1.38903e-05,0,-1.71885e-05,-1.00142e+09,-1.00197e+09,-1.00102e+09,-1.17913e+06,-0.082637,-0.357947,-0,0.367362,-8389.44,-36412.6,-0,37366.6,-1.17913e+06
step02_gravity_refstate-crust.xmf,1139,-4.72708e-06,-8.68831e-06,0,-1.16002e-05,-1.02119e+09,-1.02146e+09,-1.02086e+09,-795770,-0.0702082,-0.239371,-0,0.249455,-11607.4,-37144.8,-0,38916.1,-795770
step02_gravity_refstate-crust.xmf,1140,-4.26824e-06,-7.97722e-06,0,-1.05039e-05,-1.01941e+09,-1.01966e+09,-1.01911e+09,-720571,-0.0668264,-0.22144,-0,0.231304,-12308.6,-37082.9,-0,39072.3,-720571
step02_gravity_refstate-crust.xmf,1141,-4.01505e-06,-7.3319e-06,0,-9.62757e-06,-1.01918e+09,-1.0194e+09,-1.0189e+09,-660451,-0.0638823,-0.204144,-0,0.213906,-13020.1,-37076.5,-0,39296.2,-660451
step02_gravity_refstate-crust.xmf,1142,-2.89108e-06,-5.63414e-06,0,-6.9162e-06,-1.02307e+09,-1.02326e+09,-1.02287e+09,-474452,-0.0544056,-0.142234,-0,0.152284,-16039.2,-37225.5,-0,40533.8,-474452
step02_gravity_refstate-crust.xmf,1143,-3.2198e-06,-6.13988e-06,0,-7.72897e-06,-1.02093e+09,-1.02113e+09,-1.02071e+09,-530207,-0.0573069,-0.162299,-0,0.172119,-14967.4,-37145.5,-0,40047.6,-530207
step02_gravity_refstate-crust.xmf,1144,-3.61748e-06,-6.72444e-06,0,-8.6681e-06,-1.01958e+09,-1.01979e+09,-1.01933e+09,-594632,-0.060627,-0.184058,-0,0.193786,-13911.5,-37093.8,-0,39616.7,-594632
step02_gravity_refstate-crust.xmf,1145,-2.17071e-06,-4.19542e-06,0,-4.62084e-06,-1.01922e+09,-1.01936e+09,-1.01908e+09,-316990,-0.04487,-0.0876585,-0,0.098475,-19783.2,-37090.6,-0,42036.7,-316990
step02_gravity_refstate-crust.xmf,1146,-2.09452e-06,-2.97229e-06,0,-3.09524e-06,-1.03424e+09,-1.0343e+09,-1.0341e+09,-212334,-0.0375273,-0.041471,-0,0.0559298,-24059.6,-37639.6,-0,44672.1,-212334
step02_gravity_refstate-crust.xmf,1147,-2.22098e-06,-2.57686e-06,0,-2.68898e-06,-1.05891e+09,-1.05893e+09,-1.05876e+09,-184464,-0.0356341,-0.0258611,-0,0.0440294,-25761.8,-38537.6,-0,46355.4,-184464
step02_gravity_refstate-crust.xmf,1148,-6.5097e-06,6.52277e-06,0,-2.31764e-07,-2.69887e+08,-2.68993e+08,-2.69441e+08,-15899,0.00163416,-0.415374,0,0.415377,-251.289,-9809.28,-0,9812.5,-15899
step02_gravity_refstate-crust.xmf,1149,-6.48467e-06,5.57237e-06,0,-2.19669e-07,-2.30704e+08,-2.29877e+08,-2.30259e+08,-15069.3,0.00184877,-0.406727,0,0.406731,-286.043,-8381.39,-0,8386.27,-15069.3
step02_gravity_refstate-crust.xmf,1150,-7.07013e-06,4.20926e-06,0,-2.2455e-07,-1.48453e+08,-1.47679e+08,-1.47968e+08,-15404.1,0.0029931,-0.392144,0,0.392155,-424.612,-5382.49,-0,5399.21,-15404.1
step02_gravity_refstate-crust.xmf,1151,-8.05428e-06,3.8431e-06,0,-6.94323e-08,-9.61136e+07,-9.52974e+07,-9.55611e+07,-4763.05,0.000404709,-0.384629,0,0.384629,-50.4903,-3472.48,-0,3472.84,-4763.05
step02_gravity_refstate-crust.xmf,1152,-1.17907e-05,1.9869e-05,0,3.34654e-06,-5.51315e+08,-5.49144e+08,-5.50507e+08,229573,-0.014176,-0.536442,-0,0.536629,1184.4,-20054.3,0,20089.2,-229573
step02_gravity_refstate-crust.xmf,1153,-1.36003e-05,2.43722e-05,0,6.83758e-06,-6.11897e+08,-6.09292e+08,-6.10964e+08,469058,-0.0262895,-0.579794,-0,0.58039,1832.86,-22259.4,0,22334.8,-469058
step02_gravity_refstate-crust.xmf,1154,-1.34131e-05,2.34455e-05,0,4.72272e-06,-5.95474e+08,-5.92945e+08,-5.94554e+08,323979,-0.0185443,-0.570057,-0,0.570359,1347.6,-21660.9,0,21702.7,-323979
step02_gravity_refstate-crust.xmf,1155,-1.54748e-05,3.05204e-05,0,1.27156e-05,-6.83039e+08,-6.79884e+08,-6.81978e+08,872289,-0.0424164,-0.641403,-0,0.642803,2421.7,-24851.4,0,24969.1,-872289
step02_gravity_refstate-crust.xmf,1156,-6.63726e-06,7.25803e-06,0,5.48978e-07,-2.96914e+08,-2.95961e+08,-2.96459e+08,37659.9,-0.00328957,-0.421976,-0,0.421989,496.008,-10793.8,0,10805.2,-37659.9
step02_gravity_refstate-crust.xmf,1157,-1.06634e-05,1.76518e-05,0,4.14453e-06,-5.26359e+08,-5.24416e+08,-5.25627e+08,284315,-0.018241,-0.516572,-0,0.516894,1660.35,-19146.8,0,19218.7,-284315
step02_gravity_refstate-crust.xmf,1158,-8.69346e-06,1.3036e-05,0,2.05205e-06,-4.44939e+08,-4.43449e+08,-4.44343e+08,140771,-0.009947,-0.474037,-0,0.474142,1134.13,-16183.5,0,16223.2,-140771
step02_gravity_refstate-crust.xmf,1159,-9.20676e-06,1.43531e-05,0,3.28188e-06,-4.73796e+08,-4.7218e+08,-4.73164e+08,225137,-0.0154113,-0.486262,-0,0.486506,1635.26,-17234,0,17311.4,-225137
step02_gravity_refstate-crust.xmf,1160,-1.41316e-05,3.42178e-05,0,2.34672e-05,-7.51737e+08,-7.48421e+08,-7.50768e+08,1.60985e+06,-0.0644907,-0.694503,-0,0.697491,3322.86,-27363.6,0,27564.6,-1.60985e+06
step02_gravity_refstate-crust.xmf,1161,-1.66494e-05,5.01685e-05,0,2.48965e-05,-8.14291e+08,-8.09707e+08,-8.13148e+08,1.7079e+06,-0.0542277,-0.820059,-0,0.82185,2724.57,-29655.4,0,29780.3,-1.7079e+06
step02_gravity_refstate-crust.xmf,1162,-1.20436e-06,-3.08342e-05,0,-3.15766e-05,-9.8565e+08,-9.87682e+08,-9.85567e+08,-2.16616e+06,-0.0889387,-0.559686,-0,0.566709,-5218.97,-35830.9,-0,36209,-2.16616e+06
step02_gravity_refstate-crust.xmf,1163,-4.24122e-06,-2.56789e-05,0,-2.75245e-05,-9.99175e+08,-1.00065e+09,-9.98884e+08,-1.88818e+06,-0.0942074,-0.489266,-0,0.498253,-5981.54,-36319.1,-0,36808.3,-1.88818e+06
step02_gravity_refstate-crust.xmf,1164,-5.17051e-06,-9.71453e-06,0,-1.29128e-05,-1.0199e+09,-1.02021e+09,-1.01955e+09,-885815,-0.0740193,-0.26368,-0,0.273872,-10777.2,-37094.5,-0,38628.4,-885815
step02_gravity_refstate-crust.xmf,1165,-5.57058e-06,-1.10053e-05,0,-1.44389e-05,-1.01892e+09,-1.01929e+09,-1.01854e+09,-990508,-0.0781184,-0.289981,-0,0.300319,-9962.97,-37055.3,-0,38371.3,-990508
step02_gravity_refstate-crust.xmf,1166,-2.0979e-06,-3.83195e-06,0,-4.14376e-06,-1.0246e+09,-1.02472e+09,-1.02446e+09,-284262,-0.0428734,-0.0722894,-0,0.0840469,-21018.8,-37287.3,-0,42803.5,-284262
step02_gravity_refstate-crust.xmf,1167,-2.09522e-06,-3.43287e-06,0,-3.66082e-06,-1.03178e+09,-1.03187e+09,-1.03163e+09,-251132,-0.040718,-0.0568491,-0,0.069927,-22403.2,-37549,-0,43724.5,-251132
step02_gravity_refstate-crust.xmf,1168,-2.68818e-06,-5.7035e-06,0,-7.03622e-06,-1.04739e+09,-1.04759e+09,-1.0472e+09,-482684,-0.0550407,-0.126611,-0,0.138057,-16675.1,-38111.4,-0,41599.8,-482684
step02_gravity_refstate-crust.xmf,1169,-2.29634e-06,-4.5872e-06,0,-5.27621e-06,-1.04513e+09,-1.04529e+09,-1.04497e+09,-361948,-0.0487139,-0.090709,-0,0.102962,-19214.2,-38032.6,-0,42610.6,-361948
step02_gravity_refstate-crust.xmf,1170,-2.45753e-06,-5.10004e-06,0,-6.06745e-06,-1.04633e+09,-1.04651e+09,-1.04616e+09,-416227,-0.0517127,-0.107315,-0,0.119125,-17967.8,-38074.9,-0,42101.5,-416227
step02_gravity_refstate-crust.xmf,1171,-6.67788e-06,4.7435e-06,0,3.39985e-07,-1.856e+08,-1.84817e+08,-1.85142e+08,23323,-0.00331302,-0.39814,-0,0.398153,497.082,-6737.29,0,6755.6,-23323
step02_gravity_refstate-crust.xmf,1172,-1.1421e-05,4.33363e-06,0,-3.46315e-08,-1.08492e+06,-4153.8,-301441,-2375.72,-6.1062e-06,-0.370932,-0,0.370932,7.0424e-08,0,0,7.0424e-08,-2375.72
step02_gravity_refstate-crust.xmf,1173,-9.39066e-06,3.82749e-06,0,2.8835e-07,-4.86118e+07,-4.7705e+07,-4.79676e+07,19780.8,-0.00945866,-0.377277,-0,0.377396,1007.43,-1737.69,0,2008.61,-19780.8
step02_gravity_refstate-crust.xmf,1174,-1.36351e-05,2.58477e-05,0,1.09856e-05,-6.446e+08,-6.41891e+08,-6.43664e+08,753610,-0.0398842,-0.598898,-0,0.600225,2576.57,-23452.2,0,23593.3,-753610
step02_gravity_refstate-crust.xmf,1175,-1.40068e-05,2.57299e-05,0,8.38314e-06,-6.29562e+08,-6.26837e+08,-6.28602e+08,575084,-0.0312897,-0.592809,-0,0.593634,2077.51,-22903,0,22997.1,-575084
step02_gravity_refstate-crust.xmf,1176,-1.22228e-05,2.11855e-05,0,5.40043e-06,-5.73916e+08,-5.71625e+08,-5.73078e+08,370469,-0.0221483,-0.549346,-0,0.549792,1740.66,-20877.3,0,20949.8,-370469
step02_gravity_refstate-crust.xmf,1177,-1.51835e-05,3.14316e-05,0,1.55635e-05,-7.01049e+08,-6.97851e+08,-7.00007e+08,1.06766e+06,-0.0498413,-0.653609,-0,0.655507,2754.36,-25509.6,0,25657.9,-1.06766e+06
step02_gravity_refstate-crust.xmf,1178,-1.38693e-05,2.7346e-05,0,1.31988e-05,-6.66122e+08,-6.63295e+08,-6.65171e+08,905437,-0.0459789,-0.614875,-0,0.616592,2815.81,-24237.1,0,24400.1,-905437
step02_gravity_refstate-crust.xmf,1179,-7.23672e-06,9.33533e-06,0,8.44835e-07,-3.58648e+08,-3.57512e+08,-3.58152e+08,57955.7,-0.00468707,-0.440346,-0,0.440371,647.666,-13042.1,0,13058.2,-57955.7
step02_gravity_refstate-crust.xmf,1180,-6.81396e-06,8.18603e-06,0,1.49023e-06,-3.28409e+08,-3.2738e+08,-3.27941e+08,102230,-0.00868109,-0.42945,-0,0.429537,1265.16,-11941.1,0,12008,-102230
step02_gravity_refstate-crust.xmf,1181,-6.4364e-06,6.2368e-06,0,1.03233e-06,-2.61379e+08,-2.6051e+08,-2.60937e+08,70818.1,-0.00694093,-0.412389,-0,0.412447,1074.06,-9499.38,0,9559.9,-70818.1
step02_gravity_refstate-crust.xmf,1182,-9.59966e-06,1.55076e-05,0,4.75936e-06,-5.00463e+08,-4.9874e+08,-4.99804e+08,326492,-0.0216912,-0.497398,-0,0.497871,2154.52,-18205,0,18332.1,-326492
step02_gravity_refstate-crust.xmf,1183,-7.57833e-06,1.03987e-05,0,1.91933e-06,-3.88946e+08,-3.87713e+08,-3.88426e+08,131666,-0.0100072,-0.449691,-0,0.449802,1307.37,-14145.4,0,14205.7,-131666
step02_gravity_refstate-crust.xmf,1184,-7.91876e-06,1.1469e-05,0,2.92226e-06,-4.17529e+08,-4.16199e+08,-4.16985e+08,200467,-0.0147731,-0.459003,-0,0.459241,1819.68,-15186.3,0,15294.9,-200467
step02_gravity_refstate-crust.xmf,1185,-1.46189e-05,3.16912e-05,0,1.85531e-05,-7.18192e+08,-7.15015e+08,-7.17189e+08,1.27274e+06,-0.0567127,-0.664149,-0,0.666566,3060.61,-26136.4,0,26315,-1.27274e+06
step02_gravity_refstate-crust.xmf,1186,-1.37128e-05,3.18772e-05,0,2.1891e-05,-7.36656e+08,-7.33529e+08,-7.35715e+08,1.50172e+06,-0.0632801,-0.674953,-0,0.677913,3354.9,-26812.6,0,27021.7,-1.50172e+06
step02_gravity_refstate-crust.xmf,1187,-1.60487e-05,4.33707e-05,0,2.63553e-05,-7.91907e+08,-7.87831e+08,-7.90806e+08,1.80798e+06,-0.062257,-0.762554,-0,0.765091,3080.37,-28832.4,0,28996.5,-1.80798e+06
step02_gravity_refstate-crust.xmf,1188,-1.26941e-05,3.30686e-05,0,2.62354e-05,-7.61276e+08,-7.58137e+08,-7.60406e+08,1.79975e+06,-0.0690297,-0.693232,-0,0.696661,3599.54,-27714.9,0,27947.6,-1.79975e+06
step02_gravity_refstate-crust.xmf,1189,-1.45817e-05,3.83253e-05,0,2.67586e-05,-7.77471e+08,-7.73841e+08,-7.7647e+08,1.83564e+06,-0.066051,-0.728535,-0,0.731523,3318.45,-28304.9,0,28498.8,-1.83564e+06
step02_gravity_refstate-crust.xmf,1190,-1.48738e-05,5.01563e-05,0,2.86862e-05,-8.2356e+08,-8.19099e+08,-8.22539e+08,1.96787e+06,-0.057106,-0.8216,-0,0.823582,2997.53,-30000,0,30149.4,-1.96787e+06
step02_gravity_refstate-crust.xmf,1191,-1.50593e-05,4.54561e-05,0,2.84718e-05,-8.09059e+08,-8.04908e+08,-8.08026e+08,1.95317e+06,-0.0621313,-0.784771,-0,0.787227,3179.05,-29464.1,0,29635.1,-1.95317e+06
step02_gravity_refstate-crust.xmf,1192,-3.04143e-06,-3.07445e-05,0,-3.12523e-05,-9.99445e+08,-1.00135e+09,-9.99236e+08,-2.14391e+06,-0.0961072,-0.527141,-0,0.535831,-5438.32,-36325.9,-0,36730.7,-2.14391e+06
step02_gravity_refstate-crust.xmf,1193,2.1063e-07,-3.80372e-05,0,-3.69256e-05,-9.85037e+08,-9.87661e+08,-9.85052e+08,-2.53309e+06,-0.0881955,-0.60923,-0,0.61558,-4674.03,-35803.2,-0,36107,-2.53309e+06
step02_gravity_refstate-crust.xmf,1194,1.13983e-05,-4.60916e-05,0,-5.30747e-05,-9.75759e+08,-9.79703e+08,-9.76541e+08,-3.64093e+06,-0.0758594,-0.698417,-0,0.702524,-4000,-35498.2,-0,35722.9,-3.64093e+06
step02_gravity_refstate-crust.xmf,1195,-5.23945e-06,-2.1948e-05,0,-2.43295e-05,-1.01427e+09,-1.01542e+09,-1.01391e+09,-1.669e+06,-0.0952446,-0.428913,-0,0.439361,-6768.52,-36870.4,-0,37486.5,-1.669e+06
step02_gravity_refstate-crust.xmf,1196,-4.35052e-06,-2.59609e-05,0,-2.72877e-05,-1.01375e+09,-1.01523e+09,-1.01345e+09,-1.87194e+06,-0.0978211,-0.462343,-0,0.472578,-6190.85,-36848.7,-0,37365.2,-1.87194e+06
step02_gravity_refstate-crust.xmf,1197,-5.73256e-06,-1.87045e-05,0,-2.17257e-05,-1.01502e+09,-1.01591e+09,-1.01463e+09,-1.49038e+06,-0.0921296,-0.396773,-0,0.407329,-7379.97,-36900.7,-0,37631.5,-1.49038e+06
step02_gravity_refstate-crust.xmf,1198,-5.71413e-06,-1.25762e-05,0,-1.61071e-05,-1.0186e+09,-1.01907e+09,-1.0182e+09,-1.10495e+06,-0.082318,-0.317087,-0,0.327598,-9199.07,-37040.4,-0,38165.6,-1.10495e+06
step02_gravity_refstate-crust.xmf,1199,-5.90528e-06,-1.64098e-05,0,-1.97539e-05,-1.01774e+09,-1.01846e+09,-1.01734e+09,-1.35512e+06,-0.0892751,-0.367391,-0,0.378082,-7972.06,-37002.6,-0,37851.7,-1.35512e+06
step02_gravity_refstate-crust.xmf,1200,-5.96605e-06,-1.44833e-05,0,-1.80929e-05,-1.02186e+09,-1.02245e+09,-1.02146e+09,-1.24117e+06,-0.0862904,-0.338678,-0,0.349498,-8598,-37155.4,-0,38137.3,-1.24117e+06
step02_gravity_refstate-crust.xmf,1201,-4.24849e-06,-8.52653e-06,0,-1.15023e-05,-1.03966e+09,-1.03996e+09,-1.03937e+09,-789056,-0.0688496,-0.214627,-0,0.2254,-12338.3,-37819.6,-0,39781.4,-789056
step02_gravity_refstate-crust.xmf,1202,-4.78106e-06,-1.00054e-05,0,-1.34746e-05,-1.04045e+09,-1.04081e+09,-1.04013e+09,-924359,-0.0741389,-0.245452,-0,0.256405,-11150.1,-37844,-0,39452.4,-924359
step02_gravity_refstate-crust.xmf,1203,-3.79325e-06,-7.625e-06,0,-1.01636e-05,-1.0403e+09,-1.04057e+09,-1.04004e+09,-697223,-0.0649502,-0.191102,-0,0.201838,-13339.7,-37846.2,-0,40128.3,-697223
step02_gravity_refstate-crust.xmf,1204,-2.97851e-06,-6.39223e-06,0,-8.17267e-06,-1.04848e+09,-1.04872e+09,-1.04828e+09,-560645,-0.0585941,-0.147622,-0,0.158826,-15418.7,-38149.1,-0,41147.2,-560645
step02_gravity_refstate-crust.xmf,1205,-3.35991e-06,-6.93149e-06,0,-9.04911e-06,-1.04241e+09,-1.04266e+09,-1.04218e+09,-620769,-0.0615083,-0.169089,-0,0.179928,-14361,-37925.8,-0,40553.7,-620769
step02_gravity_refstate-crust.xmf,1206,-2.18526e-06,-4.19683e-06,0,-4.69383e-06,-1.04437e+09,-1.04451e+09,-1.04422e+09,-321997,-0.0463119,-0.0779263,-0,0.0906493,-20271.5,-38005.9,-0,43074.2,-321997
step02_gravity_refstate-crust.xmf,1207,-2.15871e-06,-3.03899e-06,0,-3.20642e-06,-1.07198e+09,-1.07204e+09,-1.07183e+09,-219961,-0.0396089,-0.0355991,-0,0.0532556,-24271.6,-39012.9,-0,45946.9,-219961
step02_gravity_refstate-crust.xmf,1208,-7.109e-06,4.10579e-06,0,7.41116e-07,-1.42664e+08,-1.41894e+08,-1.42176e+08,50840.6,-0.0088277,-0.390205,-0,0.390305,1238.71,-5171.41,0,5317.69,-50840.6
step02_gravity_refstate-crust.xmf,1209,-7.89799e-06,3.76217e-06,0,8.31693e-07,-9.57539e+07,-9.4954e+07,-9.52121e+07,57054.1,-0.0166073,-0.381394,-0,0.381755,2081.16,-3459.89,0,4037.58,-57054.1
step02_gravity_refstate-crust.xmf,1210,-1.10055e-05,1.88076e-05,0,5.97477e-06,-5.50267e+08,-5.48222e+08,-5.49512e+08,409869,-0.025502,-0.52811,-0,0.528725,2183.41,-20017.6,0,20136.3,-409869
step02_gravity_refstate-crust.xmf,1211,-1.25167e-05,2.30729e-05,0,1.00414e-05,-6.18184e+08,-6.15743e+08,-6.17326e+08,688841,-0.0383942,-0.573043,-0,0.574328,2708.49,-22490.7,0,22653.2,-688841
step02_gravity_refstate-crust.xmf,1212,-1.23785e-05,2.20122e-05,0,7.71026e-06,-5.94923e+08,-5.92564e+08,-5.94074e+08,528924,-0.0305916,-0.560068,-0,0.560903,2284.01,-21642.8,0,21763,-528924
step02_gravity_refstate-crust.xmf,1213,-1.34465e-05,2.76455e-05,0,1.58266e-05,-6.84172e+08,-6.81353e+08,-6.8325e+08,1.0857e+06,-0.0530662,-0.624757,-0,0.627006,3146.38,-24896.4,0,25094.4,-1.0857e+06
step02_gravity_refstate-crust.xmf,1214,-6.45236e-06,7.00645e-06,0,2.00604e-06,-2.94918e+08,-2.93994e+08,-2.94475e+08,137614,-0.012431,-0.418208,-0,0.418393,1895,-10721.5,0,10887.7,-137614
step02_gravity_refstate-crust.xmf,1215,-9.84463e-06,1.65748e-05,0,6.44385e-06,-5.25966e+08,-5.24154e+08,-5.25291e+08,442048,-0.0285987,-0.507581,-0,0.508386,2672.64,-19134.2,0,19319.9,-442048
step02_gravity_refstate-crust.xmf,1216,-8.35446e-06,1.26625e-05,0,3.90496e-06,-4.47598e+08,-4.46156e+08,-4.47025e+08,267880,-0.0190364,-0.47013,-0,0.470515,2188.74,-16281,0,16427.5,-267880
step02_gravity_refstate-crust.xmf,1217,-8.63134e-06,1.36236e-05,0,5.2195e-06,-4.74473e+08,-4.72947e+08,-4.73881e+08,358057,-0.0246947,-0.479406,-0,0.480042,2671.7,-17259.8,0,17465.4,-358057
step02_gravity_refstate-crust.xmf,1218,-1.18621e-05,3.0198e-05,0,2.47734e-05,-7.47545e+08,-7.4466e+08,-7.46732e+08,1.69946e+06,-0.0692594,-0.671543,-0,0.675105,3721.78,-27213.9,0,27467.2,-1.69946e+06
step02_gravity_refstate-crust.xmf,1219,-9.10468e-07,-3.72264e-05,0,-3.55929e-05,-9.99587e+08,-1.00208e+09,-9.99525e+08,-2.44167e+06,-0.0970891,-0.569863,-0,0.578075,-4890.23,-36329.6,-0,36657.3,-2.44167e+06
step02_gravity_refstate-crust.xmf,1220,8.87752e-06,-4.71845e-05,0,-4.08004e-05,-9.82977e+08,-9.86823e+08,-9.83586e+08,-2.79891e+06,-0.0851168,-0.654214,-0,0.659728,-4263.35,-35749.1,-0,36002.4,-2.79891e+06
step02_gravity_refstate-crust.xmf,1221,-2.86117e-06,-3.1049e-05,0,-3.06374e-05,-1.01365e+09,-1.01558e+09,-1.01345e+09,-2.10172e+06,-0.0997171,-0.496968,-0,0.506874,-5641.21,-36843.2,-0,37272.6,-2.10172e+06
step02_gravity_refstate-crust.xmf,1222,-4.95295e-06,-2.20445e-05,0,-2.41489e-05,-1.02991e+09,-1.03108e+09,-1.02957e+09,-1.65662e+06,-0.095602,-0.402602,-0,0.413797,-7035.9,-37440.6,-0,38095.9,-1.65662e+06
step02_gravity_refstate-crust.xmf,1223,-5.18523e-06,-1.12506e-05,0,-1.49601e-05,-1.03898e+09,-1.03939e+09,-1.03862e+09,-1.02627e+06,-0.0779883,-0.269366,-0,0.280429,-10351.9,-37786.6,-0,39178.9,-1.02627e+06
step02_gravity_refstate-crust.xmf,1224,-5.49181e-06,-1.29098e-05,0,-1.67259e-05,-1.03809e+09,-1.0386e+09,-1.03771e+09,-1.1474e+06,-0.0821717,-0.295709,-0,0.306913,-9545.99,-37750.5,-0,38938.8,-1.1474e+06
step02_gravity_refstate-crust.xmf,1225,-2.4479e-06,-6.46677e-06,0,-7.9822e-06,-1.07375e+09,-1.07403e+09,-1.07359e+09,-547579,-0.0569477,-0.126834,-0,0.139032,-16295.7,-39071.2,-0,42333.3,-547579
step02_gravity_refstate-crust.xmf,1226,-2.16624e-06,-3.9546e-06,0,-4.37546e-06,-1.06281e+09,-1.06294e+09,-1.06266e+09,-300156,-0.0452961,-0.0633031,-0,0.0778397,-21350.8,-38677.9,-0,44179.6,-300156
step02_gravity_refstate-crust.xmf,1227,-2.15169e-06,-3.44308e-06,0,-3.69379e-06,-1.06778e+09,-1.06787e+09,-1.06763e+09,-253394,-0.0421556,-0.0470112,-0,0.0631438,-22972.3,-38859.5,-0,45141.8,-253394
step02_gravity_refstate-crust.xmf,1228,-2.31696e-06,-5.77402e-06,0,-6.92976e-06,-1.073e+09,-1.07324e+09,-1.07284e+09,-475381,-0.0542032,-0.109186,-0,0.1219,-17469.2,-39045.3,-0,42775.1,-475381
step02_gravity_refstate-crust.xmf,1229,-2.16476e-06,-4.57137e-06,0,-5.18292e-06,-1.07088e+09,-1.07105e+09,-1.07074e+09,-355548,-0.0486806,-0.0773266,-0,0.0913739,-19959.2,-38970.8,-0,43784.6,-355548
step02_gravity_refstate-crust.xmf,1230,-2.22181e-06,-5.14407e-06,0,-5.9964e-06,-1.07209e+09,-1.07229e+09,-1.07194e+09,-411353,-0.0514429,-0.0925645,-0,0.105899,-18699,-39013.6,-0,43263.3,-411353
step02_gravity_refstate-crust.xmf,1231,-6.42613e-06,5.30561e-06,0,1.16269e-06,-2.21169e+08,-2.20365e+08,-2.20729e+08,79760.5,-0.00906039,-0.403211,-0,0.403312,1402.73,-8034.11,0,8155.64,-79760.5
step02_gravity_refstate-crust.xmf,1232,-6.51891e-06,4.58854e-06,0,1.52752e-06,-1.8384e+08,-1.83078e+08,-1.83393e+08,104788,-0.0147091,-0.394057,-0,0.394331,2220.9,-6673.61,0,7033.46,-104788
step02_gravity_refstate-crust.xmf,1233,-1.12102e-05,4.25741e-06,0,-1.94577e-08,-1.06473e+06,-3656.71,-295715,-1334.8,-0.0223216,-0.368316,-0,0.368992,1971.11,0,0,1971.11,-1334.8
step02_gravity_refstate-crust.xmf,1234,-9.05446e-06,3.68386e-06,0,7.30609e-07,-4.81436e+07,-4.72697e+07,-4.75224e+07,50119.8,-0.0280734,-0.371522,-0,0.372581,3022.53,-1721.79,0,3478.54,-50119.8
step02_gravity_refstate-crust.xmf,1235,-1.26001e-05,2.47491e-05,0,1.34207e-05,-6.52304e+08,-6.49742e+08,-6.5144e+08,920660,-0.0484184,-0.594304,-0,0.596274,3146.91,-23735.1,0,23942.8,-920660
step02_gravity_refstate-crust.xmf,1236,-1.11144e-05,1.96682e-05,0,8.02522e-06,-5.72807e+08,-5.70695e+08,-5.72045e+08,550530,-0.0332657,-0.537953,-0,0.538981,2700.98,-20839.1,0,21013.4,-550530
step02_gravity_refstate-crust.xmf,1237,-1.19606e-05,2.47989e-05,0,1.57924e-05,-6.68293e+08,-6.65771e+08,-6.67473e+08,1.08336e+06,-0.0553137,-0.599643,-0,0.602189,3512.78,-24319.9,0,24572.3,-1.08336e+06
step02_gravity_refstate-crust.xmf,1238,-1.27523e-05,2.78968e-05,0,1.84841e-05,-7.01253e+08,-6.98464e+08,-7.00378e+08,1.26801e+06,-0.0596561,-0.632868,-0,0.635674,3453.86,-25521.4,0,25754.1,-1.26801e+06
step02_gravity_refstate-crust.xmf,1239,-7.00274e-06,9.09685e-06,0,2.59528e-06,-3.59825e+08,-3.5872e+08,-3.59344e+08,178036,-0.0142918,-0.436733,-0,0.436967,1993.56,-13085.5,0,13236.5,-178036
step02_gravity_refstate-crust.xmf,1240,-6.48706e-06,7.82149e-06,0,3.07705e-06,-3.28205e+08,-3.27224e+08,-3.2776e+08,211086,-0.0179602,-0.423717,-0,0.424097,2660.54,-11934.5,0,12227.5,-211086
step02_gravity_refstate-crust.xmf,1241,-6.21233e-06,5.95204e-06,0,2.30964e-06,-2.58957e+08,-2.58123e+08,-2.58531e+08,158441,-0.0158974,-0.407287,-0,0.407597,2491.62,-9411.67,0,9735.9,-158441
step02_gravity_refstate-crust.xmf,1242,-8.77844e-06,1.44421e-05,0,6.76719e-06,-5.00818e+08,-4.99225e+08,-5.00216e+08,464229,-0.0311522,-0.487927,-0,0.488921,3180.67,-18219.6,0,18495.2,-464229
step02_gravity_refstate-crust.xmf,1243,-7.68712e-06,1.13494e-05,0,4.37098e-06,-4.25992e+08,-4.24686e+08,-4.25465e+08,299849,-0.0219435,-0.457261,-0,0.457787,2690.47,-15495.1,0,15727,-299849
step02_gravity_refstate-crust.xmf,1244,-7.20263e-06,1.01291e-05,0,3.92867e-06,-3.94783e+08,-3.93594e+08,-3.94289e+08,269507,-0.0205725,-0.444974,-0,0.445449,2708.82,-14359,0,14612.3,-269507
step02_gravity_refstate-crust.xmf,1245,-1.14014e-05,2.70751e-05,0,2.16585e-05,-7.18777e+08,-7.16138e+08,-7.17995e+08,1.48577e+06,-0.0666885,-0.637397,-0,0.640876,3818.95,-26163.6,0,26440.8,-1.48577e+06
step02_gravity_refstate-crust.xmf,1246,-1.00575e-05,2.63574e-05,0,2.45908e-05,-7.36794e+08,-7.34296e+08,-7.36104e+08,1.68693e+06,-0.0717911,-0.644593,-0,0.648579,4066.22,-26823.8,0,27130.3,-1.68693e+06
step02_gravity_refstate-crust.xmf,1247,-1.20676e-05,3.57478e-05,0,3.08732e-05,-7.86838e+08,-7.83558e+08,-7.86011e+08,2.1179e+06,-0.0710487,-0.719892,-0,0.723389,3692.2,-28652.2,0,28889.1,-2.1179e+06
step02_gravity_refstate-crust.xmf,1248,-8.95018e-06,2.66812e-05,0,2.76939e-05,-7.55205e+08,-7.52761e+08,-7.54591e+08,1.8998e+06,-0.0748653,-0.656576,-0,0.66083,4185.82,-27499.1,0,27815.8,-1.8998e+06
step02_gravity_refstate-crust.xmf,1249,-1.01846e-05,3.06953e-05,0,2.98004e-05,-7.72901e+08,-7.70097e+08,-7.72203e+08,2.04431e+06,-0.0736566,-0.688277,-0,0.692207,3942.58,-28144.6,0,28419.4,-2.04431e+06
step02_gravity_refstate-crust.xmf,1250,-1.31776e-05,3.98078e-05,0,3.15946e-05,-7.99817e+08,-7.96182e+08,-7.98913e+08,2.16739e+06,-0.0684444,-0.747161,-0,0.75029,3542.79,-29126.5,0,29341.1,-2.16739e+06
step02_gravity_refstate-crust.xmf,1251,-1.17021e-05,4.62039e-05,0,3.3834e-05,-8.23375e+08,-8.19403e+08,-8.22573e+08,2.32101e+06,-0.0637175,-0.787572,-0,0.790146,3497.18,-30000,0,30203.2,-2.32101e+06
step02_gravity_refstate-crust.xmf,1252,-2.57133e-07,-3.78621e-05,0,-3.44118e-05,-1.01344e+09,-1.01602e+09,-1.01343e+09,-2.36065e+06,-0.100551,-0.534173,-0,0.543554,-5103.53,-36835.8,-0,37187.6,-2.36065e+06
step02_gravity_refstate-crust.xmf,1253,4.67745e-06,-5.47319e-05,0,-4.58253e-05,-9.98854e+08,-1.00293e+09,-9.99175e+08,-3.14361e+06,-0.096056,-0.623611,-0,0.630965,-4299.58,-36298.5,-0,36552.2,-3.14361e+06
step02_gravity_refstate-crust.xmf,1254,1.22156e-05,-7.45598e-05,0,-4.83702e-05,-9.90662e+08,-9.96614e+08,-9.915e+08,-3.3182e+06,-0.0907195,-0.67297,-0,0.679057,-4000,-36000,-0,36221.5,-3.3182e+06
step02_gravity_refstate-crust.xmf,1255,-3.90068e-06,-2.62359e-05,0,-2.68765e-05,-1.02946e+09,-1.03099e+09,-1.02919e+09,-1.84373e+06,-0.0982997,-0.434351,-0,0.445335,-6420.86,-37422,-0,37968.8,-1.84373e+06
step02_gravity_refstate-crust.xmf,1256,-2.21247e-06,-3.14023e-05,0,-2.98087e-05,-1.02837e+09,-1.03038e+09,-1.02822e+09,-2.04488e+06,-0.100123,-0.468183,-0,0.478769,-5834.17,-37381.4,-0,37834,-2.04488e+06
step02_gravity_refstate-crust.xmf,1257,-5.44451e-06,-1.91112e-05,0,-2.19609e-05,-1.02936e+09,-1.03029e+09,-1.02898e+09,-1.50652e+06,-0.0928315,-0.3779,-0,0.389135,-7570.84,-37423.1,-0,38181.2,-1.50652e+06
step02_gravity_refstate-crust.xmf,1258,-5.4681e-06,-1.49558e-05,0,-1.86235e-05,-1.03816e+09,-1.03881e+09,-1.03778e+09,-1.27757e+06,-0.0862381,-0.32228,-0,0.333619,-8795.55,-37749.9,-0,38761,-1.27757e+06
step02_gravity_refstate-crust.xmf,1259,-5.45014e-06,-1.76758e-05,0,-2.09556e-05,-1.03888e+09,-1.03971e+09,-1.0385e+09,-1.43755e+06,-0.0901277,-0.350029,-0,0.361446,-8071.57,-37771.9,-0,38624.7,-1.43755e+06
step02_gravity_refstate-crust.xmf,1260,-4.3285e-06,-1.15177e-05,0,-1.52203e-05,-1.0591e+09,-1.05959e+09,-1.0588e+09,-1.04411e+06,-0.0749909,-0.247129,-0,0.258256,-10826.9,-38522.1,-0,40014.7,-1.04411e+06
step02_gravity_refstate-crust.xmf,1261,-4.03963e-06,-1.00235e-05,0,-1.34202e-05,-1.05851e+09,-1.05892e+09,-1.05824e+09,-920625,-0.0712492,-0.222827,-0,0.23394,-11753.5,-38504.4,-0,40258.3,-920625
step02_gravity_refstate-crust.xmf,1262,-3.62535e-06,-8.82439e-06,0,-1.17668e-05,-1.05962e+09,-1.05998e+09,-1.05938e+09,-807202,-0.0673068,-0.197577,-0,0.208727,-12792.7,-38548.4,-0,40615.7,-807202
step02_gravity_refstate-crust.xmf,1263,-3.27213e-06,-7.88612e-06,0,-1.0376e-05,-1.06011e+09,-1.06043e+09,-1.05989e+09,-711794,-0.063913,-0.175798,-0,0.187056,-13794.3,-38568.9,-0,40961.5,-711794
step02_gravity_refstate-crust.xmf,1264,-2.92716e-06,-7.1191e-06,0,-9.18257e-06,-1.0609e+09,-1.06119e+09,-1.0607e+09,-629925,-0.0609184,-0.15642,-0,0.167864,-14770.9,-38600.3,-0,41330,-629925
step02_gravity_refstate-crust.xmf,1265,-2.55032e-06,-7.20628e-06,0,-9.06338e-06,-1.07614e+09,-1.07646e+09,-1.07596e+09,-621748,-0.0593356,-0.142732,-0,0.154574,-15307.5,-39156.5,-0,42042.2,-621748
step02_gravity_refstate-crust.xmf,1266,-6.82778e-06,3.92816e-06,0,1.75302e-06,-1.4244e+08,-1.41702e+08,-1.41971e+08,120257,-0.0216228,-0.384128,-0,0.384736,3073.02,-5164.12,0,6009.29,-120257
step02_gravity_refstate-crust.xmf,1267,-7.39444e-06,3.52544e-06,0,1.65603e-06,-9.5294e+07,-9.45449e+07,-9.47868e+07,113604,-0.0328359,-0.371752,-0,0.3732,4195.55,-3444.82,0,5428.57,-113604
step02_gravity_refstate-crust.xmf,1268,-1.18078e-05,2.2869e-05,0,1.2855e-05,-6.36309e+08,-6.3393e+08,-6.35499e+08,881856,-0.0479843,-0.577047,-0,0.579038,3298.66,-23153.1,0,23386.9,-881856
step02_gravity_refstate-crust.xmf,1269,-9.89836e-06,1.73242e-05,0,8.27135e-06,-5.49724e+08,-5.47857e+08,-5.49045e+08,567415,-0.0357101,-0.516306,-0,0.517539,3164.17,-20000,0,20248.8,-567415
step02_gravity_refstate-crust.xmf,1270,-1.09857e-05,2.00985e-05,0,1.0236e-05,-5.94666e+08,-5.92533e+08,-5.93912e+08,702191,-0.0411843,-0.54642,-0,0.54797,3192.54,-21636.1,0,21870.3,-702191
step02_gravity_refstate-crust.xmf,1271,-1.08516e-05,2.2205e-05,0,1.52941e-05,-6.51531e+08,-6.49264e+08,-6.50787e+08,1.04917e+06,-0.0559492,-0.577729,-0,0.580431,3798.03,-23710.1,0,24012.4,-1.04917e+06
step02_gravity_refstate-crust.xmf,1272,-1.08815e-05,2.40193e-05,0,1.83831e-05,-6.85165e+08,-6.82771e+08,-6.84418e+08,1.26108e+06,-0.0624577,-0.603123,-0,0.606348,3903,-24937.3,0,25240.9,-1.26108e+06
step02_gravity_refstate-crust.xmf,1273,-6.07319e-06,6.56971e-06,0,3.40312e-06,-2.9373e+08,-2.92863e+08,-2.93313e+08,233454,-0.0213998,-0.410771,-0,0.411328,3329.61,-10679.1,0,11186.2,-233454
step02_gravity_refstate-crust.xmf,1274,-8.76636e-06,1.5154e-05,0,8.42844e-06,-5.25948e+08,-5.24307e+08,-5.25347e+08,578191,-0.0378484,-0.495443,-0,0.496886,3665.96,-19135.7,0,19483.7,-578191
step02_gravity_refstate-crust.xmf,1275,-7.78788e-06,1.19585e-05,0,5.53458e-06,-4.48843e+08,-4.47488e+08,-4.48308e+08,379672,-0.0271226,-0.462963,-0,0.463757,3181.21,-16327.6,0,16634.6,-379672
step02_gravity_refstate-crust.xmf,1276,-7.83033e-06,1.25987e-05,0,6.95246e-06,-4.75195e+08,-4.73794e+08,-4.74658e+08,476939,-0.0331957,-0.469488,-0,0.47066,3697.18,-17287.8,0,17678.7,-476939
step02_gravity_refstate-crust.xmf,1277,-1.20332e-05,4.12268e-05,0,3.59475e-05,-8.11548e+08,-8.07894e+08,-8.10722e+08,2.466e+06,-0.0692008,-0.749764,-0,0.752951,3749.01,-29560.4,0,29797.1,-2.466e+06
step02_gravity_refstate-crust.xmf,1278,-8.71862e-06,3.3206e-05,0,3.64145e-05,-7.99518e+08,-7.96642e+08,-7.9892e+08,2.49803e+06,-0.0736061,-0.714116,-0,0.717899,4013.31,-29123.4,0,29398.6,-2.49803e+06
step02_gravity_refstate-crust.xmf,1279,4.1792e-06,-4.89157e-05,0,-3.88685e-05,-1.01375e+09,-1.0174e+09,-1.01404e+09,-2.66638e+06,-0.099589,-0.573864,-0,0.582441,-4562.83,-36847.9,-0,37129.3,-2.66638e+06
step02_gravity_refstate-crust.xmf,1280,1.7137e-05,-7.37696e-05,0,-3.79267e-05,-1.00152e+09,-1.00775e+09,-1.00269e+09,-2.60177e+06,-0.0905504,-0.666248,-0,0.672373,-3744.1,-36416.4,-0,36608.3,-2.60177e+06
step02_gravity_refstate-crust.xmf,1281,1.69764e-05,-8.00982e-05,0,-3.52912e-05,-9.90368e+08,-9.97027e+08,-9.91533e+08,-2.42098e+06,-0.0840094,-0.717385,-0,0.722287,-3499.28,-36000,-0,36169.7,-2.42098e+06
step02_gravity_refstate-crust.xmf,1282,2.05228e-05,-8.05713e-05,0,-3.01157e-05,-1.00207e+09,-1.009e+09,-1.00348e+09,-2.06594e+06,-0.0806784,-0.702179,-0,0.706798,-3211.88,-36439.6,-0,36580.9,-2.06594e+06
step02_gravity_refstate-crust.xmf,1283,2.05657e-05,-8.54787e-05,0,-2.87516e-05,-9.90198e+08,-9.97473e+08,-9.91609e+08,-1.97236e+06,-0.0745597,-0.752014,-0,0.755701,-2999.32,-36000,-0,36124.7,-1.97236e+06
step02_gravity_refstate-crust.xmf,1284,2.28561e-05,-8.54952e-05,0,-2.43568e-05,-1.00201e+09,-1.00944e+09,-1.00358e+09,-1.67088e+06,-0.0693029,-0.732439,-0,0.73571,-2682.75,-36439.2,-0,36537.8,-1.67088e+06
step02_gravity_refstate-crust.xmf,1285,2.28465e-05,-8.94731e-05,0,-2.31834e-05,-9.90114e+08,-9.9782e+08,-9.91682e+08,-1.59038e+06,-0.0637202,-0.780132,-0,0.78273,-2499.83,-36000,-0,36086.7,-1.59038e+06
step02_gravity_refstate-crust.xmf,1286,2.44871e-05,-8.90945e-05,0,-1.94383e-05,-1.00146e+09,-1.00925e+09,-1.00314e+09,-1.33347e+06,-0.0575753,-0.756919,-0,0.759106,-2186.46,-36420.3,-0,36485.9,-1.33347e+06
step02_gravity_refstate-crust.xmf,1287,2.44174e-05,-9.25156e-05,0,-1.81066e-05,-9.90069e+08,-9.98091e+08,-9.91744e+08,-1.24212e+06,-0.051919,-0.802582,-0,0.80426,-2000,-36000,-0,36055.5,-1.24212e+06
step02_gravity_refstate-crust.xmf,1288,2.54331e-05,-9.19869e-05,0,-1.52722e-05,-9.98892e+08,-1.00695e+09,-1.00064e+09,-1.04768e+06,-0.0460901,-0.782113,-0,0.78347,-1732.68,-36326.1,-0,36367.4,-1.04768e+06
step02_gravity_refstate-crust.xmf,1289,2.55081e-05,-9.47505e-05,0,-1.33693e-05,-9.90043e+08,-9.98293e+08,-9.91793e+08,-917132,-0.0394567,-0.819742,-0,0.820691,-1500.17,-36000,-0,36031.2,-917132
step02_gravity_refstate-crust.xmf,1290,2.63984e-05,-9.34244e-05,0,-1.13076e-05,-1.00087e+09,-1.00909e+09,-1.00268e+09,-775704,-0.0348096,-0.787641,-0,0.78841,-1292.55,-36399.7,-0,36422.7,-775704
step02_gravity_refstate-crust.xmf,1291,2.6254e-05,-9.63057e-05,0,-8.81509e-06,-9.90026e+08,-9.98434e+08,-9.91827e+08,-604716,-0.0265524,-0.831847,-0,0.83227,-1000.68,-36000,-0,36013.9,-604716
step02_gravity_refstate-crust.xmf,1292,3.41326e-07,-3.76647e-05,0,-3.26454e-05,-1.02745e+09,-1.03006e+09,-1.02748e+09,-2.23948e+06,-0.100722,-0.50166,-0,0.511672,-5298.83,-37348.5,-0,37722.5,-2.23948e+06
step02_gravity_refstate-crust.xmf,1293,-4.51859e-06,-2.17043e-05,0,-2.37528e-05,-1.04462e+09,-1.04579e+09,-1.04431e+09,-1.62944e+06,-0.0931033,-0.376001,-0,0.387356,-7357.81,-37978.4,-0,38684.5,-1.62944e+06
step02_gravity_refstate-crust.xmf,1294,-3.35118e-06,-2.60114e-05,0,-2.62632e-05,-1.04528e+09,-1.04683e+09,-1.04505e+09,-1.80165e+06,-0.0955619,-0.405105,-0,0.416224,-6702.49,-38000.6,-0,38587.2,-1.80165e+06
step02_gravity_refstate-crust.xmf,1295,-4.5981e-06,-1.32835e-05,0,-1.71293e-05,-1.05847e+09,-1.05906e+09,-1.05815e+09,-1.17507e+06,-0.0788947,-0.273032,-0,0.284202,-9947.46,-38495.3,-0,39759.8,-1.17507e+06
step02_gravity_refstate-crust.xmf,1296,-4.66911e-06,-1.53678e-05,0,-1.90608e-05,-1.05758e+09,-1.05832e+09,-1.05726e+09,-1.30757e+06,-0.0826034,-0.298653,-0,0.309866,-9160.16,-38459.7,-0,39535.5,-1.30757e+06
step02_gravity_refstate-crust.xmf,1297,-2.62168e-06,-8.06085e-06,0,-1.02942e-05,-1.07754e+09,-1.07792e+09,-1.07736e+09,-706180,-0.0618888,-0.160972,-0,0.172459,-14285.6,-39205.9,-0,41727.5,-706180
step02_gravity_refstate-crust.xmf,1298,-6.11826e-06,5.03128e-06,0,2.50539e-06,-2.21198e+08,-2.20433e+08,-2.20779e+08,171870,-0.0198898,-0.396631,-0,0.397129,3129.11,-8035.98,0,8623.71,-171870
step02_gravity_refstate-crust.xmf,1299,-6.15478e-06,4.31076e-06,0,2.61707e-06,-1.83535e+08,-1.82817e+08,-1.83113e+08,179531,-0.0254193,-0.385802,-0,0.386639,3909.85,-6663.55,0,7725.92,-179531
step02_gravity_refstate-crust.xmf,1300,-1.05877e-05,4.02734e-06,0,-2.68489e-09,-1.00534e+06,-2748.76,-279024,-184.183,-0.0438294,-0.360588,-0,0.363242,3942.22,0,0,3942.22,-184.183
step02_gravity_refstate-crust.xmf,1301,-8.45599e-06,3.43996e-06,0,1.08647e-06,-4.71682e+07,-4.63521e+07,-4.65881e+07,74532.1,-0.044954,-0.360968,-0,0.363757,4937.72,-1688.32,0,5218.38,-74532.1
step02_gravity_refstate-crust.xmf,1302,-1.04685e-05,2.01448e-05,0,1.26052e-05,-6.15269e+08,-6.13169e+08,-6.14551e+08,864713,-0.0493931,-0.552022,-0,0.554228,3697.3,-22388.3,0,22691.6,-864713
step02_gravity_refstate-crust.xmf,1303,-9.71724e-06,1.77825e-05,0,1.02565e-05,-5.72572e+08,-5.70685e+08,-5.71905e+08,703599,-0.0430954,-0.523539,-0,0.52531,3646.2,-20833.3,0,21149.9,-703599
step02_gravity_refstate-crust.xmf,1304,-9.58411e-06,2.14928e-05,0,1.79853e-05,-6.70409e+08,-6.68278e+08,-6.69752e+08,1.23379e+06,-0.0637649,-0.579481,-0,0.582978,4263.44,-24401.4,0,24771.1,-1.23379e+06
step02_gravity_refstate-crust.xmf,1305,-1.04461e-05,2.43679e-05,0,2.01961e-05,-7.00075e+08,-6.97686e+08,-6.99358e+08,1.38545e+06,-0.0662677,-0.611668,-0,0.615247,4038.97,-25482.4,0,25800.5,-1.38545e+06
step02_gravity_refstate-crust.xmf,1306,-6.49945e-06,8.52218e-06,0,4.27509e-06,-3.59918e+08,-3.58888e+08,-3.59472e+08,293271,-0.0236732,-0.428492,-0,0.429146,3382.58,-13090.1,0,13520.1,-293271
step02_gravity_refstate-crust.xmf,1307,-5.95429e-06,7.19756e-06,0,4.50642e-06,-3.27026e+08,-3.26124e+08,-3.26618e+08,309140,-0.02661,-0.413928,-0,0.414782,4056.11,-11892.8,0,12565.4,-309140
step02_gravity_refstate-crust.xmf,1308,-5.79401e-06,5.52131e-06,0,3.5749e-06,-2.58176e+08,-2.574e+08,-2.57778e+08,245238,-0.0249923,-0.398438,-0,0.399221,4007.01,-9384.26,0,10203.9,-245238
step02_gravity_refstate-crust.xmf,1309,-7.7272e-06,1.30715e-05,0,8.50008e-06,-5.01191e+08,-4.99765e+08,-5.00661e+08,583105,-0.0396333,-0.47526,-0,0.47691,4202.9,-18235.4,0,18713.4,-583105
step02_gravity_refstate-crust.xmf,1310,-7.06171e-06,1.04295e-05,0,5.62404e-06,-4.20965e+08,-4.19765e+08,-4.2048e+08,385809,-0.0285939,-0.447416,-0,0.448329,3632.09,-15313.2,0,15738.1,-385809
step02_gravity_refstate-crust.xmf,1311,-9.03378e-06,2.38163e-05,0,2.36285e-05,-7.24403e+08,-7.22149e+08,-7.23783e+08,1.62091e+06,-0.0724576,-0.622643,-0,0.626844,4304.64,-26372.9,0,26721.9,-1.62091e+06
step02_gravity_refstate-crust.xmf,1312,-7.08682e-06,2.20928e-05,0,2.62902e-05,-7.41018e+08,-7.39017e+08,-7.40532e+08,1.80351e+06,-0.0766363,-0.624221,-0,0.628908,4573.68,-26983,0,27367.9,-1.80351e+06
step02_gravity_refstate-crust.xmf,1313,-6.77579e-06,2.71313e-05,0,3.35687e-05,-7.85732e+08,-7.83406e+08,-7.85267e+08,2.30282e+06,-0.0764824,-0.681677,-0,0.685954,4265.07,-28620,0,28936,-2.30282e+06
step02_gravity_refstate-crust.xmf,1314,-5.50015e-06,2.29675e-05,0,3.09936e-05,-7.7121e+08,-7.69257e+08,-7.70833e+08,2.12616e+06,-0.078328,-0.650909,-0,0.655605,4541.75,-28090,0,28454.8,-2.12616e+06
step02_gravity_refstate-crust.xmf,1315,2.69265e-06,2.83694e-05,0,4.70216e-05,-8.22534e+08,-8.20773e+08,-8.22719e+08,3.22568e+06,-0.0677019,-0.745636,-0,0.748704,4000,-30000,0,30265.5,-3.22568e+06
step02_gravity_refstate-crust.xmf,1316,2.70214e-05,-9.4742e-05,0,-6.72891e-06,-1.00111e+09,-1.00946e+09,-1.00296e+09,-461603,-0.0210967,-0.796519,-0,0.796798,-777.299,-36409,-0,36417.3,-461603
step02_gravity_refstate-crust.xmf,1317,2.65974e-05,-9.71835e-05,0,-4.37421e-06,-9.90026e+08,-9.98517e+08,-9.9185e+08,-300071,-0.0133539,-0.839065,-0,0.839172,-500.717,-36000,-0,36003.5,-300071
step02_gravity_refstate-crust.xmf,1318,4.17922e-06,-4.54152e-05,0,-3.47575e-05,-1.02742e+09,-1.03082e+09,-1.02771e+09,-2.38436e+06,-0.0996852,-0.533486,-0,0.54272,-4801.19,-37350.9,-0,37658.2,-2.38436e+06
step02_gravity_refstate-crust.xmf,1319,-1.52787e-06,-3.13422e-05,0,-2.8807e-05,-1.04417e+09,-1.04622e+09,-1.04407e+09,-1.97616e+06,-0.0974197,-0.438057,-0,0.448759,-6053.54,-37959.5,-0,38439.1,-1.97616e+06
step02_gravity_refstate-crust.xmf,1320,1.2514e-06,-3.80435e-05,0,-3.12039e-05,-1.04277e+09,-1.04546e+09,-1.04285e+09,-2.14059e+06,-0.0979314,-0.472965,-0,0.482997,-5425.81,-37909.2,-0,38295.5,-2.14059e+06
step02_gravity_refstate-crust.xmf,1321,-4.33698e-06,-1.8024e-05,0,-2.11358e-05,-1.0586e+09,-1.05954e+09,-1.0583e+09,-1.44992e+06,-0.0857072,-0.323704,-0,0.334858,-8421.61,-38493.8,-0,39404.3,-1.44992e+06
step02_gravity_refstate-crust.xmf,1322,-3.22658e-06,-1.37234e-05,0,-1.72268e-05,-1.079e+09,-1.07972e+09,-1.07878e+09,-1.18176e+06,-0.0730009,-0.249273,-0,0.259743,-10416.9,-39247.8,-0,40606.7,-1.18176e+06
step02_gravity_refstate-crust.xmf,1323,-3.1428e-06,-1.18754e-05,0,-1.52323e-05,-1.0791e+09,-1.0797e+09,-1.07888e+09,-1.04494e+06,-0.0701064,-0.224971,-0,0.235642,-11341.7,-39254.5,-0,40860.1,-1.04494e+06
step02_gravity_refstate-crust.xmf,1324,-2.98953e-06,-1.0387e-05,0,-1.343e-05,-1.07914e+09,-1.07964e+09,-1.07893e+09,-921300,-0.0672544,-0.202139,-0,0.213033,-12293.2,-39258.8,-0,41138.5,-921300
step02_gravity_refstate-crust.xmf,1325,-2.80423e-06,-9.15973e-06,0,-1.18007e-05,-1.0792e+09,-1.07964e+09,-1.07901e+09,-809525,-0.064441,-0.180412,-0,0.191575,-13285.5,-39263.9,-0,41450.7,-809525
step02_gravity_refstate-crust.xmf,1326,-6.36651e-06,3.68933e-06,0,2.60159e-06,-1.44047e+08,-1.43357e+08,-1.4361e+08,178469,-0.0326385,-0.374496,-0,0.375916,4757.83,-5224.12,0,7066,-178469
step02_gravity_refstate-crust.xmf,1327,-7.22272e-06,3.22756e-06,0,1.83289e-06,-7.73351e+07,-7.66182e+07,-7.68396e+07,125737,-0.0470271,-0.358197,-0,0.361271,5825.16,-2791.24,0,6459.37,-125737
step02_gravity_refstate-crust.xmf,1328,-9.71632e-06,1.98351e-05,0,1.48339e-05,-6.34e+08,-6.31973e+08,-6.33333e+08,1.01761e+06,-0.0566791,-0.555579,-0,0.558463,4137.09,-23072.8,0,23440.8,-1.01761e+06
step02_gravity_refstate-crust.xmf,1329,-8.58324e-06,1.55634e-05,0,1.01593e-05,-5.49674e+08,-5.48017e+08,-5.49085e+08,696931,-0.0444827,-0.501841,-0,0.503808,4113.14,-20000.8,0,20419.3,-696931
step02_gravity_refstate-crust.xmf,1330,-9.26766e-06,1.77324e-05,0,1.22963e-05,-5.94035e+08,-5.92182e+08,-5.93399e+08,843523,-0.0503928,-0.528784,-0,0.531179,4108.78,-21616.4,0,22003.4,-843523
step02_gravity_refstate-crust.xmf,1331,-8.53921e-06,1.89638e-05,0,1.71505e-05,-6.5279e+08,-6.50903e+08,-6.52204e+08,1.17653e+06,-0.0638946,-0.556424,-0,0.56008,4594.48,-23760.3,0,24200.4,-1.17653e+06
step02_gravity_refstate-crust.xmf,1332,-8.24244e-06,2.07086e-05,0,2.0622e-05,-6.91199e+08,-6.89213e+08,-6.90633e+08,1.41467e+06,-0.0701149,-0.584086,-0,0.58828,4598.65,-25162.5,0,25579.3,-1.41467e+06
step02_gravity_refstate-crust.xmf,1333,-8.6003e-06,2.24186e-05,0,2.23949e-05,-7.10921e+08,-7.08793e+08,-7.10331e+08,1.53629e+06,-0.0717895,-0.605471,-0,0.609712,4443.68,-25881.7,0,26260.4,-1.53629e+06
step02_gravity_refstate-crust.xmf,1334,-5.52492e-06,5.9776e-06,0,4.66349e-06,-2.93404e+08,-2.92615e+08,-2.93025e+08,319915,-0.0297649,-0.399875,-0,0.400982,4772.61,-10668.6,0,11687.4,-319915
step02_gravity_refstate-crust.xmf,1335,-7.53138e-06,1.35315e-05,0,1.00615e-05,-5.26692e+08,-5.25247e+08,-5.26176e+08,690218,-0.0458051,-0.481066,-0,0.483242,4630.76,-19165.2,0,19716.8,-690218
step02_gravity_refstate-crust.xmf,1336,-6.97706e-06,1.08944e-05,0,7.02148e-06,-4.47946e+08,-4.4672e+08,-4.47467e+08,481673,-0.0348122,-0.451641,-0,0.45298,4231.57,-16296.5,0,16837,-481673
step02_gravity_refstate-crust.xmf,1337,-6.7634e-06,1.12188e-05,0,8.528e-06,-4.75527e+08,-4.74293e+08,-4.75063e+08,585020,-0.0412811,-0.455479,-0,0.457345,4799.48,-17302,0,17955.4,-585020
step02_gravity_refstate-crust.xmf,1338,-6.40481e-06,9.04795e-06,0,5.62056e-06,-3.90194e+08,-3.89134e+08,-3.89755e+08,385571,-0.0299654,-0.431871,-0,0.432909,4123.16,-14193.5,0,14780.3,-385571
step02_gravity_refstate-crust.xmf,1339,-4.5651e-06,1.97505e-05,0,2.8649e-05,-7.55983e+08,-7.54315e+08,-7.5567e+08,1.96532e+06,-0.0793967,-0.6214,-0,0.626451,4846.53,-27534.4,0,27957.7,-1.96532e+06
step02_gravity_refstate-crust.xmf,1340,-6.29093e-06,1.9703e-05,0,2.46317e-05,-7.2547e+08,-7.23687e+08,-7.25038e+08,1.68973e+06,-0.0767305,-0.599517,-0,0.604408,4842.26,-26416.5,0,26856.7,-1.68973e+06
step02_gravity_refstate-crust.xmf,1341,-6.91493e-07,2.22502e-05,0,4.0381e-05,-8.14247e+08,-8.12673e+08,-8.142e+08,2.77014e+06,-0.0721648,-0.706756,-0,0.71043,4295.59,-29675.1,0,29984.4,-2.77014e+06
step02_gravity_refstate-crust.xmf,1342,-1.52709e-06,2.0314e-05,0,3.62733e-05,-7.99208e+08,-7.9771e+08,-7.99104e+08,2.48835e+06,-0.0765258,-0.671309,-0,0.675657,4573.57,-29121.3,0,29478.2,-2.48835e+06
step02_gravity_refstate-crust.xmf,1343,2.71673e-05,-9.55001e-05,0,-3.14735e-06,-9.99938e+08,-1.00835e+09,-1.0018e+09,-215908,-0.00998069,-0.804913,-0,0.804974,-367.066,-36365.8,-0,36367.6,-215908
step02_gravity_refstate-crust.xmf,1344,2.67872e-05,-9.74881e-05,0,3.21191e-08,-9.90017e+08,-9.98543e+08,-9.91855e+08,2203.37,3.05005e-07,-0.841467,0,0.841467,0,-36000,0,36000,-2203.37
step02_gravity_refstate-crust.xmf,1345,1.30033e-05,-6.37519e-05,0,-3.77476e-05,-1.0143e+09,-1.01956e+09,-1.01519e+09,-2.58949e+06,-0.0946313,-0.615655,-0,0.622885,-3990.84,-36880.4,-0,37095.7,-2.58949e+06
step02_gravity_refstate-crust.xmf,1346,9.74976e-06,-5.6384e-05,0,-3.55947e-05,-1.02757e+09,-1.03211e+09,-1.02824e+09,-2.44179e+06,-0.0959443,-0.568363,-0,0.576404,-4261.26,-37361.8,-0,37604,-2.44179e+06
step02_gravity_refstate-crust.xmf,1347,1.89131e-05,-7.41566e-05,0,-3.21329e-05,-1.01431e+09,-1.02069e+09,-1.01561e+09,-2.20432e+06,-0.0859828,-0.652202,-0,0.657846,-3451.99,-36888.6,-0,37049.8,-2.20432e+06
step02_gravity_refstate-crust.xmf,1348,2.21768e-05,-8.08153e-05,0,-2.60186e-05,-1.01437e+09,-1.02143e+09,-1.01589e+09,-1.78487e+06,-0.0745012,-0.683822,-0,0.687868,-2893.82,-36893.6,-0,37006.9,-1.78487e+06
step02_gravity_refstate-crust.xmf,1349,2.59281e-05,-8.96745e-05,0,-1.47845e-05,-1.0115e+09,-1.01943e+09,-1.01328e+09,-1.01422e+06,-0.0458027,-0.740845,-0,0.74226,-1703.26,-36790.7,-0,36830.1,-1.01422e+06
step02_gravity_refstate-crust.xmf,1350,2.4384e-05,-8.56431e-05,0,-2.01251e-05,-1.0146e+09,-1.02214e+09,-1.01627e+09,-1.38058e+06,-0.0605333,-0.710469,-0,0.713043,-2291.87,-36903.4,-0,36974.5,-1.38058e+06
step02_gravity_refstate-crust.xmf,1351,2.6925e-05,-9.17307e-05,0,-9.2208e-06,-1.01296e+09,-1.0211e+09,-1.01481e+09,-632547,-0.0292349,-0.751076,-0,0.751645,-1073.61,-36844.6,-0,36860.3,-632547
step02_gravity_refstate-crust.xmf,1352,3.61733e-06,-4.35887e-05,0,-3.29898e-05,-1.03895e+09,-1.04218e+09,-1.03919e+09,-2.2631e+06,-0.0979562,-0.50284,-0,0.512292,-4995.2,-37771,-0,38099.9,-2.2631e+06
step02_gravity_refstate-crust.xmf,1353,-3.7854e-06,-2.13395e-05,0,-2.34188e-05,-1.06077e+09,-1.06197e+09,-1.06051e+09,-1.60653e+06,-0.0879539,-0.348139,-0,0.359077,-7726.51,-38569.9,-0,39336.2,-1.60653e+06
step02_gravity_refstate-crust.xmf,1354,-2.62178e-06,-2.56564e-05,0,-2.57914e-05,-1.06192e+09,-1.0635e+09,-1.06174e+09,-1.76929e+06,-0.0898371,-0.375799,-0,0.386388,-7009.7,-38610,-0,39241.1,-1.76929e+06
step02_gravity_refstate-crust.xmf,1355,-1.07591e-06,-3.05254e-05,0,-2.78819e-05,-1.06026e+09,-1.06228e+09,-1.06018e+09,-1.9127e+06,-0.0917408,-0.406062,-0,0.416296,-6342.89,-38548.1,-0,39066.5,-1.9127e+06
step02_gravity_refstate-crust.xmf,1356,-3.0686e-06,-1.62462e-05,0,-1.95655e-05,-1.07933e+09,-1.08024e+09,-1.07912e+09,-1.34219e+06,-0.0758503,-0.276309,-0,0.286531,-9467.9,-39256.6,-0,40382.2,-1.34219e+06
step02_gravity_refstate-crust.xmf,1357,-3.41669e-06,-1.78756e-05,0,-2.09664e-05,-1.07271e+09,-1.0737e+09,-1.07247e+09,-1.43829e+06,-0.0802143,-0.301158,-0,0.311658,-8807.2,-39011.5,-0,39993.3,-1.43829e+06
step02_gravity_refstate-crust.xmf,1358,-5.64595e-06,4.62165e-06,0,3.64452e-06,-2.21512e+08,-2.20808e+08,-2.21125e+08,250014,-0.0293765,-0.386256,-0,0.387372,4742.56,-8048.68,0,9342.01,-250014
step02_gravity_refstate-crust.xmf,1359,-5.63898e-06,3.93094e-06,0,3.54628e-06,-1.83499e+08,-1.82842e+08,-1.83112e+08,243275,-0.0350067,-0.373981,-0,0.375616,5535.88,-6663.73,0,8663.21,-243275
step02_gravity_refstate-crust.xmf,1360,-6.56673e-06,3.34184e-06,0,2.44653e-06,-1.1256e+08,-1.1188e+08,-1.12109e+08,167832,-0.0410836,-0.363917,-0,0.366229,5635.12,-4076.46,0,6955.01,-167832
step02_gravity_refstate-crust.xmf,1361,-9.59563e-06,3.653e-06,0,8.6327e-09,-911012,-2155.77,-252752,592.203,-0.0637836,-0.348087,-0,0.353883,5915.08,0,0,5915.08,-592.203
step02_gravity_refstate-crust.xmf,1362,-7.45427e-06,3.10361e-06,0,1.4212e-06,-5.00419e+07,-4.93176e+07,-4.95305e+07,97494.4,-0.0600762,-0.345913,-0,0.351091,6912.27,-1796.47,0,7141.9,-97494.4
step02_gravity_refstate-crust.xmf,1363,-8.54483e-06,1.74482e-05,0,1.43516e-05,-6.14599e+08,-6.12816e+08,-6.14013e+08,984522,-0.0573861,-0.532235,-0,0.53532,4546.79,-22367.5,0,22825,-984522
step02_gravity_refstate-crust.xmf,1364,-8.15106e-06,1.5658e-05,0,1.20163e-05,-5.72783e+08,-5.7115e+08,-5.72224e+08,824321,-0.0513178,-0.506698,-0,0.50929,4561.78,-20844,0,21337.4,-824321
step02_gravity_refstate-crust.xmf,1365,-7.03373e-06,1.78888e-05,0,1.94565e-05,-6.72213e+08,-6.70503e+08,-6.71731e+08,1.33472e+06,-0.0703076,-0.556126,-0,0.560552,5013.18,-24471.8,0,24980,-1.33472e+06
step02_gravity_refstate-crust.xmf,1366,-5.80153e-06,7.67802e-06,0,5.69147e-06,-3.589e+08,-3.57976e+08,-3.58502e+08,390435,-0.0319484,-0.416432,-0,0.417656,4735.06,-13054.5,0,13886.8,-390435
step02_gravity_refstate-crust.xmf,1367,-5.29207e-06,6.44539e-06,0,5.7164e-06,-3.26749e+08,-3.25944e+08,-3.26386e+08,392145,-0.0342143,-0.40138,-0,0.402836,5409.71,-11884.2,0,13057.5,-392145
step02_gravity_refstate-crust.xmf,1368,-5.20539e-06,4.95084e-06,0,4.71957e-06,-2.5846e+08,-2.57763e+08,-2.58103e+08,323763,-0.0335111,-0.38586,-0,0.387313,5554.98,-9396.1,0,10915.3,-323763
step02_gravity_refstate-crust.xmf,1369,-6.51989e-06,1.15296e-05,0,9.96462e-06,-5.03022e+08,-5.01783e+08,-5.02574e+08,683573,-0.047184,-0.460254,-0,0.462667,5232.6,-18304.5,0,19037.7,-683573
step02_gravity_refstate-crust.xmf,1370,-6.2183e-06,9.33453e-06,0,7.02038e-06,-4.19394e+08,-4.18327e+08,-4.18968e+08,481598,-0.0362423,-0.43442,-0,0.435929,4800.26,-15257.8,0,15995.1,-481598
step02_gravity_refstate-crust.xmf,1371,-3.8429e-06,1.69828e-05,0,2.65607e-05,-7.40713e+08,-7.39285e+08,-7.4045e+08,1.82206e+06,-0.0798293,-0.594481,-0,0.599817,5159.95,-26977.2,0,27466.2,-1.82206e+06
step02_gravity_refstate-crust.xmf,1372,-1.45016e-06,1.78049e-05,0,3.30055e-05,-7.85031e+08,-7.8371e+08,-7.84931e+08,2.26418e+06,-0.0789504,-0.64106,-0,0.645904,4854.4,-28601.5,0,29010.6,-2.26418e+06
step02_gravity_refstate-crust.xmf,1373,-1.2569e-06,1.56169e-05,0,3.02738e-05,-7.70408e+08,-7.6925e+08,-7.70322e+08,2.07678e+06,-0.0804015,-0.612854,-0,0.618106,5152.43,-28066.6,0,28535.6,-2.07678e+06
step02_gravity_refstate-crust.xmf,1374,-1.07778e-06,1.9293e-05,0,3.98251e-05,-8.29382e+08,-8.27985e+08,-8.29308e+08,2.732e+06,-0.06227,-0.718496,-0,0.721189,4294.63,-30220,0,30523.6,-2.732e+06
step02_gravity_refstate-crust.xmf,1375,-6.37124e-06,2.15482e-05,0,4.88141e-05,-8.37627e+08,-8.35712e+08,-8.3719e+08,3.34864e+06,-0.0532819,-0.75881,-0,0.760678,4000,-30502.3,0,30763.4,-3.34864e+06
step02_gravity_refstate-crust.xmf,1376,2.74397e-05,-9.30928e-05,0,-4.15408e-06,-1.01209e+09,-1.02036e+09,-1.01397e+09,-284970,-0.0132471,-0.761866,-0,0.761981,-483.437,-36813.1,-0,36816.2,-284970
step02_gravity_refstate-crust.xmf,1377,2.73932e-05,-9.50351e-05,0,4.23862e-08,-1.00347e+09,-1.01186e+09,-1.00534e+09,2907.69,4.95245e-07,-0.793746,0,0.793746,0,-36495.8,0,36495.8,-2907.69
step02_gravity_refstate-crust.xmf,1378,7.61921e-06,-5.07983e-05,0,-3.29729e-05,-1.04126e+09,-1.04527e+09,-1.04178e+09,-2.26194e+06,-0.0946523,-0.524859,-0,0.533325,-4540.07,-37860.2,-0,38131.5,-2.26194e+06
step02_gravity_refstate-crust.xmf,1379,1.07822e-06,-3.64972e-05,0,-2.98897e-05,-1.05694e+09,-1.05951e+09,-1.05701e+09,-2.05044e+06,-0.0931767,-0.440228,-0,0.449981,-5689,-38426.7,-0,38845.5,-2.05044e+06
step02_gravity_refstate-crust.xmf,1380,4.99898e-06,-4.4795e-05,0,-3.12536e-05,-1.05384e+09,-1.05725e+09,-1.05418e+09,-2.14399e+06,-0.0924086,-0.479923,-0,0.488739,-4972.44,-38316.9,-0,38638.2,-2.14399e+06
step02_gravity_refstate-crust.xmf,1381,-2.45849e-06,-2.11403e-05,0,-2.31875e-05,-1.08002e+09,-1.0813e+09,-1.07985e+09,-1.59066e+06,-0.0791743,-0.317274,-0,0.327003,-8166.13,-39276.5,-0,40116.4,-1.59066e+06
step02_gravity_refstate-crust.xmf,1382,-5.78675e-06,3.32859e-06,0,3.31428e-06,-1.44454e+08,-1.43829e+08,-1.44057e+08,227359,-0.0422935,-0.361728,-0,0.364192,6352.55,-5240.74,0,8235.31,-227359
step02_gravity_refstate-crust.xmf,1383,-6.19815e-06,3.025e-06,0,2.68221e-06,-1.01681e+08,-1.01048e+08,-1.01256e+08,184000,-0.0514866,-0.350402,-0,0.354164,7044.51,-3681.41,0,7948.45,-184000
step02_gravity_refstate-crust.xmf,1384,-7.52345e-06,1.67478e-05,0,1.63645e-05,-6.34372e+08,-6.32707e+08,-6.33856e+08,1.12261e+06,-0.0639319,-0.53356,-0,0.537377,4969.25,-23090.5,0,23619.1,-1.12261e+06
step02_gravity_refstate-crust.xmf,1385,-7.12604e-06,1.3626e-05,0,1.16865e-05,-5.5058e+08,-5.49156e+08,-5.50091e+08,801696,-0.0519812,-0.485243,-0,0.488019,5051.35,-20036.7,0,20663.6,-801696
step02_gravity_refstate-crust.xmf,1386,-7.51727e-06,1.53203e-05,0,1.38335e-05,-5.94569e+08,-5.93002e+08,-5.94053e+08,948975,-0.0576834,-0.510259,-0,0.513509,4965.9,-21639.2,0,22201.7,-948975
step02_gravity_refstate-crust.xmf,1387,-6.16714e-06,1.55961e-05,0,1.83275e-05,-6.54018e+08,-6.52526e+08,-6.53595e+08,1.25726e+06,-0.0698865,-0.532834,-0,0.537397,5379.92,-23809.4,0,24409.6,-1.25726e+06
step02_gravity_refstate-crust.xmf,1388,-5.77042e-06,1.80016e-05,0,2.30171e-05,-7.08552e+08,-7.06921e+08,-7.08156e+08,1.57898e+06,-0.0761687,-0.576751,-0,0.581759,5095.77,-25800.1,0,26298.5,-1.57898e+06
step02_gravity_refstate-crust.xmf,1389,-5.12962e-06,1.59899e-05,0,2.14778e-05,-6.90779e+08,-6.8933e+08,-6.90427e+08,1.47337e+06,-0.0755528,-0.552768,-0,0.557907,5417.29,-25152.5,0,25729.3,-1.47337e+06
step02_gravity_refstate-crust.xmf,1390,-4.86305e-06,5.29567e-06,0,5.71756e-06,-2.94044e+08,-2.93347e+08,-2.93711e+08,392225,-0.0370923,-0.386274,-0,0.388051,6179.85,-10693.5,0,12350.8,-392225
step02_gravity_refstate-crust.xmf,1391,-6.20295e-06,1.17761e-05,0,1.1348e-05,-5.28021e+08,-5.26788e+08,-5.27596e+08,778472,-0.0524693,-0.464761,-0,0.467713,5575.71,-19216.3,0,20008.8,-778472
step02_gravity_refstate-crust.xmf,1392,-5.91802e-06,9.5399e-06,0,8.45562e-06,-4.48489e+08,-4.47429e+08,-4.48083e+08,580056,-0.0425465,-0.43639,-0,0.43846,5422.56,-16318.5,0,17195.9,-580056
step02_gravity_refstate-crust.xmf,1393,-5.39809e-06,9.53011e-06,0,1.00598e-05,-4.80179e+08,-4.79155e+08,-4.79808e+08,690099,-0.0494323,-0.437687,-0,0.44047,6052.59,-17474.3,0,18492.8,-690099
step02_gravity_refstate-crust.xmf,1394,-5.56725e-06,8.0084e-06,0,6.9401e-06,-3.89441e+08,-3.8851e+08,-3.89059e+08,476091,-0.0375086,-0.417964,-0,0.419644,5390.56,-14167.9,0,15158.7,-476091
step02_gravity_refstate-crust.xmf,1395,-1.16825e-06,1.39645e-05,0,2.79666e-05,-7.55394e+08,-7.54356e+08,-7.55314e+08,1.91851e+06,-0.0810986,-0.587705,-0,0.593274,5443.85,-27517.8,0,28051.1,-1.91851e+06
step02_gravity_refstate-crust.xmf,1396,-3.32615e-06,1.50364e-05,0,2.47697e-05,-7.25181e+08,-7.23922e+08,-7.24953e+08,1.6992e+06,-0.079741,-0.570139,-0,0.575688,5470.4,-26410.8,0,26971.4,-1.6992e+06
step02_gravity_refstate-crust.xmf,1397,-1.87702e-06,1.36392e-05,0,4.04341e-05,-8.41269e+08,-8.40205e+08,-8.4114e+08,2.77378e+06,-0.0514433,-0.706918,-0,0.708787,4467.8,-30640.8,0,30964.8,-2.77378e+06
step02_gravity_refstate-crust.xmf,1398,2.78229e-06,1.12515e-05,0,3.28765e-05,-7.98058e+08,-7.97477e+08,-7.98248e+08,2.25533e+06,-0.0763903,-0.625334,-0,0.629982,5175.49,-29082.8,0,29539.7,-2.25533e+06
step02_gravity_refstate-crust.xmf,1399,3.42758e-06,1.16326e-05,0,3.49851e-05,-8.12048e+08,-8.11485e+08,-8.12283e+08,2.39998e+06,-0.072214,-0.652345,-0,0.65633,4906.23,-29595.3,0,29999.2,-2.39998e+06
step02_gravity_refstate-crust.xmf,1400,2.99712e-06,1.18813e-05,0,3.56768e-05,-8.25982e+08,-8.25373e+08,-8.26188e+08,2.44743e+06,-0.0646494,-0.676191,-0,0.679275,4703.07,-30101.2,0,30466.4,-2.44743e+06
step02_gravity_refstate-crust.xmf,1401,-5.28463e-06,1.44727e-05,0,5.15425e-05,-8.51519e+08,-8.50163e+08,-8.51156e+08,3.53581e+06,-0.0398788,-0.767827,-0,0.768862,4000,-31001.4,0,31258.4,-3.53581e+06
step02_gravity_refstate-crust.xmf,1402,2.71309e-05,-9.55284e-05,0,3.10005e-06,-9.9977e+08,-1.00818e+09,-1.00163e+09,212663,0.0097654,-0.805566,0,0.805625,359.223,-36359.5,0,36361.3,-212663
step02_gravity_refstate-crust.xmf,1403,2.66646e-05,-9.72028e-05,0,4.38452e-06,-9.90019e+08,-9.98516e+08,-9.91848e+08,300778,0.0133542,-0.839065,0,0.839172,500.717,-36000,0,36003.5,-300778
step02_gravity_refstate-crust.xmf,1404,2.70404e-05,-9.47324e-05,0,6.49313e-06,-1.0014e+09,-1.00975e+09,-1.00325e+09,445429,0.0204127,-0.795884,0,0.796145,751.618,-36419.5,0,36427.3,-445429
step02_gravity_refstate-crust.xmf,1405,2.62557e-05,-9.63018e-05,0,8.80694e-06,-9.90026e+08,-9.98434e+08,-9.91827e+08,604156,0.0265526,-0.831846,0,0.832269,1000.68,-36000,0,36013.9,-604156
step02_gravity_refstate-crust.xmf,1406,1.59611e-05,-6.70117e-05,0,-3.26329e-05,-1.02747e+09,-1.03316e+09,-1.02857e+09,-2.23862e+06,-0.0887041,-0.603306,-0,0.609793,-3699.81,-37367,-0,37549.7,-2.23862e+06
step02_gravity_refstate-crust.xmf,1407,1.27196e-05,-6.03023e-05,0,-3.19319e-05,-1.04132e+09,-1.04633e+09,-1.0422e+09,-2.19053e+06,-0.0888767,-0.55577,-0,0.562831,-3977.91,-37868.5,-0,38076.8,-2.19053e+06
step02_gravity_refstate-crust.xmf,1408,2.0246e-05,-7.5034e-05,0,-2.76142e-05,-1.02723e+09,-1.03377e+09,-1.02862e+09,-1.89434e+06,-0.0784674,-0.634928,-0,0.639758,-3134.06,-37363.2,-0,37494.4,-1.89434e+06
step02_gravity_refstate-crust.xmf,1409,2.30633e-05,-8.0837e-05,0,-2.22384e-05,-1.02701e+09,-1.03414e+09,-1.0286e+09,-1.52555e+06,-0.0660225,-0.661872,-0,0.665156,-2558.07,-37357.6,-0,37445.1,-1.52555e+06
step02_gravity_refstate-crust.xmf,1410,2.49763e-05,-8.51199e-05,0,-1.69157e-05,-1.02628e+09,-1.03383e+09,-1.02799e+09,-1.16042e+06,-0.0519861,-0.685406,-0,0.687375,-1968.74,-37332,-0,37383.9,-1.16042e+06
step02_gravity_refstate-crust.xmf,1411,2.6971e-05,-8.99162e-05,0,-6.84659e-06,-1.02503e+09,-1.03305e+09,-1.02688e+09,-469676,-0.0219095,-0.715023,-0,0.715358,-808.809,-37287.2,-0,37296,-469676
step02_gravity_refstate-crust.xmf,1412,2.62387e-05,-8.80977e-05,0,-1.17257e-05,-1.02562e+09,-1.03346e+09,-1.02742e+09,-804381,-0.0369374,-0.703256,-0,0.704225,-1376.9,-37308.4,-0,37333.8,-804381
step02_gravity_refstate-crust.xmf,1413,9.84348e-07,-3.4552e-05,0,-2.87601e-05,-1.07061e+09,-1.07305e+09,-1.07068e+09,-1.97294e+06,-0.0866475,-0.408913,-0,0.417993,-5991.29,-38927.1,-0,39385.4,-1.97294e+06
step02_gravity_refstate-crust.xmf,1414,-1.43048e-06,-2.55176e-05,0,-2.5558e-05,-1.08038e+09,-1.08204e+09,-1.08029e+09,-1.75328e+06,-0.0805756,-0.346127,-0,0.355382,-7329.27,-39287.1,-0,39965,-1.75328e+06
step02_gravity_refstate-crust.xmf,1415,1.57531e-07,-3.1018e-05,0,-2.76292e-05,-1.07953e+09,-1.08167e+09,-1.07954e+09,-1.89536e+06,-0.0815908,-0.377721,-0,0.386433,-6502.54,-39254,-0,39788.9,-1.89536e+06
step02_gravity_refstate-crust.xmf,1416,-1.97232e-06,-1.92658e-05,0,-2.17355e-05,-1.08797e+09,-1.08916e+09,-1.08783e+09,-1.49106e+06,-0.0740112,-0.290354,-0,0.299638,-8820.19,-39570.8,-0,40541.9,-1.49106e+06
step02_gravity_refstate-crust.xmf,1417,-5.01155e-06,4.08032e-06,0,4.64003e-06,-2.2199e+08,-2.21366e+08,-2.21646e+08,318306,-0.0381557,-0.371797,-0,0.373749,6392.01,-8067.81,0,10293.1,-318306
step02_gravity_refstate-crust.xmf,1418,-4.9966e-06,3.45973e-06,0,4.31478e-06,-1.83168e+08,-1.82588e+08,-1.82826e+08,295994,-0.0436666,-0.358693,-0,0.361341,7161.44,-6653.57,0,9775.29,-295994
step02_gravity_refstate-crust.xmf,1419,-8.31061e-06,3.16847e-06,0,2.43278e-08,-788813,-1348.65,-218705,1668.89,-0.0815595,-0.331301,-0,0.341192,7895.49,0,0,7895.49,-1668.89
step02_gravity_refstate-crust.xmf,1420,-6.28695e-06,2.79395e-06,0,2.24222e-06,-7.52487e+07,-7.46257e+07,-7.48174e+07,153816,-0.0615242,-0.33917,-0,0.344705,7907.27,-2718.39,0,8361.49,-153816
step02_gravity_refstate-crust.xmf,1421,-6.52234e-06,1.4608e-05,0,1.55825e-05,-6.14621e+08,-6.13172e+08,-6.14174e+08,1.06896e+06,-0.0638936,-0.510178,-0,0.514163,5408.04,-22372.1,0,23016.5,-1.06896e+06
step02_gravity_refstate-crust.xmf,1422,-6.37005e-06,1.32616e-05,0,1.34482e-05,-5.73977e+08,-5.7263e+08,-5.7354e+08,922550,-0.0585377,-0.486547,-0,0.490056,5530.63,-20891,0,21610.7,-922550
step02_gravity_refstate-crust.xmf,1423,-4.47441e-06,1.40859e-05,0,2.01096e-05,-6.72837e+08,-6.71564e+08,-6.7253e+08,1.37952e+06,-0.0748317,-0.52939,-0,0.534652,5779.46,-24499,0,25171.5,-1.37952e+06
step02_gravity_refstate-crust.xmf,1424,-5.01141e-06,6.73531e-06,0,6.83067e-06,-3.58401e+08,-3.57595e+08,-3.58057e+08,468584,-0.0389222,-0.402025,-0,0.403905,6029.26,-13038.1,0,14364.7,-468584
step02_gravity_refstate-crust.xmf,1425,-4.55848e-06,5.6178e-06,0,6.68258e-06,-3.26752e+08,-3.26054e+08,-3.26439e+08,458425,-0.0406224,-0.386689,-0,0.388817,6710.64,-11886,0,13649.5,-458425
step02_gravity_refstate-crust.xmf,1426,-4.36072e-06,4.27945e-06,0,5.84773e-06,-2.62965e+08,-2.62372e+08,-2.62666e+08,401155,-0.0420471,-0.367896,-0,0.370291,7335.02,-9562.48,0,12051.7,-401155
step02_gravity_refstate-crust.xmf,1427,-5.49325e-06,1.03314e-05,0,1.10521e-05,-5.08282e+08,-5.07196e+08,-5.07905e+08,758176,-0.0527547,-0.447843,-0,0.450939,6054.09,-18498.3,0,19463.8,-758176
step02_gravity_refstate-crust.xmf,1428,-5.21708e-06,8.07009e-06,0,8.24226e-06,-4.1923e+08,-4.18318e+08,-4.18872e+08,565419,-0.0432506,-0.418429,-0,0.420658,6027.44,-15253.9,0,16401.5,-565419
step02_gravity_refstate-crust.xmf,1429,-9.40006e-07,1.22219e-05,0,2.5999e-05,-7.40745e+08,-7.39842e+08,-7.4068e+08,1.78353e+06,-0.0812749,-0.563872,-0,0.569699,5758.3,-26982.7,0,27590.3,-1.78353e+06
step02_gravity_refstate-crust.xmf,1430,2.31722e-06,1.0379e-05,0,3.04374e-05,-7.83612e+08,-7.83059e+08,-7.83771e+08,2.08801e+06,-0.0788466,-0.597868,-0,0.603045,5487.79,-28553.6,0,29076.2,-2.08801e+06
step02_gravity_refstate-crust.xmf,1431,1.79566e-06,9.76126e-06,0,2.83317e-05,-7.68948e+08,-7.68401e+08,-7.69071e+08,1.94355e+06,-0.080336,-0.575339,-0,0.58092,5761.08,-28016.7,0,28602.9,-1.94355e+06
step02_gravity_refstate-crust.xmf,1432,-1.72324e-06,7.37398e-06,0,4.314e-05,-8.57637e+08,-8.57012e+08,-8.57518e+08,2.9594e+06,-0.0355706,-0.707929,-0,0.708822,4513.87,-31227.6,0,31552.1,-2.9594e+06
step02_gravity_refstate-crust.xmf,1433,-3.61314e-06,7.72652e-06,0,5.34988e-05,-8.6536e+08,-8.64582e+08,-8.65112e+08,3.67002e+06,-0.0267588,-0.773387,-0,0.77385,4000,-31501.6,0,31754.6,-3.67002e+06
step02_gravity_refstate-crust.xmf,1434,2.6459e-05,-9.34097e-05,0,1.10139e-05,-1.00142e+09,-1.00964e+09,-1.00323e+09,755556,0.0340641,-0.786436,0,0.787174,1263.31,-36420,0,36441.9,-755556
step02_gravity_refstate-crust.xmf,1435,2.54946e-05,-9.48071e-05,0,1.33252e-05,-9.90047e+08,-9.983e+08,-9.91796e+08,914111,0.0394571,-0.819742,0,0.820691,1500.17,-36000,0,36031.2,-914111
step02_gravity_refstate-crust.xmf,1436,2.72197e-05,-9.06615e-05,0,-2.9827e-06,-1.02469e+09,-1.03278e+09,-1.02656e+09,-204613,-0.00970338,-0.720347,-0,0.720412,-356.744,-37274.7,-0,37276.4,-204613
step02_gravity_refstate-crust.xmf,1437,2.74509e-05,-9.23507e-05,0,-2.11605e-08,-1.01755e+09,-1.02577e+09,-1.01943e+09,-1451.61,6.72081e-07,-0.745318,0,0.745318,0,-37012.9,0,37012.9,-1451.61
step02_gravity_refstate-crust.xmf,1438,2.74608e-05,-9.32604e-05,0,3.71255e-06,-1.01154e+09,-1.01982e+09,-1.01342e+09,254681,0.0118502,-0.764165,0,0.764257,432.345,-36792.7,0,36795.2,-254681
step02_gravity_refstate-crust.xmf,1439,9.9589e-06,-5.43268e-05,0,-3.06624e-05,-1.05558e+09,-1.05999e+09,-1.05626e+09,-2.10344e+06,-0.0864262,-0.510632,-0,0.517895,-4284.03,-38385.6,-0,38624,-2.10344e+06
step02_gravity_refstate-crust.xmf,1440,3.63481e-06,-4.11318e-05,0,-3.00352e-05,-1.06983e+09,-1.0729e+09,-1.07008e+09,-2.06042e+06,-0.0856117,-0.437429,-0,0.445728,-5348.04,-38899.4,-0,39265.3,-2.06042e+06
step02_gravity_refstate-crust.xmf,1441,-5.12321e-06,2.89997e-06,0,3.84353e-06,-1.42537e+08,-1.41987e+08,-1.42186e+08,263666,-0.051295,-0.345489,-0,0.349277,7968.58,-5172.98,0,9500.42,-263666
step02_gravity_refstate-crust.xmf,1442,-6.40406e-06,2.6576e-06,0,1.60591e-06,-4.77514e+07,-4.71298e+07,-4.73121e+07,110166,-0.0739627,-0.326749,-0,0.335015,8838.7,-1716.64,0,9003.85,-110166
step02_gravity_refstate-crust.xmf,1443,-5.33035e-06,2.59551e-06,0,3.10096e-06,-1.01538e+08,-1.00994e+08,-1.01172e+08,212726,-0.061819,-0.331903,-0,0.337611,8833.61,-3679.05,0,9569.12,-212726
step02_gravity_refstate-crust.xmf,1444,-5.47129e-06,1.3871e-05,0,1.73138e-05,-6.35896e+08,-6.34569e+08,-6.35521e+08,1.18773e+06,-0.0691679,-0.511928,-0,0.51658,5736.08,-23149.8,0,23849.8,-1.18773e+06
step02_gravity_refstate-crust.xmf,1445,-5.55267e-06,1.14996e-05,0,1.28273e-05,-5.51478e+08,-5.50308e+08,-5.51097e+08,879950,-0.0581726,-0.465898,-0,0.469516,6006.76,-20072.4,0,20951.9,-879950
step02_gravity_refstate-crust.xmf,1446,-5.10529e-06,1.22238e-05,0,1.53608e-05,-5.99264e+08,-5.98076e+08,-5.98914e+08,1.05375e+06,-0.0655072,-0.484589,-0,0.488997,6087.04,-21815.1,0,22648.4,-1.05375e+06
step02_gravity_refstate-crust.xmf,1447,-3.8938e-06,1.23089e-05,0,1.88901e-05,-6.55514e+08,-6.54403e+08,-6.55247e+08,1.29586e+06,-0.0740062,-0.508013,-0,0.513376,6151.84,-23868,0,24648,-1.29586e+06
step02_gravity_refstate-crust.xmf,1448,-2.89114e-06,1.3483e-05,0,2.3092e-05,-7.08286e+08,-7.07163e+08,-7.08087e+08,1.58411e+06,-0.0792452,-0.546086,-0,0.551806,5808.8,-25795,0,26441,-1.58411e+06
step02_gravity_refstate-crust.xmf,1449,-2.53448e-06,1.19447e-05,0,2.14992e-05,-6.90576e+08,-6.89583e+08,-6.90403e+08,1.47485e+06,-0.0784043,-0.52319,-0,0.529033,6163.54,-25149.4,0,25893.6,-1.47485e+06
step02_gravity_refstate-crust.xmf,1450,-4.23005e-06,4.73952e-06,0,6.52287e-06,-2.9806e+08,-2.97445e+08,-2.9777e+08,447469,-0.042599,-0.373182,-0,0.375605,7372.03,-10841.4,0,13110.4,-447469
step02_gravity_refstate-crust.xmf,1451,-4.8753e-06,9.97872e-06,0,1.22056e-05,-5.28067e+08,-5.27048e+08,-5.27732e+08,837302,-0.0574831,-0.446788,-0,0.45047,6478.73,-19220.5,0,20283.1,-837302
step02_gravity_refstate-crust.xmf,1452,-4.457e-06,8.82014e-06,0,1.14469e-05,-5.01535e+08,-5.00625e+08,-5.0123e+08,785259,-0.0558302,-0.43055,-0,0.434155,6837.55,-18254.5,0,19493.1,-785259
step02_gravity_refstate-crust.xmf,1453,-4.65768e-06,7.91818e-06,0,9.61285e-06,-4.48555e+08,-4.47692e+08,-4.48236e+08,659441,-0.0493287,-0.416774,-0,0.419683,6702.1,-16323.5,0,17645.8,-659441
step02_gravity_refstate-crust.xmf,1454,-4.64381e-06,6.87917e-06,0,7.99393e-06,-3.89341e+08,-3.88551e+08,-3.89023e+08,548383,-0.0438881,-0.401734,-0,0.404124,6640.52,-14166.2,0,15645.4,-548383
step02_gravity_refstate-crust.xmf,1455,1.13905e-06,9.66864e-06,0,2.67001e-05,-7.54437e+08,-7.53852e+08,-7.54515e+08,1.83163e+06,-0.0811432,-0.558875,-0,0.564734,5958.14,-27485.6,0,28124,-1.83163e+06
step02_gravity_refstate-crust.xmf,1456,-5.30263e-07,1.04799e-05,0,2.4176e-05,-7.25554e+08,-7.24799e+08,-7.25518e+08,1.65847e+06,-0.0810853,-0.538321,-0,0.544393,6149.12,-26428.6,0,27134.5,-1.65847e+06
step02_gravity_refstate-crust.xmf,1457,5.22035e-06,5.20085e-06,0,2.90929e-05,-7.96792e+08,-7.96793e+08,-7.9715e+08,1.99577e+06,-0.0741831,-0.579318,-0,0.584048,5822.99,-29037.2,0,29615.3,-1.99577e+06
step02_gravity_refstate-crust.xmf,1458,3.13669e-06,6.76366e-06,0,3.38392e-05,-8.36003e+08,-8.35754e+08,-8.36218e+08,2.32137e+06,-0.0556742,-0.651838,-0,0.654212,5004.3,-30458.7,0,30867.1,-2.32137e+06
step02_gravity_refstate-crust.xmf,1459,5.57976e-06,5.3223e-06,0,3.05576e-05,-8.10248e+08,-8.10266e+08,-8.10631e+08,2.09625e+06,-0.0702491,-0.602713,-0,0.606794,5531.48,-29528.7,0,30042.3,-2.09625e+06
step02_gravity_refstate-crust.xmf,1460,5.09168e-06,5.8421e-06,0,3.18489e-05,-8.23927e+08,-8.23875e+08,-8.24276e+08,2.18484e+06,-0.0639058,-0.627552,-0,0.630797,5251.09,-30025.5,0,30481.2,-2.18484e+06
step02_gravity_refstate-crust.xmf,1461,9.3006e-07,6.64304e-06,0,3.63644e-05,-8.47175e+08,-8.46783e+08,-8.47239e+08,2.4946e+06,-0.0458272,-0.668521,-0,0.67009,4858.6,-30856.3,0,31236.5,-2.4946e+06
step02_gravity_refstate-crust.xmf,1462,-9.38182e-07,1.53772e-06,0,4.64337e-05,-8.73576e+08,-8.73406e+08,-8.73511e+08,3.18535e+06,-0.019755,-0.719562,-0,0.719833,4436.28,-31802,0,32109.9,-3.18535e+06
step02_gravity_refstate-crust.xmf,1463,-1.82671e-06,1.07429e-06,0,5.48309e-05,-8.79152e+08,-8.78953e+08,-8.79027e+08,3.7614e+06,-0.0138354,-0.775586,-0,0.775709,4000,-32000.7,0,32249.7,-3.7614e+06
step02_gravity_refstate-crust.xmf,1464,1.43201e-07,-5.53326e-06,0,5.57045e-05,-8.92951e+08,-8.9334e+08,-8.9296e+08,3.82133e+06,-0.00099575,-0.774476,-0,0.774477,4000,-32500.8,0,32746,-3.82133e+06
step02_gravity_refstate-crust.xmf,1465,2.69122e-07,-4.42496e-06,0,4.8404e-05,-8.88002e+08,-8.88324e+08,-8.8802e+08,3.32051e+06,-0.005617,-0.725138,-0,0.725159,4384.77,-32322.8,0,32618.9,-3.32051e+06
step02_gravity_refstate-crust.xmf,1466,2.54108e-05,-9.12998e-05,0,1.58159e-05,-1.00151e+09,-1.00952e+09,-1.00325e+09,1.08497e+06,0.0479478,-0.771098,0,0.772588,1799.42,-36422.4,0,36466.8,-1.08497e+06
step02_gravity_refstate-crust.xmf,1467,2.70053e-05,-9.19803e-05,0,8.54131e-06,-1.01276e+09,-1.02092e+09,-1.01461e+09,585934,0.0271564,-0.753132,0,0.753622,996.179,-36837.2,0,36850.7,-585934
step02_gravity_refstate-crust.xmf,1468,2.6874e-05,-8.91783e-05,0,3.55049e-08,-1.03236e+09,-1.04032e+09,-1.0342e+09,2435.63,6.95737e-07,-0.696151,0,0.696151,0,-37554.8,0,37554.8,-2435.63
step02_gravity_refstate-crust.xmf,1469,1.74184e-05,-6.8759e-05,0,-2.84924e-05,-1.04093e+09,-1.04684e+09,-1.04213e+09,-1.95458e+06,-0.0802288,-0.586125,-0,0.591591,-3398.78,-37860.1,-0,38012.4,-1.95458e+06
step02_gravity_refstate-crust.xmf,1470,1.43076e-05,-6.26468e-05,0,-2.85884e-05,-1.0553e+09,-1.06058e+09,-1.05628e+09,-1.96116e+06,-0.0791977,-0.538986,-0,0.544774,-3681.24,-38380.1,-0,38556.3,-1.96116e+06
step02_gravity_refstate-crust.xmf,1471,2.65681e-05,-8.80266e-05,0,-4.08312e-06,-1.03648e+09,-1.04434e+09,-1.0383e+09,-280102,-0.0130341,-0.681013,-0,0.681138,-491.473,-37705.3,-0,37708.5,-280102
step02_gravity_refstate-crust.xmf,1472,2.08567e-05,-7.53366e-05,0,-2.38699e-05,-1.04036e+09,-1.04696e+09,-1.04179e+09,-1.63747e+06,-0.0693002,-0.613213,-0,0.617116,-2820.53,-37843,-0,37948,-1.63747e+06
step02_gravity_refstate-crust.xmf,1473,2.32427e-05,-8.02933e-05,0,-1.89673e-05,-1.03975e+09,-1.04686e+09,-1.04135e+09,-1.30115e+06,-0.0567124,-0.636015,-0,0.638539,-2242.72,-37823,-0,37889.4,-1.30115e+06
step02_gravity_refstate-crust.xmf,1474,2.48533e-05,-8.38706e-05,0,-1.39265e-05,-1.03931e+09,-1.04676e+09,-1.04101e+09,-955356,-0.0426615,-0.653981,-0,0.655371,-1653.17,-37807.6,-0,37843.8,-955356
step02_gravity_refstate-crust.xmf,1475,2.5913e-05,-8.63801e-05,0,-8.93908e-06,-1.03831e+09,-1.04601e+09,-1.04008e+09,-613221,-0.0279189,-0.668682,-0,0.669264,-1065.42,-37771.6,-0,37786.7,-613221
step02_gravity_refstate-crust.xmf,1476,7.42818e-06,-4.89134e-05,0,-2.98584e-05,-1.06967e+09,-1.07353e+09,-1.07018e+09,-2.04829e+06,-0.0818522,-0.467374,-0,0.474487,-4656.93,-38896.7,-0,39174.5,-2.04829e+06
step02_gravity_refstate-crust.xmf,1477,2.81989e-06,-3.75718e-05,0,-2.90892e-05,-1.08397e+09,-1.08674e+09,-1.08417e+09,-1.99552e+06,-0.0773821,-0.400554,-0,0.40796,-5758.19,-39416.4,-0,39834.7,-1.99552e+06
step02_gravity_refstate-crust.xmf,1478,-4.26809e-06,3.44414e-06,0,5.41588e-06,-2.21578e+08,-2.21049e+08,-2.21286e+08,371529,-0.0458494,-0.353738,-0,0.356697,8048.15,-8054.85,0,11386.5,-371529
step02_gravity_refstate-crust.xmf,1479,-4.27265e-06,2.92091e-06,0,4.88313e-06,-1.81803e+08,-1.81309e+08,-1.8151e+08,334983,-0.0512768,-0.340419,-0,0.344259,8782.97,-6605.95,0,10990,-334983
step02_gravity_refstate-crust.xmf,1480,-6.78969e-06,2.59555e-06,0,2.61061e-08,-644158,-329.88,-178385,1790.88,-0.0966632,-0.310826,-0,0.325509,9889.84,0,0,9889.84,-1790.88
step02_gravity_refstate-crust.xmf,1481,-4.99211e-06,1.26711e-05,0,1.64612e-05,-6.18834e+08,-6.17622e+08,-6.18492e+08,1.12924e+06,-0.0681659,-0.494805,-0,0.499479,6037.22,-22528.7,0,23323.6,-1.12924e+06
step02_gravity_refstate-crust.xmf,1482,-4.49093e-06,1.0655e-05,0,1.43798e-05,-5.75384e+08,-5.74345e+08,-5.75076e+08,986455,-0.0641791,-0.463387,-0,0.46781,6529.03,-20945.7,0,21939.7,-986455
step02_gravity_refstate-crust.xmf,1483,-2.16169e-06,1.05383e-05,0,2.01351e-05,-6.73607e+08,-6.72735e+08,-6.73458e+08,1.38127e+06,-0.0774537,-0.501945,-0,0.507885,6536.07,-24530.9,0,25386.7,-1.38127e+06
step02_gravity_refstate-crust.xmf,1484,-4.15842e-06,5.72292e-06,0,7.71985e-06,-3.58039e+08,-3.57362e+08,-3.57754e+08,529581,-0.0447552,-0.385396,-0,0.387986,7305.3,-13026.8,0,14935.4,-529581
step02_gravity_refstate-crust.xmf,1485,-3.80083e-06,4.75869e-06,0,7.39318e-06,-3.25965e+08,-3.25377e+08,-3.25704e+08,507172,-0.0458,-0.370369,-0,0.37319,7956.67,-11859.1,0,14281,-507172
step02_gravity_refstate-crust.xmf,1486,-3.60695e-06,3.98557e-06,0,6.94807e-06,-2.91179e+08,-2.90658e+08,-2.90932e+08,476638,-0.0469734,-0.357215,-0,0.36029,8521.29,-10592.3,0,13594.4,-476638
step02_gravity_refstate-crust.xmf,1487,-3.97321e-06,7.55577e-06,0,1.08498e-05,-4.75974e+08,-4.75183e+08,-4.75702e+08,744298,-0.0548679,-0.413938,-0,0.417558,7309.5,-17323.9,0,18802.9,-744298
step02_gravity_refstate-crust.xmf,1488,-4.09692e-06,6.64956e-06,0,9.19054e-06,-4.18894e+08,-4.18157e+08,-4.18613e+08,630471,-0.0492077,-0.399022,-0,0.402045,7311.56,-15244,0,16906.7,-630471
step02_gravity_refstate-crust.xmf,1489,1.58797e-06,7.9117e-06,0,2.49435e-05,-7.43244e+08,-7.42811e+08,-7.43353e+08,1.71113e+06,-0.0810644,-0.533989,-0,0.540107,6361.29,-27077.2,0,27814.4,-1.71113e+06
step02_gravity_refstate-crust.xmf,1490,3.68511e-06,5.54407e-06,0,2.57449e-05,-7.63076e+08,-7.62949e+08,-7.63329e+08,1.7661e+06,-0.0792011,-0.535015,-0,0.540846,6436.34,-27804.1,0,28539.3,-1.7661e+06
step02_gravity_refstate-crust.xmf,1491,4.73039e-06,4.90618e-06,0,2.72945e-05,-7.82572e+08,-7.8256e+08,-7.82897e+08,1.8724e+06,-0.0766661,-0.554878,-0,0.560149,6160.38,-28517.1,0,29174.9,-1.8724e+06
step02_gravity_refstate-crust.xmf,1492,3.56903e-06,2.54306e-06,0,3.18773e-05,-8.45408e+08,-8.45478e+08,-8.45652e+08,2.18679e+06,-0.0464192,-0.62761,-0,0.629324,5289.7,-30796.3,0,31247.3,-2.18679e+06
step02_gravity_refstate-crust.xmf,1493,1.50294e-06,2.27629e-06,0,3.56047e-05,-8.57595e+08,-8.57541e+08,-8.57698e+08,2.44248e+06,-0.0354897,-0.651872,-0,0.652838,5043.97,-31231.2,0,31635.9,-2.44248e+06
step02_gravity_refstate-crust.xmf,1494,3.71983e-07,9.12784e-07,0,3.96289e-05,-8.68493e+08,-8.68456e+08,-8.68518e+08,2.71854e+06,-0.0248671,-0.674315,-0,0.674773,4832.67,-31621.3,0,31988.4,-2.71854e+06
step02_gravity_refstate-crust.xmf,1495,1.42947e-06,-9.19093e-06,0,5.06998e-05,-8.99732e+08,-9.00461e+08,-8.99831e+08,3.47801e+06,0.00566584,-0.734871,0,0.734893,4285.05,-32747.2,0,33026.4,-3.47801e+06
step02_gravity_refstate-crust.xmf,1496,2.15741e-06,-1.20514e-05,0,5.61066e-05,-9.06723e+08,-9.07698e+08,-9.06871e+08,3.84891e+06,0.0117478,-0.770083,0,0.770173,4000,-33000.2,0,33241.8,-3.84891e+06
step02_gravity_refstate-crust.xmf,1497,2.44175e-05,-9.25002e-05,0,1.81461e-05,-9.90069e+08,-9.98089e+08,-9.91744e+08,1.24482e+06,0.0519161,-0.802581,0,0.804258,2000,-36000,0,36055.5,-1.24482e+06
step02_gravity_refstate-crust.xmf,1498,2.39732e-05,-8.83164e-05,0,2.1018e-05,-1.0007e+09,-1.00841e+09,-1.00235e+09,1.44184e+06,0.0610622,-0.753185,0,0.755656,2333.65,-36391.8,0,36466.6,-1.44184e+06
step02_gravity_refstate-crust.xmf,1499,2.27994e-05,-8.94429e-05,0,2.32316e-05,-9.90118e+08,-9.97818e+08,-9.91682e+08,1.59369e+06,0.0637167,-0.780131,0,0.782729,2499.83,-36000,0,36086.7,-1.59369e+06
step02_gravity_refstate-crust.xmf,1500,2.61694e-05,-8.99633e-05,0,1.34426e-05,-1.01325e+09,-1.02122e+09,-1.01505e+09,922165,0.0419505,-0.73927,0,0.740459,1554.45,-36855.1,0,36887.8,-922165
step02_gravity_refstate-crust.xmf,1501,2.71767e-05,-9.06528e-05,0,2.46507e-06,-1.02495e+09,-1.03303e+09,-1.02681e+09,169104,0.00801891,-0.719836,0,0.71988,294.887,-37283.9,0,37285,-169104
step02_gravity_refstate-crust.xmf,1502,1.13105e-05,-5.67292e-05,0,-2.83754e-05,-1.0699e+09,-1.07457e+09,-1.07068e+09,-1.94655e+06,-0.0755385,-0.493943,-0,0.499686,-4002.88,-38908.8,-0,39114.1,-1.94655e+06
step02_gravity_refstate-crust.xmf,1503,5.59565e-06,-4.44785e-05,0,-2.9579e-05,-1.08457e+09,-1.08801e+09,-1.08495e+09,-2.02912e+06,-0.0739527,-0.426155,-0,0.432524,-5056.49,-39438.6,-0,39761.5,-2.02912e+06
step02_gravity_refstate-crust.xmf,1504,-3.56291e-06,3.41392e-06,0,6.43185e-06,-2.56441e+08,-2.55962e+08,-2.56196e+08,441225,-0.0485746,-0.346591,-0,0.349978,8969.76,-9326.86,0,12940.1,-441225
step02_gravity_refstate-crust.xmf,1505,-4.39031e-06,2.44924e-06,0,4.19086e-06,-1.39721e+08,-1.39252e+08,-1.3942e+08,287493,-0.0591909,-0.32701,-0,0.332323,9555.52,-5072.72,0,10818.5,-287493
step02_gravity_refstate-crust.xmf,1506,-5.05069e-06,2.1037e-06,0,1.70502e-06,-4.49299e+07,-4.44391e+07,-4.45834e+07,116964,-0.0871209,-0.301718,-0,0.314044,10996.1,-1618.54,0,11114.6,-116964
step02_gravity_refstate-crust.xmf,1507,-4.49005e-06,2.14514e-06,0,3.2304e-06,-9.63402e+07,-9.5885e+07,-9.60322e+07,221605,-0.0710454,-0.311739,-0,0.319732,10503.2,-3492.52,0,11068.7,-221605
step02_gravity_refstate-crust.xmf,1508,-3.55126e-06,1.11153e-05,0,1.77752e-05,-6.37504e+08,-6.36498e+08,-6.37261e+08,1.21938e+06,-0.0727312,-0.489819,-0,0.495189,6471.2,-23211.8,0,24097,-1.21938e+06
step02_gravity_refstate-crust.xmf,1509,-3.96661e-06,9.28056e-06,0,1.35125e-05,-5.51338e+08,-5.5043e+08,-5.51066e+08,926961,-0.062773,-0.444021,-0,0.448437,6974.82,-20070.3,0,21247.8,-926961
step02_gravity_refstate-crust.xmf,1510,-3.32453e-06,1.02448e-05,0,1.67753e-05,-6.18832e+08,-6.17901e+08,-6.18604e+08,1.15078e+06,-0.0711907,-0.473667,-0,0.478987,6760.97,-22531.6,0,23524.1,-1.15078e+06
step02_gravity_refstate-crust.xmf,1511,-3.08946e-06,9.25386e-06,0,1.57247e-05,-5.97717e+08,-5.9687e+08,-5.97505e+08,1.07872e+06,-0.0694282,-0.456686,-0,0.461934,7093.07,-21762.3,0,22889.1,-1.07872e+06
step02_gravity_refstate-crust.xmf,1512,-1.90704e-06,9.30335e-06,0,1.88716e-05,-6.56102e+08,-6.55333e+08,-6.55971e+08,1.29459e+06,-0.0762503,-0.482731,-0,0.488716,6895.64,-23892.7,0,24867.9,-1.29459e+06
step02_gravity_refstate-crust.xmf,1513,-2.54583e-07,8.24058e-06,0,2.09329e-05,-6.90854e+08,-6.90271e+08,-6.90836e+08,1.436e+06,-0.079498,-0.492915,-0,0.499284,6924.03,-25162.9,0,26098.2,-1.436e+06
step02_gravity_refstate-crust.xmf,1514,-3.11395e-07,9.2875e-06,0,2.25025e-05,-7.088e+08,-7.08141e+08,-7.08778e+08,1.54367e+06,-0.0804716,-0.514363,-0,0.52062,6545.28,-25817.7,0,26634.4,-1.54367e+06
step02_gravity_refstate-crust.xmf,1515,-3.51515e-06,8.05788e-06,0,1.27056e-05,-5.26243e+08,-5.25449e+08,-5.26002e+08,871601,-0.0612705,-0.425767,-0,0.430153,7434.83,-19156.6,0,20548.8,-871601
step02_gravity_refstate-crust.xmf,1516,-3.17633e-06,7.03321e-06,0,1.19465e-05,-5.00361e+08,-4.99661e+08,-5.00143e+08,819530,-0.0596458,-0.409392,-0,0.413714,7872.01,-18214.2,0,19842.5,-819530
step02_gravity_refstate-crust.xmf,1517,-3.28191e-06,6.18295e-06,0,1.04474e-05,-4.48933e+08,-4.48284e+08,-4.48708e+08,716690,-0.0548585,-0.392964,-0,0.396775,8082.28,-16340.1,0,18229.7,-716690
step02_gravity_refstate-crust.xmf,1518,-3.64564e-06,5.63777e-06,0,8.78071e-06,-3.88513e+08,-3.87876e+08,-3.88263e+08,602357,-0.0491768,-0.382522,-0,0.38567,7929.67,-14138.2,0,16210.1,-602357
step02_gravity_refstate-crust.xmf,1519,2.24952e-06,5.88512e-06,0,2.3005e-05,-7.2988e+08,-7.29631e+08,-7.30034e+08,1.57815e+06,-0.080444,-0.503393,-0,0.50978,6919.49,-26590.2,0,27475.8,-1.57815e+06
step02_gravity_refstate-crust.xmf,1520,6.57272e-06,1.11456e-06,0,2.56802e-05,-7.95653e+08,-7.96027e+08,-7.96104e+08,1.76166e+06,-0.0707504,-0.53683,-0,0.541472,6476.55,-28994.9,0,29709.4,-1.76166e+06
step02_gravity_refstate-crust.xmf,1521,6.86706e-06,8.90441e-07,0,2.6788e-05,-8.09923e+08,-8.10333e+08,-8.10394e+08,1.83765e+06,-0.0664756,-0.557518,-0,0.561468,6166.65,-29515.2,0,30152.5,-1.83765e+06
step02_gravity_refstate-crust.xmf,1522,5.23363e-06,2.41112e-06,0,3.027e-05,-8.3479e+08,-8.34983e+08,-8.35149e+08,2.07652e+06,-0.0547326,-0.611236,-0,0.613682,5468.23,-30416.3,0,30903.9,-2.07652e+06
step02_gravity_refstate-crust.xmf,1523,6.52921e-06,7.18026e-07,0,2.78169e-05,-8.26303e+08,-8.26702e+08,-8.26751e+08,1.90824e+06,-0.0586745,-0.578974,-0,0.58194,5872.21,-30109.9,0,30677.2,-1.90824e+06
step02_gravity_refstate-crust.xmf,1524,2.14393e-06,-2.53208e-06,0,3.41569e-05,-8.70638e+08,-8.70958e+08,-8.70785e+08,2.34316e+06,-0.0221019,-0.630305,-0,0.630693,5264.77,-31701.2,0,32135.4,-2.34316e+06
step02_gravity_refstate-crust.xmf,1525,1.24222e-06,-4.55052e-06,0,3.97784e-05,-8.82998e+08,-8.83395e+08,-8.83083e+08,2.7288e+06,-0.010193,-0.665718,-0,0.665796,4904.49,-32144.4,0,32516.4,-2.7288e+06
step02_gravity_refstate-crust.xmf,1526,4.13373e-06,-1.86323e-05,0,5.60703e-05,-9.20503e+08,-9.22064e+08,-9.20786e+08,3.84642e+06,0.0244405,-0.762412,0,0.762804,4000,-33499.7,0,33737.7,-3.84642e+06
step02_gravity_refstate-crust.xmf,1527,2.80049e-06,-1.41328e-05,0,4.91123e-05,-9.11351e+08,-9.12513e+08,-9.11543e+08,3.36911e+06,0.0171063,-0.717331,0,0.717535,4384.61,-33168.1,0,33456.6,-3.36911e+06
step02_gravity_refstate-crust.xmf,1528,1.81989e-06,-9.79395e-06,0,4.39374e-05,-8.99569e+08,-9.00365e+08,-8.99693e+08,3.01411e+06,0.00616931,-0.68645,0,0.686478,4682.83,-32741.9,0,33075.1,-3.01411e+06
step02_gravity_refstate-crust.xmf,1529,2.21273e-05,-8.5478e-05,0,2.54461e-05,-9.98462e+08,-1.00584e+09,-9.9998e+08,1.7456e+06,0.0708311,-0.739282,0,0.742667,2767.09,-36307.2,0,36412.5,-1.7456e+06
step02_gravity_refstate-crust.xmf,1530,2.06146e-05,-8.55843e-05,0,2.8705e-05,-9.90197e+08,-9.97482e+08,-9.91611e+08,1.96916e+06,0.0745624,-0.752013,0,0.7557,2999.32,-36000,0,36124.7,-1.96916e+06
step02_gravity_refstate-crust.xmf,1531,2.47478e-05,-8.69578e-05,0,1.87003e-05,-1.01347e+09,-1.02114e+09,-1.01517e+09,1.28284e+06,0.0569674,-0.719694,0,0.721945,2145.57,-36862,0,36924.4,-1.28284e+06
step02_gravity_refstate-crust.xmf,1532,2.71074e-05,-9.03175e-05,0,6.04869e-06,-1.02404e+09,-1.0321e+09,-1.0259e+09,414940,0.0194023,-0.719415,0,0.719677,714.602,-37251.2,0,37258,-414940
step02_gravity_refstate-crust.xmf,1533,2.64325e-05,-8.86135e-05,0,1.07795e-05,-1.02511e+09,-1.033e+09,-1.02692e+09,739474,0.0340692,-0.707235,0,0.708055,1266.34,-37289.7,0,37311.2,-739474
step02_gravity_refstate-crust.xmf,1534,2.55465e-05,-8.57105e-05,0,4.97012e-08,-1.04797e+09,-1.0556e+09,-1.04972e+09,3409.5,1.40079e-06,-0.646463,0,0.646463,0,-38123,0,38123,-3409.5
step02_gravity_refstate-crust.xmf,1535,2.64522e-05,-8.79677e-05,0,3.52136e-06,-1.03691e+09,-1.04476e+09,-1.03872e+09,241565,0.011176,-0.680149,0,0.680241,421.819,-37720.5,0,37722.9,-241565
step02_gravity_refstate-crust.xmf,1536,1.79524e-05,-6.95799e-05,0,-2.49784e-05,-1.05484e+09,-1.06084e+09,-1.05607e+09,-1.71352e+06,-0.0698164,-0.564541,-0,0.568842,-3090.04,-38367.3,-0,38491.5,-1.71352e+06
step02_gravity_refstate-crust.xmf,1537,1.47949e-05,-6.38454e-05,0,-2.56983e-05,-1.06964e+09,-1.07503e+09,-1.07065e+09,-1.7629e+06,-0.0675013,-0.518166,-0,0.522544,-3378.62,-38902.3,-0,39048.7,-1.7629e+06
step02_gravity_refstate-crust.xmf,1538,2.50459e-05,-8.44071e-05,0,-5.95159e-06,-1.05061e+09,-1.05812e+09,-1.05233e+09,-408279,-0.0179932,-0.634814,-0,0.635069,-717.329,-38219.3,-0,38226,-408279
step02_gravity_refstate-crust.xmf,1539,2.0741e-05,-7.50077e-05,0,-2.04754e-05,-1.05444e+09,-1.061e+09,-1.05586e+09,-1.40461e+06,-0.0584662,-0.586482,-0,0.589389,-2496.18,-38355.6,-0,38436.7,-1.40461e+06
step02_gravity_refstate-crust.xmf,1540,2.26954e-05,-7.91359e-05,0,-1.57951e-05,-1.05378e+09,-1.06076e+09,-1.05533e+09,-1.08354e+06,-0.0460151,-0.60484,-0,0.606588,-1912.19,-38333,-0,38380.7,-1.08354e+06
step02_gravity_refstate-crust.xmf,1541,2.40174e-05,-8.2112e-05,0,-1.10154e-05,-1.05284e+09,-1.06012e+09,-1.05449e+09,-755657,-0.0327145,-0.619805,-0,0.620668,-1331.66,-38299.7,-0,38322.9,-755657
step02_gravity_refstate-crust.xmf,1542,8.57561e-06,-5.1219e-05,0,-2.85787e-05,-1.08481e+09,-1.08892e+09,-1.0854e+09,-1.9605e+06,-0.0689884,-0.45028,-0,0.455534,-4386.58,-39449.1,-0,39692.3,-1.9605e+06
step02_gravity_refstate-crust.xmf,1543,-3.53464e-06,2.79515e-06,0,5.87971e-06,-2.17983e+08,-2.17548e+08,-2.1774e+08,403348,-0.0520851,-0.333864,-0,0.337903,9606.73,-7925.9,0,12454.3,-403348
step02_gravity_refstate-crust.xmf,1544,-5.10995e-06,1.96007e-06,0,3.03962e-08,-484513,490.008,-133971,2085.18,-0.1087,-0.287338,-0,0.307211,11904.5,0,0,11904.5,-2085.18
step02_gravity_refstate-crust.xmf,1545,-3.58453e-06,2.39049e-06,0,5.17537e-06,-1.77137e+08,-1.76727e+08,-1.76891e+08,355030,-0.0576358,-0.32098,-0,0.326114,10295.3,-6438.05,0,12142.6,-355030
step02_gravity_refstate-crust.xmf,1546,-2.76455e-06,8.1431e-06,0,1.47241e-05,-5.74717e+08,-5.73969e+08,-5.74528e+08,1.01007e+06,-0.0676733,-0.438207,-0,0.443401,7513.34,-20924.6,0,22232.6,-1.01007e+06
step02_gravity_refstate-crust.xmf,1547,-1.70989e-07,7.32962e-06,0,1.96247e-05,-6.73863e+08,-6.73348e+08,-6.73851e+08,1.34626e+06,-0.0783768,-0.473714,-0,0.480154,7298.41,-24543.3,0,25605.5,-1.34626e+06
step02_gravity_refstate-crust.xmf,1548,-3.27329e-06,4.66882e-06,0,8.36633e-06,-3.57293e+08,-3.56748e+08,-3.57069e+08,573930,-0.0494923,-0.366574,-0,0.3699,8590.32,-13001.6,0,15583.2,-573930
step02_gravity_refstate-crust.xmf,1549,-3.00723e-06,3.85127e-06,0,7.90545e-06,-3.24223e+08,-3.23753e+08,-3.24017e+08,542314,-0.0501455,-0.351564,-0,0.355122,9250.75,-11797.5,0,14991.9,-542314
step02_gravity_refstate-crust.xmf,1550,-2.86137e-06,3.21182e-06,0,7.40045e-06,-2.9056e+08,-2.90143e+08,-2.90363e+08,507671,-0.0512729,-0.338414,-0,0.342276,9852.26,-10571.5,0,14450.7,-507671
step02_gravity_refstate-crust.xmf,1551,-2.91756e-06,6.20359e-06,0,1.13314e-05,-4.77352e+08,-4.76726e+08,-4.77152e+08,777332,-0.0583282,-0.39582,-0,0.400095,8270.26,-17376.3,0,19244,-777332
step02_gravity_refstate-crust.xmf,1552,-2.98313e-06,5.21657e-06,0,9.7924e-06,-4.17599e+08,-4.17036e+08,-4.17394e+08,671759,-0.0536357,-0.377455,-0,0.381247,8590.42,-15199.1,0,17458.8,-671759
step02_gravity_refstate-crust.xmf,1553,3.56682e-06,4.57863e-06,0,2.38312e-05,-7.49139e+08,-7.4907e+08,-7.49384e+08,1.63482e+06,-0.0793356,-0.509676,-0,0.515814,6867.17,-27294.7,0,28145.3,-1.63482e+06
step02_gravity_refstate-crust.xmf,1554,5.96695e-06,1.50472e-06,0,2.45074e-05,-7.79767e+08,-7.80073e+08,-7.80177e+08,1.68121e+06,-0.0739946,-0.517002,-0,0.522271,6796.88,-28414.7,0,29216.3,-1.68121e+06
step02_gravity_refstate-crust.xmf,1555,5.41364e-06,-1.29645e-06,0,2.76213e-05,-8.44579e+08,-8.45039e+08,-8.4495e+08,1.89482e+06,-0.044596,-0.580777,-0,0.582487,5846.59,-30767.6,0,31318.2,-1.89482e+06
step02_gravity_refstate-crust.xmf,1556,3.56686e-06,-1.26009e-06,0,3.06283e-05,-8.57619e+08,-8.5795e+08,-8.57864e+08,2.1011e+06,-0.0341891,-0.607552,-0,0.608513,5519.62,-31235,0,31718.9,-2.1011e+06
step02_gravity_refstate-crust.xmf,1557,6.12154e-06,-2.52437e-05,0,5.57033e-05,-9.34299e+08,-9.36451e+08,-9.34719e+08,3.82125e+06,0.0371293,-0.75144,0,0.752357,4000,-33999.8,0,34234.3,-3.82125e+06
step02_gravity_refstate-crust.xmf,1558,4.37108e-06,-2.05029e-05,0,4.83282e-05,-9.26055e+08,-9.27761e+08,-9.26355e+08,3.31532e+06,0.0314434,-0.70437,0,0.705072,4414.58,-33699.9,0,33987.8,-3.31532e+06
step02_gravity_refstate-crust.xmf,1559,2.02327e-05,-8.12261e-05,0,2.9782e-05,-1.00056e+09,-1.00752e+09,-1.00195e+09,2.04305e+06,0.0802078,-0.707676,0,0.712207,3197.74,-36382.6,0,36522.8,-2.04305e+06
step02_gravity_refstate-crust.xmf,1560,2.27201e-05,-8.27479e-05,0,2.51092e-05,-1.01052e+09,-1.01776e+09,-1.01208e+09,1.72249e+06,0.0721164,-0.700781,0,0.704481,2786.85,-36752.9,0,36858.4,-1.72249e+06
step02_gravity_refstate-crust.xmf,1561,2.53132e-05,-8.60418e-05,0,1.58946e-05,-1.02509e+09,-1.03273e+09,-1.02683e+09,1.09037e+06,0.0491341,-0.692713,0,0.694454,1850.94,-37288.8,0,37334.7,-1.09037e+06
step02_gravity_refstate-crust.xmf,1562,1.15871e-05,-5.79504e-05,0,-2.6428e-05,-1.08481e+09,-1.08958e+09,-1.0856e+09,-1.81296e+06,-0.0622748,-0.473075,-0,0.477156,-3721.63,-39450.7,-0,39625.8,-1.81296e+06
step02_gravity_refstate-crust.xmf,1563,2.33895e-05,-8.18445e-05,0,-3.86883e-06,-1.06262e+09,-1.06984e+09,-1.06422e+09,-265402,-0.0109012,-0.600617,-0,0.600716,-464.377,-38653.6,-0,38656.4,-265402
step02_gravity_refstate-crust.xmf,1564,-2.81347e-06,2.67686e-06,0,6.79575e-06,-2.53071e+08,-2.52694e+08,-2.52878e+08,466188,-0.0533697,-0.325774,-0,0.330116,10451.9,-9206.07,0,13928.2,-466188
step02_gravity_refstate-crust.xmf,1565,-3.69718e-06,1.56589e-06,0,1.72518e-06,-4.30893e+07,-4.27283e+07,-4.28357e+07,118347,-0.0961419,-0.277129,-0,0.293332,12924.3,-1556.18,0,13017.6,-118347
step02_gravity_refstate-crust.xmf,1566,-3.69321e-06,2.0853e-06,0,4.39935e-06,-1.39174e+08,-1.38777e+08,-1.3892e+08,301795,-0.0648256,-0.309558,-0,0.316273,10933.2,-5055.04,0,12045.3,-301795
step02_gravity_refstate-crust.xmf,1567,-3.82543e-06,1.76552e-06,0,2.88641e-06,-7.91246e+07,-7.87411e+07,-7.88622e+07,198008,-0.0815735,-0.291033,-0,0.302249,12029.2,-2867.87,0,12366.4,-198008
step02_gravity_refstate-crust.xmf,1568,-1.70198e-06,8.34922e-06,0,1.77888e-05,-6.38639e+08,-6.37949e+08,-6.38522e+08,1.22031e+06,-0.074927,-0.465288,-0,0.471282,7247.84,-23256.3,0,24359.6,-1.22031e+06
step02_gravity_refstate-crust.xmf,1569,-2.44515e-06,7.07821e-06,0,1.37897e-05,-5.50246e+08,-5.49593e+08,-5.50078e+08,945973,-0.0658594,-0.419858,-0,0.424992,7977.79,-20033.3,0,21563.4,-945973
step02_gravity_refstate-crust.xmf,1570,-1.52839e-06,7.5637e-06,0,1.67856e-05,-6.19952e+08,-6.19329e+08,-6.19848e+08,1.15149e+06,-0.0734188,-0.448358,-0,0.454329,7614.74,-22575.5,0,23825.2,-1.15149e+06
step02_gravity_refstate-crust.xmf,1571,-1.38344e-06,6.70198e-06,0,1.5716e-05,-5.98078e+08,-5.97523e+08,-5.97983e+08,1.07812e+06,-0.0715814,-0.430538,-0,0.436448,8029.99,-21778.4,0,23211.6,-1.07812e+06
step02_gravity_refstate-crust.xmf,1572,-1.02076e-07,6.46795e-06,0,1.84542e-05,-6.56987e+08,-6.56537e+08,-6.5698e+08,1.26596e+06,-0.0771243,-0.456158,-0,0.462632,7669.48,-23927.9,0,25127,-1.26596e+06
step02_gravity_refstate-crust.xmf,1573,1.58801e-06,5.03421e-06,0,1.98862e-05,-6.90396e+08,-6.90159e+08,-6.90505e+08,1.36419e+06,-0.078959,-0.46195,-0,0.468649,7705.71,-25148.8,0,26302.8,-1.36419e+06
step02_gravity_refstate-crust.xmf,1574,1.84623e-06,5.50033e-06,0,2.12825e-05,-7.09188e+08,-7.08938e+08,-7.09315e+08,1.45998e+06,-0.0798934,-0.481169,-0,0.487756,7321.61,-25834.7,0,26852.1,-1.45998e+06
step02_gravity_refstate-crust.xmf,1575,-2.18892e-06,6.14583e-06,0,1.2929e-05,-5.24732e+08,-5.24161e+08,-5.24582e+08,886929,-0.0639831,-0.402765,-0,0.407815,8446.75,-19104.1,0,20888.1,-886929
step02_gravity_refstate-crust.xmf,1576,-2.06794e-06,5.42193e-06,0,1.20944e-05,-4.97054e+08,-4.9654e+08,-4.96912e+08,829675,-0.061866,-0.387958,-0,0.39286,8856.65,-18095.8,0,20146.9,-829675
step02_gravity_refstate-crust.xmf,1577,-2.10842e-06,4.91682e-06,0,1.12561e-05,-4.66596e+08,-4.66115e+08,-4.66452e+08,772171,-0.059457,-0.376203,-0,0.380872,9150.43,-16986,0,19293.9,-772171
step02_gravity_refstate-crust.xmf,1578,-2.61965e-06,4.38247e-06,0,9.34675e-06,-3.89372e+08,-3.88892e+08,-3.89192e+08,641187,-0.053405,-0.361171,-0,0.365098,9257.29,-14171.7,0,16927.3,-641187
step02_gravity_refstate-crust.xmf,1579,-2.30282e-06,4.72902e-06,0,1.05751e-05,-4.41081e+08,-4.40599e+08,-4.40923e+08,725452,-0.0572061,-0.371146,-0,0.375529,9179.57,-16056,0,18494.9,-725452
step02_gravity_refstate-crust.xmf,1580,5.34938e-06,1.71025e-06,0,2.31874e-05,-7.63466e+08,-7.63716e+08,-7.63833e+08,1.59066e+06,-0.0759226,-0.497058,-0,0.502822,7146.01,-27819,0,28722.2,-1.59066e+06
step02_gravity_refstate-crust.xmf,1581,4.63458e-06,2.07047e-06,0,2.20496e-05,-7.46184e+08,-7.4636e+08,-7.46502e+08,1.5126e+06,-0.0772754,-0.48051,-0,0.486684,7453.54,-27187.5,0,28190.7,-1.5126e+06
step02_gravity_refstate-crust.xmf,1582,7.29704e-06,-1.71046e-06,0,2.27337e-05,-7.94843e+08,-7.95461e+08,-7.95343e+08,1.55953e+06,-0.0666407,-0.498712,-0,0.503145,7118.16,-28963.9,0,29825.8,-1.55953e+06
step02_gravity_refstate-crust.xmf,1583,7.56049e-06,-2.23193e-06,0,2.34481e-05,-8.10134e+08,-8.10805e+08,-8.10652e+08,1.60854e+06,-0.0617404,-0.515854,-0,0.519535,6811.31,-29520.9,0,30296.5,-1.60854e+06
step02_gravity_refstate-crust.xmf,1584,7.34911e-06,-2.59352e-06,0,2.4222e-05,-8.24988e+08,-8.2567e+08,-8.25492e+08,1.66163e+06,-0.0552029,-0.534349,-0,0.537193,6503.96,-30060.2,0,30755.8,-1.66163e+06
step02_gravity_refstate-crust.xmf,1585,5.79853e-06,-2.65989e-05,0,4.73649e-05,-9.40484e+08,-9.42707e+08,-9.40882e+08,3.24923e+06,0.0454374,-0.690837,0,0.69233,4424.86,-34221.6,0,34506.4,-3.24923e+06
step02_gravity_refstate-crust.xmf,1586,3.56815e-06,-5.29545e-06,0,2.87989e-05,-8.71786e+08,-8.72394e+08,-8.7203e+08,1.9756e+06,-0.0194125,-0.582618,-0,0.582941,5788.45,-31744.5,0,32267.9,-1.9756e+06
step02_gravity_refstate-crust.xmf,1587,2.60847e-06,-7.21264e-06,0,3.2098e-05,-8.85149e+08,-8.85823e+08,-8.85328e+08,2.20192e+06,-0.00677457,-0.604036,-0,0.604074,5516.1,-32224.1,0,32692.8,-2.20192e+06
step02_gravity_refstate-crust.xmf,1588,2.99887e-06,-1.60967e-05,0,4.08079e-05,-9.16486e+08,-9.17796e+08,-9.16692e+08,2.79942e+06,0.0236596,-0.655417,0,0.655844,4888.29,-33352.8,0,33709.1,-2.79942e+06
step02_gravity_refstate-crust.xmf,1589,2.31469e-06,-1.0604e-05,0,3.61244e-05,-8.9981e+08,-9.00696e+08,-8.99969e+08,2.47813e+06,0.00754564,-0.628173,0,0.628219,5220.53,-32751.4,0,33164.9,-2.47813e+06
step02_gravity_refstate-crust.xmf,1590,1.74193e-05,-8.14145e-05,0,3.40432e-05,-9.90375e+08,-9.97155e+08,-9.9157e+08,2.33536e+06,0.0840264,-0.717386,0,0.72229,3499.28,-36000,0,36169.7,-2.33536e+06
step02_gravity_refstate-crust.xmf,1591,2.34664e-05,-8.20977e-05,0,2.14092e-05,-1.025e+09,-1.03225e+09,-1.02661e+09,1.46867e+06,0.064064,-0.671677,0,0.674726,2463.97,-37284.2,0,37365.5,-1.46867e+06
step02_gravity_refstate-crust.xmf,1592,2.61004e-05,-8.67337e-05,0,7.99493e-06,-1.0382e+09,-1.04594e+09,-1.03999e+09,548452,0.0250186,-0.670644,0,0.67111,952.797,-37768.2,0,37780.2,-548452
step02_gravity_refstate-crust.xmf,1593,2.52186e-05,-8.47369e-05,0,1.30001e-05,-1.0378e+09,-1.04535e+09,-1.03953e+09,891809,0.0400759,-0.661186,0,0.6624,1541.33,-37753.1,0,37784.5,-891809
step02_gravity_refstate-crust.xmf,1594,2.46332e-05,-8.39245e-05,0,4.68584e-06,-1.05401e+09,-1.06146e+09,-1.0557e+09,321449,0.0140438,-0.625754,0,0.625912,568.628,-38342,0,38346.2,-321449
step02_gravity_refstate-crust.xmf,1595,1.76456e-05,-6.96978e-05,0,-2.1853e-05,-1.06923e+09,-1.07523e+09,-1.07045e+09,-1.49911e+06,-0.0576653,-0.539575,-0,0.542648,-2761.31,-38890,-0,38987.9,-1.49911e+06
step02_gravity_refstate-crust.xmf,1596,1.41716e-05,-6.40483e-05,0,-2.32446e-05,-1.08467e+09,-1.09004e+09,-1.08564e+09,-1.59458e+06,-0.0539133,-0.493476,-0,0.496413,-3065.35,-39446.7,-0,39565.7,-1.59458e+06
step02_gravity_refstate-crust.xmf,1597,2.33185e-05,-8.17267e-05,0,-3.75265e-08,-1.06442e+09,-1.07162e+09,-1.06602e+09,-2574.32,1.07089e-06,-0.59657,0,0.59657,0,-38719,0,38719,-2574.32
step02_gravity_refstate-crust.xmf,1598,2.26962e-05,-8.0325e-05,0,-7.56695e-06,-1.06533e+09,-1.0724e+09,-1.06689e+09,-519093,-0.0212399,-0.58878,-0,0.589163,-927.448,-38752,-0,38763.1,-519093
step02_gravity_refstate-crust.xmf,1599,1.98606e-05,-7.41487e-05,0,-1.72514e-05,-1.06909e+09,-1.07554e+09,-1.07045e+09,-1.18344e+06,-0.0461569,-0.556751,-0,0.558661,-2143.37,-38886.9,-0,38945.9,-1.18344e+06
step02_gravity_refstate-crust.xmf,1600,2.1432e-05,-7.75314e-05,0,-1.25981e-05,-1.06809e+09,-1.07488e+09,-1.06956e+09,-864229,-0.0343442,-0.571911,-0,0.572941,-1551.26,-38851.5,-0,38882.4,-864229
step02_gravity_refstate-crust.xmf,1601,-2.8217e-06,2.19023e-06,0,6.12667e-06,-2.13906e+08,-2.13563e+08,-2.13713e+08,420290,-0.0570637,-0.313147,-0,0.318304,11097.3,-7779.45,0,13552.5,-420290
step02_gravity_refstate-crust.xmf,1602,-3.34831e-06,1.29301e-06,0,3.66296e-08,-317110,1284.74,-87415.9,2512.79,-0.11738,-0.261574,-0,0.286704,13945.9,0,0,13945.9,-2512.79
step02_gravity_refstate-crust.xmf,1603,-2.88978e-06,1.88989e-06,0,5.28867e-06,-1.71658e+08,-1.7133e+08,-1.7146e+08,362803,-0.063031,-0.300531,-0,0.30707,11774,-6240.62,0,13325.7,-362803
step02_gravity_refstate-crust.xmf,1604,-3.10492e-06,1.67845e-06,0,4.16532e-06,-1.23319e+08,-1.22991e+08,-1.23106e+08,285741,-0.0724169,-0.289557,-0,0.298475,12345,-4479.6,0,13132.6,-285741
step02_gravity_refstate-crust.xmf,1605,-1.21663e-06,5.82524e-06,0,1.4678e-05,-5.74014e+08,-5.73531e+08,-5.7393e+08,1.00691e+06,-0.0695772,-0.412079,-0,0.417911,8506.73,-20901.6,0,22566.4,-1.00691e+06
step02_gravity_refstate-crust.xmf,1606,1.45161e-06,4.5524e-06,0,1.87462e-05,-6.73794e+08,-6.73582e+08,-6.73894e+08,1.28599e+06,-0.0778838,-0.445325,-0,0.452084,8070.18,-24543.1,0,25835.8,-1.28599e+06
step02_gravity_refstate-crust.xmf,1607,-2.3373e-06,3.5816e-06,0,8.84136e-06,-3.58467e+08,-3.58061e+08,-3.58307e+08,606517,-0.0533944,-0.345111,-0,0.349217,9959.22,-13046.4,0,16413.3,-606517
step02_gravity_refstate-crust.xmf,1608,-2.17386e-06,2.93578e-06,0,8.27344e-06,-3.24702e+08,-3.24351e+08,-3.24552e+08,567558,-0.0537,-0.330563,-0,0.334896,10617.1,-11816.8,0,15885.9,-567558
step02_gravity_refstate-crust.xmf,1609,-2.09418e-06,2.4148e-06,0,7.66058e-06,-2.88737e+08,-2.88427e+08,-2.88593e+08,525516,-0.0547724,-0.316971,-0,0.321669,11264.5,-10507,0,15404.1,-525516
step02_gravity_refstate-crust.xmf,1610,-1.95844e-06,3.9292e-06,0,1.01737e-05,-4.19928e+08,-4.19524e+08,-4.19793e+08,697914,-0.0568618,-0.35595,-0,0.360463,9819.37,-15286.1,0,18168.2,-697914
step02_gravity_refstate-crust.xmf,1611,3.88386e-06,2.51538e-06,0,2.09734e-05,-7.2712e+08,-7.27214e+08,-7.27387e+08,1.43878e+06,-0.0780818,-0.465805,-0,0.472304,7738.42,-26491.1,0,27598.3,-1.43878e+06
step02_gravity_refstate-crust.xmf,1612,6.81564e-06,-1.25876e-06,0,2.18399e-05,-7.79114e+08,-7.79668e+08,-7.79582e+08,1.49822e+06,-0.0699548,-0.480792,-0,0.485855,7460.53,-28390.1,0,29354,-1.49822e+06
step02_gravity_refstate-crust.xmf,1613,7.90524e-06,-3.191e-05,0,5.48911e-05,-9.48092e+08,-9.50824e+08,-9.48635e+08,3.76553e+06,0.0498229,-0.737185,0,0.738867,4000,-34498.8,0,34729.9,-3.76553e+06
step02_gravity_refstate-crust.xmf,1614,6.61406e-06,-2.99642e-06,0,2.47785e-05,-8.38223e+08,-8.38882e+08,-8.38677e+08,1.6998e+06,-0.0470272,-0.546749,-0,0.548768,6305.75,-30538.5,0,31182.7,-1.6998e+06
step02_gravity_refstate-crust.xmf,1615,4.72342e-06,-4.26669e-06,0,2.67589e-05,-8.60031e+08,-8.60648e+08,-8.60355e+08,1.83566e+06,-0.0299284,-0.56766,-0,0.568448,5992.82,-31322.8,0,31890.9,-1.83566e+06
step02_gravity_refstate-crust.xmf,1616,4.17742e-06,-2.22908e-05,0,4.17321e-05,-9.33363e+08,-9.35179e+08,-9.3365e+08,2.86282e+06,0.0401768,-0.655134,0,0.656365,4786.21,-33962.4,0,34298,-2.86282e+06
step02_gravity_refstate-crust.xmf,1617,1.73865e-05,-7.44242e-05,0,3.68878e-05,-1.00145e+09,-1.00775e+09,-1.00264e+09,2.5305e+06,0.0896359,-0.670366,0,0.676332,3693.46,-36413.9,0,36600.8,-2.5305e+06
step02_gravity_refstate-crust.xmf,1618,1.95857e-05,-7.54305e-05,0,3.18321e-05,-1.01239e+09,-1.01891e+09,-1.01373e+09,2.18368e+06,0.0849367,-0.660931,0,0.666366,3395.59,-36819.4,0,36975.7,-2.18368e+06
step02_gravity_refstate-crust.xmf,1619,2.37084e-05,-8.13692e-05,0,1.81874e-05,-1.03804e+09,-1.04525e+09,-1.03966e+09,1.24765e+06,0.0547403,-0.644189,0,0.646511,2144.71,-37760.7,0,37821.6,-1.24765e+06
step02_gravity_refstate-crust.xmf,1620,2.13667e-05,-7.88746e-05,0,-3.96588e-06,-1.07442e+09,-1.08129e+09,-1.07588e+09,-272059,-0.0101602,-0.566334,-0,0.566425,-475.592,-39079.5,-0,39082.4,-272059
step02_gravity_refstate-crust.xmf,1621,-2.07375e-06,1.9947e-06,0,6.98806e-06,-2.5081e+08,-2.5053e+08,-2.50667e+08,479381,-0.0570362,-0.303947,-0,0.309252,11921.1,-9125.67,0,15013,-479381
step02_gravity_refstate-crust.xmf,1622,-2.73964e-06,1.32712e-06,0,3.13894e-06,-8.56493e+07,-8.53703e+07,-8.54614e+07,215331,-0.0850898,-0.269643,-0,0.28275,13646.5,-3109.12,0,13996.2,-215331
step02_gravity_refstate-crust.xmf,1623,-2.05357e-06,9.36658e-07,0,1.89763e-06,-4.80659e+07,-4.78608e+07,-4.79251e+07,130178,-0.100626,-0.247967,-0,0.267607,15109.9,-1743.03,0,15210.1,-130178
step02_gravity_refstate-crust.xmf,1624,-1.58499e-06,6.13956e-07,0,2.82841e-08,-150030,817.612,-41299.8,1940.29,-0.122541,-0.234303,-0,0.264413,16020.4,0,0,16020.4,-1940.29
step02_gravity_refstate-crust.xmf,1625,2.45594e-08,5.65105e-06,0,1.7385e-05,-6.39621e+08,-6.39236e+08,-6.39623e+08,1.19261e+06,-0.0757385,-0.438241,-0,0.444737,8088.33,-23294.9,0,24659.2,-1.19261e+06
step02_gravity_refstate-crust.xmf,1626,-1.08036e-06,5.04554e-06,0,1.37371e-05,-5.49058e+08,-5.48638e+08,-5.48984e+08,942364,-0.0675257,-0.394759,-0,0.400492,8994.68,-19992.5,0,21922.7,-942364
step02_gravity_refstate-crust.xmf,1627,1.14839e-07,4.99015e-06,0,1.63771e-05,-6.2047e+08,-6.20135e+08,-6.20478e+08,1.12347e+06,-0.0741308,-0.420498,-0,0.426983,8534.93,-22597,0,24155.1,-1.12347e+06
step02_gravity_refstate-crust.xmf,1628,1.30262e-07,4.32301e-06,0,1.53016e-05,-5.9746e+08,-5.97173e+08,-5.97469e+08,1.04969e+06,-0.0721514,-0.402271,-0,0.40869,9025.22,-21758.4,0,23555.9,-1.04969e+06
step02_gravity_refstate-crust.xmf,1629,1.47163e-06,3.8381e-06,0,1.76591e-05,-6.57639e+08,-6.57477e+08,-6.5774e+08,1.21141e+06,-0.0766037,-0.427699,-0,0.434505,8500.21,-23953.9,0,25417.4,-1.21141e+06
step02_gravity_refstate-crust.xmf,1630,3.01084e-06,2.35598e-06,0,1.86016e-05,-6.90541e+08,-6.90586e+08,-6.90748e+08,1.27607e+06,-0.0771491,-0.431789,-0,0.438627,8493.04,-25155.7,0,26550.7,-1.27607e+06
step02_gravity_refstate-crust.xmf,1631,3.43149e-06,2.43466e-06,0,1.97203e-05,-7.08964e+08,-7.09033e+08,-7.092e+08,1.35281e+06,-0.077783,-0.44788,-0,0.454584,8123.02,-25828.2,0,27075.4,-1.35281e+06
step02_gravity_refstate-crust.xmf,1632,-1.02375e-06,4.40992e-06,0,1.28527e-05,-5.22013e+08,-5.21641e+08,-5.21943e+08,881697,-0.0653346,-0.378999,-0,0.384589,9462.94,-19007.1,0,21232.5,-881697
step02_gravity_refstate-crust.xmf,1633,-1.04914e-06,3.9035e-06,0,1.2006e-05,-4.9235e+08,-4.92011e+08,-4.92278e+08,823613,-0.0630314,-0.364881,-0,0.370285,9897.26,-17926.3,0,20477,-823613
step02_gravity_refstate-crust.xmf,1634,-1.23112e-06,3.5696e-06,0,1.1093e-05,-4.55604e+08,-4.55275e+08,-4.55519e+08,760979,-0.0603034,-0.352941,-0,0.358056,10234.1,-16587.3,0,19490.3,-760979
step02_gravity_refstate-crust.xmf,1635,-1.51223e-06,3.05629e-06,0,9.75668e-06,-3.95338e+08,-3.95024e+08,-3.95234e+08,669308,-0.0567864,-0.336737,-0,0.341492,10709,-14391.3,0,17938.5,-669308
step02_gravity_refstate-crust.xmf,1636,6.23925e-06,-8.44092e-07,0,2.08879e-05,-7.62651e+08,-7.63137e+08,-7.63079e+08,1.43291e+06,-0.0722136,-0.463398,-0,0.468991,7817.17,-27789,0,28867.6,-1.43291e+06
step02_gravity_refstate-crust.xmf,1637,5.63172e-06,-4.48452e-07,0,1.99544e-05,-7.45254e+08,-7.45671e+08,-7.4564e+08,1.36887e+06,-0.0737212,-0.447164,-0,0.4532,8173.85,-27153.8,0,28357.4,-1.36887e+06
step02_gravity_refstate-crust.xmf,1638,7.63206e-06,-3.8564e-06,0,1.99325e-05,-7.94442e+08,-7.9523e+08,-7.94965e+08,1.36737e+06,-0.0616105,-0.460755,-0,0.464855,7817.6,-28947.3,0,29984.4,-1.36737e+06
step02_gravity_refstate-crust.xmf,1639,6.97888e-06,-3.25534e-05,0,4.60204e-05,-9.54362e+08,-9.57074e+08,-9.54841e+08,3.157e+06,0.0587936,-0.676194,0,0.678746,4423.53,-34722.3,0,35003,-3.157e+06
step02_gravity_refstate-crust.xmf,1640,7.82082e-06,-4.39843e-06,0,2.05082e-05,-8.10125e+08,-8.10963e+08,-8.10662e+08,1.40686e+06,-0.0566879,-0.47702,-0,0.480376,7472.93,-29518.2,0,30449.5,-1.40686e+06
step02_gravity_refstate-crust.xmf,1641,7.63956e-06,-4.88464e-06,0,2.11176e-05,-8.25783e+08,-8.26642e+08,-8.26307e+08,1.44867e+06,-0.0500007,-0.494208,-0,0.496731,7133.14,-30086.8,0,30920.8,-1.44867e+06
step02_gravity_refstate-crust.xmf,1642,6.9636e-06,-5.29429e-06,0,2.18719e-05,-8.40678e+08,-8.41519e+08,-8.41156e+08,1.50041e+06,-0.0416125,-0.51091,-0,0.512602,6824.92,-30625.7,0,31377,-1.50041e+06
step02_gravity_refstate-crust.xmf,1643,5.83903e-06,-5.58683e-06,0,2.33847e-05,-8.54635e+08,-8.55419e+08,-8.55036e+08,1.60419e+06,-0.0322647,-0.53175,-0,0.532728,6481.07,-31128.8,0,31796.3,-1.60419e+06
step02_gravity_refstate-crust.xmf,1644,4.4469e-06,-7.07608e-06,0,2.43844e-05,-8.71589e+08,-8.7238e+08,-8.71894e+08,1.67277e+06,-0.0174238,-0.539281,-0,0.539563,6328.35,-31738.1,0,32362.9,-1.67277e+06
step02_gravity_refstate-crust.xmf,1645,4.10639e-06,-2.60099e-05,0,3.87244e-05,-9.45666e+08,-9.47732e+08,-9.45947e+08,2.6565e+06,0.052838,-0.630724,0,0.632933,4913.49,-34404.2,0,34753.3,-2.6565e+06
step02_gravity_refstate-crust.xmf,1646,3.35984e-06,-8.69355e-06,0,2.63617e-05,-8.85834e+08,-8.86661e+08,-8.86065e+08,1.80841e+06,-0.00431229,-0.553266,-0,0.553283,6099.8,-32249.8,0,32821.6,-1.80841e+06
step02_gravity_refstate-crust.xmf,1647,2.61759e-06,-1.11198e-05,0,2.92553e-05,-9.00186e+08,-9.01128e+08,-9.00365e+08,2.00692e+06,0.00940178,-0.572581,0,0.572658,5811.04,-32765.5,0,33276.8,-2.00692e+06
step02_gravity_refstate-crust.xmf,1648,2.94798e-06,-1.96133e-05,0,3.55838e-05,-9.30001e+08,-9.31549e+08,-9.30203e+08,2.44105e+06,0.0383168,-0.611546,0,0.612745,5224.86,-33839.2,0,34240.2,-2.44105e+06
step02_gravity_refstate-crust.xmf,1649,2.46628e-06,-1.48384e-05,0,3.25976e-05,-9.15225e+08,-9.16413e+08,-9.15395e+08,2.2362e+06,0.0240479,-0.593515,0,0.594002,5504.41,-33306.7,0,33758.5,-2.2362e+06
step02_gravity_refstate-crust.xmf,1650,9.36883e-06,-3.92504e-05,0,5.35424e-05,-9.61982e+08,-9.65317e+08,-9.62625e+08,3.67301e+06,0.0626712,-0.719531,0,0.722256,4000,-34999,0,35226.9,-3.67301e+06
step02_gravity_refstate-crust.xmf,1651,1.14832e-05,-4.63149e-05,0,5.29941e-05,-9.75759e+08,-9.79724e+08,-9.76547e+08,3.63539e+06,0.0758528,-0.698445,0,0.702552,4000,-35498.2,0,35722.9,-3.63539e+06
step02_gravity_refstate-crust.xmf,1652,7.086e-06,-3.86335e-05,0,4.30948e-05,-9.69065e+08,-9.72201e+08,-9.69551e+08,2.9563e+06,0.0729165,-0.656414,0,0.660451,4432.3,-35248.6,0,35526.2,-2.9563e+06
step02_gravity_refstate-crust.xmf,1653,8.52545e-06,-6.78945e-05,0,5.26278e-05,-9.90788e+08,-9.96031e+08,-9.91373e+08,3.61026e+06,0.090753,-0.673001,0,0.679092,4000,-36000,0,36221.5,-3.61026e+06
step02_gravity_refstate-crust.xmf,1654,2.07416e-05,-7.629e-05,0,2.73514e-05,-1.02464e+09,-1.0313e+09,-1.02606e+09,1.87631e+06,0.0778067,-0.644638,0,0.649316,3083.33,-37268.9,0,37396.2,-1.87631e+06
step02_gravity_refstate-crust.xmf,1655,2.13376e-05,-7.63491e-05,0,2.3564e-05,-1.03823e+09,-1.04493e+09,-1.03969e+09,1.61649e+06,0.068517,-0.621579,0,0.625344,2758.89,-37765.8,0,37866.4,-1.61649e+06
step02_gravity_refstate-crust.xmf,1656,2.42641e-05,-8.26539e-05,0,1.00569e-05,-1.05237e+09,-1.05971e+09,-1.05404e+09,689902,0.0299285,-0.623186,0,0.623904,1212.45,-38282.8,0,38302,-689902
step02_gravity_refstate-crust.xmf,1657,2.31234e-05,-8.00132e-05,0,1.50771e-05,-1.0523e+09,-1.05938e+09,-1.05389e+09,1.03429e+06,0.0442402,-0.611342,0,0.612941,1818.81,-38279.9,0,38323,-1.03429e+06
step02_gravity_refstate-crust.xmf,1658,2.16642e-05,-7.94247e-05,0,3.75436e-06,-1.073e+09,-1.07993e+09,-1.07448e+09,257549,0.00984721,-0.570502,0,0.570587,454.987,-39028.1,0,39030.8,-257549
step02_gravity_refstate-crust.xmf,1659,1.62624e-05,-6.89415e-05,0,-1.90241e-05,-1.08449e+09,-1.09034e+09,-1.08561e+09,-1.30505e+06,-0.0440371,-0.510838,-0,0.512732,-2410.24,-39441,-0,39514.6,-1.30505e+06
step02_gravity_refstate-crust.xmf,1660,1.99186e-05,-7.71981e-05,0,-2.66887e-08,-1.08178e+09,-1.08844e+09,-1.08314e+09,-1830.84,1.0067e-07,-0.546886,0,0.546886,0,-39344.2,0,39344.2,-1830.84
step02_gravity_refstate-crust.xmf,1661,1.91721e-05,-7.5437e-05,0,-8.36009e-06,-1.08355e+09,-1.09004e+09,-1.08487e+09,-573502,-0.019756,-0.536639,-0,0.537002,-1024.47,-39408.5,-0,39421.8,-573502
step02_gravity_refstate-crust.xmf,1662,1.78926e-05,-7.25644e-05,0,-1.39141e-05,-1.08472e+09,-1.09092e+09,-1.08595e+09,-954507,-0.0323336,-0.523903,-0,0.5249,-1729.06,-39450.3,-0,39488.2,-954507
step02_gravity_refstate-crust.xmf,1663,-2.0989e-06,1.61487e-06,0,6.20555e-06,-2.09641e+08,-2.09386e+08,-2.09497e+08,425701,-0.0611174,-0.290951,-0,0.297301,12611.3,-7626.2,0,14737.8,-425701
step02_gravity_refstate-crust.xmf,1664,-2.1123e-06,1.38709e-06,0,5.29531e-06,-1.67048e+08,-1.66808e+08,-1.66903e+08,363258,-0.0676365,-0.277498,-0,0.285622,13371.6,-6075.15,0,14686.9,-363258
step02_gravity_refstate-crust.xmf,1665,-1.99039e-06,1.13937e-06,0,4.30846e-06,-1.2711e+08,-1.26895e+08,-1.26974e+08,295561,-0.0765705,-0.262495,-0,0.273435,14286.2,-4621.28,0,15015.1,-295561
step02_gravity_refstate-crust.xmf,1666,-7.17826e-07,3.77647e-07,0,1.35188e-06,-3.42421e+07,-3.41669e+07,-3.41928e+07,92739.2,-0.10869,-0.220688,-0,0.246002,17077.4,-1244.3,0,17122.7,-92739.2
step02_gravity_refstate-crust.xmf,1667,1.26521e-07,3.73356e-06,0,1.43185e-05,-5.7328e+08,-5.73032e+08,-5.73288e+08,982252,-0.0700681,-0.38511,-0,0.391433,9526.02,-20877.1,0,22947.7,-982252
step02_gravity_refstate-crust.xmf,1668,2.61186e-06,2.38879e-06,0,1.77569e-05,-6.73897e+08,-6.73913e+08,-6.74077e+08,1.21812e+06,-0.0764753,-0.420254,-0,0.427156,8768.86,-24548.2,0,26067.3,-1.21812e+06
step02_gravity_refstate-crust.xmf,1669,-1.43975e-06,2.52377e-06,0,9.05983e-06,-3.59243e+08,-3.58971e+08,-3.59144e+08,621504,-0.0560482,-0.321977,-0,0.326818,11345.4,-13076.7,0,17312.3,-621504
step02_gravity_refstate-crust.xmf,1670,-1.3698e-06,2.05023e-06,0,8.42617e-06,-3.24479e+08,-3.24244e+08,-3.24385e+08,578035,-0.0561856,-0.307771,-0,0.312858,12021.1,-11810.6,0,16852.2,-578035
step02_gravity_refstate-crust.xmf,1671,-1.34104e-06,1.66108e-06,0,7.75136e-06,-2.87483e+08,-2.87277e+08,-2.87391e+08,531743,-0.0572884,-0.293949,-0,0.299479,12720.3,-10463.3,0,16470.8,-531743
step02_gravity_refstate-crust.xmf,1672,-1.10164e-06,2.95748e-06,0,1.04435e-05,-4.28293e+08,-4.28015e+08,-4.28218e+08,716427,-0.0589857,-0.338265,-0,0.343369,10822,-15592.6,0,18980.1,-716427
step02_gravity_refstate-crust.xmf,1673,5.0923e-06,-2.2903e-07,0,1.89539e-05,-7.27609e+08,-7.27974e+08,-7.27958e+08,1.30023e+06,-0.0743258,-0.43057,-0,0.436938,8563.58,-26509.6,0,27858.4,-1.30023e+06
step02_gravity_refstate-crust.xmf,1674,7.2484e-06,-3.32942e-06,0,1.93164e-05,-7.78762e+08,-7.79488e+08,-7.7926e+08,1.3251e+06,-0.0651135,-0.445272,-0,0.450008,8167.19,-28375.8,0,29527.8,-1.3251e+06
step02_gravity_refstate-crust.xmf,1675,3.27573e-06,-4.29364e-05,0,3.83986e-05,-9.83329e+08,-9.86499e+08,-9.83554e+08,2.63415e+06,0.0860854,-0.63432,0,0.640135,4447.3,-35745.9,0,36021.4,-2.63415e+06
step02_gravity_refstate-crust.xmf,1676,9.6316e-06,-5.91998e-05,0,4.31312e-05,-1.00259e+09,-1.00731e+09,-1.00325e+09,2.9588e+06,0.0955991,-0.633408,0,0.640582,4103.16,-36447.6,0,36677.8,-2.9588e+06
step02_gravity_refstate-crust.xmf,1677,1.36478e-05,-6.48205e-05,0,3.75356e-05,-1.01286e+09,-1.01824e+09,-1.0138e+09,2.57494e+06,0.0940764,-0.622692,0,0.629758,3940.1,-36829.1,0,37039.2,-2.57494e+06
step02_gravity_refstate-crust.xmf,1678,1.63575e-05,-6.73913e-05,0,3.3122e-05,-1.02476e+09,-1.03051e+09,-1.02589e+09,2.27217e+06,0.0887583,-0.61154,0,0.617948,3672.07,-37269.4,0,37449.8,-2.27217e+06
step02_gravity_refstate-crust.xmf,1679,2.12162e-05,-7.59468e-05,0,2.00753e-05,-1.05252e+09,-1.05919e+09,-1.05398e+09,1.37717e+06,0.0577589,-0.593711,0,0.596514,2433.36,-38286.3,0,38363.5,-1.37717e+06
step02_gravity_refstate-crust.xmf,1680,2.25193e-05,-8.01811e-05,0,7.5822e-06,-1.06584e+09,-1.07289e+09,-1.06739e+09,520139,0.0210198,-0.587405,0,0.587781,921.132,-38770,0,38781,-520139
step02_gravity_refstate-crust.xmf,1681,1.86328e-05,-7.54713e-05,0,3.72187e-06,-1.08734e+09,-1.0938e+09,-1.08862e+09,255321,0.00846479,-0.530571,0,0.530639,456.577,-39544.4,0,39547,-255321
step02_gravity_refstate-crust.xmf,1682,1.84795e-05,-7.53223e-05,0,-3.56477e-06,-1.08796e+09,-1.0944e+09,-1.08923e+09,-244544,-0.00803097,-0.528996,-0,0.529057,-436.61,-39566.4,-0,39568.9,-244544
step02_gravity_refstate-crust.xmf,1683,-1.34929e-06,1.35791e-06,0,7.0092e-06,-2.48148e+08,-2.47962e+08,-2.48056e+08,480831,-0.0597449,-0.280666,-0,0.286954,13427.8,-9030.72,0,16182.1,-480831
step02_gravity_refstate-crust.xmf,1684,-1.72294e-06,9.05353e-07,0,3.32158e-06,-9.32909e+07,-9.31106e+07,-9.31727e+07,227860,-0.0865063,-0.247696,-0,0.262368,15237.6,-3390.78,0,15610.3,-227860
step02_gravity_refstate-crust.xmf,1685,1.36875e-07,-3.19805e-08,0,3.96425e-08,13851,2267.53,4461.39,2719.47,-0.124097,-0.206281,-0,0.240732,18134.4,0,0,18134.4,-2719.47
step02_gravity_refstate-crust.xmf,1686,-6.54488e-07,4.406e-07,0,2.82574e-06,-7.90773e+07,-7.90021e+07,-7.90324e+07,193846,-0.0928235,-0.221474,-0,0.240139,17068.7,-2876.92,0,17309.4,-193846
step02_gravity_refstate-crust.xmf,1687,1.60646e-06,3.07869e-06,0,1.66547e-05,-6.42145e+08,-6.42044e+08,-6.42255e+08,1.14251e+06,-0.0751574,-0.409111,-0,0.415957,9002.65,-23389.2,0,25062,-1.14251e+06
step02_gravity_refstate-crust.xmf,1688,9.71828e-08,3.22938e-06,0,1.34213e-05,-5.47805e+08,-5.4759e+08,-5.47811e+08,920702,-0.0679232,-0.369129,-0,0.375326,10028.7,-19948.8,0,22327.8,-920702
step02_gravity_refstate-crust.xmf,1689,1.54631e-06,2.61567e-06,0,1.56162e-05,-6.21123e+08,-6.21049e+08,-6.21229e+08,1.07127e+06,-0.0733468,-0.390507,-0,0.397336,9533.57,-22622.9,0,24549.6,-1.07127e+06
step02_gravity_refstate-crust.xmf,1690,1.38293e-06,2.24936e-06,0,1.46196e-05,-5.97154e+08,-5.97095e+08,-5.97249e+08,1.0029e+06,-0.0713601,-0.373645,-0,0.380398,10047.2,-21749.1,0,23957.6,-1.0029e+06
step02_gravity_refstate-crust.xmf,1691,2.90024e-06,1.44134e-06,0,1.6769e-05,-6.64113e+08,-6.64213e+08,-6.64312e+08,1.15035e+06,-0.0749505,-0.400604,-0,0.407555,9318.64,-24191.7,0,25924.4,-1.15035e+06
step02_gravity_refstate-crust.xmf,1692,3.98231e-06,2.53532e-07,0,1.70685e-05,-6.87196e+08,-6.87452e+08,-6.87469e+08,1.1709e+06,-0.0742288,-0.399876,-0,0.406707,9361.91,-25034.6,0,26727.8,-1.1709e+06
step02_gravity_refstate-crust.xmf,1693,4.55885e-06,-2.90271e-08,0,1.79998e-05,-7.08985e+08,-7.093e+08,-7.09298e+08,1.23479e+06,-0.0744469,-0.414941,-0,0.421566,8956.94,-25829.7,0,27338.6,-1.23479e+06
step02_gravity_refstate-crust.xmf,1694,3.60952e-08,2.80649e-06,0,1.25895e-05,-5.20585e+08,-5.20395e+08,-5.20587e+08,863643,-0.0657399,-0.354299,-0,0.360346,10527.6,-18956.9,0,21684,-863643
step02_gravity_refstate-crust.xmf,1695,-7.68989e-08,2.45626e-06,0,1.17604e-05,-4.8911e+08,-4.88937e+08,-4.89105e+08,806766,-0.0634146,-0.340039,-0,0.345901,11034.1,-17810,0,20951.1,-806766
step02_gravity_refstate-crust.xmf,1696,-6.73259e-07,1.96513e-06,0,9.69136e-06,-3.91642e+08,-3.91461e+08,-3.91596e+08,664827,-0.0580763,-0.312121,-0,0.317478,12053.6,-14258.4,0,18670.6,-664827
step02_gravity_refstate-crust.xmf,1697,-1.75022e-07,2.00336e-06,0,1.08798e-05,-4.52798e+08,-4.52649e+08,-4.52786e+08,746353,-0.061093,-0.324362,-0,0.330066,11646.3,-16487,0,20185.6,-746353
step02_gravity_refstate-crust.xmf,1698,-5.94515e-07,2.15981e-06,0,1.02103e-05,-4.17798e+08,-4.17609e+08,-4.17757e+08,700426,-0.0591003,-0.320608,-0,0.32601,11701.3,-15211.3,0,19191.2,-700426
step02_gravity_refstate-crust.xmf,1699,6.76478e-06,-2.82695e-06,0,1.86429e-05,-7.62179e+08,-7.62837e+08,-7.62643e+08,1.2789e+06,-0.0676617,-0.429896,-0,0.435188,8537.02,-27770.9,0,29053.5,-1.2789e+06
step02_gravity_refstate-crust.xmf,1700,6.32065e-06,-2.57737e-06,0,1.77858e-05,-7.46227e+08,-7.46838e+08,-7.46661e+08,1.2201e+06,-0.0688071,-0.412987,-0,0.41868,8964.27,-27188.7,0,28628.4,-1.2201e+06
step02_gravity_refstate-crust.xmf,1701,7.64773e-06,-5.28606e-06,0,1.75356e-05,-7.94162e+08,-7.9505e+08,-7.94687e+08,1.20294e+06,-0.0564388,-0.426316,-0,0.430036,8513.71,-28935,0,30161.6,-1.20294e+06
step02_gravity_refstate-crust.xmf,1702,7.77059e-06,-5.86752e-06,0,1.78894e-05,-8.09842e+08,-8.10777e+08,-8.10375e+08,1.22721e+06,-0.0514456,-0.440033,-0,0.44303,8169.42,-29505.5,0,30615.5,-1.22721e+06
step02_gravity_refstate-crust.xmf,1703,4.34006e-06,-3.16299e-05,0,3.77425e-05,-9.61653e+08,-9.64121e+08,-9.61951e+08,2.58914e+06,0.0679946,-0.62211,0,0.625814,4837.99,-34978.5,0,35311.5,-2.58914e+06
step02_gravity_refstate-crust.xmf,1704,7.59679e-06,-6.44107e-06,0,1.82664e-05,-8.26039e+08,-8.27002e+08,-8.2656e+08,1.25308e+06,-0.0446473,-0.454807,-0,0.456993,7819.67,-30093.5,0,31092.9,-1.25308e+06
step02_gravity_refstate-crust.xmf,1705,7.01285e-06,-6.92952e-06,0,1.88498e-05,-8.41911e+08,-8.42868e+08,-8.42392e+08,1.2931e+06,-0.0362101,-0.470803,-0,0.472193,7468.98,-30668.3,0,31564.7,-1.2931e+06
step02_gravity_refstate-crust.xmf,1706,6.10614e-06,-7.36149e-06,0,1.97581e-05,-8.56087e+08,-8.57011e+08,-8.56506e+08,1.35541e+06,-0.0270505,-0.486683,-0,0.487435,7148.23,-31180,0,31988.9,-1.35541e+06
step02_gravity_refstate-crust.xmf,1707,4.913e-06,-8.24144e-06,0,2.0701e-05,-8.71183e+08,-8.72085e+08,-8.7152e+08,1.42009e+06,-0.0150801,-0.498006,-0,0.498234,6909.92,-31723.4,0,32467.2,-1.42009e+06
step02_gravity_refstate-crust.xmf,1708,3.75305e-06,-9.47758e-06,0,2.1915e-05,-8.8557e+08,-8.86477e+08,-8.85827e+08,1.50337e+06,-0.0024786,-0.50884,-0,0.508847,6687.75,-32240.6,0,32926.9,-1.50337e+06
step02_gravity_refstate-crust.xmf,1709,2.01866e-06,-2.2084e-05,0,3.17295e-05,-9.44011e+08,-9.45665e+08,-9.4415e+08,2.17665e+06,0.0528459,-0.577731,0,0.580143,5470.42,-34341.6,0,34774.6,-2.17665e+06
step02_gravity_refstate-crust.xmf,1710,2.6928e-06,-1.12833e-05,0,2.38296e-05,-9.00419e+08,-9.01377e+08,-9.00603e+08,1.63471e+06,0.0112462,-0.523339,0,0.523459,6416.09,-32774.1,0,33396.2,-1.63471e+06
step02_gravity_refstate-crust.xmf,1711,1.99919e-06,-1.39324e-05,0,2.64273e-05,-9.15177e+08,-9.1627e+08,-9.15314e+08,1.81291e+06,0.0253071,-0.541854,0,0.542444,6096.53,-33304.4,0,33857.8,-1.81291e+06
step02_gravity_refstate-crust.xmf,1712,1.78229e-06,-1.75561e-05,0,2.91156e-05,-9.2984e+08,-9.31167e+08,-9.29962e+08,1.99733e+06,0.0394319,-0.560078,0,0.561464,5781.67,-33831.8,0,34322.3,-1.99733e+06
step02_gravity_refstate-crust.xmf,1713,2.42386e-06,-3.40441e-05,0,3.53685e-05,-9.75995e+08,-9.78497e+08,-9.76161e+08,2.42628e+06,0.0812543,-0.601149,0,0.606616,4878.9,-35489.2,0,35823,-2.42628e+06
step02_gravity_refstate-crust.xmf,1714,2.02459e-06,-4.58581e-05,0,4.03119e-05,-9.9736e+08,-1.00064e+09,-9.97499e+08,2.76539e+06,0.0959014,-0.610534,0,0.61802,4465.07,-36247.1,0,36521,-2.76539e+06
step02_gravity_refstate-crust.xmf,1715,5.55238e-06,-5.02869e-05,0,3.93753e-05,-1.01091e+09,-1.01474e+09,-1.01129e+09,2.70115e+06,0.0987242,-0.590249,0,0.598448,4417.19,-36747.7,0,37012.3,-2.70115e+06
step02_gravity_refstate-crust.xmf,1716,1.77761e-05,-6.94992e-05,0,2.84824e-05,-1.03841e+09,-1.04439e+09,-1.03963e+09,1.95389e+06,0.0804926,-0.593785,0,0.599215,3371.22,-37768.6,0,37918.7,-1.95389e+06
step02_gravity_refstate-crust.xmf,1717,1.83897e-05,-7.01464e-05,0,2.49396e-05,-1.05258e+09,-1.05866e+09,-1.05385e+09,1.71085e+06,0.0700309,-0.571615,0,0.575889,3053.99,-38286.2,0,38407.8,-1.71085e+06
step02_gravity_refstate-crust.xmf,1718,2.16719e-05,-7.80383e-05,0,1.19899e-05,-1.0675e+09,-1.07434e+09,-1.06899e+09,822510,0.032766,-0.574959,0,0.575892,1470.15,-38830.4,0,38858.2,-822510
step02_gravity_refstate-crust.xmf,1719,2.01756e-05,-7.47156e-05,0,1.69513e-05,-1.06786e+09,-1.07437e+09,-1.06924e+09,1.16286e+06,0.0457265,-0.561129,0,0.562989,2098.89,-38842.4,0,38899.1,-1.16286e+06
step02_gravity_refstate-crust.xmf,1720,1.90501e-05,-7.54617e-05,0,8.41124e-06,-1.08326e+09,-1.08974e+09,-1.08456e+09,577011,0.019998,-0.537393,0,0.537765,1033.33,-39397.3,0,39410.9,-577011
step02_gravity_refstate-crust.xmf,1721,-1.32656e-06,1.06238e-06,0,6.19507e-06,-2.08307e+08,-2.08143e+08,-2.08216e+08,424982,-0.0639828,-0.266852,-0,0.274415,14212.8,-7579.89,0,16107.7,-424982
step02_gravity_refstate-crust.xmf,1722,-1.21664e-06,8.72049e-07,0,5.27167e-06,-1.67365e+08,-1.67222e+08,-1.67282e+08,361636,-0.0705131,-0.25157,-0,0.261266,15134.1,-6089.52,0,16313.3,-361636
step02_gravity_refstate-crust.xmf,1723,-9.93005e-07,6.60476e-07,0,4.22861e-06,-1.27279e+08,-1.27165e+08,-1.2721e+08,290083,-0.0792496,-0.235973,-0,0.248925,16121,-4630.71,0,16772.9,-290083
step02_gravity_refstate-crust.xmf,1724,5.61806e-07,-9.3613e-08,0,1.72892e-06,-4.87406e+07,-4.87855e+07,-4.87791e+07,118604,-0.103233,-0.193994,-0,0.219752,19047.1,-1776.58,0,19129.8,-118604
step02_gravity_refstate-crust.xmf,1725,1.22397e-06,1.93735e-06,0,1.37256e-05,-5.72276e+08,-5.72227e+08,-5.7236e+08,941573,-0.0692992,-0.357955,-0,0.364601,10563.5,-20842.2,0,23366.3,-941573
step02_gravity_refstate-crust.xmf,1726,-6.52202e-07,1.59109e-06,0,9.05309e-06,-3.58877e+08,-3.58723e+08,-3.58832e+08,621042,-0.057466,-0.298382,-0,0.303865,12707.4,-13065.1,0,18225.7,-621042
step02_gravity_refstate-crust.xmf,1727,-6.24137e-07,1.24185e-06,0,8.38744e-06,-3.23746e+08,-3.23618e+08,-3.23703e+08,575378,-0.0576189,-0.283701,-0,0.289493,13460.6,-11785.7,0,17891,-575378
step02_gravity_refstate-crust.xmf,1728,-6.26248e-07,9.74906e-07,0,7.67963e-06,-2.8648e+08,-2.8637e+08,-2.86437e+08,526823,-0.0587871,-0.26972,-0,0.276052,14217.2,-10428.5,0,17631.9,-526823
step02_gravity_refstate-crust.xmf,1729,5.85199e-06,-2.36807e-06,0,1.69068e-05,-7.2916e+08,-7.29723e+08,-7.29561e+08,1.15981e+06,-0.0693716,-0.396033,-0,0.402063,9424.99,-26565.8,0,28188.2,-1.15981e+06
step02_gravity_refstate-crust.xmf,1730,7.37107e-06,-4.69973e-06,0,1.71545e-05,-7.78743e+08,-7.79571e+08,-7.79249e+08,1.1768e+06,-0.0600324,-0.412965,-0,0.417306,8865.64,-28373.5,0,29726.3,-1.1768e+06
step02_gravity_refstate-crust.xmf,1731,2.37126e-06,-2.63128e-05,0,3.34394e-05,-9.557e+08,-9.57667e+08,-9.55862e+08,2.29394e+06,0.0635925,-0.589324,0,0.592745,5235.66,-34762.1,0,35154.1,-2.29394e+06
step02_gravity_refstate-crust.xmf,1732,-6.68429e-07,-3.58347e-05,0,3.46547e-05,-9.90388e+08,-9.92801e+08,-9.90342e+08,2.37732e+06,0.0922637,-0.580641,0,0.587926,4907.39,-35997.9,0,36330.8,-2.37732e+06
step02_gravity_refstate-crust.xmf,1733,1.00197e-05,-5.66491e-05,0,3.58266e-05,-1.02441e+09,-1.02898e+09,-1.0251e+09,2.45771e+06,0.0962754,-0.576575,0,0.584557,4234.47,-37247.5,0,37487.4,-2.45771e+06
step02_gravity_refstate-crust.xmf,1734,1.28789e-05,-6.01895e-05,0,3.24627e-05,-1.03815e+09,-1.04316e+09,-1.03903e+09,2.22694e+06,0.0897786,-0.563285,0,0.570394,3966.96,-37753.7,0,37961.6,-2.22694e+06
step02_gravity_refstate-crust.xmf,1735,1.79931e-05,-7.00613e-05,0,2.16454e-05,-1.06796e+09,-1.074e+09,-1.0692e+09,1.48488e+06,0.057838,-0.543464,0,0.546533,2737.99,-38844.5,0,38940.9,-1.48488e+06
step02_gravity_refstate-crust.xmf,1736,-6.11014e-07,7.61235e-07,0,6.92277e-06,-2.48062e+08,-2.47967e+08,-2.4802e+08,474902,-0.0613079,-0.255709,-0,0.262955,15018.8,-9029.63,0,17524.2,-474902
step02_gravity_refstate-crust.xmf,1737,1.75899e-06,-6.51921e-07,0,3.66986e-08,167753,2364.3,47086.1,2517.52,-0.122088,-0.178286,-0,0.216082,20294.4,0,0,20294.4,-2517.52
step02_gravity_refstate-crust.xmf,1738,3.61886e-07,2.02387e-08,0,3.00841e-06,-9.24997e+07,-9.25232e+07,-9.25246e+07,206377,-0.0890492,-0.196786,-0,0.215997,18838.9,-3369.04,0,19137.8,-206377
step02_gravity_refstate-crust.xmf,1739,3.06081e-06,6.01063e-07,0,1.55898e-05,-6.4806e+08,-6.48229e+08,-6.4827e+08,1.06946e+06,-0.0728691,-0.376867,-0,0.383847,10032.7,-23606.6,0,25650.1,-1.06946e+06
step02_gravity_refstate-crust.xmf,1740,1.07145e-06,1.66142e-06,0,1.29072e-05,-5.46253e+08,-5.46212e+08,-5.46326e+08,885434,-0.0671993,-0.343191,-0,0.349708,11086.8,-19893.8,0,22774.5,-885434
step02_gravity_refstate-crust.xmf,1741,2.64388e-06,6.26805e-07,0,1.46119e-05,-6.21478e+08,-6.21616e+08,-6.21659e+08,1.00237e+06,-0.0712138,-0.36048,-0,0.367447,10558.7,-22637.2,0,24978.6,-1.00237e+06
step02_gravity_refstate-crust.xmf,1742,2.35092e-06,5.35667e-07,0,1.37686e-05,-5.97051e+08,-5.97175e+08,-5.97212e+08,944528,-0.0694258,-0.345425,-0,0.352332,11081.9,-21746.6,0,24407.4,-944528
step02_gravity_refstate-crust.xmf,1743,3.86837e-06,-2.16243e-07,0,1.59545e-05,-6.72067e+08,-6.72347e+08,-6.72333e+08,1.09448e+06,-0.0726367,-0.379778,-0,0.386662,9948.4,-24482.6,0,26426.7,-1.09448e+06
step02_gravity_refstate-crust.xmf,1744,5.29582e-06,-1.91463e-06,0,1.6298e-05,-7.0987e+08,-7.10364e+08,-7.10233e+08,1.11804e+06,-0.0702356,-0.383782,-0,0.390155,9792.59,-25862,0,27653.9,-1.11804e+06
step02_gravity_refstate-crust.xmf,1745,9.26835e-07,1.41053e-06,0,1.21475e-05,-5.18981e+08,-5.18948e+08,-5.19045e+08,833322,-0.0651097,-0.329156,-0,0.335534,11621.4,-18900,0,22187,-833322
step02_gravity_refstate-crust.xmf,1746,7.87872e-07,1.16217e-06,0,1.13894e-05,-4.88615e+08,-4.8859e+08,-4.88669e+08,781315,-0.06297,-0.314696,-0,0.320935,12214.7,-17793.5,0,21582.6,-781315
step02_gravity_refstate-crust.xmf,1747,9.44962e-08,9.91997e-07,0,9.50788e-06,-3.91434e+08,-3.91373e+08,-3.91441e+08,652241,-0.0584672,-0.2873,-0,0.293189,13412.9,-14252.5,0,19571.4,-652241
step02_gravity_refstate-crust.xmf,1748,1.52934e-07,1.24959e-06,0,1.02253e-05,-4.26588e+08,-4.26513e+08,-4.26599e+08,701458,-0.0597551,-0.301952,-0,0.307808,12707.6,-15532.9,0,20068.8,-701458
step02_gravity_refstate-crust.xmf,1749,7.05264e-06,-4.43356e-06,0,1.64642e-05,-7.64131e+08,-7.64919e+08,-7.64615e+08,1.12945e+06,-0.061822,-0.396665,-0,0.401454,9302.67,-27840.6,0,29353.7,-1.12945e+06
step02_gravity_refstate-crust.xmf,1750,6.67652e-06,-4.33494e-06,0,1.55253e-05,-7.49954e+08,-7.50709e+08,-7.50412e+08,1.06504e+06,-0.0621942,-0.377438,-0,0.382528,9842.08,-27323.1,0,29041.7,-1.06504e+06
step02_gravity_refstate-crust.xmf,1751,7.47812e-06,-6.22248e-06,0,1.55737e-05,-7.95145e+08,-7.96085e+08,-7.95658e+08,1.06835e+06,-0.05116,-0.396906,-0,0.400189,9156.51,-28968.7,0,30381.3,-1.06835e+06
step02_gravity_refstate-crust.xmf,1752,7.52408e-06,-6.8008e-06,0,1.5717e-05,-8.10168e+08,-8.11151e+08,-8.10685e+08,1.07819e+06,-0.0461539,-0.407425,-0,0.410031,8843.45,-29514.9,0,30811.3,-1.07819e+06
step02_gravity_refstate-crust.xmf,1753,7.31611e-06,-7.38597e-06,0,1.58167e-05,-8.25993e+08,-8.27002e+08,-8.26495e+08,1.08502e+06,-0.0394264,-0.41828,-0,0.420134,8529.65,-30089.3,0,31274.9,-1.08502e+06
step02_gravity_refstate-crust.xmf,1754,8.07555e-07,-2.82654e-05,0,3.15069e-05,-9.68277e+08,-9.70272e+08,-9.68333e+08,2.16137e+06,0.0751729,-0.571293,0,0.576218,5299.45,-35210.6,0,35607.2,-2.16137e+06
step02_gravity_refstate-crust.xmf,1755,6.78122e-06,-7.92565e-06,0,1.6158e-05,-8.42578e+08,-8.43587e+08,-8.43044e+08,1.10844e+06,-0.0309713,-0.43219,-0,0.433298,8164.16,-30690.1,0,31757.4,-1.10844e+06
step02_gravity_refstate-crust.xmf,1756,5.93158e-06,-8.37935e-06,0,1.68691e-05,-8.58048e+08,-8.5903e+08,-8.58455e+08,1.15722e+06,-0.0216274,-0.448203,-0,0.448725,7785.57,-31249.1,0,32204.4,-1.15722e+06
step02_gravity_refstate-crust.xmf,1757,5.10256e-06,-8.6335e-06,0,1.81266e-05,-8.69385e+08,-8.70327e+08,-8.69735e+08,1.24349e+06,-0.0140954,-0.465556,-0,0.465769,7428.64,-31658.1,0,32518,-1.24349e+06
step02_gravity_refstate-crust.xmf,1758,3.99079e-06,-9.75992e-06,0,1.83546e-05,-8.83809e+08,-8.84753e+08,-8.84083e+08,1.25913e+06,-0.00175617,-0.468248,-0,0.468252,7307.73,-32177,0,32996.4,-1.25913e+06
step02_gravity_refstate-crust.xmf,1759,2.63575e-06,-1.11196e-05,0,1.95604e-05,-9.00077e+08,-9.01021e+08,-9.00258e+08,1.34185e+06,0.0125904,-0.478847,0,0.479012,7048.82,-32761.7,0,33511.4,-1.34185e+06
step02_gravity_refstate-crust.xmf,1760,2.89725e-07,-2.33569e-05,0,2.86825e-05,-9.58017e+08,-9.59639e+08,-9.58037e+08,1.96762e+06,0.0662894,-0.548096,0,0.55209,5680.44,-34842.6,0,35302.6,-1.96762e+06
step02_gravity_refstate-crust.xmf,1761,3.50789e-07,-1.91957e-05,0,2.62359e-05,-9.44869e+08,-9.4621e+08,-9.44893e+08,1.79978e+06,0.0542893,-0.529633,0,0.532408,6030.74,-34370.6,0,34895.7,-1.79978e+06
step02_gravity_refstate-crust.xmf,1762,1.51018e-06,-1.30695e-05,0,2.15074e-05,-9.15748e+08,-9.16748e+08,-9.15851e+08,1.4754e+06,0.0269585,-0.494401,0,0.495136,6721.81,-33324.6,0,33995.7,-1.4754e+06
step02_gravity_refstate-crust.xmf,1763,7.5287e-07,-1.57201e-05,0,2.38006e-05,-9.30474e+08,-9.31604e+08,-9.30526e+08,1.63272e+06,0.0407871,-0.511751,0,0.513374,6379.04,-33853.5,0,34449.3,-1.63272e+06
step02_gravity_refstate-crust.xmf,1764,-1.32869e-06,-2.91171e-05,0,3.07789e-05,-9.82621e+08,-9.84527e+08,-9.8253e+08,2.11143e+06,0.0866615,-0.551395,0,0.558164,5359.81,-35722.8,0,36122.7,-2.11143e+06
step02_gravity_refstate-crust.xmf,1765,-4.10646e-08,-3.91972e-05,0,3.5802e-05,-1.00535e+09,-1.00803e+09,-1.00535e+09,2.45602e+06,0.099038,-0.560368,0,0.569052,4907.03,-36539.8,0,36867.9,-2.45602e+06
step02_gravity_refstate-crust.xmf,1766,2.91602e-06,-4.35238e-05,0,3.53583e-05,-1.0225e+09,-1.02569e+09,-1.0227e+09,2.42558e+06,0.100377,-0.539017,0,0.548284,4839.95,-37169.6,0,37483.4,-2.42558e+06
step02_gravity_refstate-crust.xmf,1767,1.44969e-05,-6.28957e-05,0,2.87397e-05,-1.05257e+09,-1.05788e+09,-1.05357e+09,1.97154e+06,0.0803925,-0.545236,0,0.551131,3680.08,-38281.2,0,38457.7,-1.97154e+06
step02_gravity_refstate-crust.xmf,1768,1.4946e-05,-6.37519e-05,0,2.58569e-05,-1.06794e+09,-1.07334e+09,-1.06896e+09,1.77378e+06,0.068491,-0.521908,0,0.526383,3383.06,-38841.1,0,38988.1,-1.77378e+06
step02_gravity_refstate-crust.xmf,1769,1.81439e-05,-7.2827e-05,0,1.39618e-05,-1.0836e+09,-1.08984e+09,-1.08484e+09,957779,0.0328972,-0.5267,0,0.527726,1736.28,-39410.1,0,39448.3,-957779
step02_gravity_refstate-crust.xmf,1770,1.65932e-05,-6.91207e-05,0,1.8813e-05,-1.08373e+09,-1.08961e+09,-1.08487e+09,1.29057e+06,0.0441865,-0.513017,0,0.514916,2395.55,-39414.4,0,39487.1,-1.29057e+06
step02_gravity_refstate-crust.xmf,1771,-5.42378e-07,5.38676e-07,0,6.09496e-06,-2.09584e+08,-2.0951e+08,-2.09547e+08,418114,-0.0653918,-0.241571,-0,0.250265,15869.7,-7628.77,0,17608.1,-418114
step02_gravity_refstate-crust.xmf,1772,-2.6724e-08,2.08971e-07,0,4.03888e-06,-1.27653e+08,-1.27636e+08,-1.27651e+08,277067,-0.0800912,-0.2091,-0,0.223914,17978.2,-4647.54,0,18569.2,-277067
step02_gravity_refstate-crust.xmf,1773,-2.88989e-07,3.715e-07,0,5.15214e-06,-1.7026e+08,-1.70215e+08,-1.7024e+08,353437,-0.0714522,-0.223338,-0,0.234489,17033.6,-6197.89,0,18126.2,-353437
step02_gravity_refstate-crust.xmf,1774,1.91676e-06,-6.11219e-07,0,1.59184e-06,-4.90172e+07,-4.91906e+07,-4.91487e+07,109200,-0.100321,-0.164595,-0,0.192759,21279.4,-1791.33,0,21354.7,-109200
step02_gravity_refstate-crust.xmf,1775,1.16566e-06,-3.11484e-07,0,2.59716e-06,-8.30351e+07,-8.31364e+07,-8.31151e+07,178165,-0.0907516,-0.177497,-0,0.199352,20253.1,-3027.21,0,20478,-178165
step02_gravity_refstate-crust.xmf,1776,2.09367e-06,4.42052e-07,0,1.30031e-05,-5.72077e+08,-5.7219e+08,-5.7222e+08,892015,-0.067562,-0.331362,-0,0.338179,11606.8,-20836.2,0,23850.9,-892015
step02_gravity_refstate-crust.xmf,1777,4.80141e-06,-1.62786e-06,0,1.55789e-05,-6.90261e+08,-6.90702e+08,-6.9059e+08,1.06871e+06,-0.0702436,-0.370109,-0,0.376716,10219.9,-25146.6,0,27144,-1.06871e+06
step02_gravity_refstate-crust.xmf,1778,8.71819e-08,7.27336e-07,0,8.87011e-06,-3.58963e+08,-3.58919e+08,-3.58969e+08,608490,-0.0578819,-0.272827,-0,0.278899,14166.3,-13069.9,0,19274.5,-608490
step02_gravity_refstate-crust.xmf,1779,8.55044e-08,4.98711e-07,0,8.19222e-06,-3.23962e+08,-3.23934e+08,-3.23968e+08,561986,-0.0580309,-0.257802,-0,0.264253,14997,-11795.3,0,19079.8,-561986
step02_gravity_refstate-crust.xmf,1780,4.56563e-08,3.57754e-07,0,7.46878e-06,-2.8675e+08,-2.86729e+08,-2.86753e+08,512358,-0.0592239,-0.244477,-0,0.251549,15769,-10440.2,0,18911.8,-512358
step02_gravity_refstate-crust.xmf,1781,7.1335e-07,8.96635e-07,0,1.07603e-05,-4.62866e+08,-4.62853e+08,-4.62915e+08,738160,-0.061306,-0.301657,-0,0.307823,12795.4,-16855.4,0,21161.9,-738160
step02_gravity_refstate-crust.xmf,1782,6.20545e-06,-3.80932e-06,0,1.51446e-05,-7.3126e+08,-7.31947e+08,-7.31685e+08,1.03892e+06,-0.0642158,-0.366349,-0,0.371934,10214.2,-26641.4,0,28532.4,-1.03892e+06
step02_gravity_refstate-crust.xmf,1783,7.33591e-06,-5.74558e-06,0,1.53961e-05,-7.8133e+08,-7.82228e+08,-7.81834e+08,1.05617e+06,-0.0547802,-0.387363,-0,0.391217,9450.77,-28465.9,0,29993.7,-1.05617e+06
step02_gravity_refstate-crust.xmf,1784,-2.59119e-06,-3.11034e-05,0,3.1275e-05,-9.97701e+08,-9.99657e+08,-9.97523e+08,2.14546e+06,0.0954902,-0.532898,0,0.541386,5386.96,-36263.6,0,36661.6,-2.14546e+06
step02_gravity_refstate-crust.xmf,1785,7.34209e-06,-5.05762e-05,0,3.35421e-05,-1.03726e+09,-1.04123e+09,-1.03776e+09,2.30099e+06,0.095971,-0.531805,0,0.540395,4548.2,-37713.9,0,37987.1,-2.30099e+06
step02_gravity_refstate-crust.xmf,1786,9.73251e-06,-5.38177e-05,0,3.13194e-05,-1.05221e+09,-1.05657e+09,-1.05288e+09,2.14851e+06,0.0882415,-0.516094,0,0.523584,4308.29,-38262.8,0,38504.6,-2.14851e+06
step02_gravity_refstate-crust.xmf,1787,1.43928e-05,-6.40772e-05,0,2.31383e-05,-1.08385e+09,-1.08923e+09,-1.08484e+09,1.58729e+06,0.0544511,-0.495296,0,0.49828,3066.8,-39417.6,0,39536.8,-1.58729e+06
step02_gravity_refstate-crust.xmf,1788,9.51814e-08,1.89527e-07,0,6.68263e-06,-2.49282e+08,-2.49275e+08,-2.49288e+08,458428,-0.0616393,-0.229555,-0,0.237686,16680.9,-9076.03,0,18990.2,-458428
step02_gravity_refstate-crust.xmf,1789,8.53843e-07,-1.86504e-07,0,3.68733e-06,-1.24452e+08,-1.24523e+08,-1.24511e+08,252951,-0.080053,-0.183051,-0,0.19979,19819.3,-4533.97,0,20331.3,-252951
step02_gravity_refstate-crust.xmf,1790,3.2367e-06,-1.21474e-06,0,3.94674e-08,308036,2667.33,85998.2,2707.46,-0.116593,-0.151051,-0,0.190815,22506.7,0,0,22506.7,-2707.46
step02_gravity_refstate-crust.xmf,1791,4.2864e-06,-1.32193e-06,0,1.48957e-05,-6.68421e+08,-6.68806e+08,-6.68715e+08,1.02185e+06,-0.0699513,-0.35716,-0,0.363945,10652.9,-24349.8,0,26578.2,-1.02185e+06
step02_gravity_refstate-crust.xmf,1792,1.88558e-06,3.11919e-07,0,1.22783e-05,-5.46352e+08,-5.4646e+08,-5.46481e+08,842290,-0.0656018,-0.317253,-0,0.323965,12172.6,-19898.6,0,23326.5,-842290
step02_gravity_refstate-crust.xmf,1793,3.79906e-06,-1.04047e-06,0,1.42357e-05,-6.45185e+08,-6.45517e+08,-6.45445e+08,976569,-0.0693172,-0.345033,-0,0.351927,11083.7,-23502.4,0,25984.8,-976569
step02_gravity_refstate-crust.xmf,1794,3.40057e-06,-9.09782e-07,0,1.3511e-05,-6.21388e+08,-6.21684e+08,-6.21621e+08,926856,-0.0680762,-0.33129,-0,0.338212,11596.6,-22634.6,0,25432.4,-926856
step02_gravity_refstate-crust.xmf,1795,3.04656e-06,-8.02981e-07,0,1.28625e-05,-5.97512e+08,-5.97776e+08,-5.97721e+08,882366,-0.0667064,-0.31885,-0,0.325753,12092,-21764.1,0,24897.7,-882366
step02_gravity_refstate-crust.xmf,1796,5.70676e-06,-3.35085e-06,0,1.46226e-05,-7.11248e+08,-7.1187e+08,-7.1164e+08,1.00311e+06,-0.065264,-0.353366,-0,0.359342,10660.4,-25911.6,0,28018.8,-1.00311e+06
step02_gravity_refstate-crust.xmf,1797,1.69099e-06,1.75991e-07,0,1.15689e-05,-5.18562e+08,-5.18666e+08,-5.18678e+08,793629,-0.0635694,-0.303001,-0,0.309598,12785.8,-18885.9,0,22806.9,-793629
step02_gravity_refstate-crust.xmf,1798,7.66434e-07,1.56582e-07,0,9.20403e-06,-3.93064e+08,-3.93106e+08,-3.93117e+08,631396,-0.0578994,-0.262025,-0,0.268346,14802.7,-14313.2,0,20591,-631396
step02_gravity_refstate-crust.xmf,1799,1.49723e-06,6.85108e-08,0,1.09029e-05,-4.89389e+08,-4.89487e+08,-4.89492e+08,747936,-0.0616412,-0.289545,-0,0.296034,13405.4,-17822.9,0,22301.6,-747936
step02_gravity_refstate-crust.xmf,1800,7.64588e-07,3.72254e-07,0,9.76776e-06,-4.1905e+08,-4.19077e+08,-4.19102e+08,670068,-0.0589002,-0.276226,-0,0.282436,14046.7,-15259.6,0,20740.4,-670068
step02_gravity_refstate-crust.xmf,1801,1.24801e-06,-9.71751e-09,0,1.02023e-05,-4.54806e+08,-4.54892e+08,-4.54891e+08,699875,-0.0598113,-0.276872,-0,0.283258,14027,-16562.7,0,21704.4,-699875
step02_gravity_refstate-crust.xmf,1802,6.67122e-06,-5.38878e-06,0,1.37098e-05,-7.52637e+08,-7.53464e+08,-7.53095e+08,940491,-0.0561761,-0.34778,-0,0.352288,10633.8,-27419.2,0,29409,-940491
step02_gravity_refstate-crust.xmf,1803,7.06259e-06,-5.98785e-06,0,1.41279e-05,-7.73641e+08,-7.74536e+08,-7.74125e+08,969175,-0.0530968,-0.363567,-0,0.367424,10088.6,-28184.5,0,29935.7,-969175
step02_gravity_refstate-crust.xmf,1804,7.18264e-06,-6.82983e-06,0,1.38475e-05,-7.95934e+08,-7.96896e+08,-7.96427e+08,949939,-0.0460999,-0.369691,-0,0.372554,9801.73,-28995.3,0,30607.2,-949939
step02_gravity_refstate-crust.xmf,1805,7.2205e-06,-7.19979e-06,0,1.41895e-05,-8.09953e+08,-8.10942e+08,-8.10448e+08,973399,-0.0420233,-0.381806,-0,0.384111,9423.11,-29505.2,0,30973.4,-973399
step02_gravity_refstate-crust.xmf,1806,6.9056e-06,-7.89151e-06,0,1.37515e-05,-8.25814e+08,-8.26829e+08,-8.26288e+08,943354,-0.0343812,-0.384485,-0,0.386019,9261.35,-30080.3,0,31473.8,-943354
step02_gravity_refstate-crust.xmf,1807,6.36154e-06,-8.42167e-06,0,1.38686e-05,-8.42878e+08,-8.43892e+08,-8.43314e+08,951385,-0.0259742,-0.395828,-0,0.39668,8900.04,-30698.5,0,31962.6,-951385
step02_gravity_refstate-crust.xmf,1808,-1.83178e-06,-2.43385e-05,0,2.72503e-05,-9.73619e+08,-9.75163e+08,-9.73494e+08,1.86937e+06,0.0793134,-0.524421,0,0.530385,5810.74,-35400.5,0,35874.2,-1.86937e+06
step02_gravity_refstate-crust.xmf,1809,5.47906e-06,-8.9665e-06,0,1.42689e-05,-8.60454e+08,-8.61445e+08,-8.6083e+08,978845,-0.0156975,-0.409574,-0,0.409875,8501.31,-31334,0,32466.8,-978845
step02_gravity_refstate-crust.xmf,1810,4.29889e-06,-9.63104e-06,0,1.53588e-05,-8.78025e+08,-8.7898e+08,-8.7832e+08,1.05361e+06,-0.00395508,-0.429227,-0,0.429245,8012.51,-31967.9,0,32956.7,-1.05361e+06
step02_gravity_refstate-crust.xmf,1811,2.58254e-06,-1.06838e-05,0,1.61151e-05,-8.98243e+08,-8.99154e+08,-8.98421e+08,1.1055e+06,0.012696,-0.437089,0,0.437274,7741.44,-32695.4,0,33599.3,-1.1055e+06
step02_gravity_refstate-crust.xmf,1812,1.06807e-06,-1.21493e-05,0,1.76509e-05,-9.16198e+08,-9.17105e+08,-9.16271e+08,1.21085e+06,0.0282363,-0.450746,0,0.451629,7387.09,-33340.6,0,34149.2,-1.21085e+06
step02_gravity_refstate-crust.xmf,1813,-1.66693e-06,-1.99895e-05,0,2.42059e-05,-9.60959e+08,-9.62216e+08,-9.60845e+08,1.66052e+06,0.0684471,-0.50148,0,0.506129,6254.38,-34947,0,35502.2,-1.66052e+06
step02_gravity_refstate-crust.xmf,1814,-9.52562e-07,-1.6582e-05,0,2.16947e-05,-9.45989e+08,-9.47061e+08,-9.45923e+08,1.48825e+06,0.0551052,-0.48293,0,0.486063,6657.23,-34410.1,0,35048.2,-1.48825e+06
step02_gravity_refstate-crust.xmf,1815,-9.51736e-08,-1.40638e-05,0,1.95354e-05,-9.3169e+08,-9.32649e+08,-9.31684e+08,1.34013e+06,0.0421332,-0.46605,0,0.46795,7028.23,-33897,0,34617.9,-1.34013e+06
step02_gravity_refstate-crust.xmf,1816,-3.41165e-06,-2.51474e-05,0,2.74108e-05,-9.8886e+08,-9.90351e+08,-9.88626e+08,1.88038e+06,0.0894762,-0.506122,0,0.513971,5874.5,-35947.7,0,36424.5,-1.88038e+06
step02_gravity_refstate-crust.xmf,1817,-1.72372e-06,-3.40384e-05,0,3.20841e-05,-1.01347e+09,-1.01569e+09,-1.01335e+09,2.20097e+06,0.100249,-0.514243,0,0.523923,5386.78,-36836.8,0,37228.6,-2.20097e+06
step02_gravity_refstate-crust.xmf,1818,3.23776e-06,-4.28741e-05,0,3.28681e-05,-1.0372e+09,-1.04036e+09,-1.03742e+09,2.25475e+06,0.0985568,-0.503506,0,0.513061,5031.15,-37707,0,38041.1,-2.25475e+06
step02_gravity_refstate-crust.xmf,1819,-2.57729e-07,-3.60518e-05,0,3.19195e-05,-1.02866e+09,-1.03111e+09,-1.02864e+09,2.18968e+06,0.100618,-0.493133,0,0.503293,5410.45,-37392.4,0,37781.8,-2.18968e+06
step02_gravity_refstate-crust.xmf,1820,1.12161e-05,-5.65086e-05,0,2.86593e-05,-1.06783e+09,-1.07248e+09,-1.0686e+09,1.96603e+06,0.0772017,-0.496706,0,0.50267,4039.87,-38833.3,0,39042.9,-1.96603e+06
step02_gravity_refstate-crust.xmf,1821,1.15392e-05,-5.76785e-05,0,2.66747e-05,-1.08388e+09,-1.08862e+09,-1.08467e+09,1.82988e+06,0.0631843,-0.474362,0,0.478552,3741.73,-39417,0,39594.2,-1.82988e+06
step02_gravity_refstate-crust.xmf,1822,4.4158e-07,-4.25373e-08,0,5.92131e-06,-2.19373e+08,-2.19406e+08,-2.19403e+08,406202,-0.0643271,-0.2077,-0,0.217433,18094.7,-7988.21,0,19779.6,-406202
step02_gravity_refstate-crust.xmf,1823,5.73108e-07,-8.6505e-08,0,4.83342e-06,-1.70454e+08,-1.70499e+08,-1.70493e+08,331573,-0.0711254,-0.194627,-0,0.207216,18986.7,-6207.72,0,19975.8,-331573
step02_gravity_refstate-crust.xmf,1824,1.86582e-06,-5.84461e-07,0,2.98586e-06,-1.07128e+08,-1.07296e+08,-1.07256e+08,204830,-0.0815536,-0.155601,-0,0.175678,21879.6,-3906.75,0,22225.7,-204830
step02_gravity_refstate-crust.xmf,1825,3.07633e-06,-1.04501e-06,0,1.51145e-06,-5.4075e+07,-5.43577e+07,-5.4286e+07,103685,-0.0929218,-0.136446,-0,0.165082,23551,-1979.48,0,23634,-103685
step02_gravity_refstate-crust.xmf,1826,4.41462e-06,-1.69251e-06,0,2.77211e-08,418619,-330.082,115776,1901.66,-0.107775,-0.125294,-0,0.165269,24778,0,0,24778,-1901.66
step02_gravity_refstate-crust.xmf,1827,2.75407e-06,-7.59546e-07,0,1.2231e-05,-5.73437e+08,-5.73678e+08,-5.73626e+08,839045,-0.0651247,-0.306228,-0,0.313076,12624.1,-20886.5,0,24405.2,-839045
step02_gravity_refstate-crust.xmf,1828,5.22651e-06,-2.97822e-06,0,1.40532e-05,-6.90558e+08,-6.91121e+08,-6.90917e+08,964050,-0.0656066,-0.340146,-0,0.346415,11138.3,-25157,0,27512.5,-964050
step02_gravity_refstate-crust.xmf,1829,5.48839e-07,-8.88685e-08,0,7.17412e-06,-2.85349e+08,-2.85393e+08,-2.85387e+08,492145,-0.0589139,-0.223135,-0,0.230781,17092,-10390.5,0,20002.5,-492145
step02_gravity_refstate-crust.xmf,1830,7.29979e-07,-5.75226e-09,0,8.55484e-06,-3.60679e+08,-3.6073e+08,-3.60729e+08,586862,-0.0572822,-0.247222,-0,0.253772,15634.5,-13133.8,0,20419,-586862
step02_gravity_refstate-crust.xmf,1831,7.80646e-07,-1.93407e-07,0,7.83248e-06,-3.25988e+08,-3.26055e+08,-3.26042e+08,537308,-0.0572363,-0.228977,-0,0.236022,16720.2,-11870.8,0,20505.6,-537308
step02_gravity_refstate-crust.xmf,1832,6.26705e-06,-4.8353e-06,0,1.34197e-05,-7.32624e+08,-7.33386e+08,-7.33054e+08,920595,-0.058513,-0.336087,-0,0.341142,11081.4,-26689.8,0,28898.8,-920595
step02_gravity_refstate-crust.xmf,1833,-3.826e-06,-2.7312e-05,0,2.83331e-05,-1.00518e+09,-1.00679e+09,-1.00491e+09,1.94365e+06,0.0967833,-0.489307,0,0.498787,5893.52,-36536.7,0,37009,-1.94365e+06
step02_gravity_refstate-crust.xmf,1834,1.40034e-06,-3.8378e-05,0,3.10767e-05,-1.04415e+09,-1.04687e+09,-1.04424e+09,2.13186e+06,0.0975217,-0.471267,0,0.481251,5421.64,-37959.4,0,38344.6,-2.13186e+06
step02_gravity_refstate-crust.xmf,1835,5.13461e-06,-4.54239e-05,0,3.15609e-05,-1.05143e+09,-1.0549e+09,-1.05178e+09,2.16508e+06,0.0932059,-0.486525,0,0.495372,4920.77,-38228.8,0,38544.2,-2.16508e+06
step02_gravity_refstate-crust.xmf,1836,7.06808e-06,-4.81307e-05,0,3.02973e-05,-1.06696e+09,-1.07074e+09,-1.06744e+09,2.07839e+06,0.0838606,-0.470155,0,0.477575,4704.01,-38797.6,0,39081.8,-2.07839e+06
step02_gravity_refstate-crust.xmf,1837,3.99843e-06,-1.39861e-06,0,1.44048e-06,-6.32268e+07,-6.3597e+07,-6.35011e+07,98816.9,-0.0815055,-0.108866,-0,0.135996,25985.2,-2315.85,0,26088.2,-98816.9
step02_gravity_refstate-crust.xmf,1838,5.68436e-06,-2.16018e-06,0,3.12788e-08,539838,1701.91,149890,2145.72,-0.0958687,-0.101705,-0,0.139767,27114.8,0,0,27114.8,-2145.72
step02_gravity_refstate-crust.xmf,1839,6.30294e-07,-1.66049e-07,0,6.60555e-06,-2.59219e+08,-2.59274e+08,-2.59263e+08,453141,-0.0603383,-0.210271,-0,0.218757,17916.5,-9439.43,0,20251,-453141
step02_gravity_refstate-crust.xmf,1840,1.34764e-06,-4.5092e-07,0,4.35151e-06,-1.65869e+08,-1.65993e+08,-1.65962e+08,298513,-0.0700631,-0.167086,-0,0.181181,20938,-6043.4,0,21792.8,-298513
step02_gravity_refstate-crust.xmf,1841,4.75086e-06,-2.62104e-06,0,1.35123e-05,-6.68487e+08,-6.68993e+08,-6.68813e+08,926944,-0.0656058,-0.327878,-0,0.334377,11613.3,-24352.1,0,26979.5,-926944
step02_gravity_refstate-crust.xmf,1842,2.57199e-06,-8.61476e-07,0,1.15571e-05,-5.49105e+08,-5.49341e+08,-5.49282e+08,792817,-0.0631514,-0.291007,-0,0.29778,13301.8,-19999.8,0,24019.4,-792817
step02_gravity_refstate-crust.xmf,1843,4.2969e-06,-2.30791e-06,0,1.29676e-05,-6.45285e+08,-6.45738e+08,-6.45579e+08,889577,-0.0651766,-0.315869,-0,0.322523,12105.3,-23506,0,26440,-889577
step02_gravity_refstate-crust.xmf,1844,3.88791e-06,-2.05366e-06,0,1.24371e-05,-6.21849e+08,-6.22257e+08,-6.22116e+08,853188,-0.0643982,-0.304364,-0,0.311102,12602.2,-22651.6,0,25921.2,-853188
step02_gravity_refstate-crust.xmf,1845,3.5281e-06,-1.82772e-06,0,1.19907e-05,-5.99392e+08,-5.9976e+08,-5.99634e+08,822565,-0.0635818,-0.29494,-0,0.301715,13035.3,-21832.9,0,25428.2,-822565
step02_gravity_refstate-crust.xmf,1846,5.84731e-06,-4.38803e-06,0,1.30113e-05,-7.12746e+08,-7.13448e+08,-7.13147e+08,892573,-0.059711,-0.323421,-0,0.328887,11576.7,-25965.1,0,28429,-892573
step02_gravity_refstate-crust.xmf,1847,2.32758e-06,-8.86363e-07,0,1.09071e-05,-5.21354e+08,-5.21574e+08,-5.21513e+08,748230,-0.061228,-0.276835,-0,0.283525,13982.1,-18988.4,0,23580.9,-748230
step02_gravity_refstate-crust.xmf,1848,1.47676e-06,-5.30839e-07,0,9.44274e-06,-4.31183e+08,-4.31321e+08,-4.31284e+08,647772,-0.057612,-0.251403,-0,0.25792,15366.9,-15702.8,0,21970.9,-647772
step02_gravity_refstate-crust.xmf,1849,1.32586e-06,-5.50806e-07,0,8.77047e-06,-3.95618e+08,-3.95747e+08,-3.95709e+08,601654,-0.0564322,-0.236794,-0,0.243425,16209.2,-14407.4,0,21686.6,-601654
step02_gravity_refstate-crust.xmf,1850,2.06566e-06,-8.48637e-07,0,1.0297e-05,-4.90563e+08,-4.90763e+08,-4.90705e+08,706378,-0.0594767,-0.26416,-0,0.270773,14636.1,-17866.5,0,23096,-706378
step02_gravity_refstate-crust.xmf,1851,6.43156e-06,-6.01349e-06,0,1.20528e-05,-7.54097e+08,-7.5495e+08,-7.54538e+08,826822,-0.0501164,-0.318267,-0,0.322189,11494.7,-27470.3,0,29778.3,-826822
step02_gravity_refstate-crust.xmf,1852,6.6678e-06,-6.59901e-06,0,1.21646e-05,-7.74752e+08,-7.75662e+08,-7.75209e+08,834490,-0.0462991,-0.329363,-0,0.332601,11023.1,-28222.4,0,30298.7,-834490
step02_gravity_refstate-crust.xmf,1853,6.60933e-06,-7.90137e-06,0,1.22857e-05,-8.18863e+08,-8.19858e+08,-8.19316e+08,842799,-0.0333172,-0.355458,-0,0.357016,10005.6,-29826,0,31459.6,-842799
step02_gravity_refstate-crust.xmf,1854,6.74877e-06,-7.23684e-06,0,1.21866e-05,-7.9632e+08,-7.97279e+08,-7.96783e+08,836002,-0.04073,-0.340794,-0,0.34322,10551.1,-29006.9,0,30866.3,-836002
step02_gravity_refstate-crust.xmf,1855,5.91134e-06,-8.52434e-06,0,1.20054e-05,-8.41372e+08,-8.42362e+08,-8.41778e+08,823574,-0.0222637,-0.362336,-0,0.363019,9672.51,-30641.7,0,32132.1,-823574
step02_gravity_refstate-crust.xmf,1856,4.98705e-06,-9.02183e-06,0,1.21386e-05,-8.60799e+08,-8.6176e+08,-8.61142e+08,832707,-0.0114154,-0.373067,-0,0.373242,9278.75,-31344.5,0,32689,-832707
step02_gravity_refstate-crust.xmf,1857,-3.57196e-06,-2.08334e-05,0,2.38245e-05,-9.78394e+08,-9.79578e+08,-9.78149e+08,1.63436e+06,0.0812418,-0.479947,0,0.486774,6381.17,-35572.7,0,36140.5,-1.63436e+06
step02_gravity_refstate-crust.xmf,1858,3.7973e-06,-9.54755e-06,0,1.26084e-05,-8.79225e+08,-8.8014e+08,-8.79485e+08,864935,0.000469631,-0.385389,0,0.38539,8872.93,-32009.6,0,33216.6,-864935
step02_gravity_refstate-crust.xmf,1859,2.38501e-06,-1.02224e-05,0,1.3465e-05,-8.9715e+08,-8.98015e+08,-8.97314e+08,923699,0.0135502,-0.398787,0,0.399017,8465.71,-32655.5,0,33735,-923699
step02_gravity_refstate-crust.xmf,1860,7.47701e-07,-1.12336e-05,0,1.46612e-05,-9.16038e+08,-9.1686e+08,-9.16089e+08,1.00576e+06,0.0287358,-0.410991,0,0.411994,8088.79,-33334.9,0,34302.3,-1.00576e+06
step02_gravity_refstate-crust.xmf,1861,-6.9514e-07,-1.26029e-05,0,1.62524e-05,-9.32795e+08,-9.33612e+08,-9.32747e+08,1.11492e+06,0.042839,-0.424562,0,0.426717,7709.63,-33937,0,34801.7,-1.11492e+06
step02_gravity_refstate-crust.xmf,1862,-3.14196e-06,-1.67212e-05,0,2.0371e-05,-9.65165e+08,-9.66097e+08,-9.6495e+08,1.39745e+06,0.0700667,-0.451616,0,0.457019,6963.42,-35099.2,0,35783.3,-1.39745e+06
step02_gravity_refstate-crust.xmf,1863,-1.88276e-06,-1.43806e-05,0,1.81619e-05,-9.47841e+08,-9.48698e+08,-9.47712e+08,1.24591e+06,0.0557379,-0.439173,0,0.442696,7330.26,-34477.2,0,35247.9,-1.24591e+06
step02_gravity_refstate-crust.xmf,1864,-4.66485e-06,-2.20142e-05,0,2.46823e-05,-9.95877e+08,-9.97067e+08,-9.95557e+08,1.69321e+06,0.0909175,-0.463794,0,0.472621,6421.54,-36202.9,0,36768,-1.69321e+06
step02_gravity_refstate-crust.xmf,1865,-3.00269e-06,-2.96767e-05,0,2.90763e-05,-1.0215e+09,-1.02333e+09,-1.02129e+09,1.99463e+06,0.0998635,-0.471366,0,0.481829,5909.89,-37130.5,0,37597.9,-1.99463e+06
step02_gravity_refstate-crust.xmf,1866,-1.69276e-06,-3.16072e-05,0,2.93104e-05,-1.03792e+09,-1.03997e+09,-1.0378e+09,2.0107e+06,0.0989105,-0.452062,0,0.462756,5924.5,-37730.5,0,38192.9,-2.0107e+06
step02_gravity_refstate-crust.xmf,1867,8.4795e-06,-5.09096e-05,0,2.86794e-05,-1.08361e+09,-1.08768e+09,-1.08419e+09,1.96741e+06,0.0702463,-0.451156,0,0.456592,4424.36,-39405.3,0,39652.9,-1.96741e+06
step02_gravity_refstate-crust.xmf,1868,5.08161e-06,-1.8308e-06,0,1.0135e-06,-5.41116e+07,-5.45858e+07,-5.44602e+07,69526,-0.0724216,-0.0851373,-0,0.111773,28503.7,-1987.71,0,28573,-69526
step02_gravity_refstate-crust.xmf,1869,6.61139e-06,-2.51555e-06,0,2.66246e-08,627746,1637.58,174204,1826.44,-0.0810912,-0.0809512,-0,0.114581,29522.7,0,0,29522.7,-1826.44
step02_gravity_refstate-crust.xmf,1870,1.12833e-06,-5.57983e-07,0,7.11014e-06,-3.05509e+08,-3.05625e+08,-3.05587e+08,487755,-0.056635,-0.202508,-0,0.210278,18373.4,-11126.1,0,21479.5,-487755
step02_gravity_refstate-crust.xmf,1871,1.10037e-06,-4.99043e-07,0,6.28956e-06,-2.61447e+08,-2.61557e+08,-2.61523e+08,431464,-0.0589571,-0.189367,-0,0.198333,19280.2,-9521.92,0,21503.3,-431464
step02_gravity_refstate-crust.xmf,1872,1.13347e-06,-4.40923e-07,0,5.40408e-06,-2.15114e+08,-2.15222e+08,-2.15192e+08,370720,-0.0633129,-0.178712,-0,0.189596,20056.5,-7835.34,0,21532.7,-370720
step02_gravity_refstate-crust.xmf,1873,2.81914e-06,-9.68067e-07,0,2.64088e-06,-1.11068e+08,-1.11327e+08,-1.11261e+08,181164,-0.0750423,-0.126285,-0,0.146899,24235.4,-4053.43,0,24572.1,-181164
step02_gravity_refstate-crust.xmf,1874,2.09542e-06,-7.70828e-07,0,3.8283e-06,-1.62192e+08,-1.62389e+08,-1.62336e+08,262621,-0.0672378,-0.140212,-0,0.155501,22969.5,-5912.06,0,23718.1,-262621
step02_gravity_refstate-crust.xmf,1875,3.20848e-06,-1.6798e-06,0,1.1487e-05,-5.76202e+08,-5.76537e+08,-5.76422e+08,788007,-0.0623989,-0.284351,-0,0.291117,13535.9,-20987.6,0,24974,-788007
step02_gravity_refstate-crust.xmf,1876,5.42278e-06,-3.99472e-06,0,1.25699e-05,-6.91948e+08,-6.92594e+08,-6.9232e+08,862294,-0.0603009,-0.310771,-0,0.316567,12098.9,-25206.8,0,27960.1,-862294
step02_gravity_refstate-crust.xmf,1877,1.21781e-06,-5.67033e-07,0,8.21071e-06,-3.65766e+08,-3.65888e+08,-3.65849e+08,563255,-0.0559572,-0.225194,-0,0.232042,16912.8,-13320.1,0,21528.3,-563255
step02_gravity_refstate-crust.xmf,1878,1.88223e-06,-8.51221e-07,0,9.77754e-06,-4.6466e+08,-4.64848e+08,-4.6479e+08,670739,-0.0580492,-0.252822,-0,0.259401,15248.6,-16922.7,0,22779.3,-670739
step02_gravity_refstate-crust.xmf,1879,6.12955e-06,-5.50241e-06,0,1.18741e-05,-7.34431e+08,-7.35229e+08,-7.34852e+08,814563,-0.0526129,-0.307535,-0,0.312004,11964,-26754,0,29307.2,-814563
step02_gravity_refstate-crust.xmf,1880,-4.67133e-06,-2.41108e-05,0,2.58007e-05,-1.01314e+09,-1.01448e+09,-1.01282e+09,1.76993e+06,0.0966348,-0.448627,0,0.458916,6433.14,-36828.2,0,37385.9,-1.76993e+06
step02_gravity_refstate-crust.xmf,1881,-8.77636e-08,-3.40248e-05,0,2.93304e-05,-1.05251e+09,-1.05484e+09,-1.0525e+09,2.01207e+06,0.0950304,-0.436715,0,0.446935,5880.36,-38264.6,0,38713.8,-2.01207e+06
step02_gravity_refstate-crust.xmf,1882,2.78327e-06,-3.96032e-05,0,3.00673e-05,-1.06383e+09,-1.06673e+09,-1.06402e+09,2.06261e+06,0.0892988,-0.44279,0,0.451704,5427.47,-38679.6,0,39058.5,-2.06261e+06
step02_gravity_refstate-crust.xmf,1883,5.33961e-06,-4.36597e-05,0,2.95947e-05,-1.08284e+09,-1.08621e+09,-1.08321e+09,2.0302e+06,0.0755376,-0.427146,0,0.433774,5103.33,-39376,0,39705.3,-2.0302e+06
step02_gravity_refstate-crust.xmf,1884,4.0206e-06,-1.43589e-06,0,1.92104e-06,-1.07699e+08,-1.08074e+08,-1.07975e+08,131784,-0.0632221,-0.0878084,-0,0.1082,27862.7,-3934.94,0,28139.1,-131784
step02_gravity_refstate-crust.xmf,1885,5.80175e-06,-2.09944e-06,0,7.67779e-07,-5.22665e+07,-5.28086e+07,-5.26645e+07,52669.7,-0.0602072,-0.0668209,-0,0.0899441,30822.7,-1923.04,0,30882.7,-52669.7
step02_gravity_refstate-crust.xmf,1886,1.74103e-06,-7.51513e-07,0,4.8673e-06,-2.12898e+08,-2.13069e+08,-2.13017e+08,333897,-0.0608541,-0.151941,-0,0.163675,21971.1,-7756.64,0,23300.1,-333897
step02_gravity_refstate-crust.xmf,1887,3.34989e-06,-1.19504e-06,0,2.40124e-06,-1.17875e+08,-1.18187e+08,-1.18105e+08,164725,-0.0678613,-0.105616,-0,0.125538,26047.4,-4303.06,0,26400.5,-164725
step02_gravity_refstate-crust.xmf,1888,4.98607e-06,-3.59979e-06,0,1.21593e-05,-6.6933e+08,-6.69919e+08,-6.69672e+08,834127,-0.0606351,-0.299169,-0,0.305252,12616.5,-24382.2,0,27453,-834127
step02_gravity_refstate-crust.xmf,1889,3.19719e-06,-2.01501e-06,0,1.07142e-05,-5.59927e+08,-5.60285e+08,-5.60147e+08,734992,-0.0596126,-0.263459,-0,0.270119,14504,-20394.5,0,25026.1,-734992
step02_gravity_refstate-crust.xmf,1890,4.55621e-06,-3.22211e-06,0,1.17618e-05,-6.45537e+08,-6.4607e+08,-6.45849e+08,806860,-0.0606169,-0.288334,-0,0.294637,13131.3,-23514.9,0,26932.9,-806860
step02_gravity_refstate-crust.xmf,1891,4.16776e-06,-2.91588e-06,0,1.13535e-05,-6.22004e+08,-6.2249e+08,-6.2229e+08,778851,-0.0601588,-0.277789,-0,0.284228,13652.6,-22657,0,26452.5,-778851
step02_gravity_refstate-crust.xmf,1892,3.83333e-06,-2.69715e-06,0,1.09159e-05,-5.99406e+08,-5.99854e+08,-5.99669e+08,748828,-0.059286,-0.266976,-0,0.273479,14201.2,-21833.3,0,26045.5,-748828
step02_gravity_refstate-crust.xmf,1893,5.79677e-06,-5.09566e-06,0,1.15454e-05,-7.15546e+08,-7.16293e+08,-7.15943e+08,792014,-0.0537713,-0.295152,-0,0.30001,12501.7,-26065.7,0,28908.7,-792014
step02_gravity_refstate-crust.xmf,1894,1.49552e-06,-8.80455e-07,0,7.66325e-06,-3.5396e+08,-3.54123e+08,-3.54063e+08,525699,-0.0545201,-0.203543,-0,0.210719,18230.4,-12891,0,22327.6,-525699
step02_gravity_refstate-crust.xmf,1895,1.72595e-06,-1.06982e-06,0,8.22601e-06,-3.9468e+08,-3.94872e+08,-3.94799e+08,564305,-0.0542751,-0.212113,-0,0.218947,17630.1,-14374.1,0,22747.2,-564305
step02_gravity_refstate-crust.xmf,1896,2.77649e-06,-1.74138e-06,0,1.0107e-05,-5.22638e+08,-5.22948e+08,-5.22829e+08,693341,-0.0579469,-0.249752,-0,0.256387,15268,-19035.7,0,24402.2,-693341
step02_gravity_refstate-crust.xmf,1897,1.91751e-06,-1.17759e-06,0,8.77864e-06,-4.28529e+08,-4.28742e+08,-4.28661e+08,602215,-0.0550284,-0.223554,-0,0.230227,16895.4,-15607,0,23000.7,-602215
step02_gravity_refstate-crust.xmf,1898,2.47985e-06,-1.57041e-06,0,9.62836e-06,-4.92337e+08,-4.92615e+08,-4.92507e+08,660505,-0.0566368,-0.239211,-0,0.245824,15886.3,-17931.6,0,23956.6,-660505
step02_gravity_refstate-crust.xmf,1899,2.19253e-06,-1.37671e-06,0,9.20749e-06,-4.61446e+08,-4.61691e+08,-4.61596e+08,631634,-0.0556969,-0.23099,-0,0.23761,16404.4,-16806.1,0,23485.1,-631634
step02_gravity_refstate-crust.xmf,1900,6.06996e-06,-6.3274e-06,0,1.06399e-05,-7.54944e+08,-7.55794e+08,-7.5536e+08,729898,-0.0444144,-0.290921,-0,0.294292,12368.1,-27499.2,0,30152.6,-729898
step02_gravity_refstate-crust.xmf,1901,6.20024e-06,-6.84231e-06,0,1.06436e-05,-7.75412e+08,-7.76307e+08,-7.75838e+08,730150,-0.0404166,-0.300263,-0,0.30297,11903.2,-28244.2,0,30649.9,-730150
step02_gravity_refstate-crust.xmf,1902,6.18288e-06,-7.38342e-06,0,1.05833e-05,-7.96609e+08,-7.9754e+08,-7.97033e+08,726017,-0.034918,-0.309922,-0,0.311883,11434.7,-29014.9,0,31186.8,-726017
step02_gravity_refstate-crust.xmf,1903,5.94662e-06,-7.91874e-06,0,1.05105e-05,-8.1818e+08,-8.19131e+08,-8.18588e+08,721022,-0.0277684,-0.3204,-0,0.321601,10952.6,-29798.5,0,31747.6,-721022
step02_gravity_refstate-crust.xmf,1904,5.38377e-06,-8.4042e-06,0,1.04232e-05,-8.39656e+08,-8.40602e+08,-8.40025e+08,715030,-0.0186479,-0.330279,-0,0.330805,10503.4,-30577.3,0,32331,-715030
step02_gravity_refstate-crust.xmf,1905,4.48682e-06,-8.82698e-06,0,1.04424e-05,-8.60275e+08,-8.61189e+08,-8.60583e+08,716348,-0.00798378,-0.339785,-0,0.339879,10085.8,-31323.7,0,32907.4,-716348
step02_gravity_refstate-crust.xmf,1906,3.33349e-06,-9.23799e-06,0,1.07461e-05,-8.79646e+08,-8.80508e+08,-8.79874e+08,737184,0.00355633,-0.350722,0,0.35074,9657.58,-32023.6,0,33448.1,-737184
step02_gravity_refstate-crust.xmf,1907,-4.75749e-06,-1.8253e-05,0,2.12717e-05,-9.8574e+08,-9.86666e+08,-9.85414e+08,1.45924e+06,0.0833015,-0.438301,0,0.446147,6969.06,-35839.3,0,36510.6,-1.45924e+06
step02_gravity_refstate-crust.xmf,1908,1.9477e-06,-9.73001e-06,0,1.13792e-05,-8.9841e+08,-8.99211e+08,-8.98543e+08,780615,0.0161972,-0.362445,0,0.362807,9232.74,-32700.3,0,33978.7,-780615
step02_gravity_refstate-crust.xmf,1909,4.31889e-07,-1.03937e-05,0,1.23515e-05,-9.16461e+08,-9.17203e+08,-9.1649e+08,847313,0.0295209,-0.374183,0,0.375346,8828.52,-33350.3,0,34499.1,-847313
step02_gravity_refstate-crust.xmf,1910,-1.1051e-06,-1.13564e-05,0,1.37089e-05,-9.34008e+08,-9.34711e+08,-9.33932e+08,940429,0.0431863,-0.386456,0,0.388862,8427.87,-33981.4,0,35011,-940429
step02_gravity_refstate-crust.xmf,1911,-2.43143e-06,-1.2704e-05,0,1.54582e-05,-9.49674e+08,-9.50378e+08,-9.49507e+08,1.06043e+06,0.0557276,-0.40083,0,0.404685,8008.34,-34544.3,0,35460.4,-1.06043e+06
step02_gravity_refstate-crust.xmf,1912,-3.34096e-06,-1.42183e-05,0,1.7347e-05,-9.61358e+08,-9.62104e+08,-9.61129e+08,1.19e+06,0.0652825,-0.416206,0,0.421295,7612.51,-34963.7,0,35782.8,-1.19e+06
step02_gravity_refstate-crust.xmf,1913,-5.39505e-06,-1.95857e-05,0,2.25296e-05,-1.00382e+09,-1.0048e+09,-1.00345e+09,1.54553e+06,0.0913017,-0.425393,0,0.43508,6977.86,-36493,0,37154.1,-1.54553e+06
step02_gravity_refstate-crust.xmf,1914,-3.80976e-06,-2.62319e-05,0,2.66765e-05,-1.0307e+09,-1.03223e+09,-1.03044e+09,1.83001e+06,0.0981497,-0.431461,0,0.442484,6452.83,-37467.5,0,38019.1,-1.83001e+06
step02_gravity_refstate-crust.xmf,1915,-2.37469e-06,-2.83389e-05,0,2.72528e-05,-1.05029e+09,-1.05207e+09,-1.05012e+09,1.86954e+06,0.0949965,-0.410775,0,0.421617,6475.63,-38183.2,0,38728.4,-1.86954e+06
step02_gravity_refstate-crust.xmf,1916,4.64877e-06,-1.65581e-06,0,1.53838e-06,-1.03305e+08,-1.03737e+08,-1.03624e+08,105533,-0.0555681,-0.0710062,-0,0.0901648,29812.9,-3777.16,0,30051.2,-105533
step02_gravity_refstate-crust.xmf,1917,7.34361e-06,-2.79442e-06,0,2.23211e-08,697258,1789.05,193486,1531.23,-0.063762,-0.0636802,-0,0.0901153,32008.2,0,0,32008.2,-1531.23
step02_gravity_refstate-crust.xmf,1918,1.63026e-06,-9.85121e-07,0,6.57245e-06,-3.09803e+08,-3.09983e+08,-3.09915e+08,450870,-0.0538771,-0.174698,-0,0.182817,20167.7,-11283.8,0,23109.7,-450870
step02_gravity_refstate-crust.xmf,1919,1.61256e-06,-8.29101e-07,0,5.73706e-06,-2.59857e+08,-2.60025e+08,-2.59968e+08,393563,-0.0566521,-0.162843,-0,0.172416,21089.7,-9465.61,0,23116.5,-393563
step02_gravity_refstate-crust.xmf,1920,2.73698e-06,-1.03245e-06,0,3.33709e-06,-1.61894e+08,-1.62153e+08,-1.62082e+08,228925,-0.0624238,-0.115737,-0,0.131498,24979.9,-5903.39,0,25668,-228925
step02_gravity_refstate-crust.xmf,1921,2.27925e-06,-9.95839e-07,0,4.3002e-06,-2.116e+08,-2.11825e+08,-2.11756e+08,294994,-0.057115,-0.126685,-0,0.138965,23916.6,-7711.19,0,25129,-294994
step02_gravity_refstate-crust.xmf,1922,5.41633e-06,-4.72045e-06,0,1.1144e-05,-6.94353e+08,-6.95048e+08,-6.94724e+08,764480,-0.0544216,-0.281847,-0,0.287053,13112.1,-25293.2,0,28489.9,-764480
step02_gravity_refstate-crust.xmf,1923,1.52287e-06,-9.27575e-07,0,7.13027e-06,-3.32071e+08,-3.32239e+08,-3.32176e+08,489137,-0.0541852,-0.190187,-0,0.197755,19109.4,-12094.1,0,22615,-489137
step02_gravity_refstate-crust.xmf,1924,5.91163e-06,-5.86349e-06,0,1.06836e-05,-7.36392e+08,-7.372e+08,-7.36798e+08,732894,-0.0474823,-0.28429,-0,0.288228,12735.6,-26823.9,0,29693.7,-732894
step02_gravity_refstate-crust.xmf,1925,-4.47015e-06,-1.52276e-05,0,1.83846e-05,-9.77067e+08,-9.77805e+08,-9.76761e+08,1.26118e+06,0.0757242,-0.411073,0,0.417989,7552.87,-35529.5,0,36323.4,-1.26118e+06
step02_gravity_refstate-crust.xmf,1926,-5.17342e-06,-2.14841e-05,0,2.37349e-05,-1.02176e+09,-1.02287e+09,-1.0214e+09,1.62822e+06,0.0953093,-0.41134,0,0.422237,6990.11,-37143.8,0,37795.9,-1.62822e+06
step02_gravity_refstate-crust.xmf,1927,8.13921e-08,-3.26779e-05,0,2.83717e-05,-1.06668e+09,-1.06893e+09,-1.06669e+09,1.9463e+06,0.0888613,-0.406482,0,0.416081,6162.67,-38783.3,0,39269.9,-1.9463e+06
step02_gravity_refstate-crust.xmf,1928,2.54708e-06,-3.68517e-05,0,2.90994e-05,-1.08284e+09,-1.08555e+09,-1.08302e+09,1.99622e+06,0.0783696,-0.399866,0,0.407473,5816.55,-39375.2,0,39802.5,-1.99622e+06
step02_gravity_refstate-crust.xmf,1929,3.24694e-06,-1.22951e-06,0,2.83212e-06,-1.59173e+08,-1.5948e+08,-1.59396e+08,194283,-0.0571298,-0.0948909,-0,0.110761,26894.2,-5806.09,0,27513.8,-194283
step02_gravity_refstate-crust.xmf,1930,3.74443e-06,-1.39554e-06,0,2.32881e-06,-1.5353e+08,-1.53883e+08,-1.53787e+08,159757,-0.0514253,-0.0770904,-0,0.0926687,28770.3,-5602.4,0,29310.7,-159757
step02_gravity_refstate-crust.xmf,1931,5.15899e-06,-1.8384e-06,0,1.16458e-06,-1.01408e+08,-1.01888e+08,-1.01762e+08,79890.1,-0.0450285,-0.0552022,-0,0.071238,32024.3,-3709.89,0,32238.4,-79890.1
step02_gravity_refstate-crust.xmf,1932,6.32562e-06,-2.29237e-06,0,5.63823e-07,-5.32731e+07,-5.38643e+07,-5.37071e+07,38678.3,-0.0453349,-0.0516778,-0,0.0687448,33246.5,-1961.5,0,33304.3,-38678.3
step02_gravity_refstate-crust.xmf,1933,2.06671e-06,-1.07272e-06,0,5.11239e-06,-2.57716e+08,-2.57931e+08,-2.57858e+08,350710,-0.0533675,-0.136763,-0,0.146807,22994.9,-9389.11,0,24837.9,-350710
step02_gravity_refstate-crust.xmf,1934,5.02498e-06,-4.27567e-06,0,1.08955e-05,-6.70587e+08,-6.71225e+08,-6.70932e+08,747431,-0.0553496,-0.271787,-0,0.277366,13640.9,-24427.1,0,27977.8,-747431
step02_gravity_refstate-crust.xmf,1935,3.40916e-06,-2.6549e-06,0,9.71666e-06,-5.57122e+08,-5.57538e+08,-5.57355e+08,666563,-0.0551937,-0.234663,-0,0.241067,15868.4,-20292.3,0,25760.1,-666563
step02_gravity_refstate-crust.xmf,1936,4.63124e-06,-3.86491e-06,0,1.06059e-05,-6.45873e+08,-6.46456e+08,-6.46191e+08,727563,-0.0556869,-0.261571,-0,0.267433,14197.6,-23526.4,0,27478.4,-727563
step02_gravity_refstate-crust.xmf,1937,4.2449e-06,-3.48305e-06,0,1.03113e-05,-6.20106e+08,-6.20636e+08,-6.20397e+08,707358,-0.0556819,-0.251971,-0,0.25805,14750.7,-22587.4,0,26977.2,-707358
step02_gravity_refstate-crust.xmf,1938,3.82657e-06,-3.05763e-06,0,1.00473e-05,-5.90372e+08,-5.90844e+08,-5.90634e+08,689244,-0.0556585,-0.243702,-0,0.249977,15278.5,-21503.8,0,26378.9,-689244
step02_gravity_refstate-crust.xmf,1939,5.56831e-06,-5.70649e-06,0,9.97919e-06,-7.23439e+08,-7.24213e+08,-7.23821e+08,684572,-0.0462033,-0.265343,-0,0.269335,13522.6,-26351.2,0,29618.4,-684572
step02_gravity_refstate-crust.xmf,1940,1.87486e-06,-1.2826e-06,0,7.09262e-06,-3.57641e+08,-3.57858e+08,-3.5777e+08,486554,-0.0516814,-0.178082,-0,0.185429,19818.1,-13025.9,0,23715.6,-486554
step02_gravity_refstate-crust.xmf,1941,2.03649e-06,-1.46021e-06,0,7.61525e-06,-3.93636e+08,-3.93876e+08,-3.93776e+08,522406,-0.0515253,-0.187565,-0,0.194513,19108.1,-14336.7,0,23888.5,-522406
step02_gravity_refstate-crust.xmf,1942,2.25409e-06,-1.67393e-06,0,8.09294e-06,-4.29858e+08,-4.30127e+08,-4.30012e+08,555176,-0.0518081,-0.196815,-0,0.20352,18426.2,-15655.9,0,24179.2,-555176
step02_gravity_refstate-crust.xmf,1943,3.05769e-06,-2.35633e-06,0,9.3041e-06,-5.24783e+08,-5.25154e+08,-5.24993e+08,638261,-0.0541791,-0.224078,-0,0.230535,16544.4,-19114,0,25279.6,-638261
step02_gravity_refstate-crust.xmf,1944,2.49978e-06,-1.89682e-06,0,8.50807e-06,-4.6286e+08,-4.63162e+08,-4.63032e+08,583654,-0.0523788,-0.20538,-0,0.211954,17808.8,-16858.1,0,24522.4,-583654
step02_gravity_refstate-crust.xmf,1945,2.77488e-06,-2.13461e-06,0,8.89043e-06,-4.94675e+08,-4.95012e+08,-4.94866e+08,609883,-0.0531063,-0.21382,-0,0.220316,17214.2,-18017.1,0,24918.8,-609883
step02_gravity_refstate-crust.xmf,1946,5.65137e-06,-6.39234e-06,0,9.46357e-06,-7.53602e+08,-7.54429e+08,-7.5399e+08,649201,-0.0394956,-0.265253,-0,0.268178,13280.8,-27448.6,0,30492.7,-649201
step02_gravity_refstate-crust.xmf,1947,5.69766e-06,-6.85978e-06,0,9.39038e-06,-7.74984e+08,-7.75846e+08,-7.75375e+08,644180,-0.0352231,-0.273379,-0,0.275639,12805.7,-28226.5,0,30995.5,-644180
step02_gravity_refstate-crust.xmf,1948,5.60307e-06,-7.33119e-06,0,9.27089e-06,-7.96784e+08,-7.97671e+08,-7.97168e+08,635983,-0.0296261,-0.281864,-0,0.283416,12324.5,-29019,0,31527.7,-635983
step02_gravity_refstate-crust.xmf,1949,5.31469e-06,-7.76529e-06,0,9.14594e-06,-8.1805e+08,-8.18947e+08,-8.18415e+08,627412,-0.0227964,-0.290572,-0,0.291465,11852.3,-29791.4,0,32062.5,-627412
step02_gravity_refstate-crust.xmf,1950,4.7816e-06,-8.15425e-06,0,9.05661e-06,-8.39082e+08,-8.3997e+08,-8.3941e+08,621283,-0.0145255,-0.299646,-0,0.299998,11383.9,-30554.3,0,32606.2,-621283
step02_gravity_refstate-crust.xmf,1951,3.94845e-06,-8.49401e-06,0,9.05857e-06,-8.60011e+08,-8.60864e+08,-8.60282e+08,621418,-0.0046239,-0.308829,-0,0.308864,10928.3,-31312.4,0,33164.6,-621418
step02_gravity_refstate-crust.xmf,1952,2.84664e-06,-8.80683e-06,0,9.26453e-06,-8.80179e+08,-8.80979e+08,-8.80375e+08,635547,0.00644036,-0.318574,0,0.31864,10479.5,-32041.7,0,33711.9,-635547
step02_gravity_refstate-crust.xmf,1953,1.55681e-06,-9.15736e-06,0,9.76844e-06,-8.99203e+08,-8.99938e+08,-8.9931e+08,670115,0.0181591,-0.329383,0,0.329883,10029.5,-32728.5,0,34230.8,-670115
step02_gravity_refstate-crust.xmf,1954,-5.43847e-06,-1.64465e-05,0,1.9525e-05,-9.94481e+08,-9.95236e+08,-9.94107e+08,1.33942e+06,0.0847508,-0.402343,0,0.411172,7529.22,-36157.6,0,36933.2,-1.33942e+06
step02_gravity_refstate-crust.xmf,1955,1.23402e-07,-9.62376e-06,0,1.0598e-05,-9.17514e+08,-9.18183e+08,-9.17523e+08,727022,0.0305199,-0.340657,0,0.342021,9590.78,-33388.6,0,34738.8,-727022
step02_gravity_refstate-crust.xmf,1956,-1.3764e-06,-1.02912e-05,0,1.17656e-05,-9.35357e+08,-9.35968e+08,-9.35262e+08,807121,0.0432728,-0.351878,0,0.354529,9171.12,-34031.1,0,35245.2,-807121
step02_gravity_refstate-crust.xmf,1957,-4.11685e-06,-1.29135e-05,0,1.55693e-05,-9.69508e+08,-9.70112e+08,-9.69226e+08,1.06805e+06,0.0683528,-0.380678,0,0.386766,8229.63,-35259.3,0,36206.9,-1.06805e+06
step02_gravity_refstate-crust.xmf,1958,-2.8102e-06,-1.12912e-05,0,1.33341e-05,-9.52484e+08,-9.53066e+08,-9.52291e+08,914717,0.0558124,-0.364263,0,0.368514,8740.14,-34647.3,0,35732.7,-914717
step02_gravity_refstate-crust.xmf,1959,-5.77523e-06,-1.75629e-05,0,2.07815e-05,-1.01236e+09,-1.01316e+09,-1.01196e+09,1.42561e+06,0.0905726,-0.390113,0,0.40049,7552.89,-36805.3,0,37572.2,-1.42561e+06
step02_gravity_refstate-crust.xmf,1960,-4.30592e-06,-2.33335e-05,0,2.47284e-05,-1.03948e+09,-1.04078e+09,-1.03918e+09,1.69637e+06,0.0952937,-0.396137,0,0.407438,7005.05,-37789.7,0,38433.5,-1.69637e+06
step02_gravity_refstate-crust.xmf,1961,-1.74413e-06,-2.7383e-05,0,2.65277e-05,-1.06715e+09,-1.06891e+09,-1.06703e+09,1.8198e+06,0.0880551,-0.378148,0,0.388265,6827.9,-38801.3,0,39397.5,-1.8198e+06
step02_gravity_refstate-crust.xmf,1962,4.2382e-06,-1.55162e-06,0,1.82855e-06,-1.50762e+08,-1.51159e+08,-1.51053e+08,125439,-0.0431757,-0.0596843,-0,0.0736638,30926.9,-5503.39,0,31412.7,-125439
step02_gravity_refstate-crust.xmf,1963,7.87135e-06,-2.98977e-06,0,2.60353e-08,747598,2524.55,207623,1786.02,-0.0442011,-0.0505349,-0,0.067138,34578.2,0,0,34578.2,-1786.02
step02_gravity_refstate-crust.xmf,1964,2.00732e-06,-1.22768e-06,0,5.8419e-06,-3.03377e+08,-3.03599e+08,-3.03514e+08,400755,-0.0508346,-0.146898,-0,0.155445,22106.1,-11051,0,24714.4,-400755
step02_gravity_refstate-crust.xmf,1965,2.74969e-06,-1.17646e-06,0,3.70403e-06,-2.08738e+08,-2.09007e+08,-2.08926e+08,254097,-0.0525942,-0.103739,-0,0.11631,25869.2,-7608.6,0,26964.9,-254097
step02_gravity_refstate-crust.xmf,1966,2.45066e-06,-1.24526e-06,0,4.47554e-06,-2.56645e+08,-2.56898e+08,-2.56813e+08,307022,-0.0491325,-0.112619,-0,0.12287,24919.1,-9351.39,0,26616,-307022
step02_gravity_refstate-crust.xmf,1967,5.22803e-06,-5.1408e-06,0,9.86999e-06,-6.9597e+08,-6.96681e+08,-6.96328e+08,677081,-0.0485876,-0.254477,-0,0.259074,14154.5,-25350.7,0,29034.6,-677081
step02_gravity_refstate-crust.xmf,1968,-5.11826e-06,-1.42725e-05,0,1.72525e-05,-9.86242e+08,-9.8687e+08,-9.85891e+08,1.18352e+06,0.0784593,-0.382855,0,0.390812,8014.11,-35862.3,0,36746.9,-1.18352e+06
step02_gravity_refstate-crust.xmf,1969,-5.37071e-06,-1.92931e-05,0,2.20592e-05,-1.03095e+09,-1.0319e+09,-1.03058e+09,1.51326e+06,0.0928917,-0.37686,0,0.388139,7569.13,-37481.1,0,38237.7,-1.51326e+06
step02_gravity_refstate-crust.xmf,1970,-3.30459e-06,-2.4666e-05,0,2.54184e-05,-1.05361e+09,-1.05508e+09,-1.05338e+09,1.7437e+06,0.0925263,-0.383114,0,0.394129,7018.24,-38306.2,0,38943.8,-1.7437e+06
step02_gravity_refstate-crust.xmf,1971,4.61999e-07,-3.10183e-05,0,2.76585e-05,-1.08332e+09,-1.08548e+09,-1.08335e+09,1.89737e+06,0.079137,-0.37173,0,0.380061,6546.97,-39393,0,39933.4,-1.89737e+06
step02_gravity_refstate-crust.xmf,1972,3.14013e-06,-1.30845e-06,0,3.10526e-06,-2.05281e+08,-2.05587e+08,-2.05497e+08,213021,-0.0472342,-0.0833071,-0,0.0957661,27835.5,-7484.15,0,28824.1,-213021
step02_gravity_refstate-crust.xmf,1973,3.51203e-06,-1.41394e-06,0,2.51256e-06,-2.00873e+08,-2.01211e+08,-2.01114e+08,172361,-0.0409973,-0.0653209,-0,0.0771207,29857.1,-7325,0,30742.5,-172361
step02_gravity_refstate-crust.xmf,1974,4.63111e-06,-1.67487e-06,0,1.33207e-06,-1.47412e+08,-1.47845e+08,-1.4773e+08,91380.3,-0.0336242,-0.0454302,-0,0.0565198,33170.4,-5382.83,0,33604.4,-91380.3
step02_gravity_refstate-crust.xmf,1975,5.48296e-06,-1.96073e-06,0,8.27163e-07,-1.01657e+08,-1.02168e+08,-1.02033e+08,56743.4,-0.0336818,-0.0434292,-0,0.0549596,34148,-3720.08,0,34350,-56743.4
step02_gravity_refstate-crust.xmf,1976,6.37357e-06,-2.29549e-06,0,4.16159e-07,-6.60511e+07,-6.66458e+07,-6.64883e+07,28548.5,-0.0273021,-0.0394453,-0,0.0479722,35832.5,-2426.89,0,35914.6,-28548.5
step02_gravity_refstate-crust.xmf,1977,8.21101e-06,-3.12495e-06,0,3.16523e-09,779596,1949.29,216321,217.135,-0.0228171,-0.0421638,-0,0.0479416,37239.8,0,0,37239.8,-217.135
step02_gravity_refstate-crust.xmf,1978,2.09608e-06,-1.46384e-06,0,6.42827e-06,-3.49042e+08,-3.49286e+08,-3.49185e+08,440979,-0.0490016,-0.154607,-0,0.162187,21407.3,-12713.4,0,24897.9,-440979
step02_gravity_refstate-crust.xmf,1979,2.3197e-06,-1.39989e-06,0,5.15218e-06,-3.02413e+08,-3.02668e+08,-3.02572e+08,353440,-0.046797,-0.12164,-0,0.130331,24008.4,-11016.9,0,26415.4,-353440
step02_gravity_refstate-crust.xmf,1980,3.49704e-06,-3.06959e-06,0,8.84362e-06,-5.57136e+08,-5.57587e+08,-5.57376e+08,606672,-0.0508385,-0.209552,-0,0.215631,17129.8,-20292.5,0,26555.9,-606672
step02_gravity_refstate-crust.xmf,1981,4.89683e-06,-4.68588e-06,0,9.71466e-06,-6.71291e+08,-6.71948e+08,-6.71627e+08,666426,-0.049862,-0.244961,-0,0.249984,14727.2,-24451.6,0,28544.2,-666426
step02_gravity_refstate-crust.xmf,1982,3.83844e-06,-3.43293e-06,0,9.12072e-06,-5.87891e+08,-5.8839e+08,-5.88155e+08,625681,-0.0511973,-0.218655,-0,0.224569,16485.6,-21413,0,27023.9,-625681
step02_gravity_refstate-crust.xmf,1983,4.55318e-06,-4.25684e-06,0,9.5358e-06,-6.45476e+08,-6.46081e+08,-6.45789e+08,654156,-0.0506493,-0.235839,-0,0.241216,15304.8,-23511,0,28053.6,-654156
step02_gravity_refstate-crust.xmf,1984,4.19774e-06,-3.83034e-06,0,9.35972e-06,-6.17523e+08,-6.18074e+08,-6.17811e+08,642077,-0.0511909,-0.227577,-0,0.233264,15869.3,-22492.6,0,27527.3,-642077
step02_gravity_refstate-crust.xmf,1985,5.13423e-06,-5.7521e-06,0,8.76826e-06,-7.21015e+08,-7.21762e+08,-7.21367e+08,601503,-0.0405897,-0.236681,-0,0.240136,14680,-26261.1,0,30085.7,-601503
step02_gravity_refstate-crust.xmf,1986,2.26508e-06,-1.73922e-06,0,6.94982e-06,-3.93232e+08,-3.93507e+08,-3.93388e+08,476757,-0.0481839,-0.16304,-0,0.170011,20668.4,-14322.5,0,25145.9,-476757
step02_gravity_refstate-crust.xmf,1987,2.45918e-06,-1.99207e-06,0,7.39669e-06,-4.30444e+08,-4.30749e+08,-4.30612e+08,507413,-0.0482386,-0.171999,-0,0.178636,19932,-15677.6,0,25358.9,-507413
step02_gravity_refstate-crust.xmf,1988,2.69824e-06,-2.27388e-06,0,7.77506e-06,-4.6611e+08,-4.66451e+08,-4.66295e+08,533369,-0.0485088,-0.180247,-0,0.18666,19256.8,-16976.6,0,25671.6,-533369
step02_gravity_refstate-crust.xmf,1989,3.22495e-06,-2.80499e-06,0,8.47229e-06,-5.28484e+08,-5.28898e+08,-5.28706e+08,581199,-0.0498088,-0.198342,-0,0.204501,17890.4,-19248.7,0,26278.9,-581199
step02_gravity_refstate-crust.xmf,1990,2.96661e-06,-2.57911e-06,0,8.0445e-06,-4.99553e+08,-4.99933e+08,-4.99756e+08,551853,-0.0485828,-0.186299,-0,0.192529,18727.1,-18194.7,0,26110.3,-551853
step02_gravity_refstate-crust.xmf,1991,5.24732e-06,-6.24274e-06,0,8.62066e-06,-7.47089e+08,-7.47877e+08,-7.47449e+08,591377,-0.0364747,-0.243136,-0,0.245857,14185.5,-27210.1,0,30685.7,-591377
step02_gravity_refstate-crust.xmf,1992,5.20849e-06,-6.71625e-06,0,8.3765e-06,-7.72614e+08,-7.73432e+08,-7.72971e+08,574628,-0.0309748,-0.248566,-0,0.250489,13738.2,-28138.4,0,31313.1,-574628
step02_gravity_refstate-crust.xmf,1993,5.03404e-06,-7.1335e-06,0,8.18182e-06,-7.96087e+08,-7.96922e+08,-7.96433e+08,561273,-0.0249716,-0.255485,-0,0.256702,13256.6,-28991.7,0,31878.7,-561273
step02_gravity_refstate-crust.xmf,1994,4.68923e-06,-7.50447e-06,0,8.02034e-06,-8.18617e+08,-8.19453e+08,-8.18939e+08,550195,-0.0180013,-0.263199,-0,0.263814,12763.8,-29809.9,0,32427.5,-550195
step02_gravity_refstate-crust.xmf,1995,4.14969e-06,-7.81597e-06,0,7.91935e-06,-8.39892e+08,-8.40712e+08,-8.40176e+08,543267,-0.0101181,-0.271281,-0,0.271469,12282.4,-30581.8,0,32956.1,-543267
step02_gravity_refstate-crust.xmf,1996,3.37811e-06,-8.08207e-06,0,7.91727e-06,-8.60689e+08,-8.61475e+08,-8.60921e+08,543125,-0.0010493,-0.279856,-0,0.279858,11803.7,-31335.4,0,33484.8,-543125
step02_gravity_refstate-crust.xmf,1997,2.3583e-06,-8.31332e-06,0,8.07935e-06,-8.81051e+08,-8.81783e+08,-8.81213e+08,554243,0.00918918,-0.288828,0,0.288974,11332.9,-32072.2,0,34015.6,-554243
step02_gravity_refstate-crust.xmf,1998,1.1704e-06,-8.56556e-06,0,8.50678e-06,-9.00337e+08,-9.01005e+08,-9.00417e+08,583565,0.0200262,-0.298933,0,0.299603,10855.7,-32769.1,0,34520.5,-583565
step02_gravity_refstate-crust.xmf,1999,-1.31891e-07,-8.90313e-06,0,9.23517e-06,-9.18635e+08,-9.19237e+08,-9.18626e+08,633532,0.0312776,-0.309888,0,0.311463,10381.8,-33429.5,0,35004.5,-633532
step02_gravity_refstate-crust.xmf,2000,-5.7499e-06,-1.47539e-05,0,1.79375e-05,-1.00196e+09,-1.00258e+09,-1.00157e+09,1.23051e+06,0.0842789,-0.36913,0,0.378629,8131.49,-36431.4,0,37327.8,-1.23051e+06
step02_gravity_refstate-crust.xmf,2001,-1.51694e-06,-9.37994e-06,0,1.02624e-05,-9.36433e+08,-9.36972e+08,-9.36329e+08,704001,0.0429053,-0.320698,0,0.323555,9933.15,-34071.1,0,35489.6,-704001
step02_gravity_refstate-crust.xmf,2002,-2.91398e-06,-1.00816e-05,0,1.16241e-05,-9.5409e+08,-9.54581e+08,-9.5389e+08,797412,0.0546702,-0.331264,0,0.335745,9503.51,-34707.2,0,35984.8,-797412
step02_gravity_refstate-crust.xmf,2003,-4.19205e-06,-1.11561e-05,0,1.34055e-05,-9.71414e+08,-9.71891e+08,-9.71126e+08,919618,0.0660348,-0.342809,0,0.349111,9058.36,-35331,0,36473.8,-919618
step02_gravity_refstate-crust.xmf,2004,-5.1974e-06,-1.26509e-05,0,1.55085e-05,-9.88148e+08,-9.88659e+08,-9.87791e+08,1.06388e+06,0.0762092,-0.353965,0,0.362076,8627.34,-35933.9,0,36955,-1.06388e+06
step02_gravity_refstate-crust.xmf,2005,-5.87781e-06,-1.57589e-05,0,1.92632e-05,-1.02117e+09,-1.02185e+09,-1.02077e+09,1.32146e+06,0.08862,-0.356321,0,0.367176,8180.13,-37128.6,0,38019.1,-1.32146e+06
step02_gravity_refstate-crust.xmf,2006,-4.35475e-06,-2.11835e-05,0,2.32898e-05,-1.0495e+09,-1.05066e+09,-1.0492e+09,1.59768e+06,0.0914199,-0.363797,0,0.375108,7554.48,-38157.8,0,38898.4,-1.59768e+06
step02_gravity_refstate-crust.xmf,2007,-3.03014e-06,-2.30268e-05,0,2.44296e-05,-1.06571e+09,-1.06708e+09,-1.06551e+09,1.67587e+06,0.0870685,-0.353301,0,0.363872,7488.12,-38750.4,0,39467.3,-1.67587e+06
step02_gravity_refstate-crust.xmf,2008,-9.59744e-07,-2.60845e-05,0,2.58541e-05,-1.08305e+09,-1.08478e+09,-1.08299e+09,1.77359e+06,0.0790946,-0.345509,0,0.354446,7275.43,-39385.4,0,40051.7,-1.77359e+06
step02_gravity_refstate-crust.xmf,2009,3.86318e-06,-1.50215e-06,0,1.92607e-06,-1.98674e+08,-1.99042e+08,-1.98939e+08,132128,-0.0330797,-0.0491969,-0,0.0592841,32058.4,-7246.23,0,32867.1,-132128
step02_gravity_refstate-crust.xmf,2010,6.92156e-06,-2.53097e-06,0,1.45184e-07,-5.11504e+07,-5.17988e+07,-5.16252e+07,9959.65,-0.0131083,-0.0352754,-0,0.0376322,38114.3,-1886.26,0,38160.9,-9959.65
step02_gravity_refstate-crust.xmf,2011,8.24171e-06,-3.13104e-06,0,-1.7314e-08,782749,2577.7,217367,-1187.74,-9.63827e-19,-0.0392193,-0,0.0392193,40000,0,0,40000,-1187.74
step02_gravity_refstate-crust.xmf,2012,2.31657e-06,-1.61893e-06,0,5.73837e-06,-3.46854e+08,-3.47124e+08,-3.47013e+08,393652,-0.0453105,-0.130465,-0,0.138109,23144.7,-12634.4,0,26368.7,-393652
step02_gravity_refstate-crust.xmf,2013,2.76915e-06,-1.35843e-06,0,3.83577e-06,-2.55508e+08,-2.55792e+08,-2.55698e+08,263133,-0.0441973,-0.0908633,-0,0.101042,26854.7,-9311.14,0,28423.1,-263133
step02_gravity_refstate-crust.xmf,2014,2.56275e-06,-1.50016e-06,0,4.46711e-06,-3.02172e+08,-3.0245e+08,-3.02347e+08,306444,-0.0421617,-0.0987537,-0,0.107377,25914.5,-11008.9,0,28155.9,-306444
step02_gravity_refstate-crust.xmf,2015,4.91883e-06,-5.29676e-06,0,8.75642e-06,-6.96183e+08,-6.96884e+08,-6.9652e+08,600690,-0.0430269,-0.228444,-0,0.232461,15243.9,-25356.9,0,29586.3,-600690
step02_gravity_refstate-crust.xmf,2016,3.49756e-06,-3.32464e-06,0,8.08567e-06,-5.58873e+08,-5.59341e+08,-5.59113e+08,554677,-0.046749,-0.188076,-0,0.193799,18269.1,-20355.3,0,27351.4,-554677
step02_gravity_refstate-crust.xmf,2017,-5.26812e-06,-1.75252e-05,0,2.07173e-05,-1.04091e+09,-1.04175e+09,-1.04055e+09,1.42121e+06,0.0895236,-0.344919,0,0.356348,8165.75,-37846.8,0,38717.7,-1.42121e+06
step02_gravity_refstate-crust.xmf,2018,3.03172e-06,-1.42184e-06,0,3.18324e-06,-2.52209e+08,-2.52514e+08,-2.52417e+08,218370,-0.03877,-0.0715408,-0,0.0813707,28835.3,-9191.98,0,30265,-218370
step02_gravity_refstate-crust.xmf,2019,3.26447e-06,-1.46594e-06,0,2.53292e-06,-2.50575e+08,-2.50899e+08,-2.50799e+08,173758,-0.032284,-0.0542957,-0,0.0631687,30929.4,-9133.36,0,32249.8,-173758
step02_gravity_refstate-crust.xmf,2020,4.95902e-06,-1.76627e-06,0,8.26818e-07,-1.43122e+08,-1.43584e+08,-1.43463e+08,56719.7,-0.0223171,-0.0345537,-0,0.041134,35606.6,-5227.84,0,35988.3,-56719.7
step02_gravity_refstate-crust.xmf,2021,4.082e-06,-1.55334e-06,0,1.38071e-06,-1.99038e+08,-1.99425e+08,-1.99318e+08,94716.7,-0.0243129,-0.0368077,-0,0.0441127,34256.7,-7260.3,0,35017.6,-94716.7
step02_gravity_refstate-crust.xmf,2022,5.66509e-06,-2.00632e-06,0,3.28643e-07,-1.10093e+08,-1.10619e+08,-1.10481e+08,22544.9,-0.0122248,-0.0308377,-0,0.0331724,37857.9,-4027.85,0,38071.6,-22544.9
step02_gravity_refstate-crust.xmf,2023,6.43183e-06,-2.30377e-06,0,-8.39915e-09,-7.39092e+07,-7.45084e+07,-7.43504e+07,-576.182,-8.72521e-19,-0.0318372,-0,0.0318372,40000,-2713.19,0,40091.9,-576.182
step02_gravity_refstate-crust.xmf,2024,2.41093e-06,-1.88661e-06,0,6.232e-06,-3.89816e+08,-3.90111e+08,-3.89981e+08,427515,-0.0444671,-0.138837,-0,0.145785,22335.8,-14198.5,0,26466.7,-427515
step02_gravity_refstate-crust.xmf,2025,2.48735e-06,-1.70879e-06,0,5.02366e-06,-3.4672e+08,-3.47008e+08,-3.46891e+08,344623,-0.0408975,-0.107041,-0,0.114588,24985.2,-12630.1,0,27996.1,-344623
step02_gravity_refstate-crust.xmf,2026,3.76873e-06,-3.66819e-06,0,8.25607e-06,-5.87283e+08,-5.87793e+08,-5.87542e+08,566367,-0.046623,-0.194967,-0,0.200464,17701.3,-21390.2,0,27764.7,-566367
step02_gravity_refstate-crust.xmf,2027,4.66039e-06,-4.87807e-06,0,8.67112e-06,-6.71702e+08,-6.72356e+08,-6.72021e+08,594839,-0.0445199,-0.219829,-0,0.224292,15832.4,-24465.3,0,29141.3,-594839
step02_gravity_refstate-crust.xmf,2028,4.07753e-06,-4.06712e-06,0,8.41674e-06,-6.17427e+08,-6.17986e+08,-6.17707e+08,577388,-0.0462403,-0.202963,-0,0.208163,17068.5,-22488.2,0,28232.2,-577388
step02_gravity_refstate-crust.xmf,2029,4.37461e-06,-4.46567e-06,0,8.55366e-06,-6.45333e+08,-6.4594e+08,-6.45633e+08,586781,-0.0455573,-0.211171,-0,0.216029,16450,-23504.8,0,28689.3,-586781
step02_gravity_refstate-crust.xmf,2030,4.70834e-06,-5.69088e-06,0,7.78229e-06,-7.20359e+08,-7.21073e+08,-7.20682e+08,533865,-0.0354114,-0.211969,-0,0.214906,15765,-26235.6,0,30607.9,-533865
step02_gravity_refstate-crust.xmf,2031,4.79969e-06,-6.07589e-06,0,7.73853e-06,-7.43073e+08,-7.4382e+08,-7.43403e+08,530863,-0.0324503,-0.219584,-0,0.221969,15208.3,-27062.3,0,31042.9,-530863
step02_gravity_refstate-crust.xmf,2032,2.57148e-06,-2.18074e-06,0,6.65746e-06,-4.30231e+08,-4.30557e+08,-4.30407e+08,456702,-0.0442142,-0.147393,-0,0.153882,21535.6,-15670,0,26633.3,-456702
step02_gravity_refstate-crust.xmf,2033,2.78257e-06,-2.4976e-06,0,7.04035e-06,-4.6871e+08,-4.69072e+08,-4.68901e+08,482968,-0.0443826,-0.156498,-0,0.16267,20718.9,-17071.2,0,26845.9,-482968
step02_gravity_refstate-crust.xmf,2034,3.02866e-06,-2.84684e-06,0,7.28482e-06,-5.05456e+08,-5.05859e+08,-5.05664e+08,499738,-0.0442068,-0.162969,-0,0.168859,20086.2,-18409.5,0,27246.3,-499738
step02_gravity_refstate-crust.xmf,2035,3.3234e-06,-3.25063e-06,0,7.53933e-06,-5.4394e+08,-5.44391e+08,-5.44168e+08,517198,-0.0442079,-0.171422,-0,0.177031,19320.3,-19811.1,0,27672.3,-517198
step02_gravity_refstate-crust.xmf,2036,4.74438e-06,-6.48907e-06,0,7.54428e-06,-7.69038e+08,-7.69809e+08,-7.69364e+08,517538,-0.0274238,-0.225811,-0,0.22747,14688,-28006.8,0,31624.6,-517538
step02_gravity_refstate-crust.xmf,2037,4.49788e-06,-6.85465e-06,0,7.28155e-06,-7.94909e+08,-7.95688e+08,-7.95217e+08,499514,-0.0208778,-0.231071,-0,0.232012,14212.8,-28947,0,32248,-499514
step02_gravity_refstate-crust.xmf,2038,4.10957e-06,-7.16241e-06,0,7.09569e-06,-8.1869e+08,-8.19463e+08,-8.18972e+08,486765,-0.0138311,-0.2377,-0,0.238102,13709.2,-29810.8,0,32812,-486765
step02_gravity_refstate-crust.xmf,2039,3.56131e-06,-7.41203e-06,0,6.99283e-06,-8.40769e+08,-8.41522e+08,-8.41013e+08,479708,-0.00615357,-0.245034,-0,0.245111,13206.6,-30612,0,33339.3,-479708
step02_gravity_refstate-crust.xmf,2040,2.86823e-06,-7.59435e-06,0,7.02109e-06,-8.61849e+08,-8.62567e+08,-8.62046e+08,481647,0.0023681,-0.25278,0,0.252791,12712.8,-31376.3,0,33853.9,-481647
step02_gravity_refstate-crust.xmf,2041,1.84171e-06,-7.78205e-06,0,7.11212e-06,-8.83273e+08,-8.83933e+08,-8.83399e+08,487892,0.0123179,-0.260489,0,0.26078,12232.9,-32151.8,0,34400.4,-487892
step02_gravity_refstate-crust.xmf,2042,7.18058e-07,-7.96643e-06,0,7.50169e-06,-9.03076e+08,-9.03672e+08,-9.03125e+08,514616,0.0224583,-0.270378,0,0.271309,11712.5,-32868,0,34892.5,-514616
step02_gravity_refstate-crust.xmf,2043,-3.94864e-07,-8.23001e-06,0,8.17822e-06,-9.20519e+08,-9.21056e+08,-9.20492e+08,561026,0.0322167,-0.281579,0,0.283416,11193.6,-33498.1,0,35318.8,-561026
step02_gravity_refstate-crust.xmf,2044,-1.57154e-06,-8.58376e-06,0,9.07169e-06,-9.37349e+08,-9.3783e+08,-9.37241e+08,622318,0.0422511,-0.291983,0,0.295024,10724.9,-34105.5,0,35752,-622318
step02_gravity_refstate-crust.xmf,2045,-5.77475e-06,-1.29798e-05,0,1.63443e-05,-1.00972e+09,-1.01021e+09,-1.00932e+09,1.12122e+06,0.0822434,-0.333325,0,0.343322,8884.01,-36716.2,0,37775.8,-1.12122e+06
step02_gravity_refstate-crust.xmf,2046,-2.85434e-06,-9.08705e-06,0,1.0247e-05,-9.54988e+08,-9.55416e+08,-9.54792e+08,702943,0.0529498,-0.301557,0,0.30617,10286.6,-34741.7,0,36232.5,-702943
step02_gravity_refstate-crust.xmf,2047,-4.08973e-06,-9.87747e-06,0,1.18192e-05,-9.72969e+08,-9.73366e+08,-9.72688e+08,810800,0.0636142,-0.311525,0,0.317954,9841.23,-35390.1,0,36732.9,-810800
step02_gravity_refstate-crust.xmf,2048,-5.09773e-06,-1.10764e-05,0,1.37735e-05,-9.90639e+08,-9.91049e+08,-9.90289e+08,944864,0.0733623,-0.321973,0,0.330225,9386.59,-36027.4,0,37230.1,-944864
step02_gravity_refstate-crust.xmf,2049,-5.69678e-06,-1.45132e-05,0,1.81913e-05,-1.03114e+09,-1.03174e+09,-1.03075e+09,1.24793e+06,0.0861634,-0.326674,0,0.337846,8779.49,-37494,0,38508.2,-1.24793e+06
step02_gravity_refstate-crust.xmf,2050,-4.1257e-06,-1.92733e-05,0,2.19845e-05,-1.0598e+09,-1.06084e+09,-1.05952e+09,1.50814e+06,0.0865388,-0.332609,0,0.343683,8155.76,-38536.7,0,39390.2,-1.50814e+06
step02_gravity_refstate-crust.xmf,2051,-2.15182e-06,-2.16014e-05,0,2.34182e-05,-1.08107e+09,-1.0824e+09,-1.08092e+09,1.60649e+06,0.0788256,-0.31877,0,0.328372,8096.9,-39315.3,0,40140.4,-1.60649e+06
step02_gravity_refstate-crust.xmf,2052,3.46783e-06,-1.49339e-06,0,1.90886e-06,-2.50336e+08,-2.50676e+08,-2.50574e+08,130947,-0.0251064,-0.0402457,-0,0.0474347,33060.7,-9125.45,0,34296.9,-130947
step02_gravity_refstate-crust.xmf,2053,2.51049e-06,-1.96419e-06,0,5.51974e-06,-3.89107e+08,-3.89414e+08,-3.89279e+08,378654,-0.0403121,-0.115956,-0,0.122763,24041.9,-14172.9,0,27908.5,-378654
step02_gravity_refstate-crust.xmf,2054,2.75485e-06,-1.54423e-06,0,3.77884e-06,-3.01416e+08,-3.01711e+08,-3.01605e+08,259228,-0.0370368,-0.0780989,-0,0.0864359,27865.4,-10982.1,0,29951.4,-259228
step02_gravity_refstate-crust.xmf,2055,2.60595e-06,-1.73808e-06,0,4.30176e-06,-3.47556e+08,-3.47854e+08,-3.47735e+08,295101,-0.0359597,-0.0852637,-0,0.0925364,26899.1,-12661,0,29729.8,-295101
step02_gravity_refstate-crust.xmf,2056,4.56758e-06,-5.29429e-06,0,7.82768e-06,-6.96194e+08,-6.96871e+08,-6.96507e+08,536979,-0.0379559,-0.205004,-0,0.208489,16314.1,-25355.9,0,30150.8,-536979
step02_gravity_refstate-crust.xmf,2057,3.61552e-06,-3.74884e-06,0,7.47082e-06,-5.85235e+08,-5.85741e+08,-5.85483e+08,512499,-0.0422644,-0.1729,-0,0.177991,18931.7,-21314.9,0,28508.5,-512499
step02_gravity_refstate-crust.xmf,2058,-4.92238e-06,-1.59893e-05,0,1.9509e-05,-1.05092e+09,-1.05168e+09,-1.05058e+09,1.33832e+06,0.0852853,-0.314652,0,0.326005,8806.68,-38215.2,0,39216.8,-1.33832e+06
step02_gravity_refstate-crust.xmf,2059,2.89303e-06,-1.54903e-06,0,3.09648e-06,-3.00836e+08,-3.01141e+08,-3.01035e+08,212419,-0.0314088,-0.0599064,-0,0.0676409,29869.5,-10961.6,0,31817.3,-212419
step02_gravity_refstate-crust.xmf,2060,3.01033e-06,-1.53655e-06,0,2.42642e-06,-3.00546e+08,-3.00857e+08,-3.00752e+08,166453,-0.025357,-0.0445804,-0,0.0512874,31918.2,-10951.5,0,33744.7,-166453
step02_gravity_refstate-crust.xmf,2061,3.52068e-06,-1.49941e-06,0,1.27592e-06,-2.57674e+08,-2.58019e+08,-2.57916e+08,87528.1,-0.0166031,-0.0287786,-0,0.0332245,35368.4,-9392.82,0,36594.4,-87528.1
step02_gravity_refstate-crust.xmf,2062,4.11674e-06,-1.57606e-06,0,9.18799e-07,-2.06339e+08,-2.0673e+08,-2.06622e+08,63029.6,-0.0160094,-0.0288018,-0,0.0329521,36174.8,-7526.21,0,36949.4,-63029.6
step02_gravity_refstate-crust.xmf,2063,4.54117e-06,-1.65516e-06,0,4.58494e-07,-1.79122e+08,-1.79548e+08,-1.79434e+08,31452.7,-0.009554,-0.026151,-0,0.0278416,37911.9,-6536.94,0,38471.3,-31452.7
step02_gravity_refstate-crust.xmf,2064,5.07559e-06,-1.80646e-06,0,-3.95639e-09,-1.46408e+08,-1.4688e+08,-1.46756e+08,-271.408,-6.7732e-19,-0.0264277,-0,0.0264277,40000,-5347.88,0,40355.9,-271.408
step02_gravity_refstate-crust.xmf,2065,2.61114e-06,-2.25477e-06,0,5.91522e-06,-4.29474e+08,-4.29808e+08,-4.29654e+08,405784,-0.0399481,-0.123965,-0,0.130243,23198.2,-15642.5,0,27979.4,-405784
step02_gravity_refstate-crust.xmf,2066,2.56461e-06,-1.98019e-06,0,4.77263e-06,-3.9039e+08,-3.90702e+08,-3.90566e+08,327402,-0.0355124,-0.0933798,-0,0.0999046,25899.8,-14219.9,0,29546.6,-327402
step02_gravity_refstate-crust.xmf,2067,3.87119e-06,-4.15082e-06,0,7.5403e-06,-6.1715e+08,-6.177e+08,-6.17416e+08,517264,-0.0412866,-0.179198,-0,0.183893,18323.2,-22477.2,0,28999.4,-517264
step02_gravity_refstate-crust.xmf,2068,4.36101e-06,-4.92125e-06,0,7.74524e-06,-6.7285e+08,-6.73486e+08,-6.73149e+08,531323,-0.0392806,-0.196221,-0,0.200114,16953.1,-24505.8,0,29798.3,-531323
step02_gravity_refstate-crust.xmf,2069,4.11929e-06,-4.55105e-06,0,7.61182e-06,-6.46767e+08,-6.47362e+08,-6.4705e+08,522171,-0.0401963,-0.186744,-0,0.191021,17667.5,-23555.8,0,29445.2,-522171
step02_gravity_refstate-crust.xmf,2070,4.21141e-06,-6.2078e-06,0,6.69895e-06,-7.68178e+08,-7.68893e+08,-7.68467e+08,459548,-0.0228887,-0.201688,-0,0.202983,15762.4,-27973.7,0,32108.9,-459548
step02_gravity_refstate-crust.xmf,2071,4.28933e-06,-5.52321e-06,0,6.98103e-06,-7.18764e+08,-7.19437e+08,-7.19058e+08,478899,-0.0309415,-0.189759,-0,0.192266,16841,-26176.1,0,31125.7,-478899
step02_gravity_refstate-crust.xmf,2072,4.29959e-06,-5.8657e-06,0,6.86034e-06,-7.42881e+08,-7.43578e+08,-7.43176e+08,470619,-0.0274873,-0.195563,-0,0.197485,16313,-27053.6,0,31591.4,-470619
step02_gravity_refstate-crust.xmf,2073,2.76818e-06,-2.57773e-06,0,6.24174e-06,-4.68694e+08,-4.6906e+08,-4.68884e+08,428183,-0.0397565,-0.131762,-0,0.13763,22386,-17070.5,0,28152,-428183
step02_gravity_refstate-crust.xmf,2074,2.96573e-06,-2.93078e-06,0,6.49304e-06,-5.07083e+08,-5.07488e+08,-5.07287e+08,445422,-0.0395175,-0.139084,-0,0.144589,21616.9,-18468.3,0,28431.8,-445422
step02_gravity_refstate-crust.xmf,2075,3.18374e-06,-3.30891e-06,0,6.65695e-06,-5.44562e+08,-5.45007e+08,-5.4478e+08,456667,-0.0389853,-0.145539,-0,0.15067,20911.6,-19833.1,0,28820.9,-456667
step02_gravity_refstate-crust.xmf,2076,3.40348e-06,-3.71008e-06,0,6.73016e-06,-5.81714e+08,-5.82202e+08,-5.81947e+08,461689,-0.0379523,-0.151194,-0,0.155884,20254.1,-21185.9,0,29309.9,-461689
step02_gravity_refstate-crust.xmf,2077,3.97154e-06,-6.51804e-06,0,6.50015e-06,-7.9387e+08,-7.94589e+08,-7.94142e+08,445910,-0.0169796,-0.207615,-0,0.208309,15223.2,-28907.6,0,32671,-445910
step02_gravity_refstate-crust.xmf,2078,3.56529e-06,-6.77305e-06,0,6.31582e-06,-8.18688e+08,-8.19397e+08,-8.18932e+08,433265,-0.01005,-0.21358,-0,0.213816,14699.1,-29809.1,0,33236.2,-433265
step02_gravity_refstate-crust.xmf,2079,3.01303e-06,-6.97686e-06,0,6.22195e-06,-8.4191e+08,-8.42596e+08,-8.42117e+08,426826,-0.00252995,-0.220543,-0,0.220558,14160.3,-30652,0,33764.7,-426826
step02_gravity_refstate-crust.xmf,2080,2.35692e-06,-7.14618e-06,0,6.2662e-06,-8.62876e+08,-8.63528e+08,-8.63038e+08,429862,0.00518804,-0.228621,0,0.22868,13615,-31412.3,0,34236,-429862
step02_gravity_refstate-crust.xmf,2081,1.48481e-06,-7.23709e-06,0,6.39224e-06,-8.83771e+08,-8.84369e+08,-8.83873e+08,438507,0.0140874,-0.23518,0,0.235602,13146.9,-32169.4,0,34752.1,-438507
step02_gravity_refstate-crust.xmf,2082,1.89935e-07,-7.31555e-06,0,6.70012e-06,-9.0896e+08,-9.09475e+08,-9.08973e+08,459628,0.0259893,-0.240931,0,0.242328,12680.7,-33081,0,35428.2,-459628
step02_gravity_refstate-crust.xmf,2083,-8.0752e-07,-7.63688e-06,0,7.43443e-06,-9.25682e+08,-9.26151e+08,-9.25627e+08,510002,0.034572,-0.256626,0,0.258945,11960,-33685.3,0,35745.5,-510002
step02_gravity_refstate-crust.xmf,2084,-1.62883e-06,-7.94063e-06,0,8.23281e-06,-9.3825e+08,-9.38683e+08,-9.38138e+08,564771,0.0416306,-0.268763,0,0.271968,11435.9,-34139,0,36003.5,-564771
step02_gravity_refstate-crust.xmf,2085,-2.67725e-06,-8.25988e-06,0,9.10903e-06,-9.55061e+08,-9.55444e+08,-9.54878e+08,624880,0.0507787,-0.274518,0,0.279175,11093.8,-34746.3,0,36474.4,-624880
step02_gravity_refstate-crust.xmf,2086,-5.47778e-06,-1.11454e-05,0,1.43265e-05,-1.00947e+09,-1.00986e+09,-1.00909e+09,982800,0.0775758,-0.302566,0,0.312353,9708.05,-36711.3,0,37973.2,-982800
step02_gravity_refstate-crust.xmf,2087,-3.85456e-06,-8.84062e-06,0,1.04901e-05,-9.73717e+08,-9.74059e+08,-9.73453e+08,719618,0.0607879,-0.283218,0,0.289668,10646.4,-35419.9,0,36985.3,-719618
step02_gravity_refstate-crust.xmf,2088,-4.83848e-06,-9.77379e-06,0,1.22537e-05,-9.92166e+08,-9.92504e+08,-9.91834e+08,840606,0.0699956,-0.292556,0,0.300813,10183.6,-36086.1,0,37495.5,-840606
step02_gravity_refstate-crust.xmf,2089,-5.66254e-06,-1.25922e-05,0,1.61563e-05,-1.02384e+09,-1.02432e+09,-1.02345e+09,1.10833e+06,0.0822388,-0.309078,0,0.319832,9352.33,-37231.6,0,38388.3,-1.10833e+06
step02_gravity_refstate-crust.xmf,2090,-5.34557e-06,-1.33599e-05,0,1.7178e-05,-1.04065e+09,-1.0412e+09,-1.04029e+09,1.17841e+06,0.0828725,-0.298933,0,0.310208,9414.69,-37843.7,0,38997.2,-1.17841e+06
step02_gravity_refstate-crust.xmf,2091,-3.60694e-06,-1.75957e-05,0,2.07191e-05,-1.07043e+09,-1.07138e+09,-1.07018e+09,1.42133e+06,0.0808966,-0.302143,0,0.312785,8822.27,-38928.1,0,39915.2,-1.42133e+06
step02_gravity_refstate-crust.xmf,2092,3.13286e-06,-1.51639e-06,0,1.83216e-06,-2.95899e+08,-2.96218e+08,-2.96114e+08,125686,-0.0199199,-0.0338504,-0,0.0392766,33778,-10782.8,0,35457.3,-125686
step02_gravity_refstate-crust.xmf,2093,2.60293e-06,-2.25402e-06,0,5.18452e-06,-4.30082e+08,-4.30415e+08,-4.3026e+08,355658,-0.0354494,-0.101986,-0,0.107971,24909.4,-15664.6,0,29425.5,-355658
step02_gravity_refstate-crust.xmf,2094,2.68036e-06,-1.72092e-06,0,3.58642e-06,-3.48656e+08,-3.48958e+08,-3.4884e+08,246028,-0.0306827,-0.0658122,-0,0.0726131,28865.2,-12701.4,0,31536.1,-246028
step02_gravity_refstate-crust.xmf,2095,2.5678e-06,-1.94943e-06,0,4.01648e-06,-3.94591e+08,-3.94901e+08,-3.94767e+08,275531,-0.030189,-0.0722287,-0,0.0782839,27864.5,-14372.9,0,31353,-275531
step02_gravity_refstate-crust.xmf,2096,4.25138e-06,-5.21168e-06,0,7.12363e-06,-6.96703e+08,-6.97352e+08,-6.96995e+08,488681,-0.0337655,-0.186067,-0,0.189105,17244.5,-25373.3,0,30678.6,-488681
step02_gravity_refstate-crust.xmf,2097,3.60721e-06,-4.11251e-06,0,6.73981e-06,-6.16621e+08,-6.1715e+08,-6.16868e+08,462351,-0.0364905,-0.156607,-0,0.160802,19622.6,-22456.9,0,29822.1,-462351
step02_gravity_refstate-crust.xmf,2098,1.33141e-06,-6.84664e-06,0,5.8849e-06,-8.81697e+08,-8.82258e+08,-8.81789e+08,403704,0.0142211,-0.216431,0,0.216897,13916.5,-32093.9,0,34981.2,-403704
step02_gravity_refstate-crust.xmf,2099,-4.33665e-06,-1.47998e-05,0,1.84754e-05,-1.06129e+09,-1.06201e+09,-1.061e+09,1.26741e+06,0.080574,-0.286652,0,0.29776,9464.81,-38597,0,39740.5,-1.26741e+06
step02_gravity_refstate-crust.xmf,2100,-1.97636e-06,-1.9184e-05,0,2.17244e-05,-1.08774e+09,-1.08892e+09,-1.0876e+09,1.4903e+06,0.0740983,-0.290208,0,0.299518,8830.27,-39562.5,0,40535.9,-1.4903e+06
step02_gravity_refstate-crust.xmf,2101,2.7151e-06,-1.66855e-06,0,2.87898e-06,-3.49764e+08,-3.50065e+08,-3.49951e+08,197498,-0.025116,-0.0489221,-0,0.0549925,30898.4,-12741.9,0,33422.6,-197498
step02_gravity_refstate-crust.xmf,2102,2.76699e-06,-1.60101e-06,0,2.08288e-06,-3.48478e+08,-3.48778e+08,-3.48668e+08,142885,-0.0186446,-0.0335096,-0,0.0383473,33285.2,-12695.4,0,35624.1,-142885
step02_gravity_refstate-crust.xmf,2103,2.96624e-06,-1.51669e-06,0,1.42416e-06,-3.22457e+08,-3.22764e+08,-3.2266e+08,97697.3,-0.0141727,-0.0256691,-0,0.0293218,35257.4,-11749,0,37163.4,-97697.3
step02_gravity_refstate-crust.xmf,2104,3.66343e-06,-1.49947e-06,0,6.13649e-07,-2.51029e+08,-2.51383e+08,-2.5128e+08,42096.3,-0.00833189,-0.0223556,-0,0.0238578,37735.6,-9151.45,0,38829.4,-42096.3
step02_gravity_refstate-crust.xmf,2105,4.07528e-06,-1.5563e-06,0,-2.4004e-09,-2.16915e+08,-2.17301e+08,-2.17194e+08,-164.668,-5.91998e-19,-0.0221247,-0,0.0221247,40000,-7911.08,0,40774.8,-164.668
step02_gravity_refstate-crust.xmf,2106,2.69843e-06,-2.55952e-06,0,5.49549e-06,-4.68876e+08,-4.69236e+08,-4.69061e+08,376991,-0.0352306,-0.109477,-0,0.115007,24037.7,-17076.8,0,29486.1,-376991
step02_gravity_refstate-crust.xmf,2107,2.55445e-06,-2.20925e-06,0,4.45337e-06,-4.34497e+08,-4.34824e+08,-4.34672e+08,305501,-0.030535,-0.081129,-0,0.0866851,26704.6,-15825.2,0,31041.5,-305501
step02_gravity_refstate-crust.xmf,2108,3.79746e-06,-4.50541e-06,0,6.75632e-06,-6.48286e+08,-6.48855e+08,-6.48546e+08,463483,-0.0349605,-0.163361,-0,0.16706,18937.3,-23609.9,0,30266.3,-463483
step02_gravity_refstate-crust.xmf,2109,3.96815e-06,-4.92784e-06,0,6.72924e-06,-6.80416e+08,-6.81026e+08,-6.80688e+08,461626,-0.0327705,-0.170839,-0,0.173954,18210.1,-24779.6,0,30751.2,-461626
step02_gravity_refstate-crust.xmf,2110,3.44402e-06,-6.14324e-06,0,5.80028e-06,-7.93962e+08,-7.94619e+08,-7.94198e+08,397899,-0.0130021,-0.184857,-0,0.185313,16291.2,-28909.4,0,33183.7,-397899
step02_gravity_refstate-crust.xmf,2111,3.90472e-06,-5.25202e-06,0,6.3643e-06,-7.11491e+08,-7.12119e+08,-7.11759e+08,436591,-0.0279094,-0.169665,-0,0.171945,17961.5,-25910.2,0,31527.1,-436591
step02_gravity_refstate-crust.xmf,2112,3.69569e-06,-5.87921e-06,0,5.96796e-06,-7.67862e+08,-7.68519e+08,-7.68115e+08,409402,-0.0186067,-0.178977,-0,0.179942,16871.5,-27960.6,0,32656.4,-409402
step02_gravity_refstate-crust.xmf,2113,3.82857e-06,-5.58275e-06,0,6.13582e-06,-7.41345e+08,-7.4199e+08,-7.41607e+08,420917,-0.0232848,-0.173465,-0,0.175021,17443.9,-26996.2,0,32141.6,-420917
step02_gravity_refstate-crust.xmf,2114,2.83444e-06,-2.89617e-06,0,5.722e-06,-5.07554e+08,-5.07947e+08,-5.07749e+08,392529,-0.0348095,-0.116263,-0,0.121362,23229.1,-18485,0,29686.4,-392529
step02_gravity_refstate-crust.xmf,2115,2.99168e-06,-3.25488e-06,0,5.86869e-06,-5.45712e+08,-5.46141e+08,-5.45917e+08,402592,-0.0340974,-0.122508,-0,0.127165,22464.7,-19874.3,0,29994.1,-402592
step02_gravity_refstate-crust.xmf,2116,3.29942e-06,-3.98401e-06,0,5.97758e-06,-6.16904e+08,-6.17404e+08,-6.17131e+08,410062,-0.0316678,-0.13445,-0,0.138129,21009.7,-22466.2,0,30759.3,-410062
step02_gravity_refstate-crust.xmf,2117,3.15139e-06,-3.62526e-06,0,5.94285e-06,-5.83038e+08,-5.83503e+08,-5.83254e+08,407679,-0.0329909,-0.128398,-0,0.132568,21728.7,-21233.2,0,30380.7,-407679
step02_gravity_refstate-crust.xmf,2118,3.04621e-06,-6.35492e-06,0,5.64938e-06,-8.19162e+08,-8.19807e+08,-8.19371e+08,387547,-0.00647228,-0.190675,-0,0.190785,15732.7,-29824.9,0,33720.1,-387547
step02_gravity_refstate-crust.xmf,2119,2.47361e-06,-6.52425e-06,0,5.55358e-06,-8.44307e+08,-8.44925e+08,-8.44477e+08,380976,0.00116141,-0.197101,0,0.197104,15158,-30737.8,0,34272.1,-380976
step02_gravity_refstate-crust.xmf,2120,1.83854e-06,-6.68513e-06,0,5.6442e-06,-8.66316e+08,-8.66901e+08,-8.66442e+08,387192,0.00855943,-0.206383,0,0.20656,14506.1,-31536.2,0,34712.5,-387192
step02_gravity_refstate-crust.xmf,2121,2.73757e-07,-6.76962e-06,0,5.96256e-06,-9.03574e+08,-9.04058e+08,-9.03593e+08,409032,0.0237433,-0.216135,0,0.217435,13704.6,-32886.2,0,35627.4,-409032
step02_gravity_refstate-crust.xmf,2122,-2.26037e-06,-7.51212e-06,0,7.95579e-06,-9.50898e+08,-9.51258e+08,-9.50743e+08,545767,0.0466492,-0.248729,0,0.253066,11994.5,-34597.6,0,36617.8,-545767
step02_gravity_refstate-crust.xmf,2123,-1.25602e-06,-7.14786e-06,0,7.03862e-06,-9.34171e+08,-9.34575e+08,-9.34085e+08,482849,0.0379963,-0.235658,0,0.238701,12631.6,-33993.3,0,36264.3,-482849
step02_gravity_refstate-crust.xmf,2124,-5.40281e-06,-1.14758e-05,0,1.50324e-05,-1.02812e+09,-1.02854e+09,-1.02775e+09,1.03122e+06,0.0793367,-0.286098,0,0.296895,9966.36,-37390.1,0,38695.6,-1.03122e+06
step02_gravity_refstate-crust.xmf,2125,-3.5588e-06,-7.97366e-06,0,9.35484e-06,-9.74237e+08,-9.7454e+08,-9.73993e+08,641742,0.0578717,-0.256538,0,0.262985,11498.6,-35441.3,0,37260,-641742
step02_gravity_refstate-crust.xmf,2126,-5.15274e-06,-9.91196e-06,0,1.29492e-05,-1.01246e+09,-1.01278e+09,-1.0121e+09,888315,0.0741131,-0.275243,0,0.285046,10489.6,-36823.4,0,38288.3,-888315
step02_gravity_refstate-crust.xmf,2127,-4.52361e-06,-8.74579e-06,0,1.10118e-05,-9.94327e+08,-9.94616e+08,-9.94016e+08,755411,0.0668873,-0.265309,0,0.273611,11004.4,-36167.6,0,37804.7,-755411
step02_gravity_refstate-crust.xmf,2128,-4.91651e-06,-1.22395e-05,0,1.60763e-05,-1.04822e+09,-1.04872e+09,-1.04788e+09,1.10283e+06,0.0791487,-0.273246,0,0.284478,10096.4,-38122.7,0,39437,-1.10283e+06
step02_gravity_refstate-crust.xmf,2129,-2.87523e-06,-1.61304e-05,0,1.94207e-05,-1.08117e+09,-1.08208e+09,-1.08098e+09,1.33226e+06,0.0749271,-0.272259,0,0.282381,9567.17,-39324.6,0,40471.6,-1.33226e+06
step02_gravity_refstate-crust.xmf,2130,-9.29543e-07,-6.74784e-06,0,6.37723e-06,-9.28941e+08,-9.2934e+08,-9.28878e+08,437478,0.0348716,-0.217391,0,0.22017,13397.9,-33804.8,0,36363,-437478
step02_gravity_refstate-crust.xmf,2131,3.22837e-06,-1.4879e-06,0,9.96649e-07,-2.93755e+08,-2.94078e+08,-2.93976e+08,68370.1,-0.0111274,-0.0227898,-0,0.0253613,36571.5,-10705.2,0,38106.1,-68370.1
step02_gravity_refstate-crust.xmf,2132,2.59587e-06,-2.48434e-06,0,4.79486e-06,-4.70492e+08,-4.7084e+08,-4.7067e+08,328928,-0.030772,-0.0893981,-0,0.094546,25681.3,-17135.4,0,30873.1,-328928
step02_gravity_refstate-crust.xmf,2133,2.42968e-06,-2.14698e-06,0,3.66318e-06,-4.47578e+08,-4.47892e+08,-4.47744e+08,251294,-0.0247157,-0.0603815,-0,0.0652441,28700.9,-16301,0,33007,-251294
step02_gravity_refstate-crust.xmf,2134,2.53598e-06,-1.87366e-06,0,3.28764e-06,-3.97343e+08,-3.97646e+08,-3.97517e+08,225532,-0.0249614,-0.0541425,-0,0.0596195,29844.7,-14473,0,33168.9,-225532
step02_gravity_refstate-crust.xmf,2135,3.45261e-06,-4.3184e-06,0,5.99667e-06,-6.48059e+08,-6.48593e+08,-6.48296e+08,411372,-0.0300345,-0.140602,-0,0.143774,20310.4,-23600.5,0,31136.8,-411372
step02_gravity_refstate-crust.xmf,2136,6.76057e-07,-6.43076e-06,0,5.43748e-06,-8.91954e+08,-8.92441e+08,-8.92e+08,373011,0.0192879,-0.197948,0,0.198886,14609.9,-32465.2,0,35601.2,-373011
step02_gravity_refstate-crust.xmf,2137,-4.00091e-06,-1.35472e-05,0,1.72744e-05,-1.06638e+09,-1.06703e+09,-1.06611e+09,1.18502e+06,0.0769906,-0.264805,0,0.275771,10091.9,-38785.5,0,40076.9,-1.18502e+06
step02_gravity_refstate-crust.xmf,2138,-2.2333e-06,-6.86044e-06,0,7.21487e-06,-9.53333e+08,-9.5365e+08,-9.53179e+08,494940,0.0456143,-0.223018,0,0.227635,12931.1,-34687.4,0,37019.3,-494940
step02_gravity_refstate-crust.xmf,2139,2.49244e-06,-1.76434e-06,0,2.55152e-06,-3.98206e+08,-3.98498e+08,-3.98377e+08,175034,-0.0195668,-0.0384018,-0,0.0430994,31969.9,-14504.4,0,35106.3,-175034
step02_gravity_refstate-crust.xmf,2140,2.63064e-06,-1.57915e-06,0,1.50396e-06,-3.69008e+08,-3.69297e+08,-3.69188e+08,103171,-0.0127953,-0.0235573,-0,0.026808,35128.5,-13442.3,0,37612.6,-103171
step02_gravity_refstate-crust.xmf,2141,2.73332e-06,-1.52458e-06,0,1.00229e-06,-3.54672e+08,-3.54964e+08,-3.5486e+08,68757.3,-0.00898723,-0.0190631,-0,0.0210754,36713.2,-12920.9,0,38920.5,-68757.3
step02_gravity_refstate-crust.xmf,2142,3.01063e-06,-1.4816e-06,0,5.4985e-07,-3.20392e+08,-3.207e+08,-3.20598e+08,37719.7,-0.00558553,-0.0178938,-0,0.0187453,38148,-11674.1,0,39894.3,-37719.7
step02_gravity_refstate-crust.xmf,2143,3.32488e-06,-1.47228e-06,0,6.91301e-10,-2.85628e+08,-2.85957e+08,-2.85856e+08,47.4232,-3.96507e-19,-0.0183407,-0,0.0183407,40000,-10409.7,0,41332.3,-47.4232
step02_gravity_refstate-crust.xmf,2144,2.66906e-06,-2.78704e-06,0,5.00244e-06,-5.07992e+08,-5.08367e+08,-5.08176e+08,343168,-0.0303003,-0.0955047,-0,0.100196,24856.4,-18500.5,0,30985.6,-343168
step02_gravity_refstate-crust.xmf,2145,2.48908e-06,-2.3878e-06,0,4.19278e-06,-4.73854e+08,-4.74189e+08,-4.74025e+08,287625,-0.0267629,-0.0729554,-0,0.0777094,27171.7,-17257.5,0,32188.9,-287625
step02_gravity_refstate-crust.xmf,2146,2.5515e-06,-5.9166e-06,0,5.06993e-06,-8.20227e+08,-8.20808e+08,-8.20402e+08,347797,-0.00307761,-0.168706,-0,0.168734,16821.5,-29862.4,0,34274.2,-347797
step02_gravity_refstate-crust.xmf,2147,3.53466e-06,-4.67787e-06,0,5.95992e-06,-6.77412e+08,-6.77975e+08,-6.77655e+08,408850,-0.0280718,-0.147293,-0,0.149944,19599.2,-24668.9,0,31506.9,-408850
step02_gravity_refstate-crust.xmf,2148,3.50068e-06,-4.98829e-06,0,5.74513e-06,-7.09147e+08,-7.09729e+08,-7.09387e+08,394116,-0.0241562,-0.150005,-0,0.151938,19102.9,-25823.6,0,32121.4,-394116
step02_gravity_refstate-crust.xmf,2149,2.93339e-06,-5.73761e-06,0,5.18502e-06,-7.94714e+08,-7.95308e+08,-7.94915e+08,355692,-0.009196,-0.162976,-0,0.163235,17416.9,-28935.3,0,33772.8,-355692
step02_gravity_refstate-crust.xmf,2150,3.38046e-06,-5.261e-06,0,5.51449e-06,-7.39454e+08,-7.40047e+08,-7.39686e+08,378294,-0.0195448,-0.152851,-0,0.154095,18605.9,-26926.1,0,32729.1,-378294
step02_gravity_refstate-crust.xmf,2151,3.19805e-06,-5.51245e-06,0,5.32977e-06,-7.67864e+08,-7.68462e+08,-7.68084e+08,365622,-0.0146186,-0.157361,-0,0.158038,18031.2,-27959.3,0,33269.3,-365622
step02_gravity_refstate-crust.xmf,2152,2.76093e-06,-3.11472e-06,0,5.12777e-06,-5.46395e+08,-5.46798e+08,-5.46584e+08,351765,-0.0293992,-0.100971,-0,0.105164,24078.8,-19898.4,0,31236.8,-351765
step02_gravity_refstate-crust.xmf,2153,3.04556e-06,-4.09209e-06,0,5.27571e-06,-6.48717e+08,-6.49206e+08,-6.48926e+08,361914,-0.0253643,-0.119217,-0,0.121885,21726.4,-23623.2,0,32095,-361914
step02_gravity_refstate-crust.xmf,2154,2.85772e-06,-3.45375e-06,0,5.19089e-06,-5.84238e+08,-5.84671e+08,-5.84434e+08,356095,-0.0281358,-0.106397,-0,0.110054,23306,-21276,0,31556.9,-356095
step02_gravity_refstate-crust.xmf,2155,2.95379e-06,-3.78102e-06,0,5.24167e-06,-6.19038e+08,-6.195e+08,-6.19241e+08,359578,-0.0267572,-0.112632,-0,0.115767,22500.1,-22542.8,0,31850.2,-359578
step02_gravity_refstate-crust.xmf,2156,3.11183e-06,-4.37833e-06,0,5.24304e-06,-6.78462e+08,-6.78975e+08,-6.78675e+08,359673,-0.0231272,-0.124572,-0,0.126701,21043.4,-24705.9,0,32453.1,-359673
step02_gravity_refstate-crust.xmf,2157,1.99899e-06,-6.04763e-06,0,5.00013e-06,-8.46183e+08,-8.46735e+08,-8.4632e+08,343009,0.00423387,-0.174553,0,0.174604,16227.5,-30804.9,0,34817.7,-343009
step02_gravity_refstate-crust.xmf,2158,1.19443e-06,-6.14528e-06,0,5.05743e-06,-8.74746e+08,-8.7525e+08,-8.74828e+08,346940,0.0134853,-0.181666,0,0.182165,15558.1,-31841.3,0,35439,-346940
step02_gravity_refstate-crust.xmf,2159,-6.33406e-07,-6.21879e-06,0,5.6195e-06,-9.22279e+08,-9.22662e+08,-9.22236e+08,385498,0.0313276,-0.193025,0,0.195551,14517.9,-33564.3,0,36569.5,-385498
step02_gravity_refstate-crust.xmf,2160,-3.26335e-06,-7.26036e-06,0,8.41235e-06,-9.75329e+08,-9.75604e+08,-9.75106e+08,577087,0.0552656,-0.231481,0,0.237987,12386.5,-35483.4,0,37583.2,-577087
step02_gravity_refstate-crust.xmf,2161,-4.98969e-06,-1.03826e-05,0,1.38554e-05,-1.03401e+09,-1.03438e+09,-1.03367e+09,950478,0.0758246,-0.259715,0,0.270557,10737,-37608,0,39110.7,-950478
step02_gravity_refstate-crust.xmf,2162,-4.16407e-06,-7.88971e-06,0,9.9382e-06,-9.96889e+08,-9.97145e+08,-9.96603e+08,681760,0.0638464,-0.239205,0,0.247579,11880,-36263.7,0,38160.1,-681760
step02_gravity_refstate-crust.xmf,2163,-4.75524e-06,-8.91142e-06,0,1.1766e-05,-1.01652e+09,-1.0168e+09,-1.01619e+09,807148,0.070751,-0.248624,0,0.258495,11329.3,-36974.3,0,38671.1,-807148
step02_gravity_refstate-crust.xmf,2164,-4.21686e-06,-1.1425e-05,0,1.50876e-05,-1.05861e+09,-1.05911e+09,-1.05832e+09,1.03501e+06,0.0747846,-0.245672,0,0.256802,10886.8,-38505,0,40014.5,-1.03501e+06
step02_gravity_refstate-crust.xmf,2165,-2.97673e-06,-1.37279e-05,0,1.71503e-05,-1.08109e+09,-1.08183e+09,-1.08089e+09,1.17651e+06,0.0721968,-0.245952,0,0.256329,10500.1,-39324.9,0,40702.6,-1.17651e+06
step02_gravity_refstate-crust.xmf,2166,-1.89094e-06,-6.33381e-06,0,6.44856e-06,-9.51335e+08,-9.5164e+08,-9.51205e+08,442371,0.0428752,-0.199726,0,0.204276,13921.7,-34616.8,0,37311.4,-442371
step02_gravity_refstate-crust.xmf,2167,2.42794e-06,-1.68126e-06,0,1.86034e-06,-4.03589e+08,-4.03871e+08,-4.03756e+08,127619,-0.0142226,-0.0263113,-0,0.0299093,34040.9,-14700.3,0,37079.4,-127619
step02_gravity_refstate-crust.xmf,2168,2.49397e-06,-2.62878e-06,0,4.34649e-06,-5.07306e+08,-5.07657e+08,-5.07477e+08,298169,-0.026198,-0.0772953,-0,0.0816143,26465.4,-18475,0,32276.1,-298169
step02_gravity_refstate-crust.xmf,2169,2.34226e-06,-2.37559e-06,0,3.68872e-06,-4.95906e+08,-4.96229e+08,-4.96066e+08,253046,-0.0224858,-0.0597379,-0,0.0638296,28336.4,-18059.7,0,33602.2,-253046
step02_gravity_refstate-crust.xmf,2170,2.32918e-06,-1.97234e-06,0,2.90163e-06,-4.43773e+08,-4.44068e+08,-4.43933e+08,199052,-0.0198207,-0.0430519,-0,0.0473955,30852.8,-16162.4,0,34829.8,-199052
step02_gravity_refstate-crust.xmf,2171,2.67724e-06,-4.07128e-06,0,4.61923e-06,-6.78619e+08,-6.79082e+08,-6.78803e+08,316879,-0.0190467,-0.104754,-0,0.106472,22453.2,-24710.3,0,33387.9,-316879
step02_gravity_refstate-crust.xmf,2172,1.45292e-07,-5.99488e-06,0,5.10712e-06,-9.02329e+08,-9.0275e+08,-9.02339e+08,350348,0.0236339,-0.179252,0,0.180803,15379.4,-32841.5,0,36264.2,-350348
step02_gravity_refstate-crust.xmf,2173,-3.02934e-06,-6.60519e-06,0,7.56027e-06,-9.76219e+08,-9.76465e+08,-9.76011e+08,518634,0.0525594,-0.206984,0,0.213553,13357.6,-35517.8,0,37946.5,-518634
step02_gravity_refstate-crust.xmf,2174,2.22768e-06,-1.83017e-06,0,2.20508e-06,-4.45968e+08,-4.46246e+08,-4.4612e+08,151268,-0.0150023,-0.0294842,-0,0.0330815,32921.3,-16242.1,0,36709.9,-151268
step02_gravity_refstate-crust.xmf,2175,2.33057e-06,-1.61445e-06,0,1.17329e-06,-4.13312e+08,-4.13583e+08,-4.13472e+08,80487.6,-0.00878289,-0.0172285,-0,0.0193381,36191.8,-15054,0,39197.8,-80487.6
step02_gravity_refstate-crust.xmf,2176,2.50056e-06,-1.53261e-06,0,5.41566e-07,-3.85597e+08,-3.85873e+08,-3.85768e+08,37151.5,-0.00442784,-0.0142012,-0,0.0148755,38228.4,-14045.8,0,40727.1,-37151.5
step02_gravity_refstate-crust.xmf,2177,2.74469e-06,-1.49213e-06,0,1.68658e-09,-3.52742e+08,-3.53033e+08,-3.52931e+08,115.699,-3.13347e-19,-0.0147239,-0,0.0147239,40000,-12850.7,0,42013.6,-115.699
step02_gravity_refstate-crust.xmf,2178,2.51259e-06,-2.91263e-06,0,4.43357e-06,-5.46329e+08,-5.46701e+08,-5.46502e+08,304143,-0.0249884,-0.0811344,-0,0.0848953,25754.3,-19895.3,0,32543.9,-304143
step02_gravity_refstate-crust.xmf,2179,2.17771e-06,-2.19073e-06,0,3.05402e-06,-4.92836e+08,-4.93135e+08,-4.92985e+08,209506,-0.0186694,-0.0449055,-0,0.0486318,30116.4,-17947.6,0,35058.7,-209506
step02_gravity_refstate-crust.xmf,2180,1.60679e-06,-5.58047e-06,0,4.52878e-06,-8.46925e+08,-8.47418e+08,-8.47035e+08,310675,0.00651042,-0.153303,0,0.153441,17357.5,-30831,0,35381.3,-310675
step02_gravity_refstate-crust.xmf,2181,2.10639e-06,-5.47302e-06,0,4.5735e-06,-8.21064e+08,-8.21584e+08,-8.21209e+08,313742,-0.000174091,-0.147938,-0,0.147938,17961.9,-29891.7,0,34873.3,-313742
step02_gravity_refstate-crust.xmf,2182,3.05536e-06,-4.67679e-06,0,5.1074e-06,-7.09504e+08,-7.10035e+08,-7.09714e+08,350368,-0.01988,-0.129318,-0,0.130837,20388.4,-25835.3,0,32911.2,-350368
step02_gravity_refstate-crust.xmf,2183,2.92937e-06,-4.91024e-06,0,4.93431e-06,-7.38912e+08,-7.3945e+08,-7.39113e+08,338494,-0.0157859,-0.132735,-0,0.13367,19836.8,-26905.1,0,33427.2,-338494
step02_gravity_refstate-crust.xmf,2184,2.46654e-06,-5.31885e-06,0,4.65783e-06,-7.95185e+08,-7.95719e+08,-7.95354e+08,319527,-0.00591109,-0.142422,-0,0.142545,18588.1,-28951.2,0,34404.8,-319527
step02_gravity_refstate-crust.xmf,2185,2.72509e-06,-5.12286e-06,0,4.76904e-06,-7.68113e+08,-7.68652e+08,-7.683e+08,327156,-0.0109851,-0.136892,-0,0.137332,19239.8,-27967,0,33945.9,-327156
step02_gravity_refstate-crust.xmf,2186,2.53281e-06,-3.22107e-06,0,4.46681e-06,-5.87142e+08,-5.87537e+08,-5.87316e+08,306423,-0.0233266,-0.0853219,-0,0.0884531,24986.1,-21380.8,0,32885.3,-306423
step02_gravity_refstate-crust.xmf,2187,2.70444e-06,-3.84196e-06,0,4.69639e-06,-6.51088e+08,-6.51537e+08,-6.51273e+08,322172,-0.0213227,-0.101199,-0,0.103421,23024.9,-23708.5,0,33049,-322172
step02_gravity_refstate-crust.xmf,2188,2.55823e-06,-3.54341e-06,0,4.44559e-06,-6.30898e+08,-6.31316e+08,-6.31073e+08,304967,-0.020872,-0.0899188,-0,0.0923094,24143,-22973.3,0,33326.5,-304967
step02_gravity_refstate-crust.xmf,2189,2.64191e-06,-4.3039e-06,0,4.54204e-06,-7.0856e+08,-7.09036e+08,-7.08741e+08,311584,-0.0160668,-0.109128,-0,0.110304,21793,-25799.9,0,33772.3,-311584
step02_gravity_refstate-crust.xmf,2190,9.52263e-07,-5.64675e-06,0,4.57325e-06,-8.73166e+08,-8.73618e+08,-8.73231e+08,313725,0.0142081,-0.15883,0,0.159464,16754.6,-31783.6,0,35929.3,-313725
step02_gravity_refstate-crust.xmf,2191,1.86249e-07,-5.67944e-06,0,4.74788e-06,-8.98369e+08,-8.98772e+08,-8.98382e+08,325705,0.0223669,-0.164201,0,0.165718,16188.2,-32698,0,36485.9,-325705
step02_gravity_refstate-crust.xmf,2192,-7.35645e-07,-5.7025e-06,0,5.12546e-06,-9.24983e+08,-9.25324e+08,-9.24933e+08,351607,0.0315437,-0.169393,0,0.172305,15632.7,-33663.1,0,37115.9,-351607
step02_gravity_refstate-crust.xmf,2193,-1.69699e-06,-5.83966e-06,0,5.81558e-06,-9.50777e+08,-9.51061e+08,-9.5066e+08,398949,0.0408259,-0.177332,0,0.181971,14965.7,-34598.1,0,37696.1,-398949
step02_gravity_refstate-crust.xmf,2194,-3.77473e-06,-7.16766e-06,0,8.96791e-06,-9.99151e+08,-9.99383e+08,-9.98892e+08,615199,0.0607547,-0.2145,0,0.222938,12808.7,-36348.7,0,38539.5,-615199
step02_gravity_refstate-crust.xmf,2195,-4.48957e-06,-9.40642e-06,0,1.2643e-05,-1.03997e+09,-1.0403e+09,-1.03966e+09,867312,0.0720388,-0.233281,0,0.244151,11603.6,-37828.3,0,39568,-867312
step02_gravity_refstate-crust.xmf,2196,-4.30207e-06,-8.06069e-06,0,1.06868e-05,-1.02116e+09,-1.02141e+09,-1.02086e+09,733118,0.0673443,-0.222417,0,0.232389,12250,-37146.4,0,39114.1,-733118
step02_gravity_refstate-crust.xmf,2197,-3.02269e-06,-1.18637e-05,0,1.51705e-05,-1.07944e+09,-1.08004e+09,-1.07923e+09,1.0407e+06,0.0699154,-0.223823,0,0.234488,11381.5,-39267.4,0,40883.5,-1.0407e+06
step02_gravity_refstate-crust.xmf,2198,-2.61264e-06,-6.06849e-06,0,6.76597e-06,-9.76062e+08,-9.76299e+08,-9.75883e+08,464146,0.0496416,-0.183716,0,0.190305,14397.6,-35514.5,0,38322,-464146
step02_gravity_refstate-crust.xmf,2199,2.15392e-06,-1.7311e-06,0,1.63683e-06,-4.47209e+08,-4.47475e+08,-4.47357e+08,112287,-0.0111325,-0.0207559,-0,0.0235529,34668.7,-16287.1,0,38303.9,-112287
step02_gravity_refstate-crust.xmf,2200,2.27015e-06,-2.66632e-06,0,3.7749e-06,-5.43461e+08,-5.43799e+08,-5.43616e+08,258958,-0.0209725,-0.0629928,-0,0.0663923,27529.4,-19790.3,0,33904.6,-258958
step02_gravity_refstate-crust.xmf,2201,2.06584e-06,-2.40475e-06,0,3.14984e-06,-5.39434e+08,-5.3974e+08,-5.39575e+08,216079,-0.0172336,-0.0467604,-0,0.049835,29395.2,-19643.2,0,35354.4,-216079
step02_gravity_refstate-crust.xmf,2202,2.02504e-06,-2.00765e-06,0,2.40463e-06,-4.93186e+08,-4.93462e+08,-4.93324e+08,164958,-0.0145751,-0.0313349,-0,0.0345587,32055.2,-17960,0,36743.7,-164958
step02_gravity_refstate-crust.xmf,2203,2.32711e-06,-3.73732e-06,0,4.11428e-06,-6.75079e+08,-6.75495e+08,-6.75239e+08,282239,-0.0159958,-0.0872785,-0,0.0887321,23876.6,-24580.6,0,34268,-282239
step02_gravity_refstate-crust.xmf,2204,2.21745e-06,-3.94412e-06,0,4.01386e-06,-7.07307e+08,-7.07729e+08,-7.07459e+08,275351,-0.0128166,-0.0907146,-0,0.0916155,23223.5,-25753.1,0,34677.8,-275351
step02_gravity_refstate-crust.xmf,2205,-3.86505e-06,-1.00476e-05,0,1.34047e-05,-1.06044e+09,-1.06086e+09,-1.06017e+09,919559,0.0708589,-0.220417,0,0.231526,11821.4,-38575.1,0,40345.7,-919559
step02_gravity_refstate-crust.xmf,2206,-3.4608e-06,-6.49493e-06,0,8.01284e-06,-1.00039e+09,-1.0006e+09,-1.00015e+09,549681,0.0574102,-0.190468,0,0.198932,13829,-36396.1,0,38934.8,-549681
step02_gravity_refstate-crust.xmf,2207,1.92623e-06,-1.85407e-06,0,1.82624e-06,-4.91671e+08,-4.9193e+08,-4.91803e+08,125280,-0.0110227,-0.0213574,-0,0.0240341,33892.7,-17904.7,0,38331.4,-125280
step02_gravity_refstate-crust.xmf,2208,1.85783e-06,-1.71557e-06,0,1.12597e-06,-4.85244e+08,-4.85489e+08,-4.85371e+08,77241.3,-0.0069033,-0.0128713,-0,0.0146057,36193.8,-17670.6,0,40277.1,-77241.3
step02_gravity_refstate-crust.xmf,2209,2.0508e-06,-1.60653e-06,0,5.36946e-07,-4.49597e+08,-4.49848e+08,-4.49737e+08,36834.5,-0.00365718,-0.0105726,-0,0.0111872,38210.9,-16373.8,0,41571.3,-36834.5
step02_gravity_refstate-crust.xmf,2210,2.25616e-06,-1.55589e-06,0,3.21739e-09,-4.18451e+08,-4.18712e+08,-4.18605e+08,220.713,-2.58398e-19,-0.0110824,-0,0.0110824,40000,-15240.8,0,42805.2,-220.713
step02_gravity_refstate-crust.xmf,2211,2.22951e-06,-2.94135e-06,0,3.82844e-06,-5.86244e+08,-5.86598e+08,-5.86397e+08,262631,-0.0193299,-0.0668427,-0,0.0695816,26700.2,-21347.2,0,34184.8,-262631
step02_gravity_refstate-crust.xmf,2212,1.85084e-06,-2.18408e-06,0,2.53075e-06,-5.38625e+08,-5.38902e+08,-5.38752e+08,173610,-0.0136338,-0.0329569,-0,0.0356656,31267.2,-19613.3,0,36909.7,-173610
step02_gravity_refstate-crust.xmf,2213,1.27687e-06,-5.13151e-06,0,4.12312e-06,-8.46878e+08,-8.47317e+08,-8.46965e+08,282846,0.00818512,-0.133501,0,0.133752,18532.8,-30828.6,0,35970.4,-282846
step02_gravity_refstate-crust.xmf,2214,6.8856e-07,-5.19035e-06,0,4.17392e-06,-8.73654e+08,-8.74057e+08,-8.73701e+08,286331,0.0153084,-0.138591,0,0.139434,17911.8,-31801,0,36498.4,-286331
step02_gravity_refstate-crust.xmf,2215,1.71918e-06,-5.04455e-06,0,4.15261e-06,-8.21454e+08,-8.21918e+08,-8.21572e+08,284869,0.00215096,-0.128858,0,0.128876,19124,-29905,0,35497,-284869
step02_gravity_refstate-crust.xmf,2216,2.48304e-06,-4.52951e-06,0,4.3958e-06,-7.39047e+08,-7.39528e+08,-7.39218e+08,301552,-0.0121968,-0.113117,-0,0.113773,21155.1,-26908.8,0,34229,-301552
step02_gravity_refstate-crust.xmf,2217,2.26645e-06,-4.7188e-06,0,4.25578e-06,-7.69308e+08,-7.69787e+08,-7.69463e+08,291947,-0.00754822,-0.117258,-0,0.117501,20511.2,-28009.3,0,34716.4,-291947
step02_gravity_refstate-crust.xmf,2218,2.01123e-06,-4.89007e-06,0,4.17913e-06,-7.96616e+08,-7.97089e+08,-7.96754e+08,286689,-0.00280075,-0.122739,-0,0.122771,19817.2,-29002.2,0,35126.1,-286689
step02_gravity_refstate-crust.xmf,2219,2.15669e-06,-3.19988e-06,0,3.79457e-06,-6.28755e+08,-6.29122e+08,-6.28903e+08,260308,-0.0169117,-0.0699996,-0,0.0720135,25934.6,-22894.2,0,34594,-260308
step02_gravity_refstate-crust.xmf,2220,2.08418e-06,-4.12504e-06,0,3.91835e-06,-7.38887e+08,-7.39313e+08,-7.3903e+08,268799,-0.00905492,-0.0944541,-0,0.0948872,22553,-26902,0,35104.9,-268799
step02_gravity_refstate-crust.xmf,2221,5.68369e-09,-5.22945e-06,0,4.35123e-06,-8.99725e+08,-9.00085e+08,-8.99726e+08,298495,0.0229123,-0.143887,0,0.145699,17303.2,-32747.3,0,37037.7,-298495
step02_gravity_refstate-crust.xmf,2222,-7.46647e-07,-5.28176e-06,0,4.69854e-06,-9.25195e+08,-9.25506e+08,-9.25143e+08,322320,0.0308359,-0.149751,0,0.152893,16686.5,-33671.4,0,37579.3,-322320
step02_gravity_refstate-crust.xmf,2223,-1.56295e-06,-5.37687e-06,0,5.26934e-06,-9.51216e+08,-9.51477e+08,-9.51108e+08,361477,0.0391552,-0.155693,0,0.160541,16077.9,-34615.3,0,38167,-361477
step02_gravity_refstate-crust.xmf,2224,-2.34569e-06,-5.59355e-06,0,6.10555e-06,-9.76551e+08,-9.76774e+08,-9.7639e+08,418841,0.0471768,-0.162443,0,0.169155,15448.8,-35534.2,0,38747.1,-418841
step02_gravity_refstate-crust.xmf,2225,-3.81961e-06,-7.28402e-06,0,9.56361e-06,-1.02447e+09,-1.0247e+09,-1.0242e+09,656063,0.0636612,-0.196932,0,0.206967,13271.2,-37270,0,39562.3,-656063
step02_gravity_refstate-crust.xmf,2226,-3.86082e-06,-8.64969e-06,0,1.16239e-05,-1.04989e+09,-1.05021e+09,-1.04962e+09,797402,0.0681031,-0.204964,0,0.215982,12607.2,-38193.1,0,40220.1,-797402
step02_gravity_refstate-crust.xmf,2227,-2.99386e-06,-1.03022e-05,0,1.33387e-05,-1.07749e+09,-1.07799e+09,-1.07729e+09,915037,0.0674348,-0.20237,0,0.21331,12310.1,-39199.1,0,41086.6,-915037
step02_gravity_refstate-crust.xmf,2228,-2.9887e-06,-5.9752e-06,0,7.18039e-06,-1.00109e+09,-1.00129e+09,-1.00088e+09,492575,0.0542871,-0.168709,0,0.177228,14862.9,-36424.3,0,39340,-492575
step02_gravity_refstate-crust.xmf,2229,1.94091e-06,-2.64816e-06,0,3.20994e-06,-5.85137e+08,-5.85451e+08,-5.8527e+08,220202,-0.015616,-0.0498544,-0,0.0522429,28526.8,-21306.2,0,35605.2,-220202
step02_gravity_refstate-crust.xmf,2230,1.7059e-06,-2.36964e-06,0,2.63948e-06,-5.83965e+08,-5.84244e+08,-5.84082e+08,181069,-0.0123441,-0.0353652,-0,0.0374576,30377.3,-21263,0,37079.6,-181069
step02_gravity_refstate-crust.xmf,2231,1.68339e-06,-1.98651e-06,0,1.9425e-06,-5.38229e+08,-5.38481e+08,-5.38344e+08,133256,-0.010283,-0.0216778,-0,0.0239931,33175.6,-19598.5,0,38532.1,-133256
step02_gravity_refstate-crust.xmf,2232,2.04841e-06,-3.40663e-06,0,3.69529e-06,-6.69682e+08,-6.70057e+08,-6.69823e+08,253497,-0.0136597,-0.0721371,-0,0.073419,25271.2,-24383.5,0,35116.8,-253497
step02_gravity_refstate-crust.xmf,2233,1.82747e-06,-3.57537e-06,0,3.52604e-06,-7.07911e+08,-7.08282e+08,-7.08036e+08,241887,-0.00973998,-0.073458,-0,0.0741009,24702.7,-25774.1,0,35700.5,-241887
step02_gravity_refstate-crust.xmf,2234,1.63229e-06,-3.73642e-06,0,3.43104e-06,-7.42077e+08,-7.42445e+08,-7.42189e+08,235369,-0.00586932,-0.0768209,-0,0.0770448,23991.2,-27016.9,0,36131.6,-235369
step02_gravity_refstate-crust.xmf,2235,-3.49965e-06,-6.57986e-06,0,8.4917e-06,-1.02523e+09,-1.02544e+09,-1.02499e+09,582530,0.060057,-0.174574,0,0.184616,14299,-37300,0,39946.9,-582530
step02_gravity_refstate-crust.xmf,2236,1.56245e-06,-1.82579e-06,0,1.37359e-06,-5.37974e+08,-5.38207e+08,-5.38081e+08,94228.5,-0.0071413,-0.0130518,-0,0.0148778,35123.6,-19589,0,40216.8,-94228.5
step02_gravity_refstate-crust.xmf,2237,1.61012e-06,-1.66811e-06,0,4.96889e-07,-5.13499e+08,-5.13723e+08,-5.13609e+08,34086.6,-0.00279334,-0.00671053,-0,0.0072687,38252.8,-18698.4,0,42578.3,-34086.6
step02_gravity_refstate-crust.xmf,2238,1.80576e-06,-1.62265e-06,0,3.99189e-09,-4.82943e+08,-4.83178e+08,-4.83067e+08,273.844,-1.97991e-19,-0.00735463,-0,0.00735463,40000,-17586.8,0,43695.5,-273.844
step02_gravity_refstate-crust.xmf,2239,1.82129e-06,-2.87321e-06,0,3.21952e-06,-6.28928e+08,-6.2925e+08,-6.29053e+08,220859,-0.0134292,-0.0529719,-0,0.0546477,27677.4,-22899.7,0,35922.6,-220859
step02_gravity_refstate-crust.xmf,2240,1.47721e-06,-2.1318e-06,0,2.07571e-06,-5.83222e+08,-5.8347e+08,-5.83324e+08,142394,-0.00940761,-0.0233003,-0,0.0251278,32261.3,-21235.5,0,38623,-142394
step02_gravity_refstate-crust.xmf,2241,1.03789e-06,-4.71536e-06,0,3.77636e-06,-8.44158e+08,-8.44552e+08,-8.44229e+08,259058,0.00885527,-0.115548,0,0.115886,19741.9,-30729.3,0,36524.4,-259058
step02_gravity_refstate-crust.xmf,2242,4.60515e-07,-4.75516e-06,0,3.81351e-06,-8.73723e+08,-8.7408e+08,-8.73754e+08,261607,0.0160185,-0.119641,0,0.120709,19118,-31803.2,0,37107.2,-261607
step02_gravity_refstate-crust.xmf,2243,-1.59041e-07,-4.79567e-06,0,3.98429e-06,-9.01165e+08,-9.01483e+08,-9.01154e+08,273322,0.023235,-0.124555,0,0.126704,18479.4,-32799.8,0,37647.2,-273322
step02_gravity_refstate-crust.xmf,2244,1.3824e-06,-4.63286e-06,0,3.79729e-06,-8.21765e+08,-8.22178e+08,-8.2186e+08,260494,0.00403792,-0.11143,0,0.111503,20294.9,-29915.6,0,36150.1,-260494
step02_gravity_refstate-crust.xmf,2245,1.83552e-06,-4.29996e-06,0,3.79798e-06,-7.7037e+08,-7.70791e+08,-7.70496e+08,260542,-0.00457809,-0.0986141,-0,0.0987203,21853.9,-28046.8,0,35555.9,-260542
step02_gravity_refstate-crust.xmf,2246,1.48661e-06,-4.42326e-06,0,3.67974e-06,-8.03575e+08,-8.0398e+08,-8.03677e+08,252430,0.00114375,-0.102472,0,0.102478,21163.5,-29254.1,0,36106.7,-252430
step02_gravity_refstate-crust.xmf,2247,1.67107e-06,-3.07266e-06,0,3.17578e-06,-6.70747e+08,-6.71072e+08,-6.70861e+08,217858,-0.0105841,-0.0559179,-0,0.0569107,26868.9,-24421.2,0,36308.8,-217858
step02_gravity_refstate-crust.xmf,2248,1.43039e-06,-3.87129e-06,0,3.3704e-06,-7.73017e+08,-7.73381e+08,-7.73115e+08,231210,-0.00177041,-0.0806754,-0,0.0806949,23279.9,-28142.2,0,36523.1,-231210
step02_gravity_refstate-crust.xmf,2249,-8.07747e-07,-4.85585e-06,0,4.3046e-06,-9.27061e+08,-9.27339e+08,-9.27006e+08,295296,0.0304739,-0.130069,0,0.133591,17837.7,-33739.8,0,38164.9,-295296
step02_gravity_refstate-crust.xmf,2250,-1.47691e-06,-4.96435e-06,0,4.80512e-06,-9.52328e+08,-9.52567e+08,-9.52227e+08,329631,0.0377722,-0.136118,0,0.141262,17188.3,-34656.8,0,38685,-329631
step02_gravity_refstate-crust.xmf,2251,-2.12991e-06,-5.15452e-06,0,5.51396e-06,-9.77667e+08,-9.77874e+08,-9.77521e+08,378258,0.0449566,-0.142021,0,0.148966,16563.1,-35576.3,0,39243,-378258
step02_gravity_refstate-crust.xmf,2252,-2.67385e-06,-5.49254e-06,0,6.43782e-06,-1.00229e+09,-1.00249e+09,-1.00211e+09,441635,0.0514448,-0.148008,0,0.156694,15950.1,-36470.2,0,39805.5,-441635
step02_gravity_refstate-crust.xmf,2253,-3.41957e-06,-7.61224e-06,0,1.00626e-05,-1.05012e+09,-1.0504e+09,-1.04988e+09,690292,0.0639385,-0.179491,0,0.190539,13752.4,-38204.9,0,40604.7,-690292
step02_gravity_refstate-crust.xmf,2254,-2.89244e-06,-9.04109e-06,0,1.17148e-05,-1.07526e+09,-1.07568e+09,-1.07506e+09,803635,0.0648894,-0.182354,0,0.193556,13255.3,-39120.3,0,41305,-803635
step02_gravity_refstate-crust.xmf,2255,-3.02146e-06,-6.03279e-06,0,7.55659e-06,-1.0262e+09,-1.0264e+09,-1.02599e+09,518382,0.0567754,-0.153697,0,0.163848,15361.7,-37338.2,0,40374.8,-518382
step02_gravity_refstate-crust.xmf,2256,1.44355e-06,-1.7305e-06,0,8.7072e-07,-5.42815e+08,-5.43033e+08,-5.42914e+08,59731.4,-0.00439989,-0.00748077,-0,0.00867877,36862.2,-19764.9,0,41826.7,-59731.4
step02_gravity_refstate-crust.xmf,2257,1.52182e-06,-2.55922e-06,0,2.6773e-06,-6.28789e+08,-6.29069e+08,-6.28894e+08,183663,-0.0104273,-0.0379742,-0,0.0393798,29481.3,-22893.9,0,37326.6,-183663
step02_gravity_refstate-crust.xmf,2258,1.28484e-06,-2.27291e-06,0,2.17182e-06,-6.27962e+08,-6.28206e+08,-6.2805e+08,148987,-0.00791706,-0.0253119,-0,0.0265212,31324.3,-22863.3,0,38780.6,-148987
step02_gravity_refstate-crust.xmf,2259,1.29474e-06,-1.92575e-06,0,1.51646e-06,-5.83752e+08,-5.83972e+08,-5.8384e+08,104029,-0.00662895,-0.0133997,-0,0.0149497,34247.2,-21254.3,0,40306.5,-104029
step02_gravity_refstate-crust.xmf,2260,1.48321e-06,-3.21678e-06,0,3.08745e-06,-7.10431e+08,-7.10753e+08,-7.10533e+08,211799,-0.00697762,-0.0579664,-0,0.0583849,26178.2,-25865,0,36800.7,-211799
step02_gravity_refstate-crust.xmf,2261,9.97585e-07,-3.47894e-06,0,2.96273e-06,-7.79121e+08,-7.79428e+08,-7.79189e+08,203244,0.00091683,-0.0647736,0,0.0647801,24657.8,-28363.3,0,37583.1,-203244
step02_gravity_refstate-crust.xmf,2262,1.21434e-06,-3.34245e-06,0,2.97635e-06,-7.47362e+08,-7.47675e+08,-7.47445e+08,204178,-0.00293162,-0.0602302,-0,0.0603015,25496.8,-27208.2,0,37287.7,-204178
step02_gravity_refstate-crust.xmf,2263,-3.16089e-06,-6.81468e-06,0,8.83815e-06,-1.05035e+09,-1.0506e+09,-1.05013e+09,606297,0.0604901,-0.158231,0,0.169399,14817.7,-38215.5,0,40987.7,-606297
step02_gravity_refstate-crust.xmf,2264,1.15388e-06,-1.7671e-06,0,9.45344e-07,-5.86138e+08,-5.86338e+08,-5.86217e+08,64850.6,-0.00395637,-0.00595646,-0,0.00715069,36370.1,-21340.9,0,42168.9,-64850.6
step02_gravity_refstate-crust.xmf,2265,1.17294e-06,-1.68783e-06,0,4.5901e-07,-5.73986e+08,-5.74182e+08,-5.74067e+08,31488.1,-0.0020273,-0.00301866,-0,0.00363624,38250.2,-20898.7,0,43587.1,-31488.1
step02_gravity_refstate-crust.xmf,2266,1.35528e-06,-1.66251e-06,0,4.22846e-09,-5.46405e+08,-5.46612e+08,-5.46498e+08,290.072,-1.43582e-19,-0.00356212,-0,0.00356212,40000,-19895.3,0,44674.6,-290.072
step02_gravity_refstate-crust.xmf,2267,1.33742e-06,-2.72896e-06,0,2.68004e-06,-6.718e+08,-6.72079e+08,-6.71892e+08,183851,-0.00788096,-0.0407838,-0,0.0415382,28594.1,-24458.7,0,37627.8,-183851
step02_gravity_refstate-crust.xmf,2268,1.04987e-06,-2.0297e-06,0,1.64969e-06,-6.28394e+08,-6.28605e+08,-6.28466e+08,113169,-0.00564135,-0.0146225,-0,0.015673,33263.5,-22878.4,0,40371.8,-113169
step02_gravity_refstate-crust.xmf,2269,8.35523e-07,-4.3104e-06,0,3.45255e-06,-8.39654e+08,-8.40007e+08,-8.39711e+08,236845,0.00899076,-0.0984482,0,0.0988579,21035.1,-30565.1,0,37103.9,-236845
step02_gravity_refstate-crust.xmf,2270,2.62829e-07,-4.338e-06,0,3.47828e-06,-8.72971e+08,-8.73287e+08,-8.72989e+08,238610,0.0162876,-0.101865,0,0.103159,20382.7,-31775.7,0,37751.2,-238610
step02_gravity_refstate-crust.xmf,2271,-3.20098e-07,-4.37707e-06,0,3.64142e-06,-9.0294e+08,-9.03218e+08,-9.02918e+08,249802,0.0233902,-0.106279,0,0.108822,19711,-32864.3,0,38322.2,-249802
step02_gravity_refstate-crust.xmf,2272,-8.82834e-07,-4.44874e-06,0,3.94006e-06,-9.29532e+08,-9.29776e+08,-9.29471e+08,270288,0.0300835,-0.111561,0,0.115546,19033.7,-33830.1,0,38816.9,-270288
step02_gravity_refstate-crust.xmf,2273,1.11139e-06,-3.98307e-06,0,3.29217e-06,-8.04095e+08,-8.04445e+08,-8.04172e+08,225843,0.00309173,-0.084475,0,0.0845316,22580,-29272.2,0,36969.2,-225843
step02_gravity_refstate-crust.xmf,2274,1.11391e-06,-2.86568e-06,0,2.63756e-06,-7.13002e+08,-7.13275e+08,-7.13079e+08,180936,-0.00460939,-0.0432665,-0,0.0435113,27780.1,-25957.6,0,38020.2,-180936
step02_gravity_refstate-crust.xmf,2275,7.42347e-07,-3.55886e-06,0,2.93024e-06,-8.07354e+08,-8.07649e+08,-8.07405e+08,201014,0.00501702,-0.0678771,0,0.0680623,24015.2,-29390,0,37953.9,-201014
step02_gravity_refstate-crust.xmf,2276,-1.43249e-06,-4.56284e-06,0,4.37678e-06,-9.54411e+08,-9.54626e+08,-9.54313e+08,300247,0.0365525,-0.117189,0,0.122757,18370.2,-34733.4,0,39292.2,-300247
step02_gravity_refstate-crust.xmf,2277,-1.9701e-06,-4.7513e-06,0,4.99007e-06,-9.7938e+08,-9.79571e+08,-9.79245e+08,342319,0.0429803,-0.123037,0,0.130328,17707.3,-35640,0,39796.5,-342319
step02_gravity_refstate-crust.xmf,2278,-2.42935e-06,-5.06216e-06,0,5.79404e-06,-1.00451e+09,-1.00469e+09,-1.00435e+09,397471,0.0489807,-0.12866,0,0.137668,17067.4,-36552.7,0,40341,-397471
step02_gravity_refstate-crust.xmf,2279,-2.71436e-06,-5.53203e-06,0,6.73254e-06,-1.02787e+09,-1.02806e+09,-1.02768e+09,461852,0.0538251,-0.134108,0,0.144506,16459.9,-37400.9,0,40862.7,-461852
step02_gravity_refstate-crust.xmf,2280,-2.69819e-06,-8.01568e-06,0,1.02549e-05,-1.07475e+09,-1.07512e+09,-1.07457e+09,703488,0.0620363,-0.161789,0,0.173275,14285.8,-39104.2,0,41632,-703488
step02_gravity_refstate-crust.xmf,2281,-2.77676e-06,-6.20773e-06,0,7.80627e-06,-1.05094e+09,-1.05118e+09,-1.05075e+09,535510,0.057396,-0.138871,0,0.150264,15886.5,-38239.9,0,41408.5,-535510
step02_gravity_refstate-crust.xmf,2282,1.0471e-06,-2.41048e-06,0,2.20701e-06,-6.72268e+08,-6.72505e+08,-6.7234e+08,151401,-0.00569946,-0.0275612,-0,0.0281443,30389.7,-24475.1,0,39020.1,-151401
step02_gravity_refstate-crust.xmf,2283,8.16957e-07,-2.12619e-06,0,1.7524e-06,-6.72077e+08,-6.72279e+08,-6.72133e+08,120215,-0.00397976,-0.0163745,-0,0.0168512,32262.5,-24467.7,0,40491.1,-120215
step02_gravity_refstate-crust.xmf,2284,8.58903e-07,-1.82889e-06,0,1.12252e-06,-6.31039e+08,-6.31224e+08,-6.31098e+08,77004.8,-0.00355119,-0.00611816,-0,0.0070741,35327,-22974.3,0,42140.4,-77004.8
step02_gravity_refstate-crust.xmf,2285,5.53431e-07,-3.90556e-06,0,3.13039e-06,-8.40054e+08,-8.4036e+08,-8.40092e+08,214745,0.00997968,-0.0821364,0,0.0827405,22342.5,-30579.2,0,37871.8,-214745
step02_gravity_refstate-crust.xmf,2286,8.57351e-07,-2.97243e-06,0,2.5868e-06,-7.53705e+08,-7.53967e+08,-7.53764e+08,177454,-0.000562804,-0.0458401,-0,0.0458436,26970.2,-27438.2,0,38474,-177454
step02_gravity_refstate-crust.xmf,2287,5.39353e-07,-3.28796e-06,0,2.70206e-06,-8.07681e+08,-8.07944e+08,-8.07718e+08,185361,0.00573023,-0.0573624,0,0.0576479,25047.2,-29401.5,0,38624,-185361
step02_gravity_refstate-crust.xmf,2288,4.73602e-07,-3.06052e-06,0,2.52277e-06,-7.97622e+08,-7.97864e+08,-7.97654e+08,173062,0.00475805,-0.0487461,0,0.0489778,26094,-29035.4,0,39037.8,-173062
step02_gravity_refstate-crust.xmf,2289,-2.58255e-06,-7.14554e-06,0,8.99318e-06,-1.07491e+09,-1.07522e+09,-1.07473e+09,616932,0.0592745,-0.142437,0,0.154279,15343.1,-39111.6,0,42013.4,-616932
step02_gravity_refstate-crust.xmf,2290,7.14535e-07,-1.68828e-06,0,5.30479e-07,-6.34424e+08,-6.34589e+08,-6.34473e+08,36390.9,-0.00157011,-5.21184e-05,-0,0.00157098,37732.7,-23097.1,0,44240.7,-36390.9
step02_gravity_refstate-crust.xmf,2291,8.78786e-07,-1.65588e-06,0,6.86364e-09,-6.09023e+08,-6.09197e+08,-6.09084e+08,470.846,-1.10638e-19,0.000222693,-0,0.000222693,40000,-22173.1,0,45734.5,-470.846
step02_gravity_refstate-crust.xmf,2292,8.07033e-07,-2.52862e-06,0,2.21887e-06,-7.1467e+08,-7.14899e+08,-7.14725e+08,152215,-0.00281856,-0.0301092,-0,0.0302409,29465.3,-26017.6,0,39308.1,-152215
step02_gravity_refstate-crust.xmf,2293,5.97526e-07,-1.89802e-06,0,1.29057e-06,-6.73609e+08,-6.7378e+08,-6.7365e+08,88533.1,-0.00254532,-0.00738694,-0,0.00781316,34181.4,-24522.9,0,42068.3,-88533.1
step02_gravity_refstate-crust.xmf,2294,-1.41927e-06,-4.18646e-06,0,3.98727e-06,-9.56931e+08,-9.57121e+08,-9.56833e+08,273527,0.035377,-0.0998525,0,0.105934,19568.2,-34825.8,0,39946.9,-273527
step02_gravity_refstate-crust.xmf,2295,5.41049e-08,-3.92981e-06,0,3.1603e-06,-8.73066e+08,-8.73339e+08,-8.7307e+08,216797,0.0165167,-0.0850741,0,0.0866625,21701.2,-31779,0,38481.7,-216797
step02_gravity_refstate-crust.xmf,2296,-4.81334e-07,-3.97348e-06,0,3.3165e-06,-9.05039e+08,-9.05278e+08,-9.05006e+08,227512,0.0233497,-0.0891968,0,0.0922023,20988.8,-32940.7,0,39059.2,-227512
step02_gravity_refstate-crust.xmf,2297,-9.92978e-07,-4.05228e-06,0,3.59676e-06,-9.33551e+08,-9.33761e+08,-9.33483e+08,246738,0.029804,-0.0940329,0,0.0986431,20277.6,-33976.6,0,39567.5,-246738
step02_gravity_refstate-crust.xmf,2298,2.55828e-07,-3.50526e-06,0,2.82076e-06,-8.43032e+08,-8.4329e+08,-8.43049e+08,193504,0.0110842,-0.0666587,0,0.067574,23696.2,-30687,0,38771.2,-193504
step02_gravity_refstate-crust.xmf,2299,5.19459e-07,-2.61566e-06,0,2.19849e-06,-7.56661e+08,-7.56876e+08,-7.56696e+08,150816,0.000894956,-0.032423,0,0.0324353,28604,-27545,0,39710.4,-150816
step02_gravity_refstate-crust.xmf,2300,9.71011e-08,-3.13086e-06,0,2.52272e-06,-8.36292e+08,-8.36513e+08,-8.36298e+08,173059,0.0102395,-0.0522617,0,0.0532554,25232.6,-30441.6,0,39539.5,-173059
step02_gravity_refstate-crust.xmf,2301,-1.8559e-06,-4.36858e-06,0,4.50866e-06,-9.8141e+08,-9.81582e+08,-9.81283e+08,309294,0.0411009,-0.105281,0,0.11302,18892.9,-35714.9,0,40404.2,-309294
step02_gravity_refstate-crust.xmf,2302,-2.24351e-06,-4.66003e-06,0,5.21202e-06,-1.0072e+09,-1.00736e+09,-1.00704e+09,357544,0.0467044,-0.110594,0,0.120051,18221.2,-36651.7,0,40931.1,-357544
step02_gravity_refstate-crust.xmf,2303,-2.48321e-06,-5.11012e-06,0,6.05294e-06,-1.03166e+09,-1.03184e+09,-1.03149e+09,415232,0.0513815,-0.115992,0,0.126863,17560.6,-37540.5,0,41444.7,-415232
step02_gravity_refstate-crust.xmf,2304,-2.5433e-06,-5.65843e-06,0,6.9083e-06,-1.05184e+09,-1.05205e+09,-1.05166e+09,473909,0.0545664,-0.12106,0,0.132789,16969.4,-38274.1,0,41867.3,-473909
step02_gravity_refstate-crust.xmf,2305,-2.35312e-06,-6.44121e-06,0,7.876e-06,-1.07499e+09,-1.07527e+09,-1.07482e+09,540294,0.0566191,-0.124346,0,0.13663,16434.1,-39116.5,0,42428.5,-540294
step02_gravity_refstate-crust.xmf,2306,5.36606e-07,-2.21246e-06,0,1.79663e-06,-7.15469e+08,-7.15658e+08,-7.15506e+08,123249,-0.0015136,-0.0182438,-0,0.0183065,31305.8,-26046.1,0,40724.1,-123249
step02_gravity_refstate-crust.xmf,2307,3.29428e-07,-1.94662e-06,0,1.39363e-06,-7.15824e+08,-7.15981e+08,-7.15847e+08,95603.3,-0.000685495,-0.00864072,-0,0.00866787,33182.3,-26058.6,0,42191.4,-95603.3
step02_gravity_refstate-crust.xmf,2308,4.01883e-07,-1.71868e-06,0,8.30156e-07,-6.79915e+08,-6.80061e+08,-6.79943e+08,56948.7,-0.0012906,-0.000505378,-0,0.00138602,36167.2,-24752,0,43826.1,-56948.7
step02_gravity_refstate-crust.xmf,2309,-1.73956e-07,-3.53112e-06,0,2.85707e-06,-8.75042e+08,-8.75272e+08,-8.7503e+08,195995,0.0168196,-0.0692883,0,0.0713005,23063.7,-31850.6,0,39324.2,-195995
step02_gravity_refstate-crust.xmf,2310,2.01846e-07,-2.68093e-06,0,2.18868e-06,-7.97571e+08,-7.97769e+08,-7.97585e+08,150143,0.00530028,-0.0350331,0,0.0354318,27738.5,-29033,0,40154,-150143
step02_gravity_refstate-crust.xmf,2311,-1.77487e-06,-4.00316e-06,0,4.05712e-06,-9.82884e+08,-9.83037e+08,-9.82762e+08,278318,0.0391508,-0.0890118,0,0.0972414,20106.7,-35769.5,0,41033.3,-278318
step02_gravity_refstate-crust.xmf,2312,3.75113e-07,-1.60143e-06,0,3.53072e-09,-6.7098e+08,-6.71116e+08,-6.71006e+08,242.207,-2.31237e-20,0.00389068,-0,0.00389068,40000,-24426.7,0,46868.6,-242.207
step02_gravity_refstate-crust.xmf,2313,2.40276e-07,-2.27866e-06,0,1.82046e-06,-7.58315e+08,-7.58487e+08,-7.58331e+08,124883,0.00173153,-0.0202965,0,0.0203702,30373.1,-27604.6,0,41043.1,-124883
step02_gravity_refstate-crust.xmf,2314,1.35402e-07,-1.7448e-06,0,9.98987e-07,-7.18842e+08,-7.18971e+08,-7.18852e+08,68530.5,-0.000107607,-0.0013832,-0,0.00138737,35020.4,-26168,0,43717.2,-68530.5
step02_gravity_refstate-crust.xmf,2315,1.61921e-07,-1.58986e-06,0,3.87588e-07,-6.98737e+08,-6.98857e+08,-6.98748e+08,26588.6,-0.000276854,0.0043157,-0,0.00432457,38113.3,-25436.4,0,45821.8,-26588.6
step02_gravity_refstate-crust.xmf,2316,-1.43814e-06,-3.85171e-06,0,3.65859e-06,-9.5982e+08,-9.59986e+08,-9.59721e+08,250980,0.034315,-0.0850756,0,0.0917353,20692,-34931.4,0,40600,-250980
step02_gravity_refstate-crust.xmf,2317,-6.58807e-07,-3.56724e-06,0,2.99974e-06,-9.08455e+08,-9.08654e+08,-9.0841e+08,205782,0.0232382,-0.0726169,0,0.0762446,22362.8,-33065,0,39917.3,-205782
step02_gravity_refstate-crust.xmf,2318,-1.19439e-06,-3.63845e-06,0,3.29756e-06,-9.4412e+08,-9.44288e+08,-9.44038e+08,226212,0.0303485,-0.0763732,0,0.0821821,21612.5,-34361.2,0,40593,-226212
step02_gravity_refstate-crust.xmf,2319,-3.70784e-07,-3.14549e-06,0,2.55678e-06,-8.75545e+08,-8.75736e+08,-8.7552e+08,175395,0.0165078,-0.0544706,0,0.0569171,24521.5,-31868.7,0,40210.9,-175395
step02_gravity_refstate-crust.xmf,2320,-7.26276e-08,-2.3316e-06,0,1.84429e-06,-7.99197e+08,-7.99352e+08,-7.99192e+08,126518,0.00558727,-0.0226688,0,0.0233472,29456.5,-29091.7,0,41400.6,-126518
step02_gravity_refstate-crust.xmf,2321,-1.63101e-07,-2.7355e-06,0,2.19933e-06,-8.37046e+08,-8.37222e+08,-8.37034e+08,150874,0.0102919,-0.0378951,0,0.0392678,26882.1,-30468.6,0,40632.3,-150874
step02_gravity_refstate-crust.xmf,2322,-2.10487e-06,-4.27274e-06,0,4.66261e-06,-1.00938e+09,-1.00953e+09,-1.00924e+09,319855,0.0444199,-0.0938743,0,0.103853,19414.2,-36732.4,0,41547.3,-319855
step02_gravity_refstate-crust.xmf,2323,-2.31174e-06,-4.69593e-06,0,5.42343e-06,-1.03635e+09,-1.03651e+09,-1.03619e+09,372048,0.0490617,-0.0985971,0,0.110129,18726,-37712.6,0,42105.8,-372048
step02_gravity_refstate-crust.xmf,2324,-2.39862e-06,-5.15245e-06,0,6.11496e-06,-1.05243e+09,-1.05262e+09,-1.05227e+09,419486,0.0519566,-0.105065,0,0.11721,18046.2,-38297.2,0,42336,-419486
step02_gravity_refstate-crust.xmf,2325,-2.2439e-06,-5.76622e-06,0,6.86598e-06,-1.07438e+09,-1.07462e+09,-1.07422e+09,471007,0.0539882,-0.107365,0,0.120174,17575.9,-39095.8,0,42864.9,-471007
step02_gravity_refstate-crust.xmf,2326,-4.04871e-09,-1.98162e-06,0,1.44711e-06,-7.6062e+08,-7.60756e+08,-7.6062e+08,99271.7,0.00213641,-0.00996753,0,0.0101939,32214.3,-27688,0,42478.1,-99271.7
step02_gravity_refstate-crust.xmf,2327,-1.88962e-07,-1.74218e-06,0,1.09037e-06,-7.62361e+08,-7.62468e+08,-7.62348e+08,74799.2,0.00206265,-0.00189497,0,0.00280097,34072.5,-27751.1,0,43943.8,-74799.2
step02_gravity_refstate-crust.xmf,2328,-1.0184e-08,-1.60826e-06,0,6.66985e-07,-7.24885e+08,-7.24995e+08,-7.24884e+08,45755.2,0.00021708,0.00329489,0,0.00330204,36623.2,-26387.6,0,45139.4,-45755.2
step02_gravity_refstate-crust.xmf,2329,-8.06395e-07,-3.18838e-06,0,2.69203e-06,-9.10249e+08,-9.10412e+08,-9.10194e+08,184673,0.0225103,-0.0576573,0,0.0618957,23777.6,-33130.3,0,40779.8,-184673
step02_gravity_refstate-crust.xmf,2330,-5.53124e-07,-2.77507e-06,0,2.25898e-06,-8.75214e+08,-8.75367e+08,-8.75176e+08,154966,0.0157462,-0.0407823,0,0.0437166,26061.6,-31856.5,0,41158.8,-154966
step02_gravity_refstate-crust.xmf,2331,-3.94861e-07,-2.37561e-06,0,1.88997e-06,-8.37882e+08,-8.38018e+08,-8.37855e+08,129652,0.00992559,-0.0253693,0,0.0272419,28556,-30498.7,0,41780.5,-129652
step02_gravity_refstate-crust.xmf,2332,-1.71171e-06,-3.63727e-06,0,3.61355e-06,-9.82061e+08,-9.82193e+08,-9.81944e+08,247890,0.0368164,-0.0740227,0,0.0826729,21377.8,-35740.4,0,41645.9,-247890
step02_gravity_refstate-crust.xmf,2333,-2.01725e-06,-3.90165e-06,0,4.16474e-06,-1.01135e+09,-1.01148e+09,-1.01121e+09,285701,0.0421837,-0.078673,0,0.0892688,20623,-36805,0,42189.1,-285701
step02_gravity_refstate-crust.xmf,2334,-1.62219e-07,-1.49041e-06,0,6.12186e-09,-7.32458e+08,-7.32549e+08,-7.32447e+08,419.959,5.42927e-20,0.00734991,0,0.00734991,40000,-26662.9,0,48071.9,-419.959
step02_gravity_refstate-crust.xmf,2335,-3.38836e-07,-2.00663e-06,0,1.49613e-06,-8.03914e+08,-8.04029e+08,-8.03891e+08,102634,0.00565113,-0.0116769,0,0.0129724,31260.9,-29262.8,0,42820,-102634
step02_gravity_refstate-crust.xmf,2336,-3.28534e-07,-1.57127e-06,0,7.49125e-07,-7.63646e+08,-7.63731e+08,-7.63623e+08,51390,0.00164814,0.00380541,0,0.00414699,35884.9,-27797.5,0,45392,-51390
step02_gravity_refstate-crust.xmf,2337,-4.06329e-07,-1.45765e-06,0,3.80568e-07,-7.63285e+08,-7.63357e+08,-7.63257e+08,26107,0.000880975,0.00766812,0,0.00771856,37930.3,-27784.2,0,47017.8,-26107
step02_gravity_refstate-crust.xmf,2338,-1.2361e-06,-3.25825e-06,0,2.92943e-06,-9.43793e+08,-9.43932e+08,-9.43709e+08,200959,0.0285533,-0.0609953,0,0.0673477,23047.5,-34349.7,0,41365.3,-200959
step02_gravity_refstate-crust.xmf,2339,-9.51132e-07,-2.82425e-06,0,2.3905e-06,-9.1173e+08,-9.11858e+08,-9.11665e+08,163988,0.0214368,-0.0439268,0,0.0488784,25251.8,-33184.2,0,41699.5,-163988
step02_gravity_refstate-crust.xmf,2340,-6.30713e-07,-2.04921e-06,0,1.57315e-06,-8.41121e+08,-8.41218e+08,-8.41078e+08,107918,0.00937236,-0.0143094,0,0.0171055,30280.5,-30616.1,0,43061,-107918
step02_gravity_refstate-crust.xmf,2341,-7.38121e-07,-2.42129e-06,0,1.9635e-06,-8.75625e+08,-8.7574e+08,-8.75574e+08,134696,0.0147575,-0.0282643,0,0.031885,27673.3,-31871.3,0,42208.9,-134696
step02_gravity_refstate-crust.xmf,2342,-2.1966e-06,-5.06025e-06,0,5.87329e-06,-1.06873e+09,-1.06893e+09,-1.06858e+09,402908,0.0510625,-0.0916958,0,0.104955,18814.6,-38891.5,0,43203.5,-402908
step02_gravity_refstate-crust.xmf,2343,-2.195e-06,-4.3094e-06,0,4.85068e-06,-1.03879e+09,-1.03894e+09,-1.03864e+09,332757,0.046787,-0.0839861,0,0.0961389,19835.2,-37802.6,0,42690.5,-332757
step02_gravity_refstate-crust.xmf,2344,-5.53752e-07,-1.7306e-06,0,1.16013e-06,-8.07672e+08,-8.07753e+08,-8.07634e+08,79584.6,0.00509663,-0.00272333,0,0.00577859,33121.2,-29399.2,0,44286.9,-79584.6
step02_gravity_refstate-crust.xmf,2345,-7.03256e-07,-1.52343e-06,0,8.38097e-07,-8.09208e+08,-8.09264e+08,-8.0916e+08,57493.5,0.00401194,0.00390424,0,0.0055981,34983.6,-29454.8,0,45732.2,-57493.5
step02_gravity_refstate-crust.xmf,2346,-1.61143e-06,-3.34703e-06,0,3.22845e-06,-9.74845e+08,-9.74964e+08,-9.74734e+08,221472,0.0339746,-0.063199,0,0.0717523,22466.9,-35478.5,0,41993.9,-221472
step02_gravity_refstate-crust.xmf,2347,-1.33573e-06,-2.89972e-06,0,2.60668e-06,-9.46702e+08,-9.46809e+08,-9.4661e+08,178819,0.027149,-0.0471763,0,0.0544305,24466.8,-34455.7,0,42259,-178819
step02_gravity_refstate-crust.xmf,2348,-1.09609e-06,-2.4689e-06,0,2.08775e-06,-9.12818e+08,-9.12912e+08,-9.12743e+08,143219,0.0199679,-0.031175,0,0.0370216,26824.5,-33223.8,0,42701,-143219
step02_gravity_refstate-crust.xmf,2349,-9.16892e-07,-2.09467e-06,0,1.67348e-06,-8.76188e+08,-8.76268e+08,-8.76125e+08,114801,0.0134489,-0.017235,0,0.0218614,29333.3,-31891.5,0,43330.3,-114801
step02_gravity_refstate-crust.xmf,2350,-1.95043e-06,-3.55863e-06,0,3.71077e-06,-1.00997e+09,-1.01008e+09,-1.00983e+09,254559,0.0397404,-0.0660525,0,0.0770859,21773.4,-36755.4,0,42720.5,-254559
step02_gravity_refstate-crust.xmf,2351,-2.1224e-06,-3.9178e-06,0,4.30015e-06,-1.04002e+09,-1.04014e+09,-1.03987e+09,294991,0.0443442,-0.0701288,0,0.0829726,21017.6,-37848.2,0,43292.3,-294991
step02_gravity_refstate-crust.xmf,2352,-7.13014e-07,-1.34161e-06,0,4.29236e-09,-7.93637e+08,-7.9368e+08,-7.93588e+08,294.456,1.18368e-19,0.0104999,0,0.0104999,40000,-28888.2,0,49340.9,-294.456
step02_gravity_refstate-crust.xmf,2353,-9.64051e-07,-1.71251e-06,0,1.23326e-06,-8.56557e+08,-8.56609e+08,-8.56491e+08,84602,0.00917674,-0.0039391,0,0.00998645,32119.7,-31177.3,0,44762.7,-84602
step02_gravity_refstate-crust.xmf,2354,-7.38447e-07,-1.41327e-06,0,5.6027e-07,-8.03848e+08,-8.03895e+08,-8.03798e+08,38434.5,0.00261445,0.00769773,0,0.0081296,36644.5,-29259.7,0,46892.9,-38434.5
step02_gravity_refstate-crust.xmf,2355,-1.67556e-06,-3.02289e-06,0,2.91244e-06,-9.79982e+08,-9.80074e+08,-9.79867e+08,199793,0.0326015,-0.050413,0,0.060036,23715.4,-35665.8,0,42830.7,-199793
step02_gravity_refstate-crust.xmf,2356,-1.43946e-06,-2.54731e-06,0,2.28501e-06,-9.48859e+08,-9.48935e+08,-9.4876e+08,156751,0.0253277,-0.0343717,0,0.0426955,25975.1,-34534.4,0,43212.6,-156751
step02_gravity_refstate-crust.xmf,2357,-1.06336e-06,-1.83268e-06,0,1.4177e-06,-8.77141e+08,-8.77194e+08,-8.77068e+08,97254.1,0.0120384,-0.00866349,0,0.0148317,30855.1,-31926.1,0,44399.4,-97254.1
step02_gravity_refstate-crust.xmf,2358,-1.23689e-06,-2.13456e-06,0,1.79032e-06,-9.13547e+08,-9.13608e+08,-9.13462e+08,122816,0.0181344,-0.0197616,0,0.0268212,28465.3,-33250.3,0,43770.5,-122816
step02_gravity_refstate-crust.xmf,2359,-2.12386e-06,-4.46679e-06,0,5.01977e-06,-1.06931e+09,-1.06947e+09,-1.06916e+09,344356,0.0480599,-0.0746323,0,0.0887679,20216.4,-38913.7,0,43851.8,-344356
step02_gravity_refstate-crust.xmf,2360,-9.8947e-07,-1.27787e-06,0,2.98061e-07,-8.26548e+08,-8.26568e+08,-8.26481e+08,20447,0.00182016,0.0111071,0,0.0112553,38180.1,-30085.3,0,48609.1,-20447
step02_gravity_refstate-crust.xmf,2361,-1.08203e-06,-1.47335e-06,0,9.20715e-07,-8.5532e+08,-8.55347e+08,-8.55246e+08,63161.1,0.00708943,0.00364145,0,0.00796995,34093.5,-31132.1,0,46169,-63161.1
step02_gravity_refstate-crust.xmf,2362,-1.2063e-06,-1.28703e-06,0,5.75772e-07,-8.5655e+08,-8.56556e+08,-8.56468e+08,39497.9,0.00468609,0.00947634,0,0.0105717,36243.4,-31176.7,0,47807.6,-39497.9
step02_gravity_refstate-crust.xmf,2363,-1.93014e-06,-3.23107e-06,0,3.30793e-06,-1.01091e+09,-1.011e+09,-1.01078e+09,226924,0.0375362,-0.0539656,0,0.0657362,22962.8,-36790.3,0,43368.4,-226924
step02_gravity_refstate-crust.xmf,2364,-1.74643e-06,-2.67903e-06,0,2.56882e-06,-9.84144e+08,-9.84208e+08,-9.84024e+08,176221,0.0306701,-0.0377774,0,0.0486599,25125.2,-35817.5,0,43751.2,-176221
step02_gravity_refstate-crust.xmf,2365,-1.55615e-06,-2.20163e-06,0,1.96612e-06,-9.51118e+08,-9.51163e+08,-9.51012e+08,134876,0.0231647,-0.0225617,0,0.0323363,27582.6,-34616.7,0,44261.9,-134876
step02_gravity_refstate-crust.xmf,2366,-1.36395e-06,-1.83858e-06,0,1.50481e-06,-9.12448e+08,-9.1248e+08,-9.12354e+08,103230,0.0158857,-0.0101302,0,0.0188408,30123.4,-33210.2,0,44836.8,-103230
step02_gravity_refstate-crust.xmf,2367,-2.08625e-06,-3.54905e-06,0,3.80952e-06,-1.0406e+09,-1.0407e+09,-1.04046e+09,261333,0.0419222,-0.0578062,0,0.0714075,22192.2,-37870.2,0,43893.6,-261333
step02_gravity_refstate-crust.xmf,2368,-2.10274e-06,-3.99077e-06,0,4.37258e-06,-1.06995e+09,-1.07008e+09,-1.06981e+09,299959,0.0454408,-0.0610342,0,0.0760923,21471,-38937.9,0,44465.3,-299959
step02_gravity_refstate-crust.xmf,2369,-1.26071e-06,-1.16499e-06,0,4.13657e-09,-8.54696e+08,-8.5469e+08,-8.5461e+08,283.769,1.83203e-19,0.0132844,0,0.0132844,40000,-31109.2,0,50673.3,-283.769
step02_gravity_refstate-crust.xmf,2370,-1.44121e-06,-1.59758e-06,0,1.23803e-06,-9.08506e+08,-9.08516e+08,-9.08407e+08,84929.1,0.0133036,-0.00239062,0,0.0135166,31762.3,-33066.8,0,45850.3,-84929.1
step02_gravity_refstate-crust.xmf,2371,-1.49987e-06,-1.3974e-06,0,9.7659e-07,-9.03712e+08,-9.03705e+08,-9.0361e+08,66994.1,0.01058,0.00390522,0,0.0112777,33425.2,-32892.3,0,46895.1,-66994.1
step02_gravity_refstate-crust.xmf,2372,-1.98862e-06,-2.90285e-06,0,2.96021e-06,-1.01931e+09,-1.01938e+09,-1.01918e+09,203070,0.0358577,-0.041503,0,0.0548477,24245,-37096.6,0,44316.8,-203070
step02_gravity_refstate-crust.xmf,2373,-1.83261e-06,-2.32274e-06,0,2.21561e-06,-9.87489e+08,-9.87523e+08,-9.87364e+08,151991,0.0282148,-0.0257096,0,0.0381714,26685,-35939.5,0,44763.2,-151991
step02_gravity_refstate-crust.xmf,2374,-1.67518e-06,-1.87734e-06,0,1.65591e-06,-9.53125e+08,-9.53138e+08,-9.5301e+08,113596,0.0206399,-0.0121182,0,0.0239344,29259.3,-34689.8,0,45381.6,-113596
step02_gravity_refstate-crust.xmf,2375,-1.51477e-06,-1.10037e-06,0,2.7011e-07,-8.861e+08,-8.86071e+08,-8.85996e+08,18529.6,0.00273583,0.0137045,0,0.0139749,38201.5,-32251.5,0,49995.1,-18529.6
step02_gravity_refstate-crust.xmf,2376,-1.51096e-06,-1.25903e-06,0,7.32613e-07,-8.96803e+08,-8.96786e+08,-8.967e+08,50257.3,0.00784422,0.00847742,0,0.0115498,35029.6,-32641,0,47880.1,-50257.3
step02_gravity_refstate-crust.xmf,2377,-2.09591e-06,-3.17706e-06,0,3.34776e-06,-1.04042e+09,-1.04049e+09,-1.04028e+09,229656,0.039381,-0.0464513,0,0.0608981,23404.9,-37864.1,0,44513.8,-229656
step02_gravity_refstate-crust.xmf,2378,-2.03451e-06,-2.52967e-06,0,2.54915e-06,-1.02176e+09,-1.02179e+09,-1.02162e+09,174871,0.0330841,-0.0295499,0,0.0443593,25728.8,-37186,0,45219.2,-174871
step02_gravity_refstate-crust.xmf,2379,-1.94256e-06,-1.97934e-06,0,1.87613e-06,-9.92125e+08,-9.92127e+08,-9.91992e+08,128703,0.0255263,-0.0148049,0,0.0295089,28320,-36108.4,0,45889.4,-128703
step02_gravity_refstate-crust.xmf,2380,-1.80235e-06,-1.58381e-06,0,1.35662e-06,-9.54258e+08,-9.54243e+08,-9.54134e+08,93063.8,0.0177445,-0.00325113,0,0.0180399,30982.8,-34731,0,46542.2,-93063.8
step02_gravity_refstate-crust.xmf,2381,-2.11571e-06,-3.51383e-06,0,3.76758e-06,-1.06882e+09,-1.06891e+09,-1.06867e+09,258456,0.0425675,-0.0483829,0,0.064443,22804.8,-38897.3,0,45089.5,-258456
step02_gravity_refstate-crust.xmf,2382,-1.7766e-06,-9.83541e-07,0,3.56413e-09,-9.15744e+08,-9.1569e+08,-9.15622e+08,244.5,2.34657e-19,0.0156709,0,0.0156709,40000,-33329.9,0,52066.1,-244.5
step02_gravity_refstate-crust.xmf,2383,-1.88944e-06,-1.33643e-06,0,1.0648e-06,-9.53337e+08,-9.53299e+08,-9.53208e+08,73045.5,0.0144237,0.00404044,0,0.0149789,32768.2,-34697.5,0,47724.9,-73045.5
step02_gravity_refstate-crust.xmf,2384,-1.95348e-06,-1.12418e-06,0,7.5125e-07,-9.51739e+08,-9.51682e+08,-9.51605e+08,51535.8,0.0105109,0.0102041,0,0.0146493,34778.1,-34639.4,0,49085.7,-51535.8
step02_gravity_refstate-crust.xmf,2385,-1.74638e-06,-1.08074e-06,0,4.90757e-07,-9.17821e+08,-9.17775e+08,-9.17701e+08,33665.9,0.00603624,0.0127792,0,0.0141331,36590.6,-33405.4,0,49545.9,-33665.9
step02_gravity_refstate-crust.xmf,2386,-2.18237e-06,-2.96975e-06,0,3.13948e-06,-1.06048e+09,-1.06053e+09,-1.06033e+09,215369,0.0387478,-0.0360917,0,0.0529528,24369.1,-38594.4,0,45644,-215369
step02_gravity_refstate-crust.xmf,2387,-2.12938e-06,-2.16229e-06,0,2.16733e-06,-1.02825e+09,-1.02825e+09,-1.0281e+09,148679,0.0302338,-0.0180933,0,0.0352342,27333.6,-37422.5,0,46341.9,-148679
step02_gravity_refstate-crust.xmf,2388,-2.06685e-06,-1.65843e-06,0,1.55599e-06,-9.98002e+08,-9.97974e+08,-9.9786e+08,106741,0.0225595,-0.00529375,0,0.0231722,30010,-36322.3,0,47115.9,-106741
step02_gravity_refstate-crust.xmf,2389,-2.01132e-06,-9.19835e-07,0,2.48537e-07,-9.47609e+08,-9.47534e+08,-9.47471e+08,17049.6,0.00346953,0.0160333,0,0.0164044,38276.6,-34489.1,0,51522.7,-17049.6
step02_gravity_refstate-crust.xmf,2390,-2.21296e-06,-2.5113e-06,0,2.59978e-06,-1.0631e+09,-1.06312e+09,-1.06295e+09,178345,0.0351453,-0.0232041,0,0.0421144,26092.3,-38690.4,0,46666.5,-178345
step02_gravity_refstate-crust.xmf,2391,-2.23292e-06,-1.84403e-06,0,1.8364e-06,-1.03484e+09,-1.03481e+09,-1.03469e+09,125977,0.0273635,-0.00890002,0,0.0287745,28843.7,-37662.5,0,47438.6,-125977
step02_gravity_refstate-crust.xmf,2392,-2.20729e-06,-1.34966e-06,0,1.22879e-06,-1.00241e+09,-1.00235e+09,-1.00225e+09,84294.8,0.0188669,0.00306127,0,0.0191136,31866.3,-36482.6,0,48440,-84294.8
step02_gravity_refstate-crust.xmf,2393,-2.23248e-06,-8.16452e-07,0,3.3692e-09,-9.76786e+08,-9.76689e+08,-9.76633e+08,231.127,2.75001e-19,0.0176704,0,0.0176704,40000,-35550.6,0,53514.9,-231.127
step02_gravity_refstate-crust.xmf,2394,-2.28454e-06,-1.11522e-06,0,9.28663e-07,-1.00303e+09,-1.00295e+09,-1.00287e+09,63706.2,0.0148566,0.00925658,0,0.0175044,33681.1,-36505.2,0,49669.3,-63706.2
step02_gravity_refstate-crust.xmf,2395,-2.21332e-06,-9.10841e-07,0,4.72208e-07,-9.79731e+08,-9.79642e+08,-9.79579e+08,32393.5,0.00745436,0.0151362,0,0.0168723,36659.9,-35657.7,0,51141.2,-32393.5
step02_gravity_refstate-crust.xmf,2396,-2.29926e-06,-2.13144e-06,0,2.18991e-06,-1.0668e+09,-1.06679e+09,-1.06664e+09,150228,0.0318457,-0.0132446,0,0.0344901,27640.6,-38825.3,0,47659.3,-150228
step02_gravity_refstate-crust.xmf,2397,-2.41986e-06,-1.49163e-06,0,1.49544e-06,-1.0512e+09,-1.05114e+09,-1.05104e+09,102587,0.0240392,0.000643622,0,0.0240478,30644.4,-38258,0,49017.9,-102587
step02_gravity_refstate-crust.xmf,2398,-2.42401e-06,-7.67628e-07,0,2.39531e-07,-1.00764e+09,-1.00753e+09,-1.00747e+09,16431.8,0.00402778,0.0179259,0,0.0183729,38336.3,-36673.2,0,53052.7,-16431.8
step02_gravity_refstate-crust.xmf,2399,-2.35732e-06,-9.46679e-07,0,6.76587e-07,-1.00662e+09,-1.00653e+09,-1.00646e+09,46413.9,0.0112756,0.0134822,0,0.0175758,35287.4,-36636.1,0,50866.5,-46413.9
step02_gravity_refstate-crust.xmf,2400,-2.40429e-06,-1.80261e-06,0,1.84837e-06,-1.0714e+09,-1.07136e+09,-1.07123e+09,126798,0.0286539,-0.00520943,0,0.0291236,29091.7,-38992.8,0,48649.5,-126798
step02_gravity_refstate-crust.xmf,2401,-2.51401e-06,-1.16547e-06,0,1.11122e-06,-1.05105e+09,-1.05095e+09,-1.05087e+09,76230,0.0189553,0.0083033,0,0.0206941,32720.8,-38252.4,0,50337.8,-76230
step02_gravity_refstate-crust.xmf,2402,-2.60008e-06,-6.82866e-07,0,2.04508e-09,-1.03784e+09,-1.03771e+09,-1.03767e+09,140.292,2.92145e-19,0.019333,0,0.019333,40000,-37772.2,0,55015.8,-140.292
step02_gravity_refstate-crust.xmf,2403,-2.5891e-06,-9.30705e-07,0,7.921e-07,-1.05149e+09,-1.05137e+09,-1.05131e+09,54338.1,0.0141072,0.0135784,0,0.0195803,34640.7,-38268.5,0,51618.4,-54338.1
step02_gravity_refstate-crust.xmf,2404,-2.6122e-06,-7.69638e-07,0,4.76745e-07,-1.04384e+09,-1.04372e+09,-1.04366e+09,32704.7,0.00864638,0.0171498,0,0.0192061,36692.6,-37990.4,0,52816.8,-32704.7
step02_gravity_refstate-crust.xmf,2405,-2.69309e-06,-6.68071e-07,0,2.19797e-07,-1.05584e+09,-1.0557e+09,-1.05566e+09,15078.1,0.00420081,0.0192612,0,0.019714,38434.4,-38427.1,0,54349.3,-15078.1
