Block Name,Point ID,cauchy_strain_0,cauchy_strain_1,cauchy_strain_2,cauchy_strain_3,cauchy_stress_0,cauchy_stress_1,cauchy_stress_2,cauchy_stress_3,displacement_0,displacement_1,displacement_2,displacement_Magnitude,Points_0,Points_1,Points_2,Points_Magnitude,stress_xy
step02_gravity_refstate-mantle.xmf,0,4.4535e-06,4.87342e-06,0,7.1968e-07,-1.68922e+09,-1.68916e+09,-1.68981e+09,96185.2,-0.0877095,0.00834673,-0,0.0881057,15309.7,-58282.6,0,60259.9,96185.2
step02_gravity_refstate-mantle.xmf,1,4.59251e-06,4.30736e-06,0,4.03784e-07,-1.71331e+09,-1.71335e+09,-1.71393e+09,53965.7,-0.0850042,0.00420678,-0,0.0851082,16223.2,-59026.5,0,61215.3,53965.7
step02_gravity_refstate-mantle.xmf,2,4.64035e-06,4.98562e-06,0,3.41811e-07,-1.71949e+09,-1.71944e+09,-1.72011e+09,45683.1,-0.0904937,0.00391121,-0,0.0905782,15085.7,-59219.2,0,61110.5,45683.1
step02_gravity_refstate-mantle.xmf,3,4.67697e-06,4.63855e-06,0,-5.92432e-09,-1.74478e+09,-1.74479e+09,-1.74541e+09,-791.786,-0.0882757,-3.69914e-19,-0,0.0882757,15660.2,-60000,0,62010,791.786
step02_gravity_refstate-mantle.xmf,4,4.61219e-06,4.03766e-06,0,6.86039e-09,-1.74485e+09,-1.74492e+09,-1.74546e+09,916.891,-0.083002,-2.96716e-20,-0,0.083002,16795.3,-60000,0,62306.4,916.891
step02_gravity_refstate-mantle.xmf,5,3.07237e-06,1.75302e-06,0,-1.39065e-09,-1.74537e+09,-1.74555e+09,-1.74578e+09,-185.861,-0.0130929,1.60803e-19,-0,0.0130929,35643.8,-60000,0,69788.8,185.861
step02_gravity_refstate-mantle.xmf,6,3.01848e-06,1.7431e-06,0,-4.59806e-10,-1.74538e+09,-1.74555e+09,-1.74579e+09,-61.4531,-0.00667151,8.45405e-19,-0,0.00667151,37768.5,-60000,0,70897.5,61.4531
step02_gravity_refstate-mantle.xmf,7,2.99452e-06,1.68689e-06,0,6.93128e-08,-1.68963e+09,-1.68981e+09,-1.69003e+09,9263.65,-0.00961413,0.00295564,-0,0.0100582,36749.1,-58277.5,0,68896.8,9263.65
step02_gravity_refstate-mantle.xmf,8,4.51992e-06,3.74606e-06,0,3.1709e-07,-1.71965e+09,-1.71975e+09,-1.72025e+09,42379.1,-0.0797807,0.00293405,-0,0.0798346,17418.3,-59220.2,0,61728.7,42379.1
step02_gravity_refstate-mantle.xmf,9,4.32776e-06,4.36837e-06,0,8.53443e-07,-1.67654e+09,-1.67654e+09,-1.67712e+09,114063,-0.0826649,0.00914719,-0,0.0831695,16216.7,-57889,0,60117.6,114063
step02_gravity_refstate-mantle.xmf,10,4.53129e-06,3.54576e-06,0,2.2165e-09,-1.74491e+09,-1.74504e+09,-1.74551e+09,296.235,-0.077577,1.75536e-19,-0,0.077577,17984.9,-60000,0,62637.5,296.235
step02_gravity_refstate-mantle.xmf,11,4.40626e-06,3.14259e-06,0,1.91759e-09,-1.74497e+09,-1.74513e+09,-1.74555e+09,256.286,-0.072034,8.64075e-19,-0,0.072034,19232,-60000,0,63006.9,256.286
step02_gravity_refstate-mantle.xmf,12,4.42201e-06,3.31259e-06,0,3.5466e-07,-1.71403e+09,-1.71418e+09,-1.71462e+09,47400.3,-0.0743414,0.00318002,-0,0.0744094,18599.8,-59044.9,0,61905.2,47400.3
step02_gravity_refstate-mantle.xmf,13,4.25862e-06,5.52743e-06,0,9.5873e-07,-1.67016e+09,-1.66999e+09,-1.67073e+09,128134,-0.0896586,0.0126578,-0,0.0905477,14441.5,-57694.3,0,59474.3,128134
step02_gravity_refstate-mantle.xmf,14,4.50224e-06,5.40774e-06,0,6.32847e-07,-1.69684e+09,-1.69672e+09,-1.69744e+09,84580,-0.0918613,0.00803102,-0,0.0922117,14513.2,-58519.8,0,60292.6,84580
step02_gravity_refstate-mantle.xmf,15,3.00002e-06,1.73272e-06,0,-3.25382e-09,-1.74539e+09,-1.74556e+09,-1.74579e+09,-434.873,6.13791e-20,2.28691e-19,0,2.36785e-19,40000,-60000,0,72111,434.873
step02_gravity_refstate-mantle.xmf,16,2.96119e-06,1.68485e-06,0,2.8519e-08,-1.69394e+09,-1.69411e+09,-1.69434e+09,3811.57,-0.00470713,0.00271878,-0,0.00543588,38406.3,-58410.5,0,69905.9,3811.57
step02_gravity_refstate-mantle.xmf,17,3.14703e-06,1.77569e-06,0,2.8927e-09,-1.74535e+09,-1.74553e+09,-1.74577e+09,386.61,-0.0193375,6.93419e-19,-0,0.0193375,33620.7,-60000,0,68777.5,386.61
step02_gravity_refstate-mantle.xmf,18,3.03939e-06,1.69669e-06,0,1.34042e-07,-1.67978e+09,-1.67996e+09,-1.68019e+09,17914.7,-0.0159422,0.00350649,-0,0.0163233,34618.2,-57973.6,0,67523,17914.7
step02_gravity_refstate-mantle.xmf,19,4.11659e-06,4.93509e-06,0,1.09161e-06,-1.6573e+09,-1.6572e+09,-1.65785e+09,145894,-0.084358,0.0131399,-0,0.0853752,15345.5,-57294.8,0,59314.3,145894
step02_gravity_refstate-mantle.xmf,20,4.41079e-06,3.95082e-06,0,6.55725e-07,-1.69178e+09,-1.69184e+09,-1.69237e+09,87637.6,-0.0803359,0.00646235,-0,0.0805954,17009.4,-58359.2,0,60787.4,87637.6
step02_gravity_refstate-mantle.xmf,21,3.24149e-06,1.81289e-06,0,9.19551e-10,-1.74533e+09,-1.74552e+09,-1.74576e+09,122.898,-0.0254452,1.56212e-19,-0,0.0254452,31694.1,-60000,0,67856.6,122.898
step02_gravity_refstate-mantle.xmf,22,3.13686e-06,1.7433e-06,0,1.42663e-07,-1.69478e+09,-1.69496e+09,-1.6952e+09,19066.9,-0.0225885,0.00276345,-0,0.0227569,32507.1,-58437.6,0,66870.5,19066.9
step02_gravity_refstate-mantle.xmf,23,4.25907e-06,2.81534e-06,0,4.92007e-10,-1.74502e+09,-1.74522e+09,-1.74559e+09,65.7567,-0.0664013,1.4641e-19,-0,0.0664013,20539.9,-60000,0,63418.4,65.7567
step02_gravity_refstate-mantle.xmf,24,4.28364e-06,2.94808e-06,0,3.62792e-07,-1.71035e+09,-1.71053e+09,-1.71092e+09,48487.2,-0.0687633,0.00317666,-0,0.0688366,19863.3,-58929.5,0,62187.1,48487.2
step02_gravity_refstate-mantle.xmf,25,4.10079e-06,2.55105e-06,0,3.73971e-10,-1.74508e+09,-1.74529e+09,-1.74563e+09,49.9812,-0.0607,8.01233e-19,-0,0.0607,21911.9,-60000,0,63875.9,49.9812
step02_gravity_refstate-mantle.xmf,26,4.13515e-06,2.65357e-06,0,3.19837e-07,-1.71065e+09,-1.71084e+09,-1.7112e+09,42746.2,-0.0632004,0.00284007,-0,0.0632642,21195,-58936.8,0,62632,42746.2
step02_gravity_refstate-mantle.xmf,27,3.94512e-06,2.33851e-06,0,4.55304e-09,-1.74513e+09,-1.74535e+09,-1.74566e+09,608.514,-0.0549458,1.89252e-19,-0,0.0549458,23351.3,-60000,0,64383.9,608.514
step02_gravity_refstate-mantle.xmf,28,3.98133e-06,2.41859e-06,0,2.86726e-07,-1.71097e+09,-1.71117e+09,-1.7115e+09,38321,-0.0576147,0.00256691,-0,0.0576718,22580.6,-58945,0,63122.1,38321
step02_gravity_refstate-mantle.xmf,29,3.79087e-06,2.16825e-06,0,-1.49005e-10,-1.74518e+09,-1.7454e+09,-1.74569e+09,-19.9145,-0.0491407,9.4741e-19,-0,0.0491407,24862,-60000,0,64947,19.9145
step02_gravity_refstate-mantle.xmf,30,3.80661e-06,2.22753e-06,0,3.49287e-07,-1.6981e+09,-1.69831e+09,-1.69861e+09,46682.2,-0.0519376,0.00326801,-0,0.0520403,23963.6,-58545.9,0,63260.4,46682.2
step02_gravity_refstate-mantle.xmf,31,3.93609e-06,6.28025e-06,0,1.12162e-06,-1.65213e+09,-1.65182e+09,-1.65266e+09,149905,-0.0907016,0.0178328,-0,0.0924381,13599.4,-57137.3,0,58733.4,149905
step02_gravity_refstate-mantle.xmf,32,4.34481e-06,6.24044e-06,0,7.18286e-07,-1.68733e+09,-1.68707e+09,-1.68791e+09,95999,-0.0952998,0.0111052,-0,0.0959446,13552.7,-58227,0,59783.4,95999
step02_gravity_refstate-mantle.xmf,33,4.60096e-06,5.78574e-06,0,3.50012e-07,-1.71837e+09,-1.71821e+09,-1.71898e+09,46779.1,-0.0952638,0.00473118,-0,0.0953812,14043.8,-59186.4,0,60829.8,46779.1
step02_gravity_refstate-mantle.xmf,34,4.68313e-06,5.37664e-06,0,-6.78689e-09,-1.74472e+09,-1.74463e+09,-1.74535e+09,-907.068,-0.0933462,-4.47088e-19,-0,0.0933462,14576.4,-60000,0,61745.2,907.068
step02_gravity_refstate-mantle.xmf,35,2.92918e-06,1.66388e-06,0,-9.43059e-10,-1.67365e+09,-1.67382e+09,-1.67404e+09,-126.04,6.9991e-20,0.00376902,0,0.00376902,40000,-57783.5,0,70277.5,126.04
step02_gravity_refstate-mantle.xmf,36,2.85972e-06,1.66626e-06,0,8.07813e-08,-1.6339e+09,-1.63406e+09,-1.63428e+09,10796.4,-0.00569368,0.00583056,-0,0.00814944,37992.1,-56555,0,68131.2,10796.4
step02_gravity_refstate-mantle.xmf,37,2.89003e-06,1.68302e-06,0,1.577e-07,-1.63943e+09,-1.63959e+09,-1.63982e+09,21076.6,-0.0112597,0.00558082,-0,0.0125669,36065.8,-56726.1,0,67220.5,21076.6
step02_gravity_refstate-mantle.xmf,38,3.82272e-06,5.61447e-06,0,1.29609e-06,-1.63866e+09,-1.63842e+09,-1.63917e+09,173222,-0.0852555,0.0180393,-0,0.0871431,14466.8,-56718.5,0,58534.4,173222
step02_gravity_refstate-mantle.xmf,39,4.30857e-06,3.57488e-06,0,6.8661e-07,-1.68619e+09,-1.68629e+09,-1.68677e+09,91765.4,-0.0759164,0.00646104,-0,0.0761908,17940.8,-58184.9,0,60888.1,91765.4
step02_gravity_refstate-mantle.xmf,40,4.15029e-06,3.95712e-06,0,9.80943e-07,-1.66193e+09,-1.66196e+09,-1.66249e+09,131103,-0.0773421,0.00997772,-0,0.077983,17155.8,-57435.5,0,59942.9,131103
step02_gravity_refstate-mantle.xmf,41,3.9403e-06,4.45056e-06,0,1.21362e-06,-1.64282e+09,-1.64275e+09,-1.64334e+09,162200,-0.0787726,0.0136566,-0,0.0799476,16284.7,-56844.8,0,59131.4,162200
step02_gravity_refstate-mantle.xmf,42,3.63469e-06,2.03847e-06,0,9.56786e-10,-1.74522e+09,-1.74544e+09,-1.74571e+09,127.875,-0.0432961,1.47982e-19,-0,0.0432961,26447.5,-60000,0,65570.4,127.875
step02_gravity_refstate-mantle.xmf,43,3.6415e-06,2.06652e-06,0,2.7447e-07,-1.70294e+09,-1.70315e+09,-1.70343e+09,36682.9,-0.045921,0.00272302,-0,0.0460017,25612.7,-58694.1,0,64039.1,36682.9
step02_gravity_refstate-mantle.xmf,44,3.49123e-06,1.93836e-06,0,1.05242e-09,-1.74526e+09,-1.74547e+09,-1.74573e+09,140.656,-0.0374052,1.54766e-19,-0,0.0374052,28111.9,-60000,0,66259.2,140.656
step02_gravity_refstate-mantle.xmf,45,3.51866e-06,1.94412e-06,0,2.43995e-07,-1.70089e+09,-1.7011e+09,-1.70136e+09,32609.9,-0.0400841,0.00269684,-0,0.0401747,27237,-58629.4,0,64647.1,32609.9
step02_gravity_refstate-mantle.xmf,46,3.3584e-06,1.86517e-06,0,3.3448e-10,-1.7453e+09,-1.7455e+09,-1.74575e+09,44.7033,-0.0314597,7.74026e-19,-0,0.0314597,29859.4,-60000,0,67019.3,44.7033
step02_gravity_refstate-mantle.xmf,47,3.25874e-06,1.78766e-06,0,1.7706e-07,-1.69736e+09,-1.69756e+09,-1.6978e+09,23664.1,-0.0282755,0.00268675,-0,0.0284029,30732,-58518.4,0,66097.4,23664.1
step02_gravity_refstate-mantle.xmf,48,3.38012e-06,1.84977e-06,0,2.19451e-07,-1.69747e+09,-1.69767e+09,-1.69792e+09,29329.6,-0.0340368,0.0027719,-0,0.0341495,28985.7,-58522.6,0,65307.5,29329.6
step02_gravity_refstate-mantle.xmf,49,4.19367e-06,3.19513e-06,0,7.20282e-07,-1.67829e+09,-1.67843e+09,-1.67886e+09,96265.7,-0.0704701,0.00654538,-0,0.0707735,19107.9,-57939.2,0,61008.7,96265.7
step02_gravity_refstate-mantle.xmf,50,3.92223e-06,7.1489e-06,0,8.92824e-07,-1.66342e+09,-1.66299e+09,-1.66394e+09,119326,-0.0958696,0.0179945,-0,0.0975437,12713.8,-57488.1,0,58877.2,119326
step02_gravity_refstate-mantle.xmf,51,2.99182e-06,1.72998e-06,0,2.88447e-07,-1.63686e+09,-1.63703e+09,-1.63726e+09,38550.9,-0.0203392,0.00584921,-0,0.0211635,32955.9,-56647.6,0,65536.5,38550.9
step02_gravity_refstate-mantle.xmf,52,2.84683e-06,1.7136e-06,0,2.65023e-07,-1.61027e+09,-1.61042e+09,-1.61065e+09,35420.4,-0.0150229,0.00717048,-0,0.0166464,34610.4,-55825.1,0,65683.5,35420.4
step02_gravity_refstate-mantle.xmf,53,3.61822e-06,5.06209e-06,0,1.41867e-06,-1.6238e+09,-1.6236e+09,-1.62428e+09,189605,-0.0794785,0.0182531,-0,0.0815476,15382,-56256.7,0,58321.7,189605
step02_gravity_refstate-mantle.xmf,54,3.47183e-06,7.11662e-06,0,1.21255e-06,-1.63339e+09,-1.6329e+09,-1.63385e+09,162057,-0.0904358,0.0243657,-0,0.0936607,12792.4,-56557.2,0,57985.9,162057
step02_gravity_refstate-mantle.xmf,55,3.39023e-06,6.35928e-06,0,1.41942e-06,-1.62064e+09,-1.62024e+09,-1.62109e+09,189706,-0.0850336,0.0238711,-0,0.0883206,13641.6,-56161,0,57794,189706
step02_gravity_refstate-mantle.xmf,56,3.10002e-06,1.76339e-06,0,2.97034e-07,-1.65484e+09,-1.65502e+09,-1.65526e+09,39698.7,-0.0250717,0.0049734,-0,0.0255602,31518.7,-57203.8,0,65312.3,39698.7
step02_gravity_refstate-mantle.xmf,57,3.98994e-06,2.84097e-06,0,7.27023e-07,-1.66919e+09,-1.66935e+09,-1.66973e+09,97166.6,-0.0642065,0.00660751,-0,0.0645456,20505.4,-57655.8,0,61193.7,97166.6
step02_gravity_refstate-mantle.xmf,58,3.92979e-06,2.57269e-06,0,5.73453e-07,-1.67966e+09,-1.67984e+09,-1.68019e+09,76642,-0.0597664,0.00518172,-0,0.0599906,21767.1,-57978.1,0,61929.5,76642
step02_gravity_refstate-mantle.xmf,59,3.82288e-06,2.40877e-06,0,5.86348e-07,-1.67239e+09,-1.67257e+09,-1.6729e+09,78365.4,-0.0555916,0.005404,-0,0.0558536,22759,-57752.2,0,62074.9,78365.4
step02_gravity_refstate-mantle.xmf,60,3.57408e-06,2.1554e-06,0,5.7027e-07,-1.65887e+09,-1.65906e+09,-1.65935e+09,76216.5,-0.0472173,0.00573164,-0,0.0475639,24870.1,-57332.5,0,62494.3,76216.5
step02_gravity_refstate-mantle.xmf,61,3.46013e-06,2.027e-06,0,4.91556e-07,-1.66222e+09,-1.66241e+09,-1.66268e+09,65696.5,-0.0425439,0.00520342,-0,0.042861,26238.6,-57434.9,0,63144.5,65696.5
step02_gravity_refstate-mantle.xmf,62,4.19632e-06,7.38022e-06,0,5.60569e-07,-1.69301e+09,-1.69258e+09,-1.69357e+09,74920,-0.100315,0.0118448,-0,0.101012,12508.2,-58404.5,0,59728.9,74920
step02_gravity_refstate-mantle.xmf,63,4.47284e-06,6.75829e-06,0,3.26265e-07,-1.71769e+09,-1.71738e+09,-1.71829e+09,43605.3,-0.0997437,0.00565852,-0,0.099904,13050,-59167.2,0,60589.2,43605.3
step02_gravity_refstate-mantle.xmf,64,4.60703e-06,6.27997e-06,0,-5.48039e-09,-1.74466e+09,-1.74444e+09,-1.74528e+09,-732.455,-0.0981546,-5.3441e-19,-0,0.0981546,13541.2,-60000,0,61509.1,732.455
step02_gravity_refstate-mantle.xmf,65,2.74482e-06,1.67517e-06,0,2.9138e-11,-1.60214e+09,-1.60228e+09,-1.6025e+09,3.89429,4.83342e-20,0.00746279,0,0.00746279,40000,-55573.1,0,68471.7,3.89429
step02_gravity_refstate-mantle.xmf,66,2.68753e-06,1.71834e-06,0,2.14054e-07,-1.581e+09,-1.58113e+09,-1.58136e+09,28608.3,-0.00989679,0.00864197,-0,0.0131389,36293.4,-54919.9,0,65828.6,28608.3
step02_gravity_refstate-mantle.xmf,67,3.23162e-06,5.74848e-06,0,1.5685e-06,-1.60624e+09,-1.6059e+09,-1.60667e+09,209630,-0.0793342,0.0236243,-0,0.082777,14509.8,-55713.5,0,57571.9,209630
step02_gravity_refstate-mantle.xmf,68,3.46488e-06,8.04291e-06,0,9.12522e-07,-1.64579e+09,-1.64517e+09,-1.64625e+09,121959,-0.0956554,0.0247914,-0,0.0988158,11973.2,-56942.6,0,58187.8,121959
step02_gravity_refstate-mantle.xmf,69,3.99505e-06,3.5734e-06,0,1.02937e-06,-1.65129e+09,-1.65135e+09,-1.65182e+09,137576,-0.0720729,0.0101011,-0,0.0727773,18198.7,-57104.7,0,59934.4,137576
step02_gravity_refstate-mantle.xmf,70,3.74797e-06,4.04501e-06,0,1.2936e-06,-1.62841e+09,-1.62837e+09,-1.62891e+09,172890,-0.0731678,0.0139849,-0,0.0744923,17264.2,-56397.5,0,58980.7,172890
step02_gravity_refstate-mantle.xmf,71,3.41314e-06,4.60991e-06,0,1.50709e-06,-1.60826e+09,-1.6081e+09,-1.60871e+09,201422,-0.0736587,0.018435,-0,0.0759306,16321.4,-55774.2,0,58113.2,201422
step02_gravity_refstate-mantle.xmf,72,3.31645e-06,1.90873e-06,0,4.58373e-07,-1.65222e+09,-1.6524e+09,-1.65266e+09,61261.5,-0.0361609,0.00550101,-0,0.0365769,28025.5,-57124.5,0,63628.9,61261.5
step02_gravity_refstate-mantle.xmf,73,3.16994e-06,1.8213e-06,0,4.16564e-07,-1.64174e+09,-1.64192e+09,-1.64216e+09,55673.7,-0.0300294,0.00585997,-0,0.0305958,29828.1,-56799.6,0,64155.4,55673.7
step02_gravity_refstate-mantle.xmf,74,2.93185e-06,1.7988e-06,0,4.50428e-07,-1.60437e+09,-1.60452e+09,-1.60476e+09,60199.7,-0.0240086,0.00775937,-0,0.0252314,31436.3,-55643.7,0,63909.8,60199.7
step02_gravity_refstate-mantle.xmf,75,3.84337e-06,3.23692e-06,0,1.06912e-06,-1.63875e+09,-1.63883e+09,-1.63927e+09,142887,-0.0663922,0.0102956,-0,0.0671857,19347.1,-56715.6,0,59924.7,142887
step02_gravity_refstate-mantle.xmf,76,3.6276e-06,2.30202e-06,0,6.83672e-07,-1.65127e+09,-1.65145e+09,-1.65176e+09,91372.7,-0.051012,0.00661677,-0,0.0514393,23710.5,-57098.5,0,61825.8,91372.7
step02_gravity_refstate-mantle.xmf,77,3.33897e-06,2.14734e-06,0,7.23308e-07,-1.62556e+09,-1.62572e+09,-1.62601e+09,96670.1,-0.0434132,0.00775936,-0,0.0441011,25496.8,-56301.9,0,61806.1,96670.1
step02_gravity_refstate-mantle.xmf,78,3.82078e-06,8.19407e-06,0,6.34288e-07,-1.67355e+09,-1.67296e+09,-1.67406e+09,84772.6,-0.100552,0.0181571,-0,0.102178,11879.3,-57802.9,0,59011,84772.6
step02_gravity_refstate-mantle.xmf,79,2.59169e-06,1.7231e-06,0,1.10774e-07,-1.56023e+09,-1.56034e+09,-1.56057e+09,14804.9,-0.00458301,0.00968507,-0,0.0107147,38222.4,-54277.7,0,66385.4,14804.9
step02_gravity_refstate-mantle.xmf,80,2.75538e-06,1.784e-06,0,4.14944e-07,-1.57715e+09,-1.57728e+09,-1.57752e+09,55457.3,-0.0186327,0.00908462,-0,0.0207294,33044.5,-54801.6,0,63993.4,55457.3
step02_gravity_refstate-mantle.xmf,81,2.57995e-06,1.78628e-06,0,3.49573e-07,-1.54843e+09,-1.54853e+09,-1.54877e+09,46720.4,-0.0133956,0.0105072,-0,0.0170248,34728.3,-53913.3,0,64130.3,46720.4
step02_gravity_refstate-mantle.xmf,82,2.98754e-06,5.25452e-06,0,1.65514e-06,-1.59006e+09,-1.58975e+09,-1.59046e+09,221210,-0.0733925,0.0236026,-0,0.0770944,15398.4,-55210.8,0,57317.9,221210
step02_gravity_refstate-mantle.xmf,83,2.93604e-06,9.01582e-06,0,7.93854e-07,-1.63045e+09,-1.62964e+09,-1.63084e+09,106099,-0.0948038,0.0325136,-0,0.100224,11239.1,-56467.8,0,57575.4,106099
step02_gravity_refstate-mantle.xmf,84,2.92382e-06,7.99035e-06,0,1.17039e-06,-1.61736e+09,-1.61668e+09,-1.61775e+09,156422,-0.089422,0.0315764,-0,0.0948334,12033,-56060.7,0,57337.5,156422
step02_gravity_refstate-mantle.xmf,85,2.86274e-06,7.16768e-06,0,1.4487e-06,-1.6039e+09,-1.60333e+09,-1.60428e+09,193619,-0.0839016,0.0306805,-0,0.0893351,12842.8,-55642.5,0,57105.4,193619
step02_gravity_refstate-mantle.xmf,86,2.72123e-06,6.49448e-06,0,1.62715e-06,-1.58983e+09,-1.58932e+09,-1.59019e+09,217468,-0.0782763,0.0298793,-0,0.0837851,13675.9,-55205,0,56873.8,217468
step02_gravity_refstate-mantle.xmf,87,3.72645e-06,2.65191e-06,0,8.4943e-07,-1.64538e+09,-1.64552e+09,-1.64587e+09,113526,-0.0581927,0.00800108,-0,0.0587402,21657.9,-56917.9,0,60899.2,113526
step02_gravity_refstate-mantle.xmf,88,3.58937e-06,2.97518e-06,0,1.09991e-06,-1.62197e+09,-1.62205e+09,-1.62245e+09,147003,-0.06042,0.0108401,-0,0.0613847,20528.2,-56194.8,0,59827,147003
step02_gravity_refstate-mantle.xmf,89,3.19681e-06,2.05046e-06,0,6.96453e-07,-1.61486e+09,-1.61501e+09,-1.61529e+09,93080.9,-0.0388276,0.00806891,-0,0.0396572,26724.7,-55970.1,0,62023.1,93080.9
step02_gravity_refstate-mantle.xmf,90,3.53408e-06,2.49674e-06,0,9.0389e-07,-1.62673e+09,-1.62687e+09,-1.62721e+09,120805,-0.0527686,0.00885465,-0,0.0535063,22788.3,-56340.3,0,60774.5,120805
step02_gravity_refstate-mantle.xmf,91,3.35421e-06,2.32087e-06,0,8.80388e-07,-1.61318e+09,-1.61331e+09,-1.61362e+09,117664,-0.0469832,0.00913926,-0,0.0478638,24198.6,-55919.9,0,60931.2,117664
step02_gravity_refstate-mantle.xmf,92,2.30342e-06,1.00625e-05,0,5.26847e-07,-1.61516e+09,-1.61413e+09,-1.61547e+09,70413,-0.0928942,0.0419905,-0,0.101944,10503.7,-55994.1,0,56970.7,70413
step02_gravity_refstate-mantle.xmf,93,1.63212e-06,9.86936e-06,0,7.27293e-07,-1.5882e+09,-1.5871e+09,-1.58842e+09,97202.7,-0.0847603,0.0497993,-0,0.0983071,10568.8,-55156.3,0,56159.8,97202.7
step02_gravity_refstate-mantle.xmf,94,1.58023e-06,1.10634e-05,0,1.37296e-07,-1.59939e+09,-1.59812e+09,-1.5996e+09,18349.6,-0.0895484,0.0532131,-0,0.104166,9821.6,-55504.5,0,56366.7,18349.6
step02_gravity_refstate-mantle.xmf,95,2.3178e-06,8.91912e-06,0,1.01589e-06,-1.60246e+09,-1.60158e+09,-1.60277e+09,135774,-0.0875764,0.0399974,-0,0.0962778,11287.4,-55598.9,0,56733.1,135774
step02_gravity_refstate-mantle.xmf,96,3.35947e-06,9.185e-06,0,5.56735e-07,-1.65812e+09,-1.65735e+09,-1.65857e+09,74407.7,-0.10061,0.0249899,-0,0.103667,11184.3,-57325.9,0,58406.8,74407.7
step02_gravity_refstate-mantle.xmf,97,3.99828e-06,8.40151e-06,0,3.94493e-07,-1.69721e+09,-1.69662e+09,-1.69775e+09,52724,-0.103774,0.0123962,-0,0.104512,11760.4,-58535.6,0,59705.3,52724
step02_gravity_refstate-mantle.xmf,98,4.23675e-06,7.93314e-06,0,2.53567e-07,-1.71939e+09,-1.71889e+09,-1.71995e+09,33889.3,-0.10396,0.0062217,-0,0.104146,12100.8,-59221,0,60444.6,33889.3
step02_gravity_refstate-mantle.xmf,99,4.41864e-06,7.38649e-06,0,-3.07582e-09,-1.74461e+09,-1.74421e+09,-1.7452e+09,-411.084,-0.102622,-5.87417e-19,-0,0.102622,12551.5,-60000,0,61298.8,411.084
step02_gravity_refstate-mantle.xmf,100,2.45042e-06,1.75845e-06,0,4.83601e-10,-1.53067e+09,-1.53076e+09,-1.53099e+09,64.6332,3.69888e-20,0.0112575,0,0.0112575,40000,-53363.7,0,66690.9,64.6332
step02_gravity_refstate-mantle.xmf,101,2.40549e-06,1.80305e-06,0,2.51044e-07,-1.51973e+09,-1.51981e+09,-1.52005e+09,33552.1,-0.00839446,0.0119651,-0,0.0146161,36497.3,-53025.6,0,64372.1,33552.1
step02_gravity_refstate-mantle.xmf,102,2.53024e-06,5.93709e-06,0,1.73574e-06,-1.57421e+09,-1.57376e+09,-1.57455e+09,231981,-0.0724207,0.0293365,-0,0.078137,14535.2,-54720.1,0,56617.7,231981
step02_gravity_refstate-mantle.xmf,103,3.20105e-06,4.22353e-06,0,1.55153e-06,-1.59219e+09,-1.59206e+09,-1.59262e+09,207362,-0.0678072,0.0185403,-0,0.0702963,17309.7,-55275.6,0,57922.5,207362
step02_gravity_refstate-mantle.xmf,104,3.55228e-06,3.69e-06,0,1.33316e-06,-1.614e+09,-1.61398e+09,-1.61448e+09,178177,-0.0674914,0.0141501,-0,0.0689588,18314.7,-55950.2,0,58871.5,178177
step02_gravity_refstate-mantle.xmf,105,2.7479e-06,4.83804e-06,0,1.70861e-06,-1.57223e+09,-1.57195e+09,-1.5726e+09,228356,-0.0672506,0.0236851,-0,0.0712996,16330.5,-54657.5,0,57044.9,228356
step02_gravity_refstate-mantle.xmf,106,3.05091e-06,1.96181e-06,0,6.60492e-07,-1.59913e+09,-1.59927e+09,-1.59953e+09,88274.7,-0.0331966,0.00862596,-0,0.034299,28279.2,-55482.9,0,62274.2,88274.7
step02_gravity_refstate-mantle.xmf,107,2.63032e-06,1.89508e-06,0,5.86893e-07,-1.54502e+09,-1.54512e+09,-1.54537e+09,78438.2,-0.0217715,0.0111453,-0,0.0244584,31455.4,-53808.6,0,62328.2,78438.2
step02_gravity_refstate-mantle.xmf,108,2.84467e-06,1.91291e-06,0,6.3218e-07,-1.57411e+09,-1.57423e+09,-1.57449e+09,84490.9,-0.0273539,0.00975664,-0,0.0290419,29872.8,-54708.6,0,62333.1,84490.9
step02_gravity_refstate-mantle.xmf,109,3.36954e-06,3.39524e-06,0,1.36078e-06,-1.59763e+09,-1.59762e+09,-1.59808e+09,181868,-0.0616468,0.0144428,-0,0.063316,19413.2,-55442.4,0,58742.9,181868
step02_gravity_refstate-mantle.xmf,110,3.07971e-06,2.24451e-06,0,9.17315e-07,-1.58514e+09,-1.58526e+09,-1.58556e+09,122599,-0.0410135,0.0105213,-0,0.0423416,25450.6,-55052,0,60650.2,122599
step02_gravity_refstate-mantle.xmf,111,8.82557e-07,1.07911e-05,0,3.1582e-07,-1.57337e+09,-1.57204e+09,-1.57348e+09,42209.3,-0.0805406,0.0612781,-0,0.101202,9895,-54695.3,0,55583.2,42209.3
step02_gravity_refstate-mantle.xmf,112,9.69032e-08,1.29431e-05,0,-1.11088e-06,-1.57249e+09,-1.57078e+09,-1.5725e+09,-148470,-0.080822,0.0788262,-0,0.112897,8585.22,-54668.6,0,55338.6,148470
step02_gravity_refstate-mantle.xmf,113,8.21968e-07,1.20021e-05,0,-3.96535e-07,-1.5847e+09,-1.5832e+09,-1.58481e+09,-52996.9,-0.0852715,0.0655102,-0,0.107531,9198.94,-55048.1,0,55811.4,52996.9
step02_gravity_refstate-mantle.xmf,114,6.81279e-07,1.34771e-05,0,-1.32057e-06,-1.595e+09,-1.59329e+09,-1.59509e+09,-176494,-0.0895293,0.0703946,-0,0.11389,8529.58,-55369.2,0,56022.3,176494
step02_gravity_refstate-mantle.xmf,115,1.34795e-06,1.2476e-05,0,-6.223e-07,-1.60761e+09,-1.60612e+09,-1.60779e+09,-83170.4,-0.0932161,0.0578409,-0,0.109703,9111.43,-55760.6,0,56500.1,83170.4
step02_gravity_refstate-mantle.xmf,116,-5.17046e-08,1.45148e-05,0,-2.23506e-06,-1.58278e+09,-1.58084e+09,-1.58278e+09,-298716,-0.0850346,0.0851508,-0,0.120339,7933.54,-54989.5,0,55558.8,298716
step02_gravity_refstate-mantle.xmf,117,2.07411e-06,1.16844e-05,0,-2.0533e-07,-1.62733e+09,-1.62604e+09,-1.6276e+09,-27442.3,-0.0980301,0.0449528,-0,0.107845,9651.76,-56372.4,0,57192.7,27442.3
step02_gravity_refstate-mantle.xmf,118,2.78935e-06,1.03235e-05,0,3.14093e-07,-1.64297e+09,-1.64196e+09,-1.64334e+09,41978.5,-0.0998533,0.0335387,-0,0.105335,10455.4,-56856.9,0,57810.2,41978.5
step02_gravity_refstate-mantle.xmf,119,3.61507e-06,9.40466e-06,0,3.34768e-07,-1.68581e+09,-1.68504e+09,-1.68629e+09,44741.8,-0.104972,0.0172675,-0,0.106382,11121.6,-58183.4,0,59236.8,44741.8
step02_gravity_refstate-mantle.xmf,120,2.26282e-06,1.83181e-06,0,1.31175e-07,-1.49288e+09,-1.49293e+09,-1.49318e+09,17531.5,-0.00385553,0.0133843,-0,0.0139286,38290.2,-52195.3,0,64734,17531.5
step02_gravity_refstate-mantle.xmf,121,2.43435e-06,1.89083e-06,0,5.09215e-07,-1.5165e+09,-1.51657e+09,-1.51683e+09,68056.5,-0.0165193,0.0125229,-0,0.0207295,33096,-52926.4,0,62422.3,68056.5
step02_gravity_refstate-mantle.xmf,122,2.24523e-06,1.90368e-06,0,4.08962e-07,-1.48702e+09,-1.48706e+09,-1.48732e+09,54657.8,-0.0116742,0.0140066,-0,0.0182338,34760.5,-52014.3,0,62560.2,54657.8
step02_gravity_refstate-mantle.xmf,123,2.27693e-06,5.48123e-06,0,1.76965e-06,-1.55693e+09,-1.5565e+09,-1.55723e+09,236514,-0.0664348,0.0291087,-0,0.072532,15401.2,-54183.3,0,56329.6,236514
step02_gravity_refstate-mantle.xmf,124,2.21936e-06,8.01714e-06,0,1.35852e-06,-1.58848e+09,-1.5877e+09,-1.58878e+09,181567,-0.0818992,0.0385023,-0,0.0904981,12076.5,-55164,0,56470.4,181567
step02_gravity_refstate-mantle.xmf,125,1.5327e-06,8.89725e-06,0,1.15493e-06,-1.57424e+09,-1.57326e+09,-1.57445e+09,154356,-0.0790912,0.0474687,-0,0.0922426,11333.4,-54721.9,0,55883.2,154356
step02_gravity_refstate-mantle.xmf,126,2.11148e-06,7.28418e-06,0,1.59215e-06,-1.57401e+09,-1.57332e+09,-1.57429e+09,212791,-0.0761961,0.0371909,-0,0.084788,12880.3,-54714.5,0,56210.1,212791
step02_gravity_refstate-mantle.xmf,127,1.9457e-06,6.68225e-06,0,1.72068e-06,-1.55912e+09,-1.55849e+09,-1.55938e+09,229969,-0.0705871,0.0360915,-0,0.0792788,13690.3,-54251.8,0,55952.5,229969
step02_gravity_refstate-mantle.xmf,128,3.349e-06,2.78317e-06,0,1.13098e-06,-1.60228e+09,-1.60235e+09,-1.60273e+09,151156,-0.0545022,0.0116014,-0,0.0557232,21690.5,-55584.4,0,59666.6,151156
step02_gravity_refstate-mantle.xmf,129,3.10141e-06,3.15739e-06,0,1.35532e-06,-1.57862e+09,-1.57861e+09,-1.57903e+09,181139,-0.0556257,0.0149258,-0,0.0575934,20555.2,-54852.9,0,58577.7,181139
step02_gravity_refstate-mantle.xmf,130,2.86291e-06,2.15391e-06,0,8.79917e-07,-1.56489e+09,-1.56498e+09,-1.56527e+09,117601,-0.0354381,0.0112688,-0,0.0371866,26857.4,-54424.5,0,60690.6,117601
step02_gravity_refstate-mantle.xmf,131,3.14319e-06,2.62311e-06,0,1.13812e-06,-1.58231e+09,-1.58238e+09,-1.58273e+09,152110,-0.0486861,0.012297,-0,0.0502151,22901.5,-54965.8,0,59545.9,152110
step02_gravity_refstate-mantle.xmf,132,2.93299e-06,2.48214e-06,0,1.10875e-06,-1.56288e+09,-1.56294e+09,-1.56327e+09,148184,-0.0430183,0.0128835,-0,0.0449061,24186.3,-54363.7,0,59501.2,148184
step02_gravity_refstate-mantle.xmf,133,7.6049e-07,9.78417e-06,0,8.17289e-07,-1.56048e+09,-1.55927e+09,-1.56058e+09,109231,-0.0752891,0.0577864,-0,0.094909,10620.9,-54293.8,0,55322.8,109231
step02_gravity_refstate-mantle.xmf,134,-8.42831e-07,1.56431e-05,0,-3.42378e-06,-1.57218e+09,-1.56997e+09,-1.57207e+09,-457588,-0.0802149,0.101812,-0,0.129615,7330.93,-54659.5,0,55148.9,457588
step02_gravity_refstate-mantle.xmf,135,-8.37458e-07,1.3803e-05,0,-2.00793e-06,-1.55902e+09,-1.55707e+09,-1.55891e+09,-268360,-0.0747384,0.0947605,-0,0.120687,7982.96,-54248.5,0,54832.7,268360
step02_gravity_refstate-mantle.xmf,136,-1.61882e-06,1.50998e-05,0,-3.40948e-06,-1.55236e+09,-1.55012e+09,-1.55214e+09,-455678,-0.0706919,0.112045,-0,0.132481,7298.39,-54040.6,0,54531.2,455678
step02_gravity_refstate-mantle.xmf,137,1.09948e-08,1.16919e-05,0,-2.78188e-07,-1.56006e+09,-1.5585e+09,-1.56006e+09,-37179.8,-0.0756895,0.0738743,-0,0.105765,9253.79,-54280.7,0,55063.9,37179.8
step02_gravity_refstate-mantle.xmf,138,-1.71561e-06,1.68316e-05,0,-4.91682e-06,-1.56276e+09,-1.56028e+09,-1.56253e+09,-657133,-0.0749839,0.120396,-0,0.141837,6744.02,-54365.8,0,54782.5,657133
step02_gravity_refstate-mantle.xmf,139,9.88768e-07,1.41511e-05,0,-1.54285e-06,-1.61615e+09,-1.61439e+09,-1.61628e+09,-206202,-0.0966509,0.0622967,-0,0.114988,8457.56,-56026.3,0,56661,206202
step02_gravity_refstate-mantle.xmf,140,3.46981e-07,1.52886e-05,0,-2.45105e-06,-1.60481e+09,-1.60281e+09,-1.60486e+09,-327583,-0.0933192,0.0756295,-0,0.120118,7892.49,-55674.6,0,56231.2,327583
step02_gravity_refstate-mantle.xmf,141,3.07586e-06,1.05956e-05,0,1.4808e-07,-1.66995e+09,-1.66894e+09,-1.67036e+09,19790.9,-0.105066,0.0249862,-0,0.107996,10421.6,-57692.8,0,58626.5,19790.9
step02_gravity_refstate-mantle.xmf,142,3.79379e-06,9.49537e-06,0,1.57885e-07,-1.71553e+09,-1.71477e+09,-1.71604e+09,21101.4,-0.107687,0.00857165,-0,0.108027,11119.4,-59103,0,60139.9,21101.4
step02_gravity_refstate-mantle.xmf,143,4.086e-06,8.73672e-06,0,-1.44654e-09,-1.74457e+09,-1.74395e+09,-1.74512e+09,-193.33,-0.106649,-8.07135e-19,-0,0.106649,11604.5,-60000,0,61111.9,193.33
step02_gravity_refstate-mantle.xmf,144,-2.53575e-06,1.60306e-05,0,-4.91145e-06,-1.54351e+09,-1.54103e+09,-1.54317e+09,-656415,-0.0648739,0.130375,-0,0.145624,6740.87,-53763.5,0,54184.5,656415
step02_gravity_refstate-mantle.xmf,145,2.07226e-06,1.89402e-06,0,1.1466e-09,-1.45921e+09,-1.45923e+09,-1.45949e+09,153.243,2.70574e-20,0.015292,0,0.015292,40000,-51154.3,0,64936.6,153.243
step02_gravity_refstate-mantle.xmf,146,2.05954e-06,1.92941e-06,0,2.81446e-07,-1.45776e+09,-1.45778e+09,-1.45804e+09,37615.2,-0.00719366,0.0155397,-0,0.017124,36508.3,-51109.5,0,62809.5,37615.2
step02_gravity_refstate-mantle.xmf,147,1.76845e-06,6.1575e-06,0,1.7792e-06,-1.54315e+09,-1.54257e+09,-1.54339e+09,237791,-0.0649134,0.0351642,-0,0.0738259,14535.7,-53756.1,0,55686.6,237791
step02_gravity_refstate-mantle.xmf,148,2.52366e-06,4.46937e-06,0,1.71076e-06,-1.55393e+09,-1.55367e+09,-1.55427e+09,228643,-0.0611944,0.0236893,-0,0.0656197,17311.9,-54089.7,0,56792.6,228643
step02_gravity_refstate-mantle.xmf,149,2.98281e-06,3.8936e-06,0,1.56262e-06,-1.57507e+09,-1.57495e+09,-1.57547e+09,208844,-0.0619085,0.0186688,-0,0.0646621,18346.4,-54744.4,0,57736.8,208844
step02_gravity_refstate-mantle.xmf,150,1.92103e-06,5.16747e-06,0,1.78787e-06,-1.53204e+09,-1.5316e+09,-1.53229e+09,238949,-0.0591649,0.0302021,-0,0.0664278,16240.5,-53411.2,0,55825.7,238949
step02_gravity_refstate-mantle.xmf,151,2.67383e-06,2.08937e-06,0,8.34279e-07,-1.54094e+09,-1.54102e+09,-1.5413e+09,111501,-0.0297566,0.0122478,-0,0.0321786,28350.4,-53683.4,0,60709.6,111501
step02_gravity_refstate-mantle.xmf,152,2.25063e-06,2.0344e-06,0,6.7578e-07,-1.4854e+09,-1.48543e+09,-1.4857e+09,90317.9,-0.0189343,0.0147597,-0,0.0240074,31489.5,-51964.7,0,60761.2,90317.9
step02_gravity_refstate-mantle.xmf,153,2.45594e-06,2.0536e-06,0,7.68177e-07,-1.51347e+09,-1.51352e+09,-1.5138e+09,102667,-0.0241897,0.0134711,-0,0.0276878,29887.3,-52833.2,0,60700.9,102667
step02_gravity_refstate-mantle.xmf,154,2.78701e-06,3.61216e-06,0,1.55695e-06,-1.55578e+09,-1.55567e+09,-1.55615e+09,208086,-0.0558237,0.018937,-0,0.0589483,19443.6,-54146.3,0,57531.5,208086
step02_gravity_refstate-mantle.xmf,155,2.70543e-06,2.38283e-06,0,1.07166e-06,-1.53991e+09,-1.53996e+09,-1.54027e+09,143228,-0.037347,0.0137363,-0,0.039793,25489.6,-53652.6,0,59399.7,143228
step02_gravity_refstate-mantle.xmf,156,-6.2296e-08,1.06837e-05,0,3.3298e-07,-1.54697e+09,-1.54553e+09,-1.54696e+09,44502.8,-0.0704313,0.0698448,-0,0.099191,9917.2,-53873.2,0,54778.4,44502.8
step02_gravity_refstate-mantle.xmf,157,-1.79343e-06,1.39225e-05,0,-2.48281e-06,-1.54159e+09,-1.53949e+09,-1.54135e+09,-331827,-0.0660535,0.106977,-0,0.125727,7750.06,-53704,0,54260.3,331827
step02_gravity_refstate-mantle.xmf,158,-5.54204e-07,1.24969e-05,0,-9.66212e-07,-1.55355e+09,-1.55181e+09,-1.55348e+09,-129134,-0.072779,0.0846604,-0,0.111643,8692.28,-54077.9,0,54772.1,129134
step02_gravity_refstate-mantle.xmf,159,-2.0495e-06,1.91193e-05,0,-6.75927e-06,-1.57231e+09,-1.56948e+09,-1.57203e+09,-903376,-0.0786561,0.130184,-0,0.152101,6192.21,-54664.3,0,55013.9,903376
step02_gravity_refstate-mantle.xmf,160,-2.70389e-06,1.79737e-05,0,-6.68961e-06,-1.55315e+09,-1.55039e+09,-1.55279e+09,-894067,-0.0687262,0.141157,-0,0.156999,6196.78,-54065.2,0,54419.2,894067
step02_gravity_refstate-mantle.xmf,161,-1.13445e-06,1.77808e-05,0,-5.0508e-06,-1.58268e+09,-1.58015e+09,-1.58253e+09,-675040,-0.0842902,0.109755,-0,0.138387,6739.35,-54987.4,0,55398.8,675040
step02_gravity_refstate-mantle.xmf,162,-3.58156e-07,1.64879e-05,0,-3.60909e-06,-1.59334e+09,-1.59109e+09,-1.59329e+09,-482355,-0.0891019,0.0915518,-0,0.127753,7315.02,-55318.5,0,55800,482355
step02_gravity_refstate-mantle.xmf,163,1.51883e-06,1.31876e-05,0,-9.29727e-07,-1.62584e+09,-1.62428e+09,-1.62604e+09,-124258,-0.098875,0.0523975,-0,0.111901,8947.58,-56326.6,0,57032.8,124258
step02_gravity_refstate-mantle.xmf,164,2.43753e-06,1.19337e-05,0,-2.53377e-07,-1.65538e+09,-1.65411e+09,-1.6557e+09,-33863.9,-0.104389,0.0342159,-0,0.109854,9710.92,-57242,0,58059.9,33863.9
step02_gravity_refstate-mantle.xmf,165,3.20731e-06,1.08746e-05,0,5.04827e-08,-1.69607e+09,-1.69505e+09,-1.6965e+09,6747.02,-0.108669,0.0164796,-0,0.109912,10379.4,-58501.4,0,59415,6747.02
step02_gravity_refstate-mantle.xmf,166,-2.53112e-06,1.45999e-05,0,-3.5675e-06,-1.53376e+09,-1.53147e+09,-1.53343e+09,-476796,-0.060963,0.121299,-0,0.135757,7272.34,-53458.9,0,53951.3,476796
step02_gravity_refstate-mantle.xmf,167,1.86655e-06,1.98071e-06,0,1.43029e-07,-1.42451e+09,-1.42449e+09,-1.42476e+09,19115.8,-0.00316837,0.0174135,-0,0.0176994,38299.4,-50081.1,0,63047.3,19115.8
step02_gravity_refstate-mantle.xmf,168,2.05476e-06,2.03287e-06,0,5.63898e-07,-1.45648e+09,-1.45648e+09,-1.45676e+09,75365,-0.0141071,0.0161588,-0,0.0214504,33123.1,-51070.2,0,60871.2,75365
step02_gravity_refstate-mantle.xmf,169,1.86192e-06,2.04854e-06,0,4.33849e-07,-1.42614e+09,-1.42611e+09,-1.42639e+09,57983.9,-0.00968698,0.017718,-0,0.0201932,34813.4,-50131.7,0,61034,57983.9
step02_gravity_refstate-mantle.xmf,170,1.60711e-06,5.76001e-06,0,1.77642e-06,-1.52836e+09,-1.5278e+09,-1.52857e+09,237419,-0.0600082,0.0345953,-0,0.0692663,15275.5,-53297,0,55442.8,237419
step02_gravity_refstate-mantle.xmf,171,6.14317e-07,8.93363e-06,0,1.16012e-06,-1.5458e+09,-1.54469e+09,-1.54588e+09,155050,-0.0695935,0.0549478,-0,0.0886708,11382,-53837.2,0,55027.2,155050
step02_gravity_refstate-mantle.xmf,172,1.36736e-06,8.093e-06,0,1.4413e-06,-1.55895e+09,-1.55806e+09,-1.55914e+09,192630,-0.0731383,0.0455427,-0,0.0861588,12128.9,-54246.5,0,55585.9,192630
step02_gravity_refstate-mantle.xmf,173,1.24242e-06,7.4431e-06,0,1.60711e-06,-1.54337e+09,-1.54254e+09,-1.54354e+09,214790,-0.067393,0.0439961,-0,0.0804827,12914.1,-53762.6,0,55291.9,214790
step02_gravity_refstate-mantle.xmf,174,1.09643e-06,6.87922e-06,0,1.68116e-06,-1.52795e+09,-1.52718e+09,-1.5281e+09,224687,-0.0619959,0.0425304,-0,0.075182,13713.2,-53283.8,0,55020.1,224687
step02_gravity_refstate-mantle.xmf,175,2.87656e-06,2.95904e-06,0,1.33412e-06,-1.55892e+09,-1.55891e+09,-1.55931e+09,178305,-0.0497475,0.0154121,-0,0.0520802,21733,-54242.4,0,58434.3,178305
step02_gravity_refstate-mantle.xmf,176,2.54e-06,3.36793e-06,0,1.50597e-06,-1.53599e+09,-1.53588e+09,-1.53633e+09,201273,-0.049899,0.019182,-0,0.0534589,20591,-53532.8,0,57356.3,201273
step02_gravity_refstate-mantle.xmf,177,2.44313e-06,2.31392e-06,0,1.01765e-06,-1.51252e+09,-1.51253e+09,-1.51284e+09,136009,-0.0315199,0.0148799,-0,0.0348556,26868.5,-52804.4,0,59247.1,136009
step02_gravity_refstate-mantle.xmf,178,2.69185e-06,2.78959e-06,0,1.29744e-06,-1.53896e+09,-1.53894e+09,-1.53932e+09,173403,-0.0440655,0.0158775,-0,0.0468387,22957.8,-53624,0,58331.8,173403
step02_gravity_refstate-mantle.xmf,179,2.48928e-06,2.65263e-06,0,1.23877e-06,-1.51809e+09,-1.51807e+09,-1.51843e+09,165561,-0.0385998,0.0164252,-0,0.0419492,24206.5,-52977.8,0,58246.1,165561
step02_gravity_refstate-mantle.xmf,180,-2.01398e-07,9.78895e-06,0,7.43264e-07,-1.53399e+09,-1.53265e+09,-1.53396e+09,99337.2,-0.0654663,0.0655895,-0,0.0926705,10646.7,-53469,0,54518.7,99337.2
step02_gravity_refstate-mantle.xmf,181,-1.51212e-06,1.28607e-05,0,-1.46565e-06,-1.538e+09,-1.53608e+09,-1.5378e+09,-195884,-0.0652771,0.0968079,-0,0.11676,8344.02,-53592.1,0,54237.8,195884
step02_gravity_refstate-mantle.xmf,182,-1.0684e-06,1.17046e-05,0,-4.8757e-07,-1.53455e+09,-1.53284e+09,-1.53441e+09,-65163.8,-0.0647225,0.0850719,-0,0.106894,9123.05,-53485.6,0,54258.1,65163.8
step02_gravity_refstate-mantle.xmf,183,-3.16444e-06,2.05056e-05,0,-8.83549e-06,-1.56251e+09,-1.55934e+09,-1.56208e+09,-1.18086e+06,-0.0723196,0.152358,-0,0.16865,5687.02,-54357.7,0,54654.4,1.18086e+06
step02_gravity_refstate-mantle.xmf,184,1.75403e-06,1.3409e-05,0,-8.84997e-07,-1.64499e+09,-1.64343e+09,-1.64523e+09,-118280,-0.103598,0.0437925,-0,0.112474,9019.14,-56920.3,0,57630.5,118280
step02_gravity_refstate-mantle.xmf,185,1.09061e-06,1.48235e-05,0,-1.64985e-06,-1.6362e+09,-1.63436e+09,-1.63634e+09,-220502,-0.102314,0.0538407,-0,0.115616,8412.55,-56647.8,0,57269.1,220502
step02_gravity_refstate-mantle.xmf,186,4.18391e-07,1.61936e-05,0,-2.60634e-06,-1.62581e+09,-1.6237e+09,-1.62587e+09,-348338,-0.0999309,0.0661793,-0,0.119858,7839.4,-56326.1,0,56869,348338
step02_gravity_refstate-mantle.xmf,187,-2.56893e-07,1.75604e-05,0,-3.78857e-06,-1.61489e+09,-1.61251e+09,-1.61486e+09,-506342,-0.0966704,0.0807974,-0,0.12599,7280.76,-55987.7,0,56459.1,506342
step02_gravity_refstate-mantle.xmf,188,2.57889e-06,1.22732e-05,0,-2.82413e-07,-1.68068e+09,-1.67939e+09,-1.68103e+09,-37744.5,-0.108726,0.0247985,-0,0.111519,9699.72,-58025.4,0,58830.5,37744.5
step02_gravity_refstate-mantle.xmf,189,3.12705e-06,1.14262e-05,0,-1.80437e-08,-1.72155e+09,-1.72044e+09,-1.72197e+09,-2411.54,-0.111243,0.00816475,-0,0.111542,10187.6,-59289.3,0,60158.2,2411.54
step02_gravity_refstate-mantle.xmf,190,3.56684e-06,1.03694e-05,0,2.0341e-09,-1.74455e+09,-1.74364e+09,-1.74503e+09,271.858,-0.110114,-7.66683e-19,-0,0.110114,10697.4,-60000,0,60946.2,271.858
step02_gravity_refstate-mantle.xmf,191,-2.54783e-06,1.34341e-05,0,-2.43226e-06,-1.52483e+09,-1.52269e+09,-1.52449e+09,-325071,-0.0577563,0.111974,-0,0.125992,7852.58,-53179.7,0,53756.4,325071
step02_gravity_refstate-mantle.xmf,192,-3.59783e-06,1.68455e-05,0,-6.86748e-06,-1.53422e+09,-1.53149e+09,-1.53374e+09,-917839,-0.0579129,0.151332,-0,0.162035,6201.68,-53471.8,0,53830.2,917839
step02_gravity_refstate-mantle.xmf,193,-3.51332e-06,1.52609e-05,0,-5.13341e-06,-1.52466e+09,-1.52215e+09,-1.52419e+09,-686080,-0.0542721,0.139728,-0,0.149898,6736.83,-53172.9,0,53597.9,686080
step02_gravity_refstate-mantle.xmf,194,1.63849e-06,2.06055e-06,0,1.75964e-09,-1.38776e+09,-1.3877e+09,-1.38798e+09,235.176,1.59962e-20,0.0196603,0,0.0196603,40000,-48944.6,0,63210.5,235.176
step02_gravity_refstate-mantle.xmf,195,1.65181e-06,2.08586e-06,0,2.87783e-07,-1.39292e+09,-1.39286e+09,-1.39314e+09,38462.2,-0.00576156,0.0195616,-0,0.0203925,36536.6,-49104.2,0,61205.8,38462.2
step02_gravity_refstate-mantle.xmf,196,9.85064e-07,6.34354e-06,0,1.69973e-06,-1.512e+09,-1.51128e+09,-1.51213e+09,227169,-0.0567177,0.040985,-0,0.0699762,14581.3,-52789,0,54765.8,227169
step02_gravity_refstate-mantle.xmf,197,1.77907e-06,4.7351e-06,0,1.73676e-06,-1.51528e+09,-1.51488e+09,-1.51551e+09,232118,-0.0536374,0.0292227,-0,0.0610814,17304.4,-52891.4,0,55650.2,232118
step02_gravity_refstate-mantle.xmf,198,2.29685e-06,4.14641e-06,0,1.68511e-06,-1.53392e+09,-1.53367e+09,-1.53423e+09,225216,-0.0550254,0.0237653,-0,0.0599382,18359.5,-53469.2,0,56533.4,225216
step02_gravity_refstate-mantle.xmf,199,9.33256e-07,5.80136e-06,0,1.67979e-06,-1.49748e+09,-1.49683e+09,-1.49761e+09,224504,-0.0520402,0.0388648,-0,0.0649511,15558.8,-52338.9,0,54602.5,224504
step02_gravity_refstate-mantle.xmf,200,2.23414e-06,2.25855e-06,0,9.42328e-07,-1.48403e+09,-1.48402e+09,-1.48433e+09,125942,-0.0258565,0.0160745,-0,0.0304459,28351,-51922.8,0,59158.8,125942
step02_gravity_refstate-mantle.xmf,201,1.82246e-06,2.19883e-06,0,7.12689e-07,-1.42629e+09,-1.42624e+09,-1.42653e+09,95250.8,-0.0157591,0.0186219,-0,0.0243952,31510.8,-50136.4,0,59216.4,95250.8
step02_gravity_refstate-mantle.xmf,202,2.01348e-06,2.22251e-06,0,8.36777e-07,-1.4546e+09,-1.45458e+09,-1.45487e+09,111835,-0.0205249,0.0173555,-0,0.0268791,29907.9,-51012.4,0,59133.3,111835
step02_gravity_refstate-mantle.xmf,203,2.13618e-06,3.84979e-06,0,1.63838e-06,-1.51356e+09,-1.51333e+09,-1.51385e+09,218970,-0.0490667,0.0237706,-0,0.0545214,19467.5,-52838.6,0,56310.8,218970
step02_gravity_refstate-mantle.xmf,204,2.29084e-06,2.55379e-06,0,1.17233e-06,-1.49605e+09,-1.49602e+09,-1.49636e+09,156682,-0.0335033,0.0171433,-0,0.0376346,25411.6,-52295.5,0,58142.6,156682
step02_gravity_refstate-mantle.xmf,205,-1.13195e-06,1.06423e-05,0,1.39153e-07,-1.52066e+09,-1.51909e+09,-1.52051e+09,18597.9,-0.0596486,0.0785227,-0,0.0986091,9922.11,-53053.5,0,53973.4,18597.9
step02_gravity_refstate-mantle.xmf,206,-3.8894e-06,1.89954e-05,0,-9.04466e-06,-1.54364e+09,-1.54058e+09,-1.54312e+09,-1.20882e+06,-0.0615525,0.164133,-0,0.175295,5684.6,-53766.1,0,54065.8,1.20882e+06
step02_gravity_refstate-mantle.xmf,207,-2.72297e-06,2.20468e-05,0,-8.86305e-06,-1.58127e+09,-1.57796e+09,-1.5809e+09,-1.18455e+06,-0.0816226,0.140535,-0,0.162519,5667.54,-54944,0,55235.6,1.18455e+06
step02_gravity_refstate-mantle.xmf,208,-1.79145e-06,2.05071e-05,0,-6.94252e-06,-1.59241e+09,-1.58943e+09,-1.59217e+09,-927867,-0.087516,0.118338,-0,0.147183,6172.15,-55290.5,0,55634,927867
step02_gravity_refstate-mantle.xmf,209,-9.89872e-07,1.89494e-05,0,-5.19962e-06,-1.60328e+09,-1.60062e+09,-1.60315e+09,-694929,-0.0924004,0.0982881,-0,0.134901,6726.51,-55627.8,0,56033,694929
step02_gravity_refstate-mantle.xmf,210,1.83731e-06,1.38623e-05,0,-8.30594e-07,-1.66869e+09,-1.66709e+09,-1.66894e+09,-111009,-0.10832,0.033736,-0,0.113452,9025.56,-57654.2,0,58356.4,111009
step02_gravity_refstate-mantle.xmf,211,2.63733e-06,1.24092e-05,0,-1.74644e-07,-1.70296e+09,-1.70166e+09,-1.70332e+09,-23341.2,-0.111253,0.0161704,-0,0.112422,9726.39,-58714.4,0,59514.6,23341.2
step02_gravity_refstate-mantle.xmf,212,-3.50537e-06,1.40433e-05,0,-3.77755e-06,-1.51494e+09,-1.51259e+09,-1.51447e+09,-504870,-0.0508023,0.129236,-0,0.138863,7292.66,-52869.5,0,53370.1,504870
step02_gravity_refstate-mantle.xmf,213,1.41962e-06,2.15378e-06,0,1.4142e-07,-1.35412e+09,-1.35402e+09,-1.35431e+09,18900.8,-0.00240297,0.021911,-0,0.0220423,38308.4,-47904.3,0,61338,18900.8
step02_gravity_refstate-mantle.xmf,214,1.63645e-06,2.19347e-06,0,5.75256e-07,-1.3967e+09,-1.39663e+09,-1.39692e+09,76883,-0.0114467,0.0200571,-0,0.0230935,33154.3,-49221.2,0,59345.9,76883
step02_gravity_refstate-mantle.xmf,215,1.44896e-06,2.20831e-06,0,4.31143e-07,-1.36546e+09,-1.36535e+09,-1.36565e+09,57622.2,-0.00768365,0.0217148,-0,0.0230341,34800.6,-48254.8,0,59494.6,57622.2
step02_gravity_refstate-mantle.xmf,216,-3.17872e-07,9.04229e-06,0,9.86511e-07,-1.5195e+09,-1.51825e+09,-1.51946e+09,131847,-0.0602575,0.0624061,-0,0.0867496,11370.8,-53018.9,0,54224.6,131847
step02_gravity_refstate-mantle.xmf,217,3.85398e-07,8.20346e-06,0,1.3609e-06,-1.52765e+09,-1.5266e+09,-1.5277e+09,181885,-0.0630382,0.0529987,-0,0.082357,12191.5,-53273.1,0,54650.3,181885
step02_gravity_refstate-mantle.xmf,218,2.92902e-07,7.63043e-06,0,1.45791e-06,-1.51188e+09,-1.5109e+09,-1.51192e+09,194850,-0.0577171,0.051326,-0,0.0772374,12921,-52783.9,0,54342.3,194850
step02_gravity_refstate-mantle.xmf,219,2.1448e-07,7.05162e-06,0,1.4877e-06,-1.49584e+09,-1.49493e+09,-1.49587e+09,198831,-0.052656,0.0492483,-0,0.0720975,13750,-52286.6,0,54064.3,198831
step02_gravity_refstate-mantle.xmf,220,1.29321e-06,5.24161e-06,0,1.72095e-06,-1.49984e+09,-1.49932e+09,-1.50002e+09,230005,-0.0515349,0.0343954,-0,0.0619587,16510.2,-52412.7,0,54951.6,230005
step02_gravity_refstate-mantle.xmf,221,2.34834e-06,3.1553e-06,0,1.44538e-06,-1.5161e+09,-1.51599e+09,-1.51641e+09,193175,-0.0442463,0.0194043,-0,0.0483142,21780.6,-52916.5,0,57223.7,193175
step02_gravity_refstate-mantle.xmf,222,1.94226e-06,3.58182e-06,0,1.55199e-06,-1.49387e+09,-1.49365e+09,-1.49413e+09,207423,-0.043509,0.0236343,-0,0.0495138,20636,-52228.4,0,56157.4,207423
step02_gravity_refstate-mantle.xmf,223,1.92627e-06,2.53731e-06,0,1.10681e-06,-1.45415e+09,-1.45406e+09,-1.4544e+09,147926,-0.0267753,0.0193707,-0,0.0330475,26708.4,-50998.5,0,57568.9,147926
step02_gravity_refstate-mantle.xmf,224,2.02528e-06,2.83078e-06,0,1.29654e-06,-1.47522e+09,-1.47511e+09,-1.47549e+09,173283,-0.0338687,0.0200586,-0,0.0393629,24211.1,-51650.9,0,57043.7,173283
step02_gravity_refstate-mantle.xmf,225,2.1895e-06,2.9799e-06,0,1.38058e-06,-1.49555e+09,-1.49544e+09,-1.49584e+09,184514,-0.038876,0.0197257,-0,0.0435941,22982.2,-52280.3,0,57108.8,184514
step02_gravity_refstate-mantle.xmf,226,-1.18494e-06,9.81879e-06,0,4.91293e-07,-1.50822e+09,-1.50675e+09,-1.50806e+09,65661.3,-0.0554662,0.0733299,-0,0.0919444,10657.7,-52666.7,0,53734.3,65661.3
step02_gravity_refstate-mantle.xmf,227,-2.43944e-06,1.23781e-05,0,-1.45948e-06,-1.51607e+09,-1.51409e+09,-1.51574e+09,-195059,-0.055049,0.102247,-0,0.116124,8518.24,-52907.2,0,53588.5,195059
step02_gravity_refstate-mantle.xmf,228,-2.26452e-06,1.14383e-05,0,-7.37151e-07,-1.50663e+09,-1.5048e+09,-1.50633e+09,-98520.3,-0.0522917,0.0937261,-0,0.107327,9213.73,-52614.6,0,53415.2,98520.3
step02_gravity_refstate-mantle.xmf,229,-4.44684e-06,2.16307e-05,0,-1.13842e-05,-1.55307e+09,-1.54959e+09,-1.55248e+09,-1.5215e+06,-0.0652365,0.175984,-0,0.187686,5232.25,-54060.5,0,54313.1,1.5215e+06
step02_gravity_refstate-mantle.xmf,230,-3.95454e-06,2.36678e-05,0,-1.10797e-05,-1.57191e+09,-1.56822e+09,-1.57139e+09,-1.4808e+06,-0.0755644,0.163354,-0,0.179985,5211.36,-54651.1,0,54899,1.4808e+06
step02_gravity_refstate-mantle.xmf,231,1.06068e-06,1.54767e-05,0,-1.58103e-06,-1.65773e+09,-1.65581e+09,-1.65788e+09,-211305,-0.107185,0.0439096,-0,0.11583,8396.45,-57314.6,0,57926.4,211305
step02_gravity_refstate-mantle.xmf,232,2.6603e-07,1.71104e-05,0,-2.54884e-06,-1.64707e+09,-1.64481e+09,-1.6471e+09,-340652,-0.105304,0.0556774,-0,0.119117,7805.38,-56983.9,0,57516,340652
step02_gravity_refstate-mantle.xmf,233,-5.65369e-07,1.88366e-05,0,-3.78638e-06,-1.63644e+09,-1.63385e+09,-1.63636e+09,-506050,-0.102687,0.0696041,-0,0.124054,7224.26,-56654.5,0,57113.3,506050
step02_gravity_refstate-mantle.xmf,234,-1.56327e-06,2.09458e-05,0,-5.52778e-06,-1.62612e+09,-1.62311e+09,-1.62591e+09,-738788,-0.0993183,0.0869477,-0,0.132,6594.11,-56334.4,0,56719,738788
step02_gravity_refstate-mantle.xmf,235,1.81819e-06,1.43214e-05,0,-6.05198e-07,-1.69707e+09,-1.6954e+09,-1.69732e+09,-80884.7,-0.112251,0.0214166,-0,0.114275,9014.4,-58532,0,59222,80884.7
step02_gravity_refstate-mantle.xmf,236,2.26815e-06,1.34866e-05,0,-2.00058e-07,-1.72227e+09,-1.72077e+09,-1.72257e+09,-26737.7,-0.113443,0.00934833,-0,0.113828,9385.45,-59311,0,60049,26737.7
step02_gravity_refstate-mantle.xmf,237,2.79297e-06,1.2374e-05,0,7.12477e-09,-1.74455e+09,-1.74327e+09,-1.74492e+09,952.226,-0.112878,-8.79531e-19,-0,0.112878,9827.13,-60000,0,60799.4,952.226
step02_gravity_refstate-mantle.xmf,238,-3.57623e-06,1.30149e-05,0,-2.72683e-06,-1.50415e+09,-1.50194e+09,-1.50368e+09,-364441,-0.0471788,0.11979,-0,0.128746,7886.23,-52533.3,0,53121.9,364441
step02_gravity_refstate-mantle.xmf,239,-4.69483e-06,1.73487e-05,0,-9.38434e-06,-1.52484e+09,-1.52189e+09,-1.52421e+09,-1.25422e+06,-0.0500579,0.174488,-0,0.181526,5694.48,-53175.7,0,53479.8,1.25422e+06
step02_gravity_refstate-mantle.xmf,240,-4.55724e-06,1.44351e-05,0,-5.53003e-06,-1.50508e+09,-1.50254e+09,-1.50447e+09,-739088,-0.0429858,0.148758,-0,0.154844,6739.7,-52559,0,52989.3,739088
step02_gravity_refstate-mantle.xmf,241,-4.57255e-06,1.56694e-05,0,-7.20559e-06,-1.515e+09,-1.51229e+09,-1.51439e+09,-963027,-0.0463925,0.160957,-0,0.167509,6207.18,-52868.4,0,53231.5,963027
step02_gravity_refstate-mantle.xmf,242,1.18036e-06,2.23461e-06,0,3.76527e-09,-1.31617e+09,-1.31603e+09,-1.31633e+09,503.228,-1.46869e-21,0.0244149,-0,0.0244149,40000,-46730.8,0,61512.3,503.228
step02_gravity_refstate-mantle.xmf,243,1.23033e-06,2.24594e-06,0,2.75934e-07,-1.32954e+09,-1.32941e+09,-1.32971e+09,36878.6,-0.00440167,0.0238152,-0,0.0242186,36489.3,-47144.1,0,59615.7,36878.6
step02_gravity_refstate-mantle.xmf,244,1.88046e-07,6.49079e-06,0,1.48474e-06,-1.47922e+09,-1.47838e+09,-1.47924e+09,198436,-0.0477782,0.0471054,-0,0.0670945,14654.5,-51771.4,0,53805.5,198436
step02_gravity_refstate-mantle.xmf,245,1.06082e-06,5.04226e-06,0,1.64821e-06,-1.48095e+09,-1.48042e+09,-1.48109e+09,220283,-0.0466157,0.0351171,-0,0.0583629,17105.1,-51827,0,54576.7,220283
step02_gravity_refstate-mantle.xmf,246,1.50479e-06,4.45703e-06,0,1.67535e-06,-1.48878e+09,-1.48839e+09,-1.48899e+09,223911,-0.0467352,0.0300104,-0,0.055541,18274.6,-52070.5,0,55184.2,223911
step02_gravity_refstate-mantle.xmf,247,7.18808e-07,5.49148e-06,0,1.59303e-06,-1.47526e+09,-1.47462e+09,-1.47536e+09,212909,-0.0460368,0.0393862,-0,0.060586,16295.8,-51650.2,0,54159.9,212909
step02_gravity_refstate-mantle.xmf,248,1.36813e-06,2.37091e-06,0,6.96499e-07,-1.36728e+09,-1.36715e+09,-1.36746e+09,93087,-0.0123567,0.022781,-0,0.0259164,31536.2,-48311.1,0,57693.1,93087
step02_gravity_refstate-mantle.xmf,249,1.75691e-06,2.44579e-06,0,9.78652e-07,-1.42879e+09,-1.4287e+09,-1.42902e+09,130797,-0.0216221,0.0201136,-0,0.0295308,28318,-50213.8,0,57648.4,130797
step02_gravity_refstate-mantle.xmf,250,1.54897e-06,2.39788e-06,0,8.39387e-07,-1.39729e+09,-1.39717e+09,-1.39749e+09,112184,-0.016553,0.0214246,-0,0.0270743,29959.9,-49239.2,0,57637.6,112184
step02_gravity_refstate-mantle.xmf,251,1.46966e-06,4.06585e-06,0,1.59743e-06,-1.47207e+09,-1.47172e+09,-1.47226e+09,213497,-0.0417721,0.0287326,-0,0.0506998,19520.3,-51552.9,0,55124.8,213497
step02_gravity_refstate-mantle.xmf,252,1.84173e-06,2.74535e-06,0,1.21935e-06,-1.45301e+09,-1.45289e+09,-1.45325e+09,162966,-0.0294193,0.0208423,-0,0.0360541,25236.9,-50963.2,0,56869.6,162966
step02_gravity_refstate-mantle.xmf,253,-2.19267e-06,1.0561e-05,0,-2.41097e-07,-1.49451e+09,-1.49281e+09,-1.49422e+09,-32222.7,-0.0486791,0.0867654,-0,0.0994882,9951.27,-52238.4,0,53177.8,32222.7
step02_gravity_refstate-mantle.xmf,254,-5.0365e-06,1.95486e-05,0,-1.18516e-05,-1.53445e+09,-1.53116e+09,-1.53377e+09,-1.58397e+06,-0.0538866,0.187628,-0,0.195213,5242.68,-53475.9,0,53732.3,1.58397e+06
step02_gravity_refstate-mantle.xmf,255,-5.37332e-06,2.50104e-05,0,-1.36762e-05,-1.56263e+09,-1.55857e+09,-1.56191e+09,-1.82783e+06,-0.0687686,0.186273,-0,0.198562,4836.11,-54358.2,0,54572.9,1.82783e+06
step02_gravity_refstate-mantle.xmf,256,-3.8629e-06,2.58287e-05,0,-1.10448e-05,-1.59023e+09,-1.58626e+09,-1.58971e+09,-1.47614e+06,-0.0838349,0.150729,-0,0.172475,5168.61,-55222.9,0,55464.2,1.47614e+06
step02_gravity_refstate-mantle.xmf,257,-5.13659e-06,2.77838e-05,0,-1.32203e-05,-1.58101e+09,-1.57661e+09,-1.58032e+09,-1.76689e+06,-0.0781807,0.172147,-0,0.189068,4809.02,-54934.6,0,55144.7,1.76689e+06
step02_gravity_refstate-mantle.xmf,258,-2.82602e-06,2.38083e-05,0,-9.17371e-06,-1.59897e+09,-1.59541e+09,-1.59859e+09,-1.22607e+06,-0.0886819,0.129612,-0,0.157047,5612.42,-55494.6,0,55777.7,1.22607e+06
step02_gravity_refstate-mantle.xmf,259,-2.11922e-06,2.20426e-05,0,-7.0575e-06,-1.61087e+09,-1.60764e+09,-1.61058e+09,-943234,-0.0940038,0.107227,-0,0.142598,6130.65,-55862.4,0,56197.8,943234
step02_gravity_refstate-mantle.xmf,260,9.27277e-07,1.61126e-05,0,-1.32495e-06,-1.68118e+09,-1.67915e+09,-1.68131e+09,-177080,-0.111145,0.0325802,-0,0.115822,8381.85,-58039.6,0,58641.8,177080
step02_gravity_refstate-mantle.xmf,261,-4.55219e-06,1.3475e-05,0,-4.26649e-06,-1.49494e+09,-1.49253e+09,-1.49433e+09,-570216,-0.0398363,0.137998,-0,0.143633,7286.86,-52243.2,0,52748.9,570216
step02_gravity_refstate-mantle.xmf,262,9.08302e-07,2.34222e-06,0,1.50412e-07,-1.27649e+09,-1.2763e+09,-1.27661e+09,20102.6,-0.00190038,0.0273451,-0,0.027411,37937.2,-45503.4,0,59243.5,20102.6
step02_gravity_refstate-mantle.xmf,263,1.19228e-06,2.35636e-06,0,5.4123e-07,-1.33757e+09,-1.33741e+09,-1.33773e+09,72335.3,-0.00872165,0.0242112,-0,0.0257342,33172.8,-47391.9,0,57848.3,72335.3
step02_gravity_refstate-mantle.xmf,264,1.0195e-06,2.36944e-06,0,3.98412e-07,-1.30394e+09,-1.30376e+09,-1.30407e+09,53247.7,-0.00564146,0.0260877,-0,0.0266907,34736.4,-46352.1,0,57923.5,53247.7
step02_gravity_refstate-mantle.xmf,265,1.38474e-07,6.00261e-06,0,1.43434e-06,-1.46192e+09,-1.46113e+09,-1.46194e+09,191699,-0.0430752,0.0454588,-0,0.0626257,15542.9,-51235.4,0,53541.1,191699
step02_gravity_refstate-mantle.xmf,266,-1.26964e-06,9.26332e-06,0,6.22262e-07,-1.4951e+09,-1.49369e+09,-1.49493e+09,83165.4,-0.0511099,0.0710683,-0,0.0875382,11204.9,-52259.2,0,53447,83165.4
step02_gravity_refstate-mantle.xmf,267,-7.43315e-07,8.51272e-06,0,1.00618e-06,-1.49517e+09,-1.49393e+09,-1.49507e+09,134475,-0.0519694,0.062964,-0,0.0816411,12013.4,-52263.2,0,53626.1,134475
step02_gravity_refstate-mantle.xmf,268,-6.54153e-07,7.78298e-06,0,1.12294e-06,-1.48029e+09,-1.47916e+09,-1.4802e+09,150081,-0.047674,0.05891,-0,0.0757839,12918.4,-51802.1,0,53388.6,150081
step02_gravity_refstate-mantle.xmf,269,-6.22826e-07,7.1621e-06,0,1.14486e-06,-1.46325e+09,-1.46221e+09,-1.46316e+09,153011,-0.0430282,0.0561331,-0,0.0707273,13794.6,-51274.4,0,53097.6,153011
step02_gravity_refstate-mantle.xmf,270,2.99488e-07,5.46474e-06,0,1.45274e-06,-1.44898e+09,-1.44829e+09,-1.44902e+09,194158,-0.0396994,0.0424368,-0,0.0581113,16604.9,-50835.5,0,53478.7,194158
step02_gravity_refstate-mantle.xmf,271,1.78881e-06,3.35785e-06,0,1.46858e-06,-1.47343e+09,-1.47322e+09,-1.47366e+09,196275,-0.0382322,0.0236576,-0,0.0449598,21811.4,-51595.2,0,56016.1,196275
step02_gravity_refstate-mantle.xmf,272,1.32526e-06,3.78405e-06,0,1.49861e-06,-1.45108e+09,-1.45075e+09,-1.45126e+09,200290,-0.0365528,0.0284185,-0,0.0463003,20681,-50903,0,54943.7,200290
step02_gravity_refstate-mantle.xmf,273,1.41552e-06,2.85617e-06,0,1.17514e-06,-1.4099e+09,-1.40971e+09,-1.41009e+09,157057,-0.0241293,0.0241613,-0,0.0341466,25607.5,-49629.3,0,55846.3,157057
step02_gravity_refstate-mantle.xmf,274,1.51469e-06,3.01202e-06,0,1.28423e-06,-1.42971e+09,-1.42951e+09,-1.42991e+09,171638,-0.0283956,0.0241308,-0,0.037264,24246,-50242.2,0,55786.6,171638
step02_gravity_refstate-mantle.xmf,275,1.65757e-06,3.1685e-06,0,1.38357e-06,-1.45157e+09,-1.45137e+09,-1.45179e+09,184914,-0.0331048,0.0238484,-0,0.0408004,23026.2,-50918.8,0,55883.1,184914
step02_gravity_refstate-mantle.xmf,276,-2.14754e-06,9.82511e-06,0,4.98287e-08,-1.48223e+09,-1.48063e+09,-1.48194e+09,6659.6,-0.0452084,0.0814416,-0,0.0931479,10644.5,-51857.2,0,52938.4,6659.6
step02_gravity_refstate-mantle.xmf,277,-3.51528e-06,1.20942e-05,0,-1.90509e-06,-1.49302e+09,-1.49093e+09,-1.49255e+09,-254615,-0.0439082,0.110865,-0,0.119243,8528.34,-52187.2,0,52879.5,254615
step02_gravity_refstate-mantle.xmf,278,-3.31588e-06,1.12138e-05,0,-1.25299e-06,-1.48136e+09,-1.47942e+09,-1.48092e+09,-167462,-0.0410114,0.102072,-0,0.110003,9249.12,-51826.3,0,52645.2,167462
step02_gravity_refstate-mantle.xmf,279,-5.92582e-06,2.30292e-05,0,-1.51633e-05,-1.5437e+09,-1.53983e+09,-1.54291e+09,-2.02657e+06,-0.0570329,0.204363,-0,0.212172,4757.6,-53764.7,0,53974.8,2.02657e+06
step02_gravity_refstate-mantle.xmf,280,-5.18312e-06,2.96214e-05,0,-1.29298e-05,-1.59764e+09,-1.59298e+09,-1.59694e+09,-1.72807e+06,-0.0848395,0.158093,-0,0.179419,4787.4,-55452.7,0,55658.9,1.72807e+06
step02_gravity_refstate-mantle.xmf,281,-1.13578e-08,1.79797e-05,0,-2.25899e-06,-1.66906e+09,-1.66666e+09,-1.66906e+09,-301913,-0.109547,0.0440284,-0,0.118064,7780.14,-57663.9,0,58186.3,301913
step02_gravity_refstate-mantle.xmf,282,-3.25289e-06,2.44891e-05,0,-7.4282e-06,-1.62815e+09,-1.62444e+09,-1.62771e+09,-992779,-0.0982146,0.0994354,-0,0.139762,5933.83,-56394.9,0,56706.2,992779
step02_gravity_refstate-mantle.xmf,283,-9.94644e-07,1.99297e-05,0,-3.45139e-06,-1.65764e+09,-1.65485e+09,-1.65751e+09,-461278,-0.107223,0.0572383,-0,0.121544,7201.21,-57309.5,0,57760.1,461278
step02_gravity_refstate-mantle.xmf,284,-2.01248e-06,2.19517e-05,0,-4.9036e-06,-1.6468e+09,-1.6436e+09,-1.64653e+09,-655366,-0.104256,0.0722309,-0,0.126833,6651.28,-56972.9,0,57359.8,655366
step02_gravity_refstate-mantle.xmf,285,6.69096e-07,1.67513e-05,0,-9.82262e-07,-1.70259e+09,-1.70044e+09,-1.70268e+09,-131279,-0.11365,0.0221035,-0,0.115779,8316.13,-58701,0,59287.1,131279
step02_gravity_refstate-mantle.xmf,286,1.14023e-06,1.59095e-05,0,-4.45928e-07,-1.7217e+09,-1.71973e+09,-1.72186e+09,-59598.3,-0.114729,0.0113435,-0,0.115288,8612.75,-59292.3,0,59914.5,59598.3
step02_gravity_refstate-mantle.xmf,287,1.72203e-06,1.47868e-05,0,1.10573e-08,-1.74458e+09,-1.74284e+09,-1.74481e+09,1477.81,-0.114768,-1.06971e-18,-0,0.114768,8990.76,-60000,0,60669.9,1477.81
step02_gravity_refstate-mantle.xmf,288,-4.67202e-06,1.25644e-05,0,-3.44574e-06,-1.48134e+09,-1.47904e+09,-1.48072e+09,-460523,-0.0353685,0.129666,-0,0.134403,7852.76,-51820.1,0,52411.7,460523
step02_gravity_refstate-mantle.xmf,289,-5.60766e-06,1.72579e-05,0,-1.23163e-05,-1.51555e+09,-1.51249e+09,-1.5148e+09,-1.64607e+06,-0.0417968,0.198327,-0,0.202684,5248,-52882.4,0,53142.1,1.64607e+06
step02_gravity_refstate-mantle.xmf,290,-5.50006e-06,1.35914e-05,0,-6.11639e-06,-1.48609e+09,-1.48354e+09,-1.48536e+09,-817455,-0.0321376,0.157251,-0,0.160501,6734.5,-51964,0,52398.5,817455
step02_gravity_refstate-mantle.xmf,291,-5.51808e-06,1.5627e-05,0,-9.84792e-06,-1.5056e+09,-1.50278e+09,-1.50487e+09,-1.31617e+06,-0.0379633,0.184393,-0,0.188261,5695.9,-52571.7,0,52879.3,1.31617e+06
step02_gravity_refstate-mantle.xmf,292,-5.53168e-06,1.44488e-05,0,-7.73567e-06,-1.49548e+09,-1.49281e+09,-1.49474e+09,-1.03387e+06,-0.034596,0.170315,-0,0.173793,6203.18,-52256,0,52622.9,1.03387e+06
step02_gravity_refstate-mantle.xmf,293,7.26593e-07,2.38429e-06,0,4.68407e-10,-1.24425e+09,-1.24403e+09,-1.24435e+09,62.6026,-5.87539e-19,0.0295602,-0,0.0295602,40000,-44506.4,0,59840,62.6026
step02_gravity_refstate-mantle.xmf,294,8.56691e-07,2.38893e-06,0,2.73053e-07,-1.27383e+09,-1.27363e+09,-1.27394e+09,36493.6,-0.00348373,0.0279,-0,0.0281166,36089.8,-45421,0,58013.3,36493.6
step02_gravity_refstate-mantle.xmf,295,-5.77462e-07,6.60895e-06,0,1.13247e-06,-1.44594e+09,-1.44498e+09,-1.44586e+09,151354,-0.0386651,0.0537842,-0,0.0662399,14668.2,-50738.7,0,52816.4,151354
step02_gravity_refstate-mantle.xmf,296,7.79442e-07,4.90773e-06,0,1.54944e-06,-1.45797e+09,-1.45742e+09,-1.45807e+09,207083,-0.0411546,0.0366576,-0,0.0551134,17633,-51114.9,0,54070.9,207083
step02_gravity_refstate-mantle.xmf,297,9.15939e-07,2.53329e-06,0,6.3045e-07,-1.30917e+09,-1.30895e+09,-1.30929e+09,84259.7,-0.00894989,0.0271729,-0,0.0286089,31564.1,-46513.3,0,56211.9,84259.7
step02_gravity_refstate-mantle.xmf,298,1.06078e-06,2.57453e-06,0,7.82753e-07,-1.33883e+09,-1.33863e+09,-1.33898e+09,104615,-0.0124001,0.0259029,-0,0.028718,29986.3,-47430.8,0,56114.7,104615
step02_gravity_refstate-mantle.xmf,299,1.37577e-06,2.69873e-06,0,1.05471e-06,-1.39446e+09,-1.39428e+09,-1.39464e+09,140962,-0.0204294,0.0238158,-0,0.0313776,27142.4,-49151.5,0,56147.9,140962
step02_gravity_refstate-mantle.xmf,300,1.21972e-06,2.62871e-06,0,9.27068e-07,-1.36794e+09,-1.36775e+09,-1.3681e+09,123903,-0.0163198,0.0247494,-0,0.0296457,28500.9,-48331,0,56108.7,123903
step02_gravity_refstate-mantle.xmf,301,8.69511e-07,4.56878e-06,0,1.53413e-06,-1.44892e+09,-1.44843e+09,-1.44904e+09,205036,-0.0385686,0.0348151,-0,0.0519579,18516.4,-50835.2,0,54102.4,205036
step02_gravity_refstate-mantle.xmf,302,8.22713e-07,4.23824e-06,0,1.456e-06,-1.42987e+09,-1.42941e+09,-1.42998e+09,194594,-0.0340323,0.0339499,-0,0.0480707,19595,-50245.6,0,53931.3,194594
step02_gravity_refstate-mantle.xmf,303,-3.12172e-06,1.0397e-05,0,-7.89141e-07,-1.46882e+09,-1.46702e+09,-1.4684e+09,-105469,-0.038103,0.0945624,-0,0.10195,9992.15,-51438.2,0,52399.7,105469
step02_gravity_refstate-mantle.xmf,304,-1.98492e-06,9.15244e-06,0,2.78595e-07,-1.47089e+09,-1.4694e+09,-1.47063e+09,37234.2,-0.0423748,0.0764903,-0,0.0874437,11342.2,-51506.5,0,52740.5,37234.2
step02_gravity_refstate-mantle.xmf,305,-5.93817e-06,1.96526e-05,0,-1.497e-05,-1.52559e+09,-1.52217e+09,-1.52479e+09,-2.00074e+06,-0.0460592,0.211318,-0,0.216279,4857.81,-53196.5,0,53417.8,2.00074e+06
step02_gravity_refstate-mantle.xmf,306,-7.15211e-06,3.03208e-05,0,-1.63517e-05,-1.57379e+09,-1.56878e+09,-1.57284e+09,-2.18541e+06,-0.0721489,0.196558,-0,0.209382,4416.8,-54704.7,0,54882.7,2.18541e+06
step02_gravity_refstate-mantle.xmf,307,-7.18789e-06,2.74197e-05,0,-1.77617e-05,-1.55718e+09,-1.55255e+09,-1.55621e+09,-2.37385e+06,-0.0628351,0.212504,-0,0.221599,4401.87,-54183.8,0,54362.3,2.37385e+06
step02_gravity_refstate-mantle.xmf,308,-6.96832e-06,3.31395e-05,0,-1.52199e-05,-1.5906e+09,-1.58524e+09,-1.58967e+09,-2.03414e+06,-0.0799456,0.17965,-0,0.196635,4418.05,-55232.4,0,55408.8,2.03414e+06
step02_gravity_refstate-mantle.xmf,309,-5.25761e-06,2.90163e-05,0,-1.15395e-05,-1.61065e+09,-1.60607e+09,-1.60995e+09,-1.54226e+06,-0.0900221,0.137839,-0,0.164631,5037.57,-55852.7,0,56079.4,1.54226e+06
step02_gravity_refstate-mantle.xmf,310,-3.5581e-06,2.51941e-05,0,-8.78206e-06,-1.61532e+09,-1.61148e+09,-1.61484e+09,-1.17372e+06,-0.0938742,0.116806,-0,0.149853,5628.07,-55998.4,0,56280.5,1.17372e+06
step02_gravity_refstate-mantle.xmf,311,-3.25609e-06,2.43271e-05,0,-6.29345e-06,-1.64238e+09,-1.63869e+09,-1.64194e+09,-841120,-0.102033,0.0841923,-0,0.132284,6152.17,-56834.1,0,57166.1,841120
step02_gravity_refstate-mantle.xmf,312,-3.25735e-07,1.87342e-05,0,-1.7403e-06,-1.692e+09,-1.68946e+09,-1.69196e+09,-232591,-0.112674,0.0312086,-0,0.116916,7758.45,-58372.2,0,58885.6,232591
step02_gravity_refstate-mantle.xmf,313,-5.4209e-06,1.29661e-05,0,-5.03401e-06,-1.47801e+09,-1.47556e+09,-1.47729e+09,-672795,-0.0304117,0.146889,-0,0.150004,7215.3,-51713.3,0,52214.2,672795
step02_gravity_refstate-mantle.xmf,314,7.41935e-07,2.51579e-06,0,4.69554e-07,-1.27563e+09,-1.27539e+09,-1.27573e+09,62755.9,-0.0059163,0.0288868,-0,0.0294865,33153.8,-45476,0,56278.3,62755.9
step02_gravity_refstate-mantle.xmf,315,3.13549e-07,2.5096e-06,0,1.61511e-09,-1.17177e+09,-1.17148e+09,-1.17181e+09,215.859,-9.38452e-22,0.0350573,-0,0.0350573,40000,-42265,0,58192.2,215.859
step02_gravity_refstate-mantle.xmf,316,4.66282e-07,2.47397e-06,0,9.15679e-08,-1.20248e+09,-1.20221e+09,-1.20254e+09,12238.1,-0.000832028,0.0328199,-0,0.0328304,38257.8,-43214.6,0,57716.2,12238.1
step02_gravity_refstate-mantle.xmf,317,5.95817e-07,2.51461e-06,0,3.32446e-07,-1.24154e+09,-1.24129e+09,-1.24162e+09,44431.4,-0.00358077,0.0308277,-0,0.031035,34663.9,-44422.2,0,56346.4,44431.4
step02_gravity_refstate-mantle.xmf,318,4.99789e-07,2.49623e-06,0,2.00523e-07,-1.21634e+09,-1.21607e+09,-1.2164e+09,26800,-0.00195764,0.0321645,-0,0.0322241,36382.4,-43642.9,0,56818.9,26800
step02_gravity_refstate-mantle.xmf,319,-5.30674e-07,6.09861e-06,0,1.10132e-06,-1.42837e+09,-1.42749e+09,-1.4283e+09,147192,-0.0345682,0.0516057,-0,0.0621137,15569,-50195,0,52554.1,147192
step02_gravity_refstate-mantle.xmf,320,-1.35828e-06,7.19792e-06,0,6.80068e-07,-1.43101e+09,-1.42987e+09,-1.43083e+09,90891.1,-0.0336317,0.0631963,-0,0.0715881,13810.4,-50273.9,0,52136.3,90891.1
step02_gravity_refstate-mantle.xmf,321,-1.6862e-06,8.4606e-06,0,5.24002e-07,-1.46131e+09,-1.45996e+09,-1.46109e+09,70032.8,-0.0404958,0.0706742,-0,0.081454,12141.2,-51210.9,0,52630.4,70032.8
step02_gravity_refstate-mantle.xmf,322,-1.50515e-06,7.80502e-06,0,6.34615e-07,-1.44725e+09,-1.446e+09,-1.44704e+09,84816.2,-0.037265,0.0664993,-0,0.0762289,12966.8,-50775.8,0,52405.4,84816.2
step02_gravity_refstate-mantle.xmf,323,2.26021e-07,5.07481e-06,0,1.35794e-06,-1.42838e+09,-1.42773e+09,-1.42841e+09,181488,-0.034831,0.0415723,-0,0.0542352,17549.3,-50197.8,0,53177,181488
step02_gravity_refstate-mantle.xmf,324,1.19814e-06,3.55164e-06,0,1.40255e-06,-1.42866e+09,-1.42835e+09,-1.42882e+09,187450,-0.0315273,0.0283755,-0,0.0424163,21847.9,-50208.9,0,54756.4,187450
step02_gravity_refstate-mantle.xmf,325,7.127e-07,3.96055e-06,0,1.35296e-06,-1.40738e+09,-1.40695e+09,-1.40748e+09,180823,-0.0292331,0.0336034,-0,0.0445395,20702.7,-49549.5,0,53700.6,180823
step02_gravity_refstate-mantle.xmf,326,9.21522e-07,3.01436e-06,0,1.08803e-06,-1.36165e+09,-1.36137e+09,-1.36178e+09,145415,-0.0187241,0.0284394,-0,0.0340498,25687.5,-48135.9,0,54561.1,145415
step02_gravity_refstate-mantle.xmf,327,9.92397e-07,3.17772e-06,0,1.20063e-06,-1.38273e+09,-1.38244e+09,-1.38286e+09,160464,-0.0225027,0.0285326,-0,0.0363384,24311.1,-48787.8,0,54509.4,160464
step02_gravity_refstate-mantle.xmf,328,1.097e-06,3.35239e-06,0,1.30836e-06,-1.40545e+09,-1.40514e+09,-1.40559e+09,174862,-0.0267859,0.028457,-0,0.0390805,23053.7,-49490.7,0,54596.7,174862
step02_gravity_refstate-mantle.xmf,329,-2.93712e-06,9.68387e-06,0,-4.92271e-07,-1.45639e+09,-1.4547e+09,-1.45599e+09,-65792,-0.0353846,0.0885998,-0,0.0954044,10697.6,-51053.4,0,52162.2,65792
step02_gravity_refstate-mantle.xmf,330,-4.43005e-06,1.16911e-05,0,-2.49862e-06,-1.46982e+09,-1.46766e+09,-1.46922e+09,-333941,-0.0331428,0.118546,-0,0.123092,8575.86,-51463.4,0,52173.1,333941
step02_gravity_refstate-mantle.xmf,331,-4.15321e-06,1.08585e-05,0,-1.90001e-06,-1.45615e+09,-1.45414e+09,-1.45559e+09,-253937,-0.0303781,0.109521,-0,0.113656,9320.7,-51040.9,0,51884.9,253937
step02_gravity_refstate-mantle.xmf,332,-6.16399e-06,1.63285e-05,0,-1.55344e-05,-1.50551e+09,-1.5025e+09,-1.50468e+09,-2.07617e+06,-0.032934,0.222725,-0,0.225147,4855.41,-52566.2,0,52790,2.07617e+06
step02_gravity_refstate-mantle.xmf,333,-6.76148e-06,2.1777e-05,0,-1.91645e-05,-1.52971e+09,-1.52589e+09,-1.5288e+09,-2.56133e+06,-0.0458392,0.233332,-0,0.237792,4408.77,-53323.7,0,53505.6,2.56133e+06
step02_gravity_refstate-mantle.xmf,334,-7.26324e-06,2.51346e-05,0,-1.95331e-05,-1.54348e+09,-1.53915e+09,-1.54251e+09,-2.6106e+06,-0.0539648,0.228271,-0,0.234563,4323.7,-53754.4,0,53928,2.6106e+06
step02_gravity_refstate-mantle.xmf,335,-1.02702e-05,3.79651e-05,0,-1.96126e-05,-1.58335e+09,-1.5769e+09,-1.58197e+09,-2.62122e+06,-0.0731277,0.208107,-0,0.220582,4000,-54998.6,0,55143.8,2.62122e+06
step02_gravity_refstate-mantle.xmf,336,-6.12742e-06,3.3881e-05,0,-1.4993e-05,-1.60566e+09,-1.60031e+09,-1.60484e+09,-2.00382e+06,-0.0851854,0.162036,-0,0.183063,4460.59,-55705,0,55883.3,2.00382e+06
step02_gravity_refstate-mantle.xmf,337,-5.2303e-06,2.84267e-05,0,-9.35532e-06,-1.62913e+09,-1.62464e+09,-1.62844e+09,-1.25034e+06,-0.0960094,0.112174,-0,0.147651,5367.79,-56422.3,0,56677,1.25034e+06
step02_gravity_refstate-mantle.xmf,338,-1.46968e-06,2.09063e-05,0,-2.83525e-06,-1.67953e+09,-1.67654e+09,-1.67934e+09,-378931,-0.110628,0.0436923,-0,0.118943,7179.74,-57984.9,0,58427.8,378931
step02_gravity_refstate-mantle.xmf,339,-4.91355e-06,2.74466e-05,0,-7.47901e-06,-1.64457e+09,-1.64025e+09,-1.64392e+09,-999570,-0.100487,0.0918396,-0,0.136132,5678.34,-56898.8,0,57181.4,999570
step02_gravity_refstate-mantle.xmf,340,-4.00258e-06,2.56481e-05,0,-5.73537e-06,-1.658e+09,-1.65403e+09,-1.65746e+09,-766532,-0.104551,0.0731918,-0,0.127624,6094.96,-57314.9,0,57638.1,766532
step02_gravity_refstate-mantle.xmf,341,-2.70841e-06,2.32278e-05,0,-4.20787e-06,-1.66787e+09,-1.6644e+09,-1.66751e+09,-562381,-0.107807,0.0580782,-0,0.122456,6616.29,-57622.3,0,58000.9,562381
step02_gravity_refstate-mantle.xmf,342,-4.75459e-07,1.91272e-05,0,-9.0279e-07,-1.71885e+09,-1.71623e+09,-1.71878e+09,-120658,-0.114848,0.015381,-0,0.115873,7779.83,-59201.4,0,59710.4,120658
step02_gravity_refstate-mantle.xmf,343,3.03761e-07,1.76558e-05,0,1.94256e-08,-1.74465e+09,-1.74233e+09,-1.74469e+09,2596.24,-0.115589,-1.44889e-18,-0,0.115589,8185.04,-60000,0,60555.7,2596.24
step02_gravity_refstate-mantle.xmf,344,-6.15753e-06,1.49006e-05,0,-1.27837e-05,-1.49644e+09,-1.49363e+09,-1.49562e+09,-1.70854e+06,-0.0294785,0.208282,-0,0.210358,5241.25,-52282.5,0,52544.6,1.70854e+06
step02_gravity_refstate-mantle.xmf,345,-5.75836e-06,1.22977e-05,0,-4.92775e-06,-1.46309e+09,-1.46068e+09,-1.46232e+09,-658594,-0.0242793,0.146043,-0,0.148048,7471.45,-51248.3,0,51790.1,658594
step02_gravity_refstate-mantle.xmf,346,-6.23258e-06,1.26941e-05,0,-6.66732e-06,-1.46746e+09,-1.46493e+09,-1.46663e+09,-891087,-0.0223287,0.163448,-0,0.164966,6782.89,-51381.2,0,51827,891087
step02_gravity_refstate-mantle.xmf,347,-6.34868e-06,1.31812e-05,0,-8.38583e-06,-1.4759e+09,-1.47329e+09,-1.47505e+09,-1.12077e+06,-0.0232051,0.178861,-0,0.18036,6201.22,-51642.4,0,52013.4,1.12077e+06
step02_gravity_refstate-mantle.xmf,348,-6.26755e-06,1.38977e-05,0,-1.03568e-05,-1.48626e+09,-1.48357e+09,-1.48542e+09,-1.38419e+06,-0.0260277,0.193299,-0,0.195044,5697.2,-51964.8,0,52276.2,1.38419e+06
step02_gravity_refstate-mantle.xmf,349,4.89977e-07,2.67654e-06,0,5.2844e-07,-1.25357e+09,-1.25328e+09,-1.25364e+09,70626,-0.00583628,0.0316965,-0,0.0322293,31496.4,-44793.5,0,54758.4,70626
step02_gravity_refstate-mantle.xmf,350,1.94673e-07,2.54316e-06,0,5.52945e-08,-1.15113e+09,-1.15081e+09,-1.15115e+09,7390.11,-0.000334034,0.0367881,-0,0.0367897,38368.7,-41626.7,0,56612.1,7390.11
step02_gravity_refstate-mantle.xmf,351,-2.12588e-08,2.55312e-06,0,-7.69749e-09,-1.09851e+09,-1.09817e+09,-1.09851e+09,-1028.77,3.28514e-20,0.0408058,0,0.0408058,40000,-40000,0,56568.5,1028.77
step02_gravity_refstate-mantle.xmf,352,-1.22903e-06,6.64001e-06,0,6.90933e-07,-1.4133e+09,-1.41225e+09,-1.41313e+09,92343.2,-0.0298713,0.0604751,-0,0.0674502,14670.6,-49726.1,0,51845,92343.2
step02_gravity_refstate-mantle.xmf,353,-4.20076e-07,5.60769e-06,0,1.09319e-06,-1.41061e+09,-1.4098e+09,-1.41055e+09,146105,-0.0307452,0.0493206,-0,0.0581187,16545.2,-49645.7,0,52330.1,146105
step02_gravity_refstate-mantle.xmf,354,6.05683e-07,2.72469e-06,0,6.75694e-07,-1.28354e+09,-1.28326e+09,-1.28362e+09,90306.5,-0.00851264,0.0304268,-0,0.0315951,29997.7,-45720.1,0,54682.6,90306.5
step02_gravity_refstate-mantle.xmf,355,7.0928e-07,2.79918e-06,0,8.21972e-07,-1.31039e+09,-1.31011e+09,-1.31049e+09,109857,-0.0115024,0.0295561,-0,0.0317154,28527.4,-46550.5,0,54596.4,109857
step02_gravity_refstate-mantle.xmf,356,8.30565e-07,2.88918e-06,0,9.62557e-07,-1.33817e+09,-1.3379e+09,-1.33828e+09,128646,-0.0150838,0.0287423,-0,0.0324599,27086.7,-47409.7,0,54601.9,128646
step02_gravity_refstate-mantle.xmf,357,2.54742e-07,4.70524e-06,0,1.31261e-06,-1.41032e+09,-1.40973e+09,-1.41035e+09,175431,-0.0308418,0.0402441,-0,0.0507031,18548.7,-49639.1,0,52991.4,175431
step02_gravity_refstate-mantle.xmf,358,2.26419e-07,4.37243e-06,0,1.23628e-06,-1.3887e+09,-1.38814e+09,-1.38873e+09,165228,-0.0264603,0.0393772,-0,0.0474416,19614.5,-48970.1,0,52752.2,165228
step02_gravity_refstate-mantle.xmf,359,-3.8651e-06,1.01238e-05,0,-1.47392e-06,-1.44315e+09,-1.44128e+09,-1.44263e+09,-196990,-0.0280479,0.102198,-0,0.105977,10029.4,-50639.4,0,51623.1,196990
step02_gravity_refstate-mantle.xmf,360,-5.45042e-06,1.16736e-05,0,-3.97083e-06,-1.45324e+09,-1.45095e+09,-1.45251e+09,-530702,-0.0231387,0.134924,-0,0.136894,8087.91,-50944.6,0,51582.6,530702
step02_gravity_refstate-mantle.xmf,361,-2.68899e-06,9.01503e-06,0,-2.55309e-07,-1.44413e+09,-1.44257e+09,-1.44377e+09,-34122.1,-0.0329849,0.0831624,-0,0.089465,11418.9,-50674.9,0,51945.5,34122.1
step02_gravity_refstate-mantle.xmf,362,-6.48492e-06,1.81618e-05,0,-1.94943e-05,-1.51322e+09,-1.50992e+09,-1.51235e+09,-2.60541e+06,-0.0352338,0.24265,-0,0.245195,4424.94,-52806.9,0,52992,2.60541e+06
step02_gravity_refstate-mantle.xmf,363,-9.43284e-06,3.36141e-05,0,-2.16202e-05,-1.56733e+09,-1.56158e+09,-1.56607e+09,-2.88955e+06,-0.0651834,0.225996,-0,0.235209,4000,-54498.4,0,54645,2.88955e+06
step02_gravity_refstate-mantle.xmf,364,-8.69383e-06,2.92008e-05,0,-2.29464e-05,-1.55138e+09,-1.54632e+09,-1.55022e+09,-3.06678e+06,-0.056148,0.241666,-0,0.248103,4000,-53999.3,0,54147.3,3.06678e+06
step02_gravity_refstate-mantle.xmf,365,-7.935e-06,2.47603e-05,0,-2.38896e-05,-1.5354e+09,-1.53103e+09,-1.53434e+09,-3.19284e+06,-0.0464033,0.255155,-0,0.25934,4000,-53499.2,0,53648.6,3.19284e+06
step02_gravity_refstate-mantle.xmf,366,-1.05988e-05,4.21034e-05,0,-1.64771e-05,-1.59923e+09,-1.59219e+09,-1.59782e+09,-2.20216e+06,-0.0793017,0.18812,-0,0.204152,4000,-55497.8,0,55641.7,2.20216e+06
step02_gravity_refstate-mantle.xmf,367,-9.3173e-06,3.55146e-05,0,-1.30178e-05,-1.61968e+09,-1.61369e+09,-1.61843e+09,-1.73983e+06,-0.0883092,0.145582,-0,0.170273,4520.15,-56121,0,56302.7,1.73983e+06
step02_gravity_refstate-mantle.xmf,368,-1.96136e-06,2.1803e-05,0,-1.98991e-06,-1.70217e+09,-1.69899e+09,-1.70191e+09,-265952,-0.112921,0.0291464,-0,0.116622,7135.83,-58683.2,0,59115.5,265952
step02_gravity_refstate-mantle.xmf,369,-6.33758e-06,1.3378e-05,0,-1.60393e-05,-1.48758e+09,-1.48495e+09,-1.48674e+09,-2.14365e+06,-0.0212744,0.232568,-0,0.233539,4826.55,-52003.8,0,52227.3,2.14365e+06
step02_gravity_refstate-mantle.xmf,370,3.02586e-07,2.65593e-06,0,3.62194e-07,-1.2134e+09,-1.21309e+09,-1.21344e+09,48407.2,-0.00328153,0.0339604,-0,0.0341185,32987,-43551.3,0,54633.9,48407.2
step02_gravity_refstate-mantle.xmf,371,1.70891e-07,2.56989e-06,0,1.12788e-07,-1.15473e+09,-1.15441e+09,-1.15476e+09,15074.2,-0.000670168,0.0368717,-0,0.0368778,36780,-41738,0,55631.2,15074.2
step02_gravity_refstate-mantle.xmf,372,-5.51701e-08,2.57893e-06,0,2.03206e-08,-1.09852e+09,-1.09817e+09,-1.09851e+09,2715.84,8.59707e-05,0.0410883,0,0.0410883,37718.5,-40000,0,54978.9,2715.84
step02_gravity_refstate-mantle.xmf,373,1.48338e-07,2.63892e-06,0,2.1266e-07,-1.16804e+09,-1.16771e+09,-1.16806e+09,28422,-0.00131384,0.0367171,-0,0.0367406,34599.7,-42149.1,0,54531.5,28422
step02_gravity_refstate-mantle.xmf,374,-1.12667e-06,6.11704e-06,0,6.72953e-07,-1.39369e+09,-1.39273e+09,-1.39354e+09,89940.1,-0.025956,0.0581637,-0,0.0636925,15570.4,-49119.8,0,51528.6,89940.1
step02_gravity_refstate-mantle.xmf,375,-1.94526e-06,7.12685e-06,0,1.43391e-07,-1.39926e+09,-1.39805e+09,-1.399e+09,19164.2,-0.024715,0.0702009,-0,0.0744244,13816.3,-49289,0,51188.9,19164.2
step02_gravity_refstate-mantle.xmf,376,-2.17235e-06,7.72609e-06,0,5.78766e-08,-1.41584e+09,-1.41451e+09,-1.41555e+09,7735.21,-0.0277174,0.0738879,-0,0.0789156,12986.6,-49800.9,0,51466.4,7735.21
step02_gravity_refstate-mantle.xmf,377,-2.41617e-06,8.35428e-06,0,-6.71321e-08,-1.43067e+09,-1.42923e+09,-1.43035e+09,-8972.21,-0.0304638,0.0781608,-0,0.0838877,12191.5,-50259.2,0,51716.8,8972.21
step02_gravity_refstate-mantle.xmf,378,-3.71011e-07,5.17982e-06,0,1.04933e-06,-1.3917e+09,-1.39096e+09,-1.39165e+09,140243,-0.026926,0.0475439,-0,0.0546391,17517.8,-49060.9,0,52094.6,140243
step02_gravity_refstate-mantle.xmf,379,2.60032e-07,2.82007e-06,0,5.51433e-07,-1.23877e+09,-1.23843e+09,-1.2388e+09,73699,-0.00546869,0.0341657,-0,0.0346006,30102.7,-44335.1,0,53588.9,73699
step02_gravity_refstate-mantle.xmf,380,4.02385e-07,3.16863e-06,0,9.37483e-07,-1.31026e+09,-1.30989e+09,-1.31031e+09,125295,-0.0130816,0.0333858,-0,0.0358572,25668.3,-46545.2,0,53153.7,125295
step02_gravity_refstate-mantle.xmf,381,5.91836e-07,3.73113e-06,0,1.24916e-06,-1.38161e+09,-1.38119e+09,-1.38169e+09,166950,-0.0243351,0.03371,-0,0.041576,21834.8,-48751.9,0,53418.2,166950
step02_gravity_refstate-mantle.xmf,382,1.36514e-07,4.10476e-06,0,1.1327e-06,-1.36438e+09,-1.36385e+09,-1.3644e+09,151386,-0.022005,0.0391518,-0,0.044912,20642.8,-48217.6,0,52450.5,151386
step02_gravity_refstate-mantle.xmf,383,4.64849e-07,3.33014e-06,0,1.05186e-06,-1.3344e+09,-1.33402e+09,-1.33446e+09,140581,-0.0164732,0.0334042,-0,0.0372452,24308.9,-47291.7,0,53173.6,140581
step02_gravity_refstate-mantle.xmf,384,5.23831e-07,3.51979e-06,0,1.15503e-06,-1.35712e+09,-1.35672e+09,-1.35719e+09,154370,-0.0200816,0.0336386,-0,0.0391769,23033.8,-47994.5,0,53235.6,154370
step02_gravity_refstate-mantle.xmf,385,-3.58833e-06,9.43896e-06,0,-1.17968e-06,-1.42959e+09,-1.42785e+09,-1.42911e+09,-157664,-0.025688,0.0961564,-0,0.0995285,10727.8,-50220.7,0,51353.7,157664
step02_gravity_refstate-mantle.xmf,386,-5.11274e-06,1.10672e-05,0,-3.23068e-06,-1.44336e+09,-1.4412e+09,-1.44267e+09,-431780,-0.0221116,0.125463,-0,0.127397,8699.33,-50640,0,51381.8,431780
step02_gravity_refstate-mantle.xmf,387,-4.75434e-06,1.0405e-05,0,-2.67261e-06,-1.43131e+09,-1.42928e+09,-1.43067e+09,-357194,-0.0205886,0.117033,-0,0.118831,9360.64,-50268.5,0,51132.6,357194
step02_gravity_refstate-mantle.xmf,388,-6.20782e-06,1.44887e-05,0,-1.97889e-05,-1.49615e+09,-1.49338e+09,-1.49532e+09,-2.64479e+06,-0.0241629,0.251646,-0,0.252803,4419.84,-52272.2,0,52458.7,2.64479e+06
step02_gravity_refstate-mantle.xmf,389,-7.12983e-06,2.02936e-05,0,-2.44859e-05,-1.51942e+09,-1.51576e+09,-1.51847e+09,-3.27254e+06,-0.036323,0.266405,-0,0.26887,4000,-52999.8,0,53150.5,3.27254e+06
step02_gravity_refstate-mantle.xmf,390,-1.39714e-05,4.01116e-05,0,-1.38286e-05,-1.61639e+09,-1.60916e+09,-1.61452e+09,-1.84819e+06,-0.0820617,0.166173,-0,0.185331,4000,-56000,0,56142.7,1.84819e+06
step02_gravity_refstate-mantle.xmf,391,-8.1275e-06,3.31659e-05,0,-1.08053e-05,-1.63052e+09,-1.625e+09,-1.62944e+09,-1.44413e+06,-0.0925465,0.125536,-0,0.155962,4813.28,-56457.9,0,56662.7,1.44413e+06
step02_gravity_refstate-mantle.xmf,392,-7.34549e-06,3.16746e-05,0,-8.79693e-06,-1.64575e+09,-1.64053e+09,-1.64476e+09,-1.17571e+06,-0.0971913,0.102886,-0,0.141533,5115.59,-56929.6,0,57158.9,1.17571e+06
step02_gravity_refstate-mantle.xmf,393,-3.38205e-06,2.43342e-05,0,-3.25797e-06,-1.6892e+09,-1.68549e+09,-1.68874e+09,-435428,-0.110228,0.0429668,-0,0.118306,6570.67,-58279.4,0,58648.6,435428
step02_gravity_refstate-mantle.xmf,394,-6.67816e-06,3.01306e-05,0,-6.63964e-06,-1.66416e+09,-1.65924e+09,-1.66327e+09,-887388,-0.101976,0.0786203,-0,0.128765,5461.16,-57499,0,57757.8,887388
step02_gravity_refstate-mantle.xmf,395,-4.95846e-06,2.71302e-05,0,-4.68908e-06,-1.6783e+09,-1.67402e+09,-1.67764e+09,-626695,-0.106808,0.0577919,-0,0.121441,6020.77,-57939.6,0,58251.6,626695
step02_gravity_refstate-mantle.xmf,396,-2.69901e-06,2.30908e-05,0,-1.05968e-06,-1.72444e+09,-1.72099e+09,-1.72408e+09,-141626,-0.113781,0.0146201,-0,0.114716,6956.93,-59369.6,0,59775.8,141626
step02_gravity_refstate-mantle.xmf,397,-1.48686e-06,2.09786e-05,0,1.54437e-08,-1.74476e+09,-1.74176e+09,-1.74456e+09,2064.05,-0.115119,-1.37422e-18,-0,0.115119,7406.53,-60000,0,60455.4,2064.05
step02_gravity_refstate-mantle.xmf,398,-6.30501e-06,1.14058e-05,0,-5.77588e-06,-1.44022e+09,-1.43786e+09,-1.43938e+09,-771946,-0.0139036,0.15359,-0,0.154218,7506.37,-50536.1,0,51090.5,771946
step02_gravity_refstate-mantle.xmf,399,-6.63624e-06,1.26248e-05,0,-1.32879e-05,-1.47756e+09,-1.47499e+09,-1.47667e+09,-1.77593e+06,-0.0177187,0.217232,-0,0.217954,5223.67,-51690.3,0,51953.6,1.77593e+06
step02_gravity_refstate-mantle.xmf,400,-6.67877e-06,1.16638e-05,0,-7.18623e-06,-1.44732e+09,-1.44487e+09,-1.44643e+09,-960439,-0.0129958,0.168262,-0,0.168763,6878.43,-50753.4,0,51217.4,960439
step02_gravity_refstate-mantle.xmf,401,-6.97033e-06,1.18199e-05,0,-9.19632e-06,-1.45425e+09,-1.45173e+09,-1.45331e+09,-1.22909e+06,-0.0116516,0.187451,-0,0.187813,6196.44,-50965.8,0,51341.1,1.22909e+06
step02_gravity_refstate-mantle.xmf,402,-6.86516e-06,1.21419e-05,0,-1.11358e-05,-1.46675e+09,-1.46421e+09,-1.46583e+09,-1.4883e+06,-0.0144806,0.202709,-0,0.203225,5660.88,-51353.4,0,51664.5,1.4883e+06
step02_gravity_refstate-mantle.xmf,403,8.98155e-08,2.80388e-06,0,4.0382e-07,-1.20062e+09,-1.20025e+09,-1.20063e+09,53970.6,-0.00304006,0.0364538,-0,0.0365803,31170.9,-43155.4,0,53235.5,53970.6
step02_gravity_refstate-mantle.xmf,404,-1.75224e-06,6.5759e-06,0,1.94236e-07,-1.381e+09,-1.37989e+09,-1.38077e+09,25959.6,-0.0214813,0.0671889,-0,0.0705394,14657.5,-48724.8,0,50881.7,25959.6
step02_gravity_refstate-mantle.xmf,405,-1.00088e-06,5.63374e-06,0,6.78015e-07,-1.37351e+09,-1.37262e+09,-1.37338e+09,90616.7,-0.0222457,0.0559564,-0,0.0602162,16514.3,-48496,0,51230.7,90616.7
step02_gravity_refstate-mantle.xmf,406,1.99748e-07,2.94754e-06,0,6.48376e-07,-1.24971e+09,-1.24935e+09,-1.24974e+09,86655.4,-0.00659801,0.0349047,-0,0.0355229,28566.3,-44673.1,0,53025.6,86655.4
step02_gravity_refstate-mantle.xmf,407,3.30377e-07,3.03918e-06,0,8.09164e-07,-1.28441e+09,-1.28405e+09,-1.28446e+09,108145,-0.00995749,0.0336887,-0,0.0351295,27074.3,-45746.1,0,53157.5,108145
step02_gravity_refstate-mantle.xmf,408,-3.11361e-07,4.79028e-06,0,1.01981e-06,-1.37141e+09,-1.37073e+09,-1.37137e+09,136298,-0.0231245,0.0459812,-0,0.0514686,18545.2,-48433.5,0,51862.6,136298
step02_gravity_refstate-mantle.xmf,409,-2.96463e-07,4.46215e-06,0,9.68452e-07,-1.35003e+09,-1.3494e+09,-1.34999e+09,129434,-0.0194216,0.0448593,-0,0.048883,19562.2,-47772.5,0,51622.6,129434
step02_gravity_refstate-mantle.xmf,410,-4.39365e-06,9.75652e-06,0,-2.24862e-06,-1.41841e+09,-1.41652e+09,-1.41783e+09,-300529,-0.018905,0.109941,-0,0.111554,10022.6,-49870.9,0,50868.1,300529
step02_gravity_refstate-mantle.xmf,411,-5.91682e-06,1.09502e-05,0,-4.80293e-06,-1.43069e+09,-1.42844e+09,-1.4299e+09,-641912,-0.0136495,0.142253,-0,0.142907,8114.78,-50243.1,0,50894.2,641912
step02_gravity_refstate-mantle.xmf,412,-3.30065e-06,8.78311e-06,0,-9.60625e-07,-1.41491e+09,-1.4133e+09,-1.41447e+09,-128388,-0.0231978,0.0909618,-0,0.0938732,11441.5,-49767.6,0,51065.8,128388
step02_gravity_refstate-mantle.xmf,413,-5.95905e-06,1.10709e-05,0,-1.9692e-05,-1.4795e+09,-1.47722e+09,-1.4787e+09,-2.63184e+06,-0.013814,0.257973,-0,0.258343,4424.61,-51750.7,0,51939.5,2.63184e+06
step02_gravity_refstate-mantle.xmf,414,-6.32626e-06,1.58727e-05,0,-2.47626e-05,-1.50345e+09,-1.50048e+09,-1.5026e+09,-3.30952e+06,-0.0261776,0.275437,-0,0.276678,4000,-52500.3,0,52652.5,3.30952e+06
step02_gravity_refstate-mantle.xmf,415,-1.13764e-05,3.84923e-05,0,-1.14463e-05,-1.63139e+09,-1.62472e+09,-1.62987e+09,-1.5298e+06,-0.0873214,0.139773,-0,0.164807,4266.86,-56476.5,0,56637.5,1.5298e+06
step02_gravity_refstate-mantle.xmf,416,-3.77418e-06,2.48716e-05,0,-2.11637e-06,-1.70905e+09,-1.70522e+09,-1.70855e+09,-282853,-0.111771,0.0279087,-0,0.115203,6569.35,-58891.6,0,59256.8,282853
step02_gravity_refstate-mantle.xmf,417,-6.46503e-06,1.0656e-05,0,-1.63847e-05,-1.47027e+09,-1.46798e+09,-1.4694e+09,-2.18981e+06,-0.0106532,0.240473,-0,0.240709,4799.62,-51461.2,0,51684.5,2.18981e+06
step02_gravity_refstate-mantle.xmf,418,-1.13048e-07,2.77645e-06,0,2.25099e-07,-1.15432e+09,-1.15393e+09,-1.1543e+09,30084.5,-0.000900019,0.039375,-0,0.0393853,32380,-41723.7,0,52814.1,30084.5
step02_gravity_refstate-mantle.xmf,419,-1.4663e-07,2.64395e-06,0,3.864e-08,-1.09853e+09,-1.09816e+09,-1.09851e+09,5164.24,0.00030133,0.0419075,0,0.0419085,35541.8,-40000,0,53509.1,5164.24
step02_gravity_refstate-mantle.xmf,420,-1.07477e-07,2.95477e-06,0,4.36317e-07,-1.19684e+09,-1.19644e+09,-1.19683e+09,58313.8,-0.00280264,0.0386051,-0,0.0387067,29473.8,-43037.9,0,52162.9,58313.8
step02_gravity_refstate-mantle.xmf,421,-1.61049e-06,6.04917e-06,0,1.98186e-07,-1.35917e+09,-1.35814e+09,-1.35895e+09,26487.5,-0.0176939,0.0648634,-0,0.0672334,15542.4,-48049.9,0,50501.1,26487.5
step02_gravity_refstate-mantle.xmf,422,-2.37634e-06,6.9517e-06,0,-4.21228e-07,-1.36814e+09,-1.36689e+09,-1.36782e+09,-56297.1,-0.0164329,0.0770935,-0,0.0788254,13804.8,-48324.2,0,50257.4,56297.1
step02_gravity_refstate-mantle.xmf,423,-2.65814e-06,7.53304e-06,0,-5.58504e-07,-1.3853e+09,-1.38394e+09,-1.38495e+09,-74644.1,-0.0189515,0.0810651,-0,0.0832509,12991.3,-48854.1,0,50551.9,74644.1
step02_gravity_refstate-mantle.xmf,424,-2.99078e-06,8.14169e-06,0,-7.65888e-07,-1.39975e+09,-1.39826e+09,-1.39935e+09,-102361,-0.0208479,0.0860596,-0,0.0885488,12192.9,-49299.6,0,50785,102361
step02_gravity_refstate-mantle.xmf,425,-8.93313e-07,5.19526e-06,0,6.76549e-07,-1.35348e+09,-1.35267e+09,-1.35336e+09,90420.8,-0.0188783,0.0537665,-0,0.0569845,17502,-47876.9,0,50975.6,90420.8
step02_gravity_refstate-mantle.xmf,426,-7.36201e-08,3.27732e-06,0,7.36111e-07,-1.25909e+09,-1.25864e+09,-1.25908e+09,98381.2,-0.00762713,0.0384073,-0,0.0391573,25714.9,-44961.7,0,51795.9,98381.2
step02_gravity_refstate-mantle.xmf,427,-3.52795e-08,3.43855e-06,0,8.44965e-07,-1.28461e+09,-1.28415e+09,-1.28461e+09,112930,-0.0103852,0.038506,-0,0.0398818,24364.1,-45750.8,0,51833.8,112930
step02_gravity_refstate-mantle.xmf,428,-3.17533e-07,4.21124e-06,0,9.07733e-07,-1.32928e+09,-1.32867e+09,-1.32924e+09,121319,-0.0161061,0.0442951,-0,0.0471324,20458.7,-47130.6,0,51379.5,121319
step02_gravity_refstate-mantle.xmf,429,-4.76802e-08,3.90214e-06,0,9.96262e-07,-1.32986e+09,-1.32933e+09,-1.32986e+09,133150,-0.0164204,0.040293,-0,0.0435104,21664,-47149.7,0,51888.5,133150
step02_gravity_refstate-mantle.xmf,430,-2.05803e-08,3.63747e-06,0,9.32059e-07,-1.30782e+09,-1.30733e+09,-1.30782e+09,124570,-0.0132958,0.0390689,-0,0.0412694,23046.8,-46468.4,0,51869.7,124570
step02_gravity_refstate-mantle.xmf,431,-4.05789e-06,9.09762e-06,0,-1.95503e-06,-1.40345e+09,-1.40169e+09,-1.40291e+09,-261289,-0.0167438,0.104035,-0,0.105373,10702.2,-49409.2,0,50555,261289
step02_gravity_refstate-mantle.xmf,432,-5.50835e-06,1.04292e-05,0,-4.07146e-06,-1.41984e+09,-1.41771e+09,-1.41911e+09,-544151,-0.0129208,0.13292,-0,0.133547,8719,-49909.4,0,50665.2,544151
step02_gravity_refstate-mantle.xmf,433,-5.12192e-06,9.86915e-06,0,-3.52209e-06,-1.40778e+09,-1.40578e+09,-1.4071e+09,-470728,-0.0118784,0.12496,-0,0.125523,9331.48,-49538,0,50409.2,470728
step02_gravity_refstate-mantle.xmf,434,-5.5342e-06,1.14913e-05,0,-2.46919e-05,-1.48745e+09,-1.48517e+09,-1.48671e+09,-3.30008e+06,-0.0162344,0.282275,-0,0.282741,4000,-52000.2,0,52153.8,3.30008e+06
step02_gravity_refstate-mantle.xmf,435,-1.43713e-05,4.35304e-05,0,-1.23442e-05,-1.63084e+09,-1.62311e+09,-1.62892e+09,-1.6498e+06,-0.080413,0.155477,-0,0.175041,3734.74,-56452.6,0,56576,1.6498e+06
step02_gravity_refstate-mantle.xmf,436,-1.03102e-05,3.64127e-05,0,-9.71913e-06,-1.64559e+09,-1.63935e+09,-1.64421e+09,-1.29896e+06,-0.0920877,0.116324,-0,0.148363,4542.54,-56917.1,0,57098,1.29896e+06
step02_gravity_refstate-mantle.xmf,437,-9.40752e-06,3.47159e-05,0,-7.92772e-06,-1.66103e+09,-1.65514e+09,-1.65978e+09,-1.05954e+06,-0.0965448,0.0933113,-0,0.134268,4827.91,-57395.7,0,57598.4,1.05954e+06
step02_gravity_refstate-mantle.xmf,438,-5.84483e-06,2.84443e-05,0,-3.10673e-06,-1.70331e+09,-1.69873e+09,-1.70253e+09,-415214,-0.108405,0.0371903,-0,0.114607,5943.25,-58709.6,0,59009.6,415214
step02_gravity_refstate-mantle.xmf,439,-7.41962e-06,3.11267e-05,0,-4.86831e-06,-1.68696e+09,-1.68181e+09,-1.68597e+09,-650649,-0.104088,0.0571576,-0,0.118749,5459.79,-58200.7,0,58456.2,650649
step02_gravity_refstate-mantle.xmf,440,-5.13008e-06,2.71531e-05,0,-1.30833e-06,-1.72603e+09,-1.72172e+09,-1.72535e+09,-174859,-0.110987,0.0159941,-0,0.112134,6229.51,-59412.8,0,59738.5,174859
step02_gravity_refstate-mantle.xmf,441,-3.72879e-06,2.48445e-05,0,2.15843e-08,-1.74493e+09,-1.74111e+09,-1.74443e+09,2884.74,-0.113144,-1.50685e-18,-0,0.113144,6651.63,-60000,0,60367.6,2884.74
step02_gravity_refstate-mantle.xmf,442,-6.48315e-06,1.04545e-05,0,-6.57384e-06,-1.41891e+09,-1.41665e+09,-1.41805e+09,-878593,-0.00542331,0.160055,-0,0.160146,7536.63,-49874.2,0,50440.4,878593
step02_gravity_refstate-mantle.xmf,443,-6.83752e-06,1.06299e-05,0,-7.80615e-06,-1.4277e+09,-1.42536e+09,-1.42678e+09,-1.04329e+06,-0.00491849,0.173083,-0,0.173153,6946.69,-50143.5,0,50622.4,1.04329e+06
step02_gravity_refstate-mantle.xmf,444,-5.74537e-06,7.8222e-06,0,-1.94938e-05,-1.46349e+09,-1.46168e+09,-1.46272e+09,-2.60535e+06,-0.0045061,0.263116,-0,0.263155,4417.05,-51249.3,0,51439.3,2.60535e+06
step02_gravity_refstate-mantle.xmf,445,-6.87913e-06,1.01859e-05,0,-1.41695e-05,-1.45778e+09,-1.4555e+09,-1.45686e+09,-1.89375e+06,-0.0061239,0.227493,-0,0.227575,5153.04,-51071.5,0,51330.8,1.89375e+06
step02_gravity_refstate-mantle.xmf,446,-7.0809e-06,1.0602e-05,0,-9.34806e-06,-1.43557e+09,-1.4332e+09,-1.43462e+09,-1.24937e+06,-0.00422214,0.187922,-0,0.187969,6375.69,-50384.9,0,50786.7,1.24937e+06
step02_gravity_refstate-mantle.xmf,447,-7.11078e-06,1.02693e-05,0,-1.22737e-05,-1.44847e+09,-1.44615e+09,-1.44752e+09,-1.64039e+06,-0.00424237,0.213418,-0,0.21346,5553.02,-50782.6,0,51085.3,1.64039e+06
step02_gravity_refstate-mantle.xmf,448,-3.11369e-07,2.92192e-06,0,2.36563e-07,-1.14821e+09,-1.14778e+09,-1.14817e+09,31616.7,-0.00024659,0.0417808,-0,0.0417815,30508.7,-41534.3,0,51535.2,31616.7
step02_gravity_refstate-mantle.xmf,449,-2.85741e-07,2.73716e-06,0,4.60141e-08,-1.09856e+09,-1.09815e+09,-1.09852e+09,6149.79,0.000750835,0.0432461,0,0.0432526,33464.7,-40000,0,52152.5,6149.79
step02_gravity_refstate-mantle.xmf,450,-2.1478e-06,6.43984e-06,0,-3.20082e-07,-1.35018e+09,-1.34903e+09,-1.3499e+09,-42779,-0.013798,0.0738936,-0,0.0751708,14596.3,-47769.8,0,49950,42779
step02_gravity_refstate-mantle.xmf,451,-1.45636e-06,5.55644e-06,0,2.38323e-07,-1.33679e+09,-1.33586e+09,-1.3366e+09,31851.9,-0.0141881,0.0624385,-0,0.0640302,16495.3,-47358.5,0,50149.1,31851.9
step02_gravity_refstate-mantle.xmf,452,-9.48815e-08,3.14924e-06,0,6.28633e-07,-1.23795e+09,-1.23752e+09,-1.23794e+09,84016.7,-0.00569798,0.0382878,-0,0.0387095,26975.7,-44308.3,0,51874,84016.7
step02_gravity_refstate-mantle.xmf,453,-3.13197e-07,3.12618e-06,0,4.55191e-07,-1.19638e+09,-1.19592e+09,-1.19634e+09,60836.3,-0.0024135,0.0410062,-0,0.0410771,27790.7,-43022.6,0,51217.8,60836.3
step02_gravity_refstate-mantle.xmf,454,-7.93856e-07,4.80477e-06,0,6.90332e-07,-1.33316e+09,-1.33241e+09,-1.33305e+09,92262.8,-0.0157357,0.0517152,-0,0.0540562,18534.2,-47248.8,0,50753.9,92262.8
step02_gravity_refstate-mantle.xmf,455,-7.183e-07,4.47139e-06,0,6.92126e-07,-1.31329e+09,-1.31259e+09,-1.31319e+09,92502.6,-0.0129257,0.0498803,-0,0.0515278,19577.6,-46634.6,0,50577.3,92502.6
step02_gravity_refstate-mantle.xmf,456,-4.7212e-06,9.30158e-06,0,-3.06678e-06,-1.39516e+09,-1.39328e+09,-1.39452e+09,-409876,-0.0107846,0.117888,-0,0.11838,9956.36,-49149.1,0,50147.4,409876
step02_gravity_refstate-mantle.xmf,457,-6.08284e-06,1.01349e-05,0,-5.63699e-06,-1.40924e+09,-1.40707e+09,-1.40843e+09,-753384,-0.00551195,0.149347,-0,0.149448,8111.55,-49577.2,0,50236.4,753384
step02_gravity_refstate-mantle.xmf,458,-3.83086e-06,8.3935e-06,0,-1.9416e-06,-1.38134e+09,-1.37971e+09,-1.38083e+09,-259495,-0.012416,0.101437,-0,0.102194,11323,-48726,0,50024.3,259495
step02_gravity_refstate-mantle.xmf,459,-4.76816e-06,7.22455e-06,0,-2.42606e-05,-1.47148e+09,-1.46988e+09,-1.47084e+09,-3.24243e+06,-0.00682809,0.286936,-0,0.287017,4000,-51501.2,0,51656.3,3.24243e+06
step02_gravity_refstate-mantle.xmf,460,-1.68746e-05,4.74832e-05,0,-1.35549e-05,-1.61641e+09,-1.60781e+09,-1.61415e+09,-1.81161e+06,-0.0743038,0.183332,-0,0.197817,3497.18,-56000,0,56109.1,1.81161e+06
step02_gravity_refstate-mantle.xmf,461,-1.32164e-05,4.11392e-05,0,-1.02469e-05,-1.64567e+09,-1.63841e+09,-1.64391e+09,-1.3695e+06,-0.0855884,0.129466,-0,0.1552,3990.56,-56912.3,0,57052,1.3695e+06
step02_gravity_refstate-mantle.xmf,462,-9.01753e-06,3.38031e-05,0,-6.30138e-06,-1.67625e+09,-1.67053e+09,-1.67505e+09,-842180,-0.099704,0.0738514,-0,0.124076,5026.28,-57866.1,0,58084,842180
step02_gravity_refstate-mantle.xmf,463,-6.4123e-06,8.34518e-06,0,-1.69045e-05,-1.45556e+09,-1.45359e+09,-1.4547e+09,-2.25928e+06,-0.00231587,0.247211,-0,0.247222,4752.78,-51001.3,0,51222.2,2.25928e+06
step02_gravity_refstate-mantle.xmf,464,-7.13468e-06,1.0121e-05,0,-1.09662e-05,-1.43829e+09,-1.43598e+09,-1.43734e+09,-1.46564e+06,-0.00220825,0.20244,-0,0.202452,5926.38,-50467.5,0,50814.3,1.46564e+06
step02_gravity_refstate-mantle.xmf,465,-4.73939e-07,2.86204e-06,0,3.40052e-08,-1.09859e+09,-1.09814e+09,-1.09852e+09,4544.79,0.00150192,0.0451145,0,0.0451395,31481.8,-40000,0,50902.9,4544.79
step02_gravity_refstate-mantle.xmf,466,-5.36285e-07,3.0856e-06,0,2.32793e-07,-1.14745e+09,-1.14697e+09,-1.14738e+09,31112.8,0.000569522,0.0442999,0,0.0443036,28686.5,-41509.7,0,50457.6,31112.8
step02_gravity_refstate-mantle.xmf,467,-2.04946e-06,5.88626e-06,0,-3.75774e-07,-1.3209e+09,-1.31984e+09,-1.32062e+09,-50222.2,-0.00888345,0.072858,-0,0.0733976,15419,-46864.4,0,49335.7,50222.2
step02_gravity_refstate-mantle.xmf,468,-2.65566e-06,6.68826e-06,0,-9.61501e-07,-1.33832e+09,-1.33707e+09,-1.33797e+09,-128505,-0.00900553,0.0836302,-0,0.0841136,13779.3,-47400.7,0,49362.9,128505
step02_gravity_refstate-mantle.xmf,469,-2.96841e-06,7.22022e-06,0,-1.17676e-06,-1.35474e+09,-1.35338e+09,-1.35435e+09,-157274,-0.0108168,0.088081,-0,0.0887427,12988.1,-47907.2,0,49636.6,157274
step02_gravity_refstate-mantle.xmf,470,-3.3505e-06,7.79418e-06,0,-1.47316e-06,-1.3694e+09,-1.36791e+09,-1.36896e+09,-196888,-0.0121253,0.0937051,-0,0.0944863,12179.7,-48358.9,0,49869.1,196888
step02_gravity_refstate-mantle.xmf,471,-1.30407e-06,5.12107e-06,0,2.95455e-07,-1.31592e+09,-1.31506e+09,-1.31575e+09,39487.6,-0.0113301,0.0597367,-0,0.0608017,17507.4,-46713.7,0,49886.7,39487.6
step02_gravity_refstate-mantle.xmf,472,-5.42361e-07,3.35077e-06,0,4.67803e-07,-1.20152e+09,-1.201e+09,-1.20145e+09,62521.8,-0.00202043,0.0440046,-0,0.044051,25866.6,-43180.5,0,50335.3,62521.8
step02_gravity_refstate-mantle.xmf,473,-4.87466e-07,3.51271e-06,0,6.03066e-07,-1.23578e+09,-1.23524e+09,-1.23571e+09,80599.7,-0.00474516,0.0436819,-0,0.0439388,24396.6,-44239.4,0,50520.5,80599.7
step02_gravity_refstate-mantle.xmf,474,-5.97335e-07,4.16159e-06,0,7.21581e-07,-1.29742e+09,-1.29679e+09,-1.29734e+09,96439.3,-0.0110772,0.0473385,-0,0.0486173,20758.7,-46144.6,0,50598.9,96439.3
step02_gravity_refstate-mantle.xmf,475,-4.89528e-07,3.69745e-06,0,6.78029e-07,-1.26037e+09,-1.25982e+09,-1.26031e+09,90618.5,-0.00704877,0.0443286,-0,0.0448855,23094.5,-44999.7,0,50579.9,90618.5
step02_gravity_refstate-mantle.xmf,476,-5.36274e-07,3.91838e-06,0,7.1416e-07,-1.27955e+09,-1.27895e+09,-1.27947e+09,95447.4,-0.00901956,0.0457373,-0,0.0466181,21873.4,-45592.1,0,50567.7,95447.4
step02_gravity_refstate-mantle.xmf,477,-4.33573e-06,8.77813e-06,0,-2.67361e-06,-1.38355e+09,-1.3818e+09,-1.38297e+09,-357328,-0.00998402,0.111513,-0,0.111959,10568.4,-48791.9,0,49923.4,357328
step02_gravity_refstate-mantle.xmf,478,-5.68783e-06,9.70417e-06,0,-5.00016e-06,-1.39757e+09,-1.39552e+09,-1.39681e+09,-668272,-0.00470841,0.14136,-0,0.141439,8646.11,-49218.3,0,49972,668272
step02_gravity_refstate-mantle.xmf,479,-5.29394e-06,9.19424e-06,0,-4.48018e-06,-1.38431e+09,-1.38238e+09,-1.3836e+09,-598776,-0.00368482,0.134004,-0,0.134055,9217.3,-48810.1,0,49672.7,598776
step02_gravity_refstate-mantle.xmf,480,-4.00209e-06,3.03762e-06,0,-2.34016e-05,-1.45547e+09,-1.45453e+09,-1.45493e+09,-3.12762e+06,0.00171702,0.2895,0,0.289505,4000,-51001,0,51157.6,3.12762e+06
step02_gravity_refstate-mantle.xmf,481,-1.80823e-05,4.96344e-05,0,-1.13746e-05,-1.63113e+09,-1.62208e+09,-1.62871e+09,-1.52021e+06,-0.0717988,0.170424,-0,0.184931,3203.59,-56452.1,0,56542.9,1.52021e+06
step02_gravity_refstate-mantle.xmf,482,-1.65379e-05,4.66503e-05,0,-1.03006e-05,-1.64613e+09,-1.63769e+09,-1.64392e+09,-1.37667e+06,-0.0773274,0.142346,-0,0.161994,3432.7,-56918.4,0,57021.8,1.37667e+06
step02_gravity_refstate-mantle.xmf,483,-1.22825e-05,3.92454e-05,0,-8.46897e-06,-1.66119e+09,-1.6543e+09,-1.65954e+09,-1.13188e+06,-0.0904206,0.104279,-0,0.138022,4263.19,-57392.9,0,57551,1.13188e+06
step02_gravity_refstate-mantle.xmf,484,-1.14092e-05,3.76262e-05,0,-6.76775e-06,-1.6768e+09,-1.67024e+09,-1.67527e+09,-904510,-0.0946143,0.0811185,-0,0.124628,4525.53,-57876.8,0,58053.5,904510
step02_gravity_refstate-mantle.xmf,485,-1.03355e-05,3.56928e-05,0,-5.01715e-06,-1.69246e+09,-1.68631e+09,-1.69108e+09,-670542,-0.0988883,0.0591149,-0,0.115211,4837.54,-58362.9,0,58563,670542
step02_gravity_refstate-mantle.xmf,486,-9.01227e-06,3.34756e-05,0,-3.36453e-06,-1.70772e+09,-1.70204e+09,-1.70652e+09,-449670,-0.103077,0.0392046,-0,0.11028,5199.03,-58837.4,0,59066.6,449670
step02_gravity_refstate-mantle.xmf,487,-7.70577e-06,3.13245e-05,0,-1.65945e-06,-1.72539e+09,-1.72017e+09,-1.72436e+09,-221786,-0.106672,0.0192741,-0,0.108399,5560.86,-59386.3,0,59646.1,221786
step02_gravity_refstate-mantle.xmf,488,-6.36808e-06,2.91683e-05,0,1.93161e-08,-1.74514e+09,-1.74039e+09,-1.74429e+09,2581.6,-0.109444,-1.82387e-18,-0,0.109444,5918.45,-60000,0,60291.2,2581.6
step02_gravity_refstate-mantle.xmf,489,-6.3686e-06,9.4415e-06,0,-7.29214e-06,-1.39844e+09,-1.39632e+09,-1.39759e+09,-974595,0.00163805,0.165952,0,0.16596,7553.04,-49239.8,0,49815.7,974595
step02_gravity_refstate-mantle.xmf,490,-5.51381e-06,5.19818e-06,0,-1.90538e-05,-1.44754e+09,-1.44611e+09,-1.4468e+09,-2.54654e+06,0.00350966,0.265505,0,0.265528,4432.3,-50751.4,0,50944.5,2.54654e+06
step02_gravity_refstate-mantle.xmf,491,-6.70328e-06,9.46149e-06,0,-8.49991e-06,-1.40743e+09,-1.40526e+09,-1.40653e+09,-1.13601e+06,0.00245713,0.178676,0,0.178692,6972.11,-49515.3,0,50003.7,1.13601e+06
step02_gravity_refstate-mantle.xmf,492,-6.92973e-06,9.29878e-06,0,-9.89514e-06,-1.41609e+09,-1.41392e+09,-1.41517e+09,-1.32249e+06,0.00317552,0.192496,0,0.192522,6420.55,-49781.1,0,50193.4,1.32249e+06
step02_gravity_refstate-mantle.xmf,493,-6.61095e-06,7.38869e-06,0,-1.58823e-05,-1.44191e+09,-1.44003e+09,-1.44102e+09,-2.12267e+06,0.00301484,0.241499,0,0.241518,4941.48,-50575.7,0,50816.5,2.12267e+06
step02_gravity_refstate-mantle.xmf,494,-6.98919e-06,8.86004e-06,0,-1.15047e-05,-1.42366e+09,-1.42154e+09,-1.42272e+09,-1.5376e+06,0.00392115,0.207341,0,0.207378,5909.9,-50013.2,0,50361.2,1.5376e+06
step02_gravity_refstate-mantle.xmf,495,-6.89989e-06,8.24203e-06,0,-1.33303e-05,-1.43172e+09,-1.4297e+09,-1.4308e+09,-1.7816e+06,0.00400015,0.22275,0,0.222786,5439.92,-50261.4,0,50554.9,1.7816e+06
step02_gravity_refstate-mantle.xmf,496,-7.00451e-07,3.0108e-06,0,2.05411e-09,-1.09862e+09,-1.09813e+09,-1.09853e+09,274.532,0.00261051,0.0475459,0,0.0476175,29588.3,-40000,0,49754.1,274.532
step02_gravity_refstate-mantle.xmf,497,-2.43726e-06,6.25967e-06,0,-8.2761e-07,-1.32263e+09,-1.32147e+09,-1.32231e+09,-110610,-0.00711071,0.080523,-0,0.0808363,14455.5,-46916.4,0,49092.9,110610
step02_gravity_refstate-mantle.xmf,498,-1.78447e-06,5.38735e-06,0,-1.69724e-07,-1.30128e+09,-1.30032e+09,-1.30104e+09,-22683.6,-0.0068997,0.0683191,-0,0.0686666,16515.9,-46258.9,0,49118.9,22683.6
step02_gravity_refstate-mantle.xmf,499,-7.88085e-07,3.27152e-06,0,2.03846e-07,-1.14788e+09,-1.14733e+09,-1.14777e+09,27244.1,0.0017319,0.0474012,0,0.0474328,26892.2,-41521.5,0,49469.5,27244.1
step02_gravity_refstate-mantle.xmf,500,-1.19233e-06,4.74718e-06,0,3.51858e-07,-1.29491e+09,-1.29412e+09,-1.29475e+09,47025.9,-0.00868717,0.0573224,-0,0.0579769,18544.2,-46064.5,0,49657.1,47025.9
step02_gravity_refstate-mantle.xmf,501,-1.09083e-06,4.42534e-06,0,4.01783e-07,-1.27479e+09,-1.27406e+09,-1.27465e+09,53698.3,-0.0064801,0.0549202,-0,0.0553011,19637.4,-45442.9,0,49504.4,53698.3
step02_gravity_refstate-mantle.xmf,502,-4.8457e-06,8.74104e-06,0,-3.84087e-06,-1.373e+09,-1.37118e+09,-1.37235e+09,-513332,-0.00370887,0.125416,-0,0.125471,9876.2,-48462.5,0,49458.6,513332
step02_gravity_refstate-mantle.xmf,503,-6.03866e-06,9.36843e-06,0,-6.36276e-06,-1.39137e+09,-1.38931e+09,-1.39057e+09,-850383,0.000682896,0.155762,0,0.155764,8066.42,-49023.7,0,49682.9,850383
step02_gravity_refstate-mantle.xmf,504,-4.39168e-06,8.30567e-06,0,-3.21196e-06,-1.36297e+09,-1.36127e+09,-1.36238e+09,-429279,-0.0041599,0.116806,-0,0.11688,10578.5,-48154.4,0,49302.7,429279
step02_gravity_refstate-mantle.xmf,505,-1.90127e-05,5.25826e-05,0,-1.1141e-05,-1.61645e+09,-1.60688e+09,-1.61391e+09,-1.48899e+06,-0.065355,0.199329,-0,0.20977,2997.53,-56000,0,56080.2,1.48899e+06
step02_gravity_refstate-mantle.xmf,506,-1.52754e-05,4.40141e-05,0,-8.65695e-06,-1.66125e+09,-1.65332e+09,-1.65921e+09,-1.157e+06,-0.082638,0.115527,-0,0.14204,3698.38,-57386.9,0,57506,1.157e+06
step02_gravity_refstate-mantle.xmf,507,-3.48334e-06,-6.7269e-07,0,-2.1955e-05,-1.4395e+09,-1.43913e+09,-1.43904e+09,-2.93429e+06,0.00886163,0.290055,0,0.29019,4000,-50501.8,0,50659.9,2.93429e+06
step02_gravity_refstate-mantle.xmf,508,-9.59007e-07,3.17634e-06,0,-5.46235e-08,-1.09866e+09,-1.09811e+09,-1.09854e+09,-7300.42,0.00410774,0.0505844,0,0.0507509,27779.3,-40000,0,48700,7300.42
step02_gravity_refstate-mantle.xmf,509,-2.48529e-06,5.90276e-06,0,-1.08231e-06,-1.29523e+09,-1.29411e+09,-1.2949e+09,-144650,-0.00175433,0.0836935,-0,0.0837119,14679.3,-46068.6,0,48350.8,144650
step02_gravity_refstate-mantle.xmf,510,-3.93859e-06,7.83735e-06,0,-2.62582e-06,-1.35229e+09,-1.35071e+09,-1.35176e+09,-350941,-0.00451987,0.108437,-0,0.108531,11345.5,-47826.4,0,49153.7,350941
step02_gravity_refstate-mantle.xmf,511,-2.78437e-06,6.3217e-06,0,-1.42542e-06,-1.30854e+09,-1.30732e+09,-1.30816e+09,-190508,-0.00228846,0.0893923,-0,0.0894216,13803.3,-46478.8,0,48485.1,190508
step02_gravity_refstate-mantle.xmf,512,-3.10724e-06,6.7957e-06,0,-1.74335e-06,-1.32402e+09,-1.32269e+09,-1.3236e+09,-232999,-0.00338119,0.094695,-0,0.0947554,12992.9,-46956,0,48720.4,232999
step02_gravity_refstate-mantle.xmf,513,-3.49575e-06,7.31078e-06,0,-2.13714e-06,-1.33883e+09,-1.33739e+09,-1.33837e+09,-285628,-0.00418365,0.100999,-0,0.101085,12167.5,-47412.4,0,48948.8,285628
step02_gravity_refstate-mantle.xmf,514,-1.62471e-06,4.97457e-06,0,-6.89764e-08,-1.27835e+09,-1.27747e+09,-1.27813e+09,-9218.69,-0.00424586,0.0654613,-0,0.0655989,17532.3,-45550.6,0,48808.2,9218.69
step02_gravity_refstate-mantle.xmf,515,-2.22057e-06,5.50376e-06,0,-7.71697e-07,-1.28077e+09,-1.27974e+09,-1.28048e+09,-103137,-0.00104794,0.0783246,-0,0.0783316,15624.3,-45622.9,0,48224.1,103137
step02_gravity_refstate-mantle.xmf,516,-9.35578e-07,3.58935e-06,0,3.19762e-07,-1.18811e+09,-1.18751e+09,-1.18799e+09,42736.2,0.000572718,0.0495647,0,0.0495681,24143.3,-42764.3,0,49108.9,42736.2
step02_gravity_refstate-mantle.xmf,517,-8.36084e-07,3.71002e-06,0,4.5005e-07,-1.21987e+09,-1.21926e+09,-1.21976e+09,60149.2,-0.00213634,0.0485944,-0,0.0486413,23224.4,-43746.2,0,49528.9,60149.2
step02_gravity_refstate-mantle.xmf,518,-1.01929e-06,4.15709e-06,0,4.22203e-07,-1.25458e+09,-1.25389e+09,-1.25444e+09,56427.4,-0.0044861,0.0529115,-0,0.0531013,20743.8,-44818.4,0,49386.1,56427.4
step02_gravity_refstate-mantle.xmf,519,-1.01405e-06,3.92752e-06,0,3.88169e-07,-1.2272e+09,-1.22654e+09,-1.22707e+09,51878.9,-0.00185747,0.0518871,-0,0.0519203,21932.7,-43972.1,0,49138.5,51878.9
step02_gravity_refstate-mantle.xmf,520,-5.69815e-06,8.68015e-06,0,-6.26543e-06,-1.37352e+09,-1.3716e+09,-1.37276e+09,-837374,0.00392955,0.153351,0,0.153402,8401.43,-48472.8,0,49195.5,837374
step02_gravity_refstate-mantle.xmf,521,-5.19603e-06,8.36128e-06,0,-5.30162e-06,-1.36074e+09,-1.35892e+09,-1.36004e+09,-708561,0.00337161,0.141986,0,0.142026,9133.65,-48080.3,0,48940.1,708561
step02_gravity_refstate-mantle.xmf,522,-2.0474e-05,5.61925e-05,0,-8.9174e-06,-1.61646e+09,-1.60622e+09,-1.61373e+09,-1.19181e+06,-0.0555205,0.212835,-0,0.219957,2497.35,-56000,0,56055.7,1.19181e+06
step02_gravity_refstate-mantle.xmf,523,-2.02368e-05,5.38855e-05,0,-9.43846e-06,-1.63049e+09,-1.62059e+09,-1.62779e+09,-1.26145e+06,-0.0620793,0.184308,-0,0.194482,2702.24,-56429.1,0,56493.7,1.26145e+06
step02_gravity_refstate-mantle.xmf,524,-1.97418e-05,5.18625e-05,0,-8.99768e-06,-1.64677e+09,-1.6372e+09,-1.64413e+09,-1.20254e+06,-0.0667132,0.154705,-0,0.168476,2845.88,-56930,0,57001.1,1.20254e+06
step02_gravity_refstate-mantle.xmf,525,-1.83862e-05,4.9017e-05,0,-8.26192e-06,-1.66117e+09,-1.65216e+09,-1.65871e+09,-1.10421e+06,-0.072942,0.126872,-0,0.146345,3123.08,-57376.6,0,57461.5,1.10421e+06
step02_gravity_refstate-mantle.xmf,526,-1.42488e-05,4.19832e-05,0,-7.01297e-06,-1.67679e+09,-1.66928e+09,-1.67489e+09,-937283,-0.08743,0.0901419,-0,0.125577,3966.02,-57868.9,0,58004.6,937283
step02_gravity_refstate-mantle.xmf,527,-1.32614e-05,4.02244e-05,0,-5.31693e-06,-1.69307e+09,-1.68592e+09,-1.69129e+09,-710607,-0.0917573,0.0657896,-0,0.112906,4231.63,-58373.6,0,58526.8,710607
step02_gravity_refstate-mantle.xmf,528,-1.21349e-05,3.82774e-05,0,-3.49875e-06,-1.71021e+09,-1.70347e+09,-1.70858e+09,-467608,-0.0960636,0.0420403,-0,0.10486,4528.85,-58905.6,0,59079.4,467608
step02_gravity_refstate-mantle.xmf,529,-1.07857e-05,3.60965e-05,0,-1.71349e-06,-1.72753e+09,-1.72126e+09,-1.72609e+09,-229008,-0.100249,0.0200897,-0,0.102242,4862.31,-59444.2,0,59642.7,229008
step02_gravity_refstate-mantle.xmf,530,-9.33363e-06,3.38352e-05,0,1.14427e-08,-1.7454e+09,-1.73963e+09,-1.74415e+09,1529.32,-0.103829,-1.90608e-18,-0,0.103829,5203.28,-60000,0,60225.2,1529.32
step02_gravity_refstate-mantle.xmf,531,-6.01379e-06,8.42745e-06,0,-7.76787e-06,-1.37806e+09,-1.37613e+09,-1.37726e+09,-1.03818e+06,0.00724825,0.169925,0,0.17008,7619.96,-48610.2,0,49203.8,1.03818e+06
step02_gravity_refstate-mantle.xmf,532,-6.28468e-06,8.24264e-06,0,-9.03824e-06,-1.38685e+09,-1.38491e+09,-1.38601e+09,-1.20796e+06,0.00861074,0.183436,0,0.183638,7003.64,-48879.4,0,49378.6,1.20796e+06
step02_gravity_refstate-mantle.xmf,533,-4.53942e-06,2.73259e-06,0,-1.87685e-05,-1.43165e+09,-1.43067e+09,-1.43104e+09,-2.50841e+06,0.00987485,0.266276,0,0.266459,4456.05,-50260.7,0,50457.9,2.50841e+06
step02_gravity_refstate-mantle.xmf,534,-6.47333e-06,7.90868e-06,0,-1.04374e-05,-1.39638e+09,-1.39446e+09,-1.39551e+09,-1.39495e+06,0.00955594,0.197539,0,0.19777,6427.09,-49171.6,0,49589.9,1.39495e+06
step02_gravity_refstate-mantle.xmf,535,-6.50758e-06,7.33304e-06,0,-1.19777e-05,-1.4056e+09,-1.40375e+09,-1.40473e+09,-1.60082e+06,0.0102113,0.212277,0,0.212523,5897.97,-49454.7,0,49805.2,1.60082e+06
step02_gravity_refstate-mantle.xmf,536,-6.2993e-06,6.39741e-06,0,-1.37498e-05,-1.41453e+09,-1.41284e+09,-1.41369e+09,-1.83766e+06,0.0105555,0.22824,0,0.228484,5398.86,-49729.7,0,50021.9,1.83766e+06
step02_gravity_refstate-mantle.xmf,537,-5.73589e-06,4.99751e-06,0,-1.58708e-05,-1.42342e+09,-1.42199e+09,-1.42266e+09,-2.12114e+06,0.0103428,0.245485,0,0.245703,4931.57,-50004.5,0,50247.1,2.12114e+06
step02_gravity_refstate-mantle.xmf,538,-2.02508e-06,5.12914e-06,0,-5.5623e-07,-1.26256e+09,-1.26161e+09,-1.26229e+09,-74340.1,0.000424611,0.0742623,0,0.0742635,16567.5,-45060.7,0,48009.9,74340.1
step02_gravity_refstate-mantle.xmf,539,-1.24224e-06,3.35128e-06,0,-1.40456e-07,-1.09871e+09,-1.0981e+09,-1.09855e+09,-18772,0.00600704,0.0542825,0,0.0546138,26050.1,-40000,0,47734.8,18772
step02_gravity_refstate-mantle.xmf,540,-1.08226e-06,3.4708e-06,0,1.1891e-07,-1.1459e+09,-1.14529e+09,-1.14576e+09,15892.3,0.00351697,0.0515056,0,0.0516255,25155.8,-41459.1,0,48494,15892.3
step02_gravity_refstate-mantle.xmf,541,-1.24206e-06,3.7933e-06,0,1.72622e-07,-1.18273e+09,-1.18206e+09,-1.18256e+09,23071,0.00274284,0.05458,0,0.0546489,22691.6,-42596.5,0,48263.5,23071
step02_gravity_refstate-mantle.xmf,542,-1.52656e-06,4.63548e-06,0,1.98958e-08,-1.25607e+09,-1.25524e+09,-1.25586e+09,2659.08,-0.00195445,0.0628731,-0,0.0629035,18561.3,-44862.1,0,48550.3,2659.08
step02_gravity_refstate-mantle.xmf,543,-1.4561e-06,4.34798e-06,0,7.56558e-08,-1.23308e+09,-1.23231e+09,-1.23289e+09,10111.4,0.000152122,0.0606479,0,0.0606481,19623.7,-44151.8,0,48316.4,10111.4
step02_gravity_refstate-mantle.xmf,544,-4.7617e-06,8.04255e-06,0,-4.5414e-06,-1.34987e+09,-1.34816e+09,-1.34923e+09,-606958,0.00277042,0.132514,0,0.132543,9812.02,-47746.7,0,48744.5,606958
step02_gravity_refstate-mantle.xmf,545,-4.30595e-06,7.62721e-06,0,-3.85867e-06,-1.33681e+09,-1.33521e+09,-1.33623e+09,-515711,0.00259555,0.123616,0,0.123643,10554.9,-47345.2,0,48507.5,515711
step02_gravity_refstate-mantle.xmf,546,-2.1462e-05,5.87486e-05,0,-6.88006e-06,-1.61647e+09,-1.60575e+09,-1.6136e+09,-919520,-0.0450532,0.223723,-0,0.228214,1997.54,-56000,0,56035.6,919520
step02_gravity_refstate-mantle.xmf,547,-2.15228e-05,5.69279e-05,0,-7.72161e-06,-1.62749e+09,-1.61701e+09,-1.62462e+09,-1.03199e+06,-0.0521763,0.199351,-0,0.206066,2249.54,-56335.6,0,56380.5,1.03199e+06
step02_gravity_refstate-mantle.xmf,548,-1.7131e-05,4.64955e-05,0,-6.97224e-06,-1.67608e+09,-1.66758e+09,-1.67379e+09,-931840,-0.0784831,0.100231,-0,0.127302,3397.96,-57839.2,0,57938.9,931840
step02_gravity_refstate-mantle.xmf,549,9.30085e-07,-5.2465e-06,0,-2.18634e-05,-1.42268e+09,-1.42351e+09,-1.42281e+09,-2.92204e+06,0.0136635,0.289091,0,0.289413,4000,-50000,0,50159.7,2.92204e+06
step02_gravity_refstate-mantle.xmf,550,-2.55019e-06,5.50535e-06,0,-1.43014e-06,-1.26165e+09,-1.26057e+09,-1.26131e+09,-191139,0.00471543,0.0888751,0,0.0890001,14762.4,-45030,0,47388.1,191139
step02_gravity_refstate-mantle.xmf,551,-2.80056e-06,5.87703e-06,0,-1.79569e-06,-1.27743e+09,-1.27627e+09,-1.27706e+09,-239995,0.00398385,0.094493,0,0.094577,13880.3,-45516.8,0,47586.1,239995
step02_gravity_refstate-mantle.xmf,552,-3.86897e-06,7.18668e-06,0,-3.23843e-06,-1.32311e+09,-1.32163e+09,-1.32259e+09,-432816,0.00256882,0.115233,0,0.115262,11344.3,-46923.9,0,48275.7,432816
step02_gravity_refstate-mantle.xmf,553,-3.10795e-06,6.2957e-06,0,-2.21537e-06,-1.29339e+09,-1.29214e+09,-1.29298e+09,-296084,0.0032893,0.100723,0,0.100777,13008.5,-46008.7,0,47812.4,296084
step02_gravity_refstate-mantle.xmf,554,-3.46765e-06,6.74229e-06,0,-2.6902e-06,-1.30888e+09,-1.30752e+09,-1.30842e+09,-359545,0.00275217,0.107572,0,0.107607,12162.4,-46486,0,48050.7,359545
step02_gravity_refstate-mantle.xmf,555,-1.88908e-06,4.78507e-06,0,-4.1309e-07,-1.24028e+09,-1.23939e+09,-1.24003e+09,-55209.5,0.00248032,0.0711898,0,0.0712329,17535.8,-44372.4,0,47711.7,55209.5
step02_gravity_refstate-mantle.xmf,556,-2.35483e-06,5.17691e-06,0,-1.12815e-06,-1.24545e+09,-1.24444e+09,-1.24514e+09,-150778,0.0055849,0.0840223,0,0.0842077,15641.7,-44530,0,47197.3,150778
step02_gravity_refstate-mantle.xmf,557,-1.394e-06,3.66402e-06,0,-1.93608e-08,-1.14235e+09,-1.14167e+09,-1.14216e+09,-2587.57,0.00582319,0.0564186,0,0.0567184,23555.4,-41347.7,0,47586.7,2587.57
step02_gravity_refstate-mantle.xmf,558,-1.37938e-06,4.12784e-06,0,1.27057e-07,-1.21539e+09,-1.21465e+09,-1.2152e+09,16981.1,0.00126847,0.0582767,0,0.0582905,20660.9,-43605.2,0,48252.3,16981.1
step02_gravity_refstate-mantle.xmf,559,-5.436e-06,7.33361e-06,0,-8.04445e-06,-1.35556e+09,-1.35385e+09,-1.35483e+09,-1.07514e+06,0.0121759,0.172969,0,0.173397,7722.38,-47916.1,0,48534.4,1.07514e+06
step02_gravity_refstate-mantle.xmf,560,-5.19487e-06,7.51597e-06,0,-6.877e-06,-1.34736e+09,-1.34566e+09,-1.34667e+09,-919111,0.0103932,0.159849,0,0.160187,8403.58,-47665.1,0,48400.2,919111
step02_gravity_refstate-mantle.xmf,561,-4.8292e-06,7.40045e-06,0,-5.93206e-06,-1.33593e+09,-1.3343e+09,-1.33529e+09,-792820,0.00949509,0.148865,0,0.149168,9089.22,-47314.2,0,48179.3,792820
step02_gravity_refstate-mantle.xmf,562,-2.26385e-05,5.88955e-05,0,-5.95932e-06,-1.63051e+09,-1.61962e+09,-1.62749e+09,-796464,-0.0426278,0.202056,-0,0.206504,1800.63,-56426.4,0,56455.2,796464
step02_gravity_refstate-mantle.xmf,563,-2.19803e-05,5.60633e-05,0,-7.24295e-06,-1.64321e+09,-1.63278e+09,-1.64027e+09,-968020,-0.0538989,0.172276,-0,0.18051,2247.5,-56815.7,0,56860.1,968020
step02_gravity_refstate-mantle.xmf,564,-2.10979e-05,5.33792e-05,0,-7.0656e-06,-1.66074e+09,-1.65078e+09,-1.65792e+09,-944317,-0.0612882,0.137959,-0,0.15096,2534.63,-57356.2,0,57412.2,944317
step02_gravity_refstate-mantle.xmf,565,-1.99416e-05,5.0864e-05,0,-6.33918e-06,-1.6764e+09,-1.66694e+09,-1.67374e+09,-847232,-0.067721,0.108538,-0,0.127932,2817.51,-57841.3,0,57909.9,847232
step02_gravity_refstate-mantle.xmf,566,-1.6085e-05,4.4483e-05,0,-5.48201e-06,-1.69154e+09,-1.68345e+09,-1.68939e+09,-732671,-0.0833269,0.0748893,-0,0.112035,3660.14,-58318.6,0,58433.3,732671
step02_gravity_refstate-mantle.xmf,567,-1.52997e-05,4.3092e-05,0,-3.7149e-06,-1.70954e+09,-1.70174e+09,-1.70749e+09,-496497,-0.0869921,0.0484372,-0,0.099568,3868.61,-58876.1,0,59003.1,496497
step02_gravity_refstate-mantle.xmf,568,-1.40214e-05,4.09963e-05,0,-1.81115e-06,-1.72796e+09,-1.72061e+09,-1.72609e+09,-242060,-0.0916865,0.0226138,-0,0.0944341,4171.68,-59448.5,0,59594.7,242060
step02_gravity_refstate-mantle.xmf,569,-1.25301e-05,3.87113e-05,0,7.32499e-09,-1.74569e+09,-1.73884e+09,-1.74401e+09,978.985,-0.0961563,-2.15178e-18,-0,0.0961563,4501.23,-60000,0,60168.6,978.985
step02_gravity_refstate-mantle.xmf,570,-5.65799e-06,7.0353e-06,0,-9.3685e-06,-1.36598e+09,-1.36429e+09,-1.36523e+09,-1.2521e+06,0.0135841,0.187226,0,0.187718,7046.14,-48235.9,0,48747.8,1.2521e+06
step02_gravity_refstate-mantle.xmf,571,-5.75364e-06,6.49965e-06,0,-1.07814e-05,-1.37592e+09,-1.37429e+09,-1.37516e+09,-1.44094e+06,0.0148057,0.201858,0,0.2024,6434.72,-48541,0,48965.6,1.44094e+06
step02_gravity_refstate-mantle.xmf,572,-3.80005e-06,8.18592e-07,0,-1.74621e-05,-1.41468e+09,-1.41406e+09,-1.41417e+09,-2.33381e+06,0.0153131,0.266523,0,0.266962,4470.3,-49736.5,0,49937,2.33381e+06
step02_gravity_refstate-mantle.xmf,573,-5.73115e-06,5.75929e-06,0,-1.22633e-05,-1.38607e+09,-1.38454e+09,-1.38531e+09,-1.63899e+06,0.0155706,0.216568,0,0.217127,5887.42,-48852.8,0,49206.2,1.63899e+06
step02_gravity_refstate-mantle.xmf,574,-5.49491e-06,4.65617e-06,0,-1.38989e-05,-1.39589e+09,-1.39453e+09,-1.39515e+09,-1.85758e+06,0.0160348,0.232235,0,0.232788,5376.81,-49154.7,0,49447.9,1.85758e+06
step02_gravity_refstate-mantle.xmf,575,-4.92514e-06,3.113e-06,0,-1.56631e-05,-1.40577e+09,-1.4047e+09,-1.40511e+09,-2.09338e+06,0.0159207,0.248758,0,0.249267,4906.02,-49459.9,0,49702.6,2.09338e+06
step02_gravity_refstate-mantle.xmf,576,-2.20063e-06,4.88563e-06,0,-8.69973e-07,-1.22858e+09,-1.22763e+09,-1.22828e+09,-116272,0.00650388,0.0796512,0,0.0799163,16550.2,-44009.1,0,47018.2,116272
step02_gravity_refstate-mantle.xmf,577,-1.5418e-06,3.5286e-06,0,-2.59821e-07,-1.09876e+09,-1.09808e+09,-1.09856e+09,-34725.1,0.00830419,0.0586968,0,0.0592814,24396.4,-40000,0,46852.8,34725.1
step02_gravity_refstate-mantle.xmf,578,-1.5437e-06,3.99176e-06,0,-2.41265e-08,-1.17904e+09,-1.1783e+09,-1.17884e+09,-3224.51,0.00515717,0.0602695,0,0.0604897,21276.5,-42481.1,0,47511.4,3224.51
step02_gravity_refstate-mantle.xmf,579,-1.69946e-06,3.84349e-06,0,-2.0206e-07,-1.13936e+09,-1.13862e+09,-1.13914e+09,-27005.3,0.00845827,0.0620084,0,0.0625826,22048.6,-41254,0,46776.4,27005.3
step02_gravity_refstate-mantle.xmf,580,-1.84027e-06,4.49197e-06,0,-3.23143e-07,-1.21491e+09,-1.21407e+09,-1.21467e+09,-43188.1,0.00479937,0.0689731,0,0.0691399,18509.5,-43588.4,0,47355.6,43188.1
step02_gravity_refstate-mantle.xmf,581,-1.80582e-06,4.20944e-06,0,-2.67721e-07,-1.18477e+09,-1.18397e+09,-1.18453e+09,-35780.9,0.00701652,0.0665696,0,0.0669383,19720.4,-42656.8,0,46994.7,35780.9
step02_gravity_refstate-mantle.xmf,582,-4.43491e-06,7.1472e-06,0,-5.13908e-06,-1.32294e+09,-1.32139e+09,-1.32235e+09,-686838,0.00908675,0.139324,0,0.13962,9783.36,-46914.8,0,47924,686838
step02_gravity_refstate-mantle.xmf,583,-4.02799e-06,6.81899e-06,0,-4.39577e-06,-1.30846e+09,-1.30701e+09,-1.30793e+09,-587495,0.00890227,0.130112,0,0.130416,10543.8,-46469.5,0,47650.7,587495
step02_gravity_refstate-mantle.xmf,584,-2.22113e-05,6.057e-05,0,-4.98948e-06,-1.61648e+09,-1.60541e+09,-1.61351e+09,-666844,-0.0341469,0.23205,-0,0.234549,1498.34,-56000,0,56020,666844
step02_gravity_refstate-mantle.xmf,585,-1.86362e-05,4.84366e-05,0,-5.442e-06,-1.6893e+09,-1.68034e+09,-1.68681e+09,-727323,-0.0738922,0.0848121,-0,0.112486,3119.9,-58242.3,0,58325.8,727323
step02_gravity_refstate-mantle.xmf,586,-2.03162e-06,-2.81491e-06,0,-1.81982e-05,-1.4065e+09,-1.4066e+09,-1.40623e+09,-2.43219e+06,0.0184765,0.28129,0,0.281896,4133.12,-49486.4,0,49658.8,2.43219e+06
step02_gravity_refstate-mantle.xmf,587,-2.58481e-06,5.09552e-06,0,-1.74945e-06,-1.2275e+09,-1.22647e+09,-1.22715e+09,-233813,0.0109928,0.0945775,0,0.0952142,14751,-43973.8,0,46381.9,233813
step02_gravity_refstate-mantle.xmf,588,-2.76803e-06,5.39345e-06,0,-2.13615e-06,-1.24447e+09,-1.24338e+09,-1.2441e+09,-285496,0.0102436,0.100148,0,0.10067,13889.2,-44497.5,0,46614.7,285496
step02_gravity_refstate-mantle.xmf,589,-3.0114e-06,5.72934e-06,0,-2.60868e-06,-1.26122e+09,-1.26005e+09,-1.26082e+09,-348651,0.00966305,0.106704,0,0.107141,13008.5,-45014.1,0,46856.1,348651
step02_gravity_refstate-mantle.xmf,590,-3.6484e-06,6.46356e-06,0,-3.72866e-06,-1.29351e+09,-1.29216e+09,-1.29302e+09,-498335,0.00890253,0.121577,0,0.121902,11337.1,-46009.1,0,47385.4,498335
step02_gravity_refstate-mantle.xmf,591,-3.30821e-06,6.09679e-06,0,-3.13416e-06,-1.27788e+09,-1.27663e+09,-1.27744e+09,-418880,0.00913951,0.113765,0,0.114132,12159,-45527.8,0,47123.5,418880
step02_gravity_refstate-mantle.xmf,592,-2.126e-06,4.59587e-06,0,-7.41054e-07,-1.20391e+09,-1.20302e+09,-1.20363e+09,-99041.9,0.00869474,0.0772039,0,0.0776919,17422.2,-43247,0,46624.4,99041.9
step02_gravity_refstate-mantle.xmf,593,-2.45429e-06,4.84525e-06,0,-1.43893e-06,-1.21097e+09,-1.20999e+09,-1.21064e+09,-192313,0.0117552,0.0898535,0,0.0906192,15582.7,-43463.4,0,46172.3,192313
step02_gravity_refstate-mantle.xmf,594,-1.84499e-06,3.69817e-06,0,-4.1571e-07,-1.09881e+09,-1.09807e+09,-1.09857e+09,-55559.6,0.0109791,0.0638851,0,0.0648216,22813.7,-40000,0,46048.5,55559.6
step02_gravity_refstate-mantle.xmf,595,-4.87048e-06,5.79656e-06,0,-9.58127e-06,-1.34441e+09,-1.34298e+09,-1.34376e+09,-1.28054e+06,0.0178222,0.191259,0,0.192087,7055.3,-47571.6,0,48091.9,1.28054e+06
step02_gravity_refstate-mantle.xmf,596,-4.76709e-06,6.21061e-06,0,-8.37282e-06,-1.33383e+09,-1.33236e+09,-1.33319e+09,-1.11903e+06,0.0165774,0.17785,0,0.178621,7707.4,-47246.4,0,47871,1.11903e+06
step02_gravity_refstate-mantle.xmf,597,-4.55666e-06,6.37501e-06,0,-7.31906e-06,-1.32234e+09,-1.32088e+09,-1.32173e+09,-978192,0.0155774,0.165928,0,0.166657,8368.99,-46893.3,0,47634.3,978192
step02_gravity_refstate-mantle.xmf,598,-4.26608e-06,6.34145e-06,0,-6.39297e-06,-1.30921e+09,-1.30779e+09,-1.30864e+09,-854420,0.014958,0.155271,0,0.15599,9049.75,-46489.7,0,47362.3,854420
step02_gravity_refstate-mantle.xmf,599,-2.34492e-05,6.06235e-05,0,-4.16007e-06,-1.63078e+09,-1.61954e+09,-1.62765e+09,-555993,-0.0308799,0.208395,-0,0.21067,1289.93,-56433.7,0,56448.4,555993
step02_gravity_refstate-mantle.xmf,600,-2.35392e-05,5.8769e-05,0,-5.12756e-06,-1.64589e+09,-1.63489e+09,-1.64274e+09,-685299,-0.0405903,0.176559,-0,0.181165,1653.54,-56894.9,0,56918.9,685299
step02_gravity_refstate-mantle.xmf,601,-2.31093e-05,5.67718e-05,0,-5.48796e-06,-1.66029e+09,-1.64961e+09,-1.6572e+09,-733466,-0.0482509,0.147339,-0,0.155038,1946.06,-57337.5,0,57370.5,733466
step02_gravity_refstate-mantle.xmf,602,-2.22918e-05,5.45303e-05,0,-5.2356e-06,-1.67681e+09,-1.66655e+09,-1.67383e+09,-699739,-0.0554784,0.115482,-0,0.128117,2237.34,-57847.7,0,57891,699739
step02_gravity_refstate-mantle.xmf,603,-2.10408e-05,5.19429e-05,0,-4.33453e-06,-1.69499e+09,-1.68524e+09,-1.69218e+09,-579311,-0.063163,0.0820265,-0,0.103527,2574.51,-58411.1,0,58467.8,579311
step02_gravity_refstate-mantle.xmf,604,-1.86823e-05,4.81314e-05,0,-3.73637e-06,-1.70744e+09,-1.69851e+09,-1.70494e+09,-499365,-0.0747456,0.0575414,-0,0.0943288,3149.35,-58801.5,0,58885.8,499365
step02_gravity_refstate-mantle.xmf,605,-1.73157e-05,4.59045e-05,0,-1.90577e-06,-1.72699e+09,-1.71855e+09,-1.72468e+09,-254706,-0.0806834,0.0271083,-0,0.0851157,3470.03,-59409.1,0,59510.3,254706
step02_gravity_refstate-mantle.xmf,606,-1.57999e-05,4.35932e-05,0,-2.97429e-10,-1.74599e+09,-1.73805e+09,-1.74388e+09,-39.7514,-0.0863225,-2.58628e-18,-0,0.0863225,3806.89,-60000,0,60120.6,39.7514
step02_gravity_refstate-mantle.xmf,607,-4.86467e-06,5.14586e-06,0,-1.08968e-05,-1.35501e+09,-1.35367e+09,-1.35436e+09,-1.45636e+06,0.0189436,0.205436,0,0.206308,6440.83,-47897.3,0,48328.4,1.45636e+06
step02_gravity_refstate-mantle.xmf,608,1.09502e-06,-8.77734e-06,0,-1.87677e-05,-1.40754e+09,-1.40886e+09,-1.40769e+09,-2.5083e+06,0.0184039,0.300425,0,0.300988,3714.06,-49524.4,0,49663.5,2.5083e+06
step02_gravity_refstate-mantle.xmf,609,2.68829e-06,-1.32716e-05,0,-1.75005e-05,-1.42297e+09,-1.4251e+09,-1.42333e+09,-2.33895e+06,0.012841,0.315728,0,0.315989,3499.28,-50000,0,50122.3,2.33895e+06
step02_gravity_refstate-mantle.xmf,610,-4.73333e-06,4.23922e-06,0,-1.22991e-05,-1.36571e+09,-1.36451e+09,-1.36507e+09,-1.64377e+06,0.0197865,0.220118,0,0.221006,5874.03,-48226.4,0,48582.8,1.64377e+06
step02_gravity_refstate-mantle.xmf,611,-2.91356e-06,-8.251e-07,0,-1.68355e-05,-1.39732e+09,-1.39704e+09,-1.39693e+09,-2.25007e+06,0.0197926,0.268246,0,0.268975,4429.75,-49202,0,49401,2.25007e+06
step02_gravity_refstate-mantle.xmf,612,-4.40831e-06,2.96822e-06,0,-1.37979e-05,-1.37606e+09,-1.37508e+09,-1.37548e+09,-1.84408e+06,0.0203539,0.235546,0,0.236424,5348.27,-48545.3,0,48839,1.84408e+06
step02_gravity_refstate-mantle.xmf,613,-3.80984e-06,1.18188e-06,0,-1.54477e-05,-1.38642e+09,-1.38575e+09,-1.38591e+09,-2.06459e+06,0.0205108,0.252208,0,0.253041,4849.44,-48864.5,0,49104.5,2.06459e+06
step02_gravity_refstate-mantle.xmf,614,-2.33861e-06,4.6521e-06,0,-1.13892e-06,-1.19702e+09,-1.19608e+09,-1.1967e+09,-152217,0.0119306,0.0848971,0,0.0857313,16470.3,-43032.6,0,46076.9,152217
step02_gravity_refstate-mantle.xmf,615,-1.98044e-06,4.01167e-06,0,-4.24157e-07,-1.13956e+09,-1.13876e+09,-1.13929e+09,-56688.5,0.0112021,0.0683229,0,0.0692351,20548.7,-41258.5,0,46092.4,56688.5
step02_gravity_refstate-mantle.xmf,616,-2.13872e-06,3.84805e-06,0,-6.10411e-07,-1.09886e+09,-1.09806e+09,-1.09858e+09,-81581.4,0.0139938,0.0699009,0,0.0712879,21297.9,-40000,0,45316.6,81581.4
step02_gravity_refstate-mantle.xmf,617,-2.15175e-06,4.35026e-06,0,-6.80982e-07,-1.1738e+09,-1.17293e+09,-1.17351e+09,-91013.2,0.011395,0.0758704,0,0.0767214,18291.4,-42316,0,46100.1,91013.2
step02_gravity_refstate-mantle.xmf,618,-3.93924e-06,6.1856e-06,0,-5.54344e-06,-1.29461e+09,-1.29326e+09,-1.29408e+09,-740881,0.0146181,0.145295,0,0.146029,9775.04,-46040.5,0,47066.8,740881
step02_gravity_refstate-mantle.xmf,619,-3.62492e-06,5.9717e-06,0,-4.77338e-06,-1.2796e+09,-1.27832e+09,-1.27911e+09,-637962,0.0144486,0.135987,0,0.136753,10532.5,-45578.3,0,46779.5,637962
step02_gravity_refstate-mantle.xmf,620,-2.27126e-05,6.17911e-05,0,-3.25066e-06,-1.61649e+09,-1.60519e+09,-1.61345e+09,-434450,-0.0229377,0.237914,-0,0.239017,999.46,-56000,0,56008.9,434450
step02_gravity_refstate-mantle.xmf,621,3.39717e-06,-1.72624e-05,0,-1.42949e-05,-1.42314e+09,-1.42591e+09,-1.4236e+09,-1.91051e+06,0.0115272,0.338234,0,0.33843,2999.32,-50000,0,50089.9,1.91051e+06
step02_gravity_refstate-mantle.xmf,622,3.40841e-06,-1.39745e-05,0,-1.63437e-05,-1.40799e+09,-1.41032e+09,-1.40845e+09,-2.18434e+06,0.0171699,0.321274,0,0.321733,3236.67,-49540.4,0,49646.1,2.18434e+06
step02_gravity_refstate-mantle.xmf,623,-5.48591e-07,-5.19609e-06,0,-1.73883e-05,-1.39322e+09,-1.39385e+09,-1.39315e+09,-2.32394e+06,0.0213251,0.286564,0,0.287357,3969.23,-49080.3,0,49240.5,2.32394e+06
step02_gravity_refstate-mantle.xmf,624,-3.8838e-06,3.87392e-06,0,-1.08132e-05,-1.33358e+09,-1.33254e+09,-1.33306e+09,-1.44519e+06,0.0221877,0.208643,0,0.20982,6431.98,-47238.8,0,47674.7,1.44519e+06
step02_gravity_refstate-mantle.xmf,625,-2.59128e-06,4.67473e-06,0,-1.96005e-06,-1.19215e+09,-1.19118e+09,-1.19181e+09,-261960,0.0169391,0.0997864,0,0.101214,14765.2,-42880.8,0,45351.6,261960
step02_gravity_refstate-mantle.xmf,626,-2.69598e-06,4.8895e-06,0,-2.39165e-06,-1.2103e+09,-1.20928e+09,-1.20994e+09,-319644,0.0162913,0.105826,0,0.107073,13864.9,-43441.1,0,45600,319644
step02_gravity_refstate-mantle.xmf,627,-2.85066e-06,5.13276e-06,0,-2.89646e-06,-1.22799e+09,-1.22693e+09,-1.22761e+09,-387112,0.0157045,0.112569,0,0.113659,12983.1,-43987.3,0,45863.3,387112
step02_gravity_refstate-mantle.xmf,628,-3.05799e-06,5.39697e-06,0,-3.46886e-06,-1.24524e+09,-1.24411e+09,-1.24483e+09,-463614,0.0152188,0.119922,0,0.120884,12130.3,-44519.3,0,46142.3,463614
step02_gravity_refstate-mantle.xmf,629,-3.3172e-06,5.68395e-06,0,-4.09307e-06,-1.2626e+09,-1.2614e+09,-1.26216e+09,-547039,0.0147625,0.127702,0,0.128552,11313.6,-45054.7,0,46453.5,547039
step02_gravity_refstate-mantle.xmf,630,-2.36565e-06,4.41849e-06,0,-1.10905e-06,-1.16939e+09,-1.16848e+09,-1.16907e+09,-148225,0.0149073,0.0847138,0,0.0860154,17028.5,-42178.4,0,45486.1,148225
step02_gravity_refstate-mantle.xmf,631,-2.50773e-06,4.47794e-06,0,-1.59477e-06,-1.17176e+09,-1.17083e+09,-1.17143e+09,-213141,0.0177128,0.0942148,0,0.0958654,15738.2,-42251,0,45087,213141
step02_gravity_refstate-mantle.xmf,632,-2.24093e-06,4.13403e-06,0,-7.24929e-07,-1.1383e+09,-1.13745e+09,-1.138e+09,-96886.8,0.0144008,0.075786,0,0.0771421,19110.1,-41218.2,0,45432.8,96886.8
step02_gravity_refstate-mantle.xmf,633,-3.97644e-06,4.57974e-06,0,-9.63053e-06,-1.32207e+09,-1.32092e+09,-1.32153e+09,-1.28712e+06,0.0213293,0.195188,0,0.19635,7040.45,-46884.3,0,47409.9,1.28712e+06
step02_gravity_refstate-mantle.xmf,634,-3.91648e-06,4.98612e-06,0,-8.55503e-06,-1.30937e+09,-1.30818e+09,-1.30885e+09,-1.14338e+06,0.0206207,0.182982,0,0.184141,7666.01,-46493.6,0,47121.3,1.14338e+06
step02_gravity_refstate-mantle.xmf,635,-3.56959e-06,5.25907e-06,0,-6.637e-06,-1.28095e+09,-1.27977e+09,-1.28047e+09,-887034,0.0196902,0.160961,0,0.162161,9014.98,-45618.6,0,46500.8,887034
step02_gravity_refstate-mantle.xmf,636,-3.77056e-06,5.19236e-06,0,-7.56924e-06,-1.29562e+09,-1.29442e+09,-1.29511e+09,-1.01163e+06,0.0200806,0.171696,0,0.172866,8318.97,-46070.3,0,46815.3,1.01163e+06
step02_gravity_refstate-mantle.xmf,637,3.60807e-06,-1.97604e-05,0,-1.14711e-05,-1.42331e+09,-1.42643e+09,-1.42379e+09,-1.53311e+06,0.00984902,0.356815,0,0.356951,2499.83,-50000,0,50062.5,1.53311e+06
step02_gravity_refstate-mantle.xmf,638,4.72748e-06,-1.75496e-05,0,-1.34578e-05,-1.40847e+09,-1.41145e+09,-1.40911e+09,-1.79863e+06,0.0150532,0.340014,0,0.340347,2748.11,-49555,0,49631.1,1.79863e+06
step02_gravity_refstate-mantle.xmf,639,-2.39328e-05,6.17979e-05,0,-2.37465e-06,-1.63028e+09,-1.61882e+09,-1.62708e+09,-317372,-0.018017,0.214055,-0,0.214812,748.423,-56418,0,56423,317372
step02_gravity_refstate-mantle.xmf,640,-2.44644e-05,6.06926e-05,0,-3.16287e-06,-1.64503e+09,-1.63365e+09,-1.64176e+09,-422718,-0.0257551,0.184476,-0,0.186265,1037.62,-56867.3,0,56876.7,422718
step02_gravity_refstate-mantle.xmf,641,-2.4485e-05,5.92148e-05,0,-3.75965e-06,-1.65988e+09,-1.6487e+09,-1.65661e+09,-502477,-0.0338544,0.15467,-0,0.158332,1342,-57322.1,0,57337.8,502477
step02_gravity_refstate-mantle.xmf,642,-2.40964e-05,5.74845e-05,0,-3.93053e-06,-1.67562e+09,-1.66472e+09,-1.6724e+09,-525316,-0.0414144,0.123876,-0,0.130616,1632.57,-57806.5,0,57829.5,525316
step02_gravity_refstate-mantle.xmf,643,-2.33612e-05,5.55741e-05,0,-3.5914e-06,-1.6926e+09,-1.68205e+09,-1.68947e+09,-479991,-0.0488067,0.0918149,-0,0.103981,1930.3,-58330.8,0,58362.8,479991
step02_gravity_refstate-mantle.xmf,644,-2.10276e-05,5.15402e-05,0,-2.89067e-06,-1.71245e+09,-1.70275e+09,-1.70964e+09,-386337,-0.0638509,0.0539982,-0,0.0836226,2598.07,-58949.4,0,59006.7,386337
step02_gravity_refstate-mantle.xmf,645,-2.02215e-05,5.01879e-05,0,-1.70457e-06,-1.7276e+09,-1.71819e+09,-1.7249e+09,-227816,-0.0683557,0.029088,-0,0.0742874,2812.9,-59419.3,0,59485.9,227816
step02_gravity_refstate-mantle.xmf,646,-1.89516e-05,4.82355e-05,0,-6.44297e-09,-1.74629e+09,-1.73731e+09,-1.74375e+09,-861.103,-0.074295,-2.78657e-18,-0,0.074295,3114.73,-60000,0,60080.8,861.103
step02_gravity_refstate-mantle.xmf,647,-3.65252e-06,2.88179e-06,0,-1.20722e-05,-1.34482e+09,-1.34394e+09,-1.34433e+09,-1.61345e+06,0.0229088,0.222777,0,0.223952,5861.18,-47584.9,0,47944.5,1.61345e+06
step02_gravity_refstate-mantle.xmf,648,2.35013e-06,-1.02932e-05,0,-1.65586e-05,-1.39063e+09,-1.39232e+09,-1.39094e+09,-2.21306e+06,0.0212083,0.3059,0,0.306634,3463.14,-49006.4,0,49128.6,2.21306e+06
step02_gravity_refstate-mantle.xmf,649,-3.1995e-06,1.47673e-06,0,-1.34054e-05,-1.35567e+09,-1.35505e+09,-1.35525e+09,-1.79163e+06,0.0234494,0.237971,0,0.239123,5315.95,-47919.6,0,48213.6,1.79163e+06
step02_gravity_refstate-mantle.xmf,650,-1.06233e-06,-3.43134e-06,0,-1.61071e-05,-1.37688e+09,-1.3772e+09,-1.37674e+09,-2.15271e+06,0.0233917,0.273803,0,0.274801,4248.78,-48576.5,0,48762,2.15271e+06
step02_gravity_refstate-mantle.xmf,651,-2.42366e-06,-5.01041e-07,0,-1.47917e-05,-1.36632e+09,-1.36606e+09,-1.36599e+09,-1.9769e+06,0.0236765,0.25461,0,0.255709,4787.01,-48248.6,0,48485.5,1.9769e+06
step02_gravity_refstate-mantle.xmf,652,-2.60181e-06,4.34096e-06,0,-2.08781e-06,-1.16142e+09,-1.16049e+09,-1.16107e+09,-279036,0.0219386,0.104486,0,0.106764,14719.9,-41930.6,0,44439.3,279036
step02_gravity_refstate-mantle.xmf,653,-2.4083e-06,3.96717e-06,0,-8.46849e-07,-1.09891e+09,-1.09806e+09,-1.09859e+09,-113181,0.017293,0.0767918,0,0.0787149,19844.8,-40000,0,44652.2,113181
step02_gravity_refstate-mantle.xmf,654,-2.47452e-06,4.21374e-06,0,-1.07943e-06,-1.13548e+09,-1.13459e+09,-1.13515e+09,-144266,0.0179808,0.0843281,0,0.0862238,17751.5,-41129.8,0,44797.1,144266
step02_gravity_refstate-mantle.xmf,655,-3.3494e-06,5.21708e-06,0,-5.78388e-06,-1.2657e+09,-1.26456e+09,-1.26525e+09,-773015,0.0194961,0.150974,0,0.152228,9739.39,-45149,0,46187.5,773015
step02_gravity_refstate-mantle.xmf,656,-3.11061e-06,5.05201e-06,0,-5.03528e-06,-1.24825e+09,-1.24716e+09,-1.24784e+09,-672965,0.0198261,0.142226,0,0.143602,10472.9,-44611.2,0,45824,672965
step02_gravity_refstate-mantle.xmf,657,-2.94281e-06,2.80528e-06,0,-1.05292e-05,-1.31229e+09,-1.31152e+09,-1.3119e+09,-1.40723e+06,0.024553,0.210844,0,0.212269,6431.32,-46584.7,0,47026.6,1.40723e+06
step02_gravity_refstate-mantle.xmf,658,5.15909e-06,-1.98344e-05,0,-1.06445e-05,-1.40896e+09,-1.4123e+09,-1.40965e+09,-1.42264e+06,0.0125223,0.355947,0,0.356167,2249.92,-49567.1,0,49618.2,1.42264e+06
step02_gravity_refstate-mantle.xmf,659,-2.30537e-05,6.2497e-05,0,-1.58927e-06,-1.6165e+09,-1.60507e+09,-1.61342e+09,-212405,-0.0115229,0.241404,-0,0.241679,500.036,-56000,0,56002.2,212405
step02_gravity_refstate-mantle.xmf,660,-2.30866e-05,6.27245e-05,0,-1.61767e-08,-1.61649e+09,-1.60502e+09,-1.6134e+09,-2162.01,3.69827e-07,0.242563,0,0.242563,-4.01542e-10,-56000,-0,56000,2162.01
step02_gravity_refstate-mantle.xmf,661,-2.41401e-05,6.23427e-05,0,-6.55475e-07,-1.62932e+09,-1.61777e+09,-1.6261e+09,-87604.2,-0.00517033,0.218079,-0,0.218141,214.674,-56388.5,0,56388.9,87604.2
step02_gravity_refstate-mantle.xmf,662,-2.2573e-05,5.39526e-05,0,-2.93269e-06,-1.70695e+09,-1.69672e+09,-1.70393e+09,-391954,-0.0545613,0.0657968,-0,0.0854761,2174.2,-58775.2,0,58815.4,391954
step02_gravity_refstate-mantle.xmf,663,4.29376e-06,-1.46317e-05,0,-1.48136e-05,-1.39544e+09,-1.39797e+09,-1.39601e+09,-1.97983e+06,0.0188562,0.324917,0,0.325464,2996.1,-49156.8,0,49248,1.97983e+06
step02_gravity_refstate-mantle.xmf,664,7.49985e-07,-6.7675e-06,0,-1.63794e-05,-1.38017e+09,-1.38117e+09,-1.38027e+09,-2.1891e+06,0.0230833,0.289759,0,0.290677,3823.16,-48681.6,0,48831.5,2.1891e+06
step02_gravity_refstate-mantle.xmf,665,-2.64128e-06,1.79995e-06,0,-1.16243e-05,-1.32393e+09,-1.32333e+09,-1.32358e+09,-1.55358e+06,0.0250642,0.224165,0,0.225561,5865.42,-46943.6,0,47308.6,1.55358e+06
step02_gravity_refstate-mantle.xmf,666,-2.62383e-06,4.41644e-06,0,-2.51722e-06,-1.17603e+09,-1.17509e+09,-1.17568e+09,-336427,0.0219017,0.110845,0,0.112988,13856.1,-42381.8,0,44589.4,336427
step02_gravity_refstate-mantle.xmf,667,-2.66971e-06,4.55145e-06,0,-3.05151e-06,-1.19439e+09,-1.19342e+09,-1.19403e+09,-407835,0.0213728,0.118052,0,0.119971,12942.9,-42948.9,0,44856.7,407835
step02_gravity_refstate-mantle.xmf,668,-2.76288e-06,4.70276e-06,0,-3.65652e-06,-1.21224e+09,-1.21124e+09,-1.21187e+09,-488694,0.0208533,0.125761,0,0.127479,12074.9,-43500.2,0,45145,488694
step02_gravity_refstate-mantle.xmf,669,-2.90655e-06,4.85532e-06,0,-4.3362e-06,-1.22946e+09,-1.22842e+09,-1.22907e+09,-579533,0.0204614,0.134071,0,0.135623,11242.6,-44031.6,0,45444.2,579533
step02_gravity_refstate-mantle.xmf,670,-2.60214e-06,4.21299e-06,0,-1.48377e-06,-1.13414e+09,-1.13323e+09,-1.13379e+09,-198306,0.0214405,0.0935152,0,0.0959416,16468.1,-41087.5,0,44264.9,198306
step02_gravity_refstate-mantle.xmf,671,-2.65975e-06,4.1301e-06,0,-1.93471e-06,-1.13215e+09,-1.13124e+09,-1.13179e+09,-258574,0.0250033,0.103726,0,0.106697,15235.7,-41025.3,0,43763,258574
step02_gravity_refstate-mantle.xmf,672,-2.63394e-06,4.04063e-06,0,-1.12476e-06,-1.09896e+09,-1.09806e+09,-1.0986e+09,-150325,0.0208043,0.0845942,0,0.0871149,18450.5,-40000,0,44050.2,150325
step02_gravity_refstate-mantle.xmf,673,-3.02136e-06,3.40719e-06,0,-9.50858e-06,-1.29884e+09,-1.29798e+09,-1.29844e+09,-1.27082e+06,0.0241926,0.198935,0,0.200401,7001.79,-46170.3,0,46698.2,1.27082e+06
step02_gravity_refstate-mantle.xmf,674,-2.95759e-06,3.73926e-06,0,-8.5792e-06,-1.28307e+09,-1.28218e+09,-1.28268e+09,-1.14661e+06,0.0241333,0.188369,0,0.189909,7578.01,-45684.4,0,46308.6,1.14661e+06
step02_gravity_refstate-mantle.xmf,675,-2.83608e-06,4.24947e-06,0,-6.67176e-06,-1.25273e+09,-1.25178e+09,-1.25235e+09,-891681,0.0236646,0.165894,0,0.167573,8969.95,-44749.2,0,45639.3,891681
step02_gravity_refstate-mantle.xmf,676,-2.89469e-06,4.03604e-06,0,-7.5953e-06,-1.26742e+09,-1.26649e+09,-1.26703e+09,-1.01511e+06,0.0239258,0.176991,0,0.178601,8252.31,-45202,0,45949.2,1.01511e+06
step02_gravity_refstate-mantle.xmf,677,3.8729e-06,-2.14513e-05,0,-8.87525e-06,-1.42339e+09,-1.42677e+09,-1.42391e+09,-1.18618e+06,0.00797541,0.371719,0,0.371805,2000,-50000,0,50040,1.18618e+06
step02_gravity_refstate-mantle.xmf,678,5.61993e-06,-1.73058e-05,0,-1.21456e-05,-1.3913e+09,-1.39437e+09,-1.39206e+09,-1.62326e+06,0.0169731,0.339,0,0.339425,2493.12,-49031.2,0,49094.6,1.62326e+06
step02_gravity_refstate-mantle.xmf,679,-2.39245e-05,6.23608e-05,0,7.51301e-07,-1.62709e+09,-1.61556e+09,-1.6239e+09,100411,0.00554995,0.222251,0,0.22232,-232.005,-56321,-0,56321.5,100411
step02_gravity_refstate-mantle.xmf,680,-2.48883e-05,6.17014e-05,0,-1.37531e-06,-1.64397e+09,-1.6324e+09,-1.64064e+09,-183810,-0.0112449,0.18982,-0,0.190153,451.131,-56834.2,0,56835.9,183810
step02_gravity_refstate-mantle.xmf,681,-2.52843e-05,6.0715e-05,0,-2.06729e-06,-1.65924e+09,-1.64774e+09,-1.65586e+09,-276294,-0.0188697,0.160061,-0,0.161169,740.698,-57300.7,0,57305.5,276294
step02_gravity_refstate-mantle.xmf,682,-2.52682e-05,5.94768e-05,0,-2.52297e-06,-1.67461e+09,-1.66328e+09,-1.67123e+09,-337194,-0.0266735,0.130157,-0,0.132862,1036.34,-57772.4,0,57781.7,337194
step02_gravity_refstate-mantle.xmf,683,-2.4925e-05,5.80082e-05,0,-2.54022e-06,-1.69206e+09,-1.68097e+09,-1.68873e+09,-339500,-0.0341927,0.0969774,-0,0.102829,1325.41,-58309.9,0,58325,339500
step02_gravity_refstate-mantle.xmf,684,-2.42183e-05,5.63515e-05,0,-2.177e-06,-1.7093e+09,-1.69853e+09,-1.70606e+09,-290956,-0.0422549,0.0648753,-0,0.0774228,1647.64,-58843,0,58866.1,290956
step02_gravity_refstate-mantle.xmf,685,-2.28919e-05,5.40857e-05,0,-1.53828e-06,-1.72535e+09,-1.71506e+09,-1.72229e+09,-205591,-0.0531707,0.0355124,-0,0.0639395,2108.48,-59341.9,0,59379.4,205591
step02_gravity_refstate-mantle.xmf,686,-2.17654e-05,5.23454e-05,0,-1.4463e-08,-1.74655e+09,-1.73665e+09,-1.74365e+09,-1932.99,-0.0601978,-3.41245e-18,-0,0.0601978,2422.55,-60000,0,60048.9,1932.99
step02_gravity_refstate-mantle.xmf,687,-2.04651e-06,2.79274e-07,0,-1.27803e-05,-1.33484e+09,-1.33453e+09,-1.33457e+09,-1.70809e+06,0.0255298,0.239415,0,0.240773,5285.77,-47280.8,0,47575.3,1.70809e+06
step02_gravity_refstate-mantle.xmf,688,2.53093e-06,-9.36445e-06,0,-1.52325e-05,-1.3714e+09,-1.37299e+09,-1.37174e+09,-2.03583e+06,0.0233183,0.299615,0,0.300522,3476.78,-48415.9,0,48540.6,2.03583e+06
step02_gravity_refstate-mantle.xmf,689,4.40206e-06,-1.33726e-05,0,-1.42101e-05,-1.37964e+09,-1.38201e+09,-1.38023e+09,-1.89919e+06,0.0208788,0.318487,0,0.31917,2985.42,-48672.8,0,48764.2,1.89919e+06
step02_gravity_refstate-mantle.xmf,690,-1.20948e-06,-1.67215e-06,0,-1.38871e-05,-1.34577e+09,-1.34583e+09,-1.34561e+09,-1.85601e+06,0.0256214,0.255263,0,0.256545,4744.78,-47619,0,47854.8,1.85601e+06
step02_gravity_refstate-mantle.xmf,691,8.0149e-07,-6.13796e-06,0,-1.54192e-05,-1.36676e+09,-1.36768e+09,-1.36686e+09,-2.06077e+06,0.0243955,0.28407,0,0.285115,3910.24,-48269.3,0,48427.4,2.06077e+06
step02_gravity_refstate-mantle.xmf,692,9.04031e-09,-4.27854e-06,0,-1.48568e-05,-1.35649e+09,-1.35706e+09,-1.35649e+09,-1.98562e+06,0.025235,0.272498,0,0.273664,4215.92,-47951.6,0,48136.5,1.98562e+06
step02_gravity_refstate-mantle.xmf,693,-2.63248e-06,3.98556e-06,0,-2.50331e-06,-1.13684e+09,-1.13596e+09,-1.13649e+09,-334568,0.0278209,0.115377,0,0.118684,13910.9,-41170.3,0,43456.9,334568
step02_gravity_refstate-mantle.xmf,694,-2.79544e-06,4.05179e-06,0,-1.44205e-06,-1.09899e+09,-1.09807e+09,-1.09862e+09,-192730,0.0244363,0.0933256,0,0.0964718,17111.7,-40000,0,43506.4,192730
step02_gravity_refstate-mantle.xmf,695,-2.69406e-06,4.25291e-06,0,-5.87432e-06,-1.2359e+09,-1.23497e+09,-1.23554e+09,-785103,0.0239963,0.156907,0,0.158731,9642.02,-44230.5,0,45269.2,785103
step02_gravity_refstate-mantle.xmf,696,-2.42357e-06,3.98757e-06,0,-5.19449e-06,-1.21166e+09,-1.21081e+09,-1.21134e+09,-694243,0.0256685,0.150425,0,0.152599,10265,-43482.8,0,44678,694243
step02_gravity_refstate-mantle.xmf,697,-1.76121e-06,9.93162e-07,0,-1.10351e-05,-1.3029e+09,-1.30253e+09,-1.30266e+09,-1.47484e+06,0.0265465,0.224324,0,0.22589,5895.02,-46297.8,0,46671.6,1.47484e+06
step02_gravity_refstate-mantle.xmf,698,-2.16802e-06,2.03571e-06,0,-1.01498e-05,-1.29356e+09,-1.293e+09,-1.29327e+09,-1.35652e+06,0.0261212,0.212108,0,0.21371,6436.71,-46009.4,0,46457.5,1.35652e+06
step02_gravity_refstate-mantle.xmf,699,5.50394e-06,-2.13615e-05,0,-8.04704e-06,-1.40867e+09,-1.41226e+09,-1.4094e+09,-1.07549e+06,0.00988675,0.368384,0,0.368516,1742.63,-49556.4,0,49587,1.07549e+06
step02_gravity_refstate-mantle.xmf,700,6.15617e-06,-1.97394e-05,0,-9.56655e-06,-1.39616e+09,-1.39962e+09,-1.39698e+09,-1.27857e+06,0.013355,0.354758,0,0.355009,1999.88,-49178.6,0,49219.3,1.27857e+06
step02_gravity_refstate-mantle.xmf,701,-2.29929e-05,6.24949e-05,0,1.56424e-06,-1.61649e+09,-1.60506e+09,-1.61341e+09,209061,0.0115226,0.241404,0,0.241679,-500.036,-56000,-0,56002.2,209061
step02_gravity_refstate-mantle.xmf,702,-2.49163e-05,6.19458e-05,0,5.31992e-07,-1.64183e+09,-1.63023e+09,-1.6385e+09,71100.7,0.00444233,0.194523,0,0.194574,-178.797,-56768.7,-0,56769,71100.7
step02_gravity_refstate-mantle.xmf,703,-1.12995e-06,-4.79215e-07,0,-1.20075e-05,-1.31403e+09,-1.31394e+09,-1.31388e+09,-1.60481e+06,0.026786,0.238865,0,0.240362,5303.92,-46642,0,46942.6,1.60481e+06
step02_gravity_refstate-mantle.xmf,704,-2.52406e-06,4.04216e-06,0,-3.04947e-06,-1.16131e+09,-1.16043e+09,-1.16097e+09,-407561,0.0265904,0.122636,0,0.125485,12925.9,-41926.8,0,43874.1,407561
step02_gravity_refstate-mantle.xmf,705,-2.48227e-06,4.08065e-06,0,-3.66808e-06,-1.17976e+09,-1.17888e+09,-1.17943e+09,-490239,0.026001,0.130758,0,0.133318,12026.8,-42497.1,0,44166.1,490239
step02_gravity_refstate-mantle.xmf,706,-2.46077e-06,4.06562e-06,0,-4.34801e-06,-1.19562e+09,-1.19475e+09,-1.19529e+09,-581112,0.0256992,0.139493,0,0.14184,11186.6,-42987.2,0,44418.9,581112
step02_gravity_refstate-mantle.xmf,707,-2.87099e-06,3.98611e-06,0,-1.79656e-06,-1.09901e+09,-1.09809e+09,-1.09863e+09,-240110,0.0280814,0.102987,0,0.106747,15824.5,-40000,0,43016.5,240110
step02_gravity_refstate-mantle.xmf,708,-2.8343e-06,3.82102e-06,0,-2.175e-06,-1.09902e+09,-1.09813e+09,-1.09864e+09,-290689,0.0316182,0.113556,0,0.117876,14585.2,-40000,0,42576.1,290689
step02_gravity_refstate-mantle.xmf,709,-1.81786e-06,1.94983e-06,0,-9.41225e-06,-1.27287e+09,-1.27236e+09,-1.27262e+09,-1.25795e+06,0.0269614,0.206054,0,0.20781,6772.14,-45372.2,0,45874.8,1.25795e+06
step02_gravity_refstate-mantle.xmf,710,-2.13793e-06,3.35968e-06,0,-6.53659e-06,-1.22524e+09,-1.2245e+09,-1.22495e+09,-873615,0.0270489,0.170056,0,0.172194,8914.78,-43902.4,0,44798.4,873615
step02_gravity_refstate-mantle.xmf,711,-1.99404e-06,2.63287e-06,0,-8.31268e-06,-1.25527e+09,-1.25465e+09,-1.255e+09,-1.11099e+06,0.026934,0.192333,0,0.19421,7516.02,-44829.1,0,45454.8,1.11099e+06
step02_gravity_refstate-mantle.xmf,712,-2.08883e-06,3.07855e-06,0,-7.37761e-06,-1.23991e+09,-1.23922e+09,-1.23963e+09,-986017,0.0269337,0.180535,0,0.182533,8223.53,-44355.3,0,45111.2,986017
step02_gravity_refstate-mantle.xmf,713,3.98287e-06,-2.25472e-05,0,-6.46907e-06,-1.42346e+09,-1.427e+09,-1.42399e+09,-864591,0.00600898,0.383115,0,0.383162,1500.17,-50000,0,50022.5,864591
step02_gravity_refstate-mantle.xmf,714,6.79448e-06,-1.85561e-05,0,-9.4993e-06,-1.38013e+09,-1.38352e+09,-1.38104e+09,-1.26958e+06,0.0149933,0.345961,0,0.346285,1975.78,-48690.8,0,48730.9,1.26958e+06
step02_gravity_refstate-mantle.xmf,715,-2.40598e-05,6.18184e-05,0,2.21314e-06,-1.63128e+09,-1.6198e+09,-1.62806e+09,295786,0.0168058,0.212529,0,0.213192,-695.867,-56448,-0,56452.3,295786
step02_gravity_refstate-mantle.xmf,716,-2.55796e-05,6.13666e-05,0,-4.07729e-07,-1.65814e+09,-1.64652e+09,-1.65472e+09,-54493,-0.00364331,0.163902,-0,0.163943,142.59,-57266.4,0,57266.6,54493
step02_gravity_refstate-mantle.xmf,717,-2.58965e-05,6.05667e-05,0,-1.06273e-06,-1.67417e+09,-1.66262e+09,-1.67071e+09,-142034,-0.0112638,0.133476,-0,0.133951,434.21,-57757.5,0,57759.2,142034
step02_gravity_refstate-mantle.xmf,718,-2.58978e-05,5.95712e-05,0,-1.39613e-06,-1.69132e+09,-1.6799e+09,-1.68786e+09,-186592,-0.018678,0.101053,-0,0.102765,715.212,-58284.7,0,58289.1,186592
step02_gravity_refstate-mantle.xmf,719,-2.55859e-05,5.84179e-05,0,-1.37557e-06,-1.70937e+09,-1.69814e+09,-1.70595e+09,-183844,-0.0266429,0.0673187,-0,0.0723992,1020.77,-58841.3,0,58850.1,183844
step02_gravity_refstate-mantle.xmf,720,-2.49413e-05,5.70882e-05,0,-9.4978e-07,-1.72755e+09,-1.71658e+09,-1.72421e+09,-126938,-0.0355915,0.0339704,-0,0.049201,1373.17,-59403.8,0,59419.6,126938
step02_gravity_refstate-mantle.xmf,721,-2.40486e-05,5.56809e-05,0,-1.14824e-08,-1.74677e+09,-1.73612e+09,-1.74356e+09,-1534.63,-0.044345,-3.27445e-18,-0,0.044345,1730.41,-60000,0,60024.9,1534.63
step02_gravity_refstate-mantle.xmf,722,5.94338e-06,-1.55714e-05,0,-1.17412e-05,-1.37034e+09,-1.37322e+09,-1.37113e+09,-1.56922e+06,0.0190368,0.328588,0,0.329139,2488.49,-48390.2,0,48454.2,1.56922e+06
step02_gravity_refstate-mantle.xmf,723,-2.38562e-07,-2.40467e-06,0,-1.29052e-05,-1.32525e+09,-1.32554e+09,-1.32522e+09,-1.72478e+06,0.0267041,0.254479,0,0.255876,4727.27,-46989.8,0,47227,1.72478e+06
step02_gravity_refstate-mantle.xmf,724,2.39054e-06,-7.92764e-06,0,-1.4154e-05,-1.3512e+09,-1.35258e+09,-1.35152e+09,-1.89168e+06,0.0247981,0.289432,0,0.290492,3632.19,-47794.7,0,47932.5,1.89168e+06
step02_gravity_refstate-mantle.xmf,725,4.36799e-06,-1.1802e-05,0,-1.33804e-05,-1.35989e+09,-1.36205e+09,-1.36048e+09,-1.78829e+06,0.0224819,0.309139,0,0.309955,3043.17,-48066.6,0,48162.9,1.78829e+06
step02_gravity_refstate-mantle.xmf,726,9.33009e-07,-4.83783e-06,0,-1.36359e-05,-1.3369e+09,-1.33767e+09,-1.33702e+09,-1.82243e+06,0.0261323,0.271046,0,0.272303,4173.17,-47351.2,0,47534.7,1.82243e+06
step02_gravity_refstate-mantle.xmf,727,-2.43283e-06,3.58909e-06,0,-3.03706e-06,-1.12896e+09,-1.12815e+09,-1.12863e+09,-405902,0.0320587,0.128852,0,0.13278,12708.2,-40927,0,42854.6,405902
step02_gravity_refstate-mantle.xmf,728,-2.67205e-06,3.55755e-06,0,-2.57656e-06,-1.099e+09,-1.09817e+09,-1.09865e+09,-344357,0.0349053,0.124985,0,0.129767,13389.8,-40000,0,42181.6,344357
step02_gravity_refstate-mantle.xmf,729,-2.10267e-06,3.44532e-06,0,-5.89151e-06,-1.21108e+09,-1.21034e+09,-1.2108e+09,-787400,0.0275653,0.16278,0,0.165098,9456.93,-43465.5,0,44482.4,787400
step02_gravity_refstate-mantle.xmf,730,-1.99215e-06,3.36284e-06,0,-4.82396e-06,-1.18027e+09,-1.17956e+09,-1.18001e+09,-644722,0.0295842,0.151947,0,0.154801,10406.4,-42514.4,0,43769.5,644722
step02_gravity_refstate-mantle.xmf,731,-1.05596e-06,4.79032e-07,0,-1.03462e-05,-1.28122e+09,-1.28101e+09,-1.28108e+09,-1.38277e+06,0.0276038,0.222808,0,0.224511,5981.71,-45631.5,0,46021.9,1.38277e+06
step02_gravity_refstate-mantle.xmf,732,-3.41717e-07,-1.01634e-06,0,-1.11736e-05,-1.29235e+09,-1.29244e+09,-1.29231e+09,-1.49336e+06,0.0276174,0.237499,0,0.2391,5339.42,-45976.5,0,46285.5,1.49336e+06
step02_gravity_refstate-mantle.xmf,733,5.61082e-06,-2.23505e-05,0,-5.64011e-06,-1.40908e+09,-1.41282e+09,-1.40983e+09,-753801,0.00709566,0.377748,0,0.377815,1250.43,-49567.4,0,49583.2,753801
step02_gravity_refstate-mantle.xmf,734,6.86921e-06,-2.10028e-05,0,-6.93398e-06,-1.3919e+09,-1.39563e+09,-1.39282e+09,-926726,0.0104183,0.36293,0,0.36308,1470.16,-49048.5,0,49070.6,926726
step02_gravity_refstate-mantle.xmf,735,4.01489e-06,-2.32384e-05,0,-4.2378e-06,-1.42351e+09,-1.42715e+09,-1.42404e+09,-566382,0.00401387,0.391144,0,0.391165,1000.68,-50000,0,50010,566382
step02_gravity_refstate-mantle.xmf,736,-2.2707e-05,6.18184e-05,0,3.20213e-06,-1.61648e+09,-1.60519e+09,-1.61345e+09,427965,0.0229389,0.237913,0,0.239017,-999.46,-56000,-0,56008.9,427965
step02_gravity_refstate-mantle.xmf,737,-2.48379e-05,6.1338e-05,0,2.04143e-06,-1.64551e+09,-1.63399e+09,-1.64219e+09,272837,0.0168973,0.185959,0,0.186725,-677.15,-56881.2,-0,56885.3,272837
step02_gravity_refstate-mantle.xmf,738,5.573e-07,-2.83953e-06,0,-1.18815e-05,-1.3037e+09,-1.30416e+09,-1.30378e+09,-1.58796e+06,0.0272867,0.252556,0,0.254025,4734.66,-46328.4,0,46569.7,1.58796e+06
step02_gravity_refstate-mantle.xmf,739,7.16926e-06,-1.70983e-05,0,-9.11527e-06,-1.36111e+09,-1.36435e+09,-1.36207e+09,-1.21826e+06,0.0159726,0.336115,0,0.336495,1950.38,-48109.3,0,48148.9,1.21826e+06
step02_gravity_refstate-mantle.xmf,740,-2.31448e-06,3.66829e-06,0,-3.47969e-06,-1.15177e+09,-1.15097e+09,-1.15146e+09,-465061,0.0300278,0.133184,0,0.136527,12103.5,-41632.6,0,43356.3,465061
step02_gravity_refstate-mantle.xmf,741,-2.0218e-06,3.35931e-06,0,-4.16161e-06,-1.15966e+09,-1.15895e+09,-1.15939e+09,-556199,0.0310281,0.144572,0,0.147864,11113.2,-41877.7,0,43327.1,556199
step02_gravity_refstate-mantle.xmf,742,-1.71873e-06,2.95726e-06,0,-5.50538e-06,-1.18637e+09,-1.18575e+09,-1.18614e+09,-735794,0.0302782,0.162911,0,0.165701,9607.31,-42703.6,0,43771,735794
step02_gravity_refstate-mantle.xmf,743,-1.50701e-06,2.60609e-06,0,-6.22078e-06,-1.19758e+09,-1.19703e+09,-1.19738e+09,-831407,0.0301377,0.173112,0,0.175716,8883.04,-43050.4,0,43957.3,831407
step02_gravity_refstate-mantle.xmf,744,-8.06229e-07,1.00414e-06,0,-8.70649e-06,-1.24169e+09,-1.24145e+09,-1.24159e+09,-1.16362e+06,0.02893,0.207392,0,0.2094,6776.01,-44413.6,0,44927.6,1.16362e+06
step02_gravity_refstate-mantle.xmf,745,-1.34981e-06,2.25958e-06,0,-6.99823e-06,-1.21216e+09,-1.21168e+09,-1.21198e+09,-935313,0.029629,0.183251,0,0.185631,8198.62,-43501,0,44266.8,935313
step02_gravity_refstate-mantle.xmf,746,-1.12682e-06,1.74088e-06,0,-7.84753e-06,-1.22723e+09,-1.22685e+09,-1.22708e+09,-1.04882e+06,0.0292281,0.19488,0,0.197059,7480.84,-43966.6,0,44598.5,1.04882e+06
step02_gravity_refstate-mantle.xmf,747,-3.14998e-07,-5.47673e-08,0,-9.56428e-06,-1.25599e+09,-1.25595e+09,-1.25595e+09,-1.27827e+06,0.0286338,0.221246,0,0.223092,6063.16,-44855.8,0,45263.7,1.27827e+06
step02_gravity_refstate-mantle.xmf,748,7.66693e-06,-1.94756e-05,0,-6.85992e-06,-1.37199e+09,-1.37562e+09,-1.37302e+09,-916829,0.0116699,0.35117,0,0.351364,1441.01,-48442.8,0,48464.2,916829
step02_gravity_refstate-mantle.xmf,749,5.69879e-06,-2.29606e-05,0,-3.35284e-06,-1.40911e+09,-1.41294e+09,-1.40987e+09,-448108,0.00427589,0.383897,0,0.383921,750.7,-49567.2,0,49572.9,448108
step02_gravity_refstate-mantle.xmf,750,-2.34734e-05,6.08217e-05,0,3.94491e-06,-1.63006e+09,-1.61879e+09,-1.62692e+09,527237,0.0294881,0.210337,0,0.212394,-1233.04,-56411.8,-0,56425.2,527237
step02_gravity_refstate-mantle.xmf,751,-2.42974e-05,6.08432e-05,0,3.15287e-06,-1.64128e+09,-1.6299e+09,-1.63803e+09,421381,0.0250712,0.191592,0,0.193225,-1017.22,-56752.8,-0,56761.9,421381
step02_gravity_refstate-mantle.xmf,752,-2.54728e-05,6.11696e-05,0,1.25365e-06,-1.6577e+09,-1.64612e+09,-1.6543e+09,167550,0.011372,0.164122,0,0.164515,-446.022,-57253.1,-0,57254.8,167550
step02_gravity_refstate-mantle.xmf,753,-2.59936e-05,6.07987e-05,0,3.91686e-07,-1.67332e+09,-1.66172e+09,-1.66985e+09,52348.8,0.00422405,0.135528,0,0.135594,-162.723,-57731.1,-0,57731.3,52348.8
step02_gravity_refstate-mantle.xmf,754,-2.62767e-05,6.02205e-05,0,-2.20623e-07,-1.69045e+09,-1.67889e+09,-1.68694e+09,-29486.3,-0.00289033,0.103785,-0,0.103825,110.164,-58256.9,0,58257,29486.3
step02_gravity_refstate-mantle.xmf,755,-2.63085e-05,5.95388e-05,0,-5.43213e-07,-1.70884e+09,-1.69737e+09,-1.70532e+09,-72600.4,-0.0104039,0.06967,-0,0.0704425,394.982,-58823,0,58824.3,72600.4
step02_gravity_refstate-mantle.xmf,756,-2.60905e-05,5.8797e-05,0,-4.89615e-07,-1.72775e+09,-1.71641e+09,-1.72427e+09,-65437,-0.0184632,0.0348034,-0,0.0393976,701.886,-59406.8,0,59411,65437
step02_gravity_refstate-mantle.xmf,757,-2.5619e-05,5.79812e-05,0,-1.20914e-08,-1.74692e+09,-1.73575e+09,-1.7435e+09,-1616.02,-0.0271566,-3.36754e-18,-0,0.0271566,1038.24,-60000,0,60009,1616.02
step02_gravity_refstate-mantle.xmf,758,6.10373e-06,-1.41815e-05,0,-1.09622e-05,-1.35036e+09,-1.35308e+09,-1.35118e+09,-1.4651e+06,0.0198009,0.319801,0,0.320413,2474.97,-47777.8,0,47841.9,1.4651e+06
step02_gravity_refstate-mantle.xmf,759,1.70721e-06,-5.11095e-06,0,-1.23959e-05,-1.31546e+09,-1.31637e+09,-1.31568e+09,-1.65672e+06,0.0264942,0.268514,0,0.269818,4145.36,-46693.3,0,46876.9,1.65672e+06
step02_gravity_refstate-mantle.xmf,760,4.62868e-06,-1.09497e-05,0,-1.2169e-05,-1.33942e+09,-1.3415e+09,-1.34004e+09,-1.62639e+06,0.0229037,0.302533,0,0.303399,3022.51,-47438.1,0,47534.3,1.62639e+06
step02_gravity_refstate-mantle.xmf,761,3.08192e-06,-7.82792e-06,0,-1.25806e-05,-1.3276e+09,-1.32906e+09,-1.32801e+09,-1.6814e+06,0.025099,0.285184,0,0.286287,3578.94,-47070.6,0,47206.5,1.6814e+06
step02_gravity_refstate-mantle.xmf,762,-2.09409e-06,3.1487e-06,0,-3.55124e-06,-1.12756e+09,-1.12685e+09,-1.12728e+09,-474624,0.0346814,0.141226,0,0.145422,11641.5,-40884.8,0,42509.9,474624
step02_gravity_refstate-mantle.xmf,763,-2.34447e-06,3.1553e-06,0,-2.97545e-06,-1.09897e+09,-1.09823e+09,-1.09865e+09,-397669,0.0378037,0.137192,0,0.142305,12234.4,-40000,0,41829.2,397669
step02_gravity_refstate-mantle.xmf,764,-1.42342e-06,2.49752e-06,0,-4.91281e-06,-1.15543e+09,-1.15491e+09,-1.15524e+09,-656597,0.0338115,0.16198,0,0.165471,9851.73,-41748.7,0,42895.4,656597
step02_gravity_refstate-mantle.xmf,765,3.75226e-07,-1.43245e-06,0,-1.02941e-05,-1.26892e+09,-1.26916e+09,-1.26897e+09,-1.37581e+06,0.0282262,0.235682,0,0.237366,5381.47,-45256.3,0,45575.2,1.37581e+06
step02_gravity_refstate-mantle.xmf,766,1.21337e-06,-3.08904e-06,0,-1.08878e-05,-1.2816e+09,-1.28218e+09,-1.28176e+09,-1.45516e+06,0.0275644,0.250072,0,0.251587,4755.1,-45649.4,0,45896.4,1.45516e+06
step02_gravity_refstate-mantle.xmf,767,6.63822e-06,-2.21113e-05,0,-4.50509e-06,-1.39776e+09,-1.4016e+09,-1.39865e+09,-602105,0.00656033,0.373842,0,0.3739,976.104,-49225.2,0,49234.9,602105
step02_gravity_refstate-mantle.xmf,768,7.63344e-06,-2.12955e-05,0,-4.41966e-06,-1.38268e+09,-1.38654e+09,-1.3837e+09,-590687,0.00728452,0.364311,0,0.364384,942.278,-48768,0,48777.1,590687
step02_gravity_refstate-mantle.xmf,769,4.00557e-06,-2.36027e-05,0,-2.09161e-06,-1.42354e+09,-1.42723e+09,-1.42407e+09,-279543,0.00200699,0.395925,0,0.39593,500.717,-50000,0,50002.5,279543
step02_gravity_refstate-mantle.xmf,770,-2.22135e-05,6.06118e-05,0,4.94364e-06,-1.61648e+09,-1.60541e+09,-1.61351e+09,660718,0.034148,0.232048,0,0.234547,-1498.34,-56000,-0,56020,660718
step02_gravity_refstate-mantle.xmf,771,-2.38316e-05,5.95617e-05,0,4.47419e-06,-1.64401e+09,-1.63287e+09,-1.64083e+09,597976,0.0354806,0.182461,0,0.185879,-1442.87,-56837.1,-0,56855.4,597976
step02_gravity_refstate-mantle.xmf,772,-2.485e-05,6.02501e-05,0,2.98245e-06,-1.65547e+09,-1.6441e+09,-1.65215e+09,398605,0.0261783,0.165222,0,0.167283,-1037.16,-57186,-0,57195.4,398605
step02_gravity_refstate-mantle.xmf,773,2.30571e-06,-5.15745e-06,0,-1.12348e-05,-1.29352e+09,-1.29452e+09,-1.29383e+09,-1.50154e+06,0.0264926,0.265256,0,0.266576,4136.87,-46019.6,0,46205.1,1.50154e+06
step02_gravity_refstate-mantle.xmf,774,7.34557e-06,-1.57074e-05,0,-8.44543e-06,-1.34154e+09,-1.34462e+09,-1.34252e+09,-1.12873e+06,0.0161509,0.326943,0,0.327341,1913.84,-47509.5,0,47548,1.12873e+06
step02_gravity_refstate-mantle.xmf,775,8.04674e-06,-1.80343e-05,0,-6.52762e-06,-1.35314e+09,-1.35663e+09,-1.35422e+09,-872416,0.012092,0.340808,0,0.341022,1410.53,-47866.8,0,47887.6,872416
step02_gravity_refstate-mantle.xmf,776,-1.53174e-06,2.56468e-06,0,-4.05238e-06,-1.12713e+09,-1.12658e+09,-1.12693e+09,-541600,0.0367296,0.154741,0,0.15904,10555.6,-40873.9,0,42214.9,541600
step02_gravity_refstate-mantle.xmf,777,-1.03032e-06,2.0504e-06,0,-5.72249e-06,-1.17012e+09,-1.16971e+09,-1.16998e+09,-764811,0.0331022,0.174212,0,0.177329,8939.1,-42203.8,0,43140.1,764811
step02_gravity_refstate-mantle.xmf,778,-6.96095e-07,1.57728e-06,0,-6.46278e-06,-1.18362e+09,-1.18332e+09,-1.18353e+09,-863751,0.0323181,0.185177,0,0.187976,8183.97,-42622.1,0,43400.7,863751
step02_gravity_refstate-mantle.xmf,779,6.43706e-07,-8.30805e-07,0,-8.67274e-06,-1.22644e+09,-1.22663e+09,-1.22652e+09,-1.15911e+06,0.0296846,0.222326,0,0.224299,5987.08,-43947.3,0,44353.2,1.15911e+06
step02_gravity_refstate-mantle.xmf,780,6.67337e-09,3.02018e-07,0,-8.03519e-06,-1.21512e+09,-1.21508e+09,-1.21512e+09,-1.0739e+06,0.0304363,0.20876,0,0.210967,6731.15,-43596.3,0,44112.9,1.0739e+06
step02_gravity_refstate-mantle.xmf,781,-3.77858e-07,1.02636e-06,0,-7.25011e-06,-1.19915e+09,-1.19896e+09,-1.1991e+09,-968977,0.0313587,0.196531,0,0.199017,7454.92,-43102.4,0,43742.4,968977
step02_gravity_refstate-mantle.xmf,782,1.12215e-06,-1.8857e-06,0,-9.38684e-06,-1.24405e+09,-1.24445e+09,-1.2442e+09,-1.25455e+06,0.0286819,0.234776,0,0.236521,5363.8,-44491.9,0,44814,1.25455e+06
step02_gravity_refstate-mantle.xmf,783,8.27208e-06,-1.99456e-05,0,-4.36127e-06,-1.36534e+09,-1.36911e+09,-1.36645e+09,-582884,0.00779547,0.353645,0,0.353731,922.86,-48240.3,0,48249.1,582884
step02_gravity_refstate-mantle.xmf,784,5.4863e-06,-2.32558e-05,0,-1.57669e-06,-1.4113e+09,-1.41514e+09,-1.41203e+09,-210724,0.00199411,0.388054,0,0.388059,364.345,-49632.6,0,49634,210724
step02_gravity_refstate-mantle.xmf,785,6.9006e-06,-2.25627e-05,0,-2.12886e-06,-1.39611e+09,-1.40005e+09,-1.39703e+09,-284522,0.00321287,0.377061,0,0.377075,466.956,-49174.8,0,49177,284522
step02_gravity_refstate-mantle.xmf,786,4.00994e-06,-2.37529e-05,0,-4.21917e-08,-1.42355e+09,-1.42726e+09,-1.42409e+09,-5638.92,-1.69723e-07,0.397514,-0,0.397514,0,-50000,0,50000,5638.92
step02_gravity_refstate-mantle.xmf,787,-2.27995e-05,5.92603e-05,0,5.64769e-06,-1.63046e+09,-1.61949e+09,-1.62741e+09,754814,0.0407123,0.20344,0,0.207473,-1716.45,-56424.6,-0,56450.7,754814
step02_gravity_refstate-mantle.xmf,788,-2.55865e-05,6.01689e-05,0,1.90401e-06,-1.67202e+09,-1.66056e+09,-1.6686e+09,254471,0.0195835,0.136342,0,0.137741,-758.908,-57692.1,-0,57697.1,254471
step02_gravity_refstate-mantle.xmf,789,-2.60846e-05,5.99739e-05,0,9.87329e-07,-1.68935e+09,-1.67785e+09,-1.68586e+09,131957,0.0128664,0.10529,0,0.106073,-491.781,-58223.5,-0,58225.6,131957
step02_gravity_refstate-mantle.xmf,790,-2.63875e-05,5.9696e-05,0,3.16553e-07,-1.70803e+09,-1.69653e+09,-1.70451e+09,42307.4,0.00595541,0.0713168,0,0.071565,-225.913,-58797.9,-0,58798.4,42307.4
step02_gravity_refstate-mantle.xmf,791,-2.64971e-05,5.94202e-05,0,-2.79035e-08,-1.72713e+09,-1.71565e+09,-1.72359e+09,-3729.3,-0.0011834,0.0363669,-0,0.0363862,44.7528,-59386.5,0,59386.5,3729.3
step02_gravity_refstate-mantle.xmf,792,-2.64119e-05,5.91432e-05,0,-1.07686e-08,-1.747e+09,-1.73556e+09,-1.74347e+09,-1439.22,-0.00914349,-3.5309e-18,-0,0.00914349,346.07,-60000,0,60001,1439.22
step02_gravity_refstate-mantle.xmf,793,6.26667e-06,-1.30796e-05,0,-9.93127e-06,-1.33002e+09,-1.33261e+09,-1.33086e+09,-1.32731e+06,0.019694,0.312231,0,0.312852,2430.38,-47153.3,0,47215.9,1.32731e+06
step02_gravity_refstate-mantle.xmf,794,3.59266e-06,-7.58298e-06,0,-1.12442e-05,-1.3053e+09,-1.30679e+09,-1.30578e+09,-1.50279e+06,0.0248693,0.280818,0,0.281917,3540.52,-46385.9,0,46520.8,1.50279e+06
step02_gravity_refstate-mantle.xmf,795,4.96532e-06,-1.03091e-05,0,-1.08501e-05,-1.31768e+09,-1.31972e+09,-1.31835e+09,-1.45011e+06,0.0225886,0.296733,0,0.297592,2966.03,-46770.5,0,46864.5,1.45011e+06
step02_gravity_refstate-mantle.xmf,796,-1.84693e-06,2.61793e-06,0,-3.36022e-06,-1.0989e+09,-1.09831e+09,-1.09866e+09,-449094,0.0401522,0.150061,0,0.15534,11115.2,-40000,0,41515.6,449094
step02_gravity_refstate-mantle.xmf,797,-8.57203e-07,1.75124e-06,0,-4.51914e-06,-1.1247e+09,-1.12435e+09,-1.12458e+09,-603982,0.0384042,0.169365,0,0.173664,9463,-40801.2,0,41884.2,603982
step02_gravity_refstate-mantle.xmf,798,-6.31705e-07,1.60543e-06,0,-5.17537e-06,-1.14474e+09,-1.14444e+09,-1.14465e+09,-691689,0.0361147,0.175712,0,0.179385,8934.31,-41421.3,0,42373.9,691689
step02_gravity_refstate-mantle.xmf,799,1.8922e-06,-3.34977e-06,0,-9.84988e-06,-1.25752e+09,-1.25822e+09,-1.25777e+09,-1.31644e+06,0.0276187,0.248147,0,0.24968,4733.19,-44909.3,0,45158.1,1.31644e+06
step02_gravity_refstate-mantle.xmf,800,2.8411e-06,-5.14665e-06,0,-1.01187e-05,-1.27073e+09,-1.2718e+09,-1.27111e+09,-1.35236e+06,0.0262419,0.262102,0,0.263412,4115.34,-45319.2,0,45505.7,1.35236e+06
step02_gravity_refstate-mantle.xmf,801,8.01023e-06,-2.14693e-05,0,-2.09697e-06,-1.37832e+09,-1.38226e+09,-1.37939e+09,-280260,0.00356655,0.365329,0,0.365347,445.594,-48635.5,0,48637.6,280260
step02_gravity_refstate-mantle.xmf,802,6.02617e-06,-2.31663e-05,0,1.77173e-08,-1.4065e+09,-1.4104e+09,-1.40731e+09,2367.92,7.5727e-08,0.385523,0,0.385523,0,-49488.4,0,49488.4,2367.92
step02_gravity_refstate-mantle.xmf,803,-2.14694e-05,5.87949e-05,0,6.83215e-06,-1.61646e+09,-1.60574e+09,-1.6136e+09,913117,0.0450541,0.223722,0,0.228214,-1997.54,-56000,-0,56035.6,913117
step02_gravity_refstate-mantle.xmf,804,-2.29599e-05,5.77605e-05,0,5.96412e-06,-1.6448e+09,-1.63401e+09,-1.64173e+09,797105,0.0460509,0.175237,0,0.181187,-1892.14,-56862.7,-0,56894.1,797105
step02_gravity_refstate-mantle.xmf,805,-2.39924e-05,5.84608e-05,0,4.45504e-06,-1.65848e+09,-1.64746e+09,-1.65527e+09,595416,0.0392603,0.154977,0,0.159873,-1567.75,-57280.2,-0,57301.6,595416
step02_gravity_refstate-mantle.xmf,806,-2.47396e-05,5.87704e-05,0,3.30196e-06,-1.67207e+09,-1.66091e+09,-1.66877e+09,441308,0.0336591,0.132839,0,0.137037,-1318.39,-57695.8,-0,57710.9,441308
step02_gravity_refstate-mantle.xmf,807,3.90531e-06,-7.15307e-06,0,-1.01026e-05,-1.2831e+09,-1.28458e+09,-1.28362e+09,-1.35022e+06,0.0245074,0.275833,0,0.27692,3538.38,-45703.4,0,45840.1,1.35022e+06
step02_gravity_refstate-mantle.xmf,808,7.42782e-06,-1.44635e-05,0,-7.59332e-06,-1.32179e+09,-1.32472e+09,-1.32279e+09,-1.01485e+06,0.0157044,0.318722,0,0.319108,1856.13,-46903.4,0,46940.1,1.01485e+06
step02_gravity_refstate-mantle.xmf,809,8.19101e-06,-1.65463e-05,0,-5.94729e-06,-1.33313e+09,-1.33643e+09,-1.33422e+09,-794855,0.011899,0.330808,0,0.331022,1362.78,-47253.3,0,47272.9,794855
step02_gravity_refstate-mantle.xmf,810,8.63939e-06,-1.84961e-05,0,-4.0646e-06,-1.34558e+09,-1.34921e+09,-1.34674e+09,-543233,0.00784748,0.34236,0,0.34245,889.032,-47636.1,0,47644.4,543233
step02_gravity_refstate-mantle.xmf,811,1.81872e-06,-2.32601e-06,0,-8.57677e-06,-1.22273e+09,-1.22328e+09,-1.22297e+09,-1.14629e+06,0.0288846,0.23537,0,0.237136,5257.23,-43836.9,0,44151,1.14629e+06
step02_gravity_refstate-mantle.xmf,812,-1.16781e-06,1.94348e-06,0,-3.70533e-06,-1.09881e+09,-1.0984e+09,-1.09866e+09,-495217,0.0417943,0.163435,0,0.168694,10028,-40000,0,41237.9,495217
step02_gravity_refstate-mantle.xmf,813,-2.05052e-07,1.08808e-06,0,-5.79391e-06,-1.15541e+09,-1.15524e+09,-1.15538e+09,-774356,0.0351606,0.185792,0,0.18909,8218.8,-41752.6,0,42553.8,774356
step02_gravity_refstate-mantle.xmf,814,2.56532e-07,4.65656e-07,0,-6.53072e-06,-1.1705e+09,-1.17047e+09,-1.17053e+09,-872831,0.0336574,0.19739,0,0.200239,7442.57,-42220.2,0,42871.2,872831
step02_gravity_refstate-mantle.xmf,815,9.83356e-07,-7.97572e-07,0,-7.82816e-06,-1.20227e+09,-1.20251e+09,-1.2024e+09,-1.04623e+06,0.030814,0.217997,0,0.220164,6197.58,-43203.1,0,43645.4,1.04623e+06
step02_gravity_refstate-mantle.xmf,816,6.63792e-07,-2.0807e-07,0,-7.28489e-06,-1.18777e+09,-1.18789e+09,-1.18786e+09,-973625,0.0320328,0.208862,0,0.211304,6727.58,-42754.7,0,43280.7,973625
step02_gravity_refstate-mantle.xmf,817,1.03404e-07,8.1392e-07,0,-4.92439e-06,-1.12553e+09,-1.12544e+09,-1.12554e+09,-658144,0.038706,0.184913,0,0.18892,8338.25,-40830.9,0,41673.6,658144
step02_gravity_refstate-mantle.xmf,818,2.47578e-06,-3.51838e-06,0,-8.87256e-06,-1.23367e+09,-1.23447e+09,-1.234e+09,-1.18582e+06,0.0275816,0.246309,0,0.247849,4697.03,-44176.1,0,44425.1,1.18582e+06
step02_gravity_refstate-mantle.xmf,819,8.67908e-06,-1.99013e-05,0,-2.07326e-06,-1.35818e+09,-1.362e+09,-1.35934e+09,-277091,0.00386852,0.352657,0,0.352678,444.4,-48021.9,0,48023.9,277091
step02_gravity_refstate-mantle.xmf,820,5.46309e-06,-2.32578e-05,0,1.56878e-06,-1.4113e+09,-1.41514e+09,-1.41203e+09,209667,-0.00199396,0.388054,-0,0.388059,-364.345,-49632.6,-0,49634,209667
step02_gravity_refstate-mantle.xmf,821,4.0922e-06,-2.36069e-05,0,2.08469e-06,-1.42352e+09,-1.42722e+09,-1.42407e+09,278619,-0.0020075,0.395925,-0,0.39593,-500.717,-50000,-0,50002.5,278619
step02_gravity_refstate-mantle.xmf,822,-2.18096e-05,5.70603e-05,0,7.46292e-06,-1.63074e+09,-1.6202e+09,-1.62782e+09,997420,0.0514611,0.194758,0,0.201442,-2196.75,-56434.2,-0,56477,997420
step02_gravity_refstate-mantle.xmf,823,-2.53437e-05,5.88423e-05,0,2.21205e-06,-1.68838e+09,-1.67713e+09,-1.685e+09,295640,0.0280028,0.1049,0,0.108573,-1080.59,-58195.7,-0,58205.8,295640
step02_gravity_refstate-mantle.xmf,824,-2.58649e-05,5.89578e-05,0,1.20064e-06,-1.70629e+09,-1.69496e+09,-1.70284e+09,160466,0.0215549,0.0734555,0,0.0765527,-823.205,-58745.8,-0,58751.6,160466
step02_gravity_refstate-mantle.xmf,825,-2.62025e-05,5.90226e-05,0,4.44829e-07,-1.7264e+09,-1.71501e+09,-1.7229e+09,59451.3,0.0155484,0.0373776,0,0.0404825,-590.289,-59364.9,-0,59367.9,59451.3
step02_gravity_refstate-mantle.xmf,826,-2.63976e-05,5.91233e-05,0,-7.84253e-09,-1.747e+09,-1.73557e+09,-1.74347e+09,-1048.15,0.00914734,-3.63932e-18,0,0.00914734,-346.07,-60000,-0,60001,1048.15
step02_gravity_refstate-mantle.xmf,827,6.45262e-06,-1.22233e-05,0,-8.80349e-06,-1.30943e+09,-1.31192e+09,-1.31029e+09,-1.17659e+06,0.0189389,0.305749,0,0.306335,2347.89,-46520.6,0,46579.8,1.17659e+06
step02_gravity_refstate-mantle.xmf,828,5.38331e-06,-9.82441e-06,0,-9.36268e-06,-1.29256e+09,-1.29459e+09,-1.29328e+09,-1.25132e+06,0.0215629,0.291173,0,0.29197,2854.98,-45998.4,0,46086.9,1.25132e+06
step02_gravity_refstate-mantle.xmf,829,1.85996e-06,-2.01498e-06,0,-7.94882e-06,-1.20314e+09,-1.20366e+09,-1.20339e+09,-1.06236e+06,0.0298179,0.229568,0,0.231497,5518.45,-43233,0,43583.7,1.06236e+06
step02_gravity_refstate-mantle.xmf,830,-3.02467e-07,1.12757e-06,0,-3.97983e-06,-1.09869e+09,-1.0985e+09,-1.09865e+09,-531904,0.0425779,0.177115,0,0.182161,8968.72,-40000,0,40993.1,531904
step02_gravity_refstate-mantle.xmf,831,3.34489e-06,-5.07023e-06,0,-8.99722e-06,-1.24618e+09,-1.2473e+09,-1.24663e+09,-1.20248e+06,0.0258557,0.258912,0,0.260199,4079.8,-44564.4,0,44750.7,1.20248e+06
step02_gravity_refstate-mantle.xmf,832,4.2971e-06,-6.86867e-06,0,-8.92223e-06,-1.25948e+09,-1.26097e+09,-1.26006e+09,-1.19246e+06,0.0237891,0.271827,0,0.272866,3479.11,-44977.1,0,45111.4,1.19246e+06
step02_gravity_refstate-mantle.xmf,833,3.01842e-06,-3.60872e-06,0,-7.84563e-06,-1.20639e+09,-1.20728e+09,-1.20679e+09,-1.04857e+06,0.0277113,0.243665,0,0.245236,4677.84,-43336.9,0,43588.6,1.04857e+06
step02_gravity_refstate-mantle.xmf,834,7.46307e-06,-2.22922e-05,0,-1.33004e-08,-1.38882e+09,-1.3928e+09,-1.38982e+09,-1777.6,-5.84887e-08,0.373396,-0,0.373396,0,-48954.1,0,48954.1,1777.6
step02_gravity_refstate-mantle.xmf,835,8.40267e-06,-2.10542e-05,0,-1.1209e-08,-1.37036e+09,-1.3743e+09,-1.37148e+09,-1498.08,3.69248e-07,0.361277,0,0.361277,0,-48393.3,0,48393.3,1498.08
step02_gravity_refstate-mantle.xmf,836,4.01259e-06,-2.32705e-05,0,4.16238e-06,-1.42351e+09,-1.42716e+09,-1.42405e+09,556302,-0.00401262,0.391143,-0,0.391164,-1000.68,-50000,-0,50010,556302
step02_gravity_refstate-mantle.xmf,837,5.63499e-06,-2.29974e-05,0,3.36359e-06,-1.4103e+09,-1.41413e+09,-1.41105e+09,449544,-0.0042421,0.384629,-0,0.384653,-761.518,-49603.5,-0,49609.4,449544
step02_gravity_refstate-mantle.xmf,838,6.85318e-06,-2.26001e-05,0,2.14001e-06,-1.39658e+09,-1.40052e+09,-1.3975e+09,286012,-0.00325128,0.377334,-0,0.377348,-475.095,-49188.9,-0,49191.2,286012
step02_gravity_refstate-mantle.xmf,839,-2.041e-05,5.62112e-05,0,8.89426e-06,-1.61645e+09,-1.60621e+09,-1.61372e+09,1.18872e+06,0.0555206,0.212836,0,0.219958,-2497.35,-56000,-0,56055.7,1.18872e+06
step02_gravity_refstate-mantle.xmf,840,-2.2788e-05,5.62104e-05,0,5.85272e-06,-1.65958e+09,-1.64902e+09,-1.65653e+09,782215,0.0505615,0.147212,0,0.155653,-2048.49,-57316.4,-0,57353,782215
step02_gravity_refstate-mantle.xmf,841,-2.15783e-05,5.5075e-05,0,7.63152e-06,-1.6454e+09,-1.63515e+09,-1.64251e+09,1.01995e+06,0.0569812,0.166167,0,0.175665,-2380.55,-56883.5,-0,56933.3,1.01995e+06
step02_gravity_refstate-mantle.xmf,842,-2.36749e-05,5.69753e-05,0,4.49198e-06,-1.67195e+09,-1.66117e+09,-1.66879e+09,600353,0.0447994,0.128916,0,0.136478,-1778.93,-57694.6,-0,57722,600353
step02_gravity_refstate-mantle.xmf,843,-2.40808e-05,5.69501e-05,0,3.43977e-06,-1.68665e+09,-1.67582e+09,-1.68343e+09,459725,0.042499,0.104198,0,0.112532,-1668.01,-58145.8,-0,58169.7,459725
step02_gravity_refstate-mantle.xmf,844,5.04164e-06,-8.4456e-06,0,-8.81019e-06,-1.27213e+09,-1.27394e+09,-1.27281e+09,-1.17748e+06,0.0220575,0.282177,0,0.283037,3045.32,-45368.8,0,45470.9,1.17748e+06
step02_gravity_refstate-mantle.xmf,845,7.44741e-06,-1.35535e-05,0,-6.85278e-06,-1.30476e+09,-1.30757e+09,-1.30576e+09,-915875,0.0150339,0.312239,0,0.312601,1796.57,-46379.7,0,46414.5,915875
step02_gravity_refstate-mantle.xmf,846,8.16909e-06,-1.50755e-05,0,-5.28092e-06,-1.31246e+09,-1.31556e+09,-1.31355e+09,-705796,0.0114038,0.321283,0,0.321485,1316.66,-46618.4,0,46637,705796
step02_gravity_refstate-mantle.xmf,847,8.70053e-06,-1.68067e-05,0,-3.56118e-06,-1.32484e+09,-1.32825e+09,-1.326e+09,-475952,0.00736098,0.331626,0,0.331707,827.851,-46999.9,0,47007.2,475952
step02_gravity_refstate-mantle.xmf,848,8.94162e-06,-1.83894e-05,0,-1.88047e-06,-1.33845e+09,-1.34211e+09,-1.33965e+09,-251325,0.00374308,0.341227,0,0.341248,417.632,-47418.1,0,47419.9,251325
step02_gravity_refstate-mantle.xmf,849,1.8009e-06,-1.50932e-06,0,-7.18213e-06,-1.18135e+09,-1.1818e+09,-1.18159e+09,-959891,0.0313889,0.221896,0,0.224105,5916.64,-42560.7,0,42970,959891
step02_gravity_refstate-mantle.xmf,850,7.6006e-07,4.90205e-08,0,-5.70467e-06,-1.14185e+09,-1.14194e+09,-1.14195e+09,-762429,0.0363676,0.197643,0,0.200961,7440.73,-41337.5,0,42001.8,762429
step02_gravity_refstate-mantle.xmf,851,1.3387e-06,-7.14535e-07,0,-6.41812e-06,-1.15875e+09,-1.15903e+09,-1.15893e+09,-857782,0.0339732,0.209647,0,0.212382,6652.69,-41861.5,0,42386.9,857782
step02_gravity_refstate-mantle.xmf,852,7.33819e-07,1.85738e-07,0,-4.16363e-06,-1.09855e+09,-1.09862e+09,-1.09864e+09,-556469,0.0423596,0.190856,0,0.1955,7933.15,-40000,0,40779.1,556469
step02_gravity_refstate-mantle.xmf,853,3.67057e-06,-4.931e-06,0,-8.14737e-06,-1.2249e+09,-1.22605e+09,-1.22539e+09,-1.0889e+06,0.0256605,0.255743,0,0.257027,4074.2,-43909.6,0,44098.2,1.0889e+06
step02_gravity_refstate-mantle.xmf,854,8.89091e-06,-1.94891e-05,0,1.77394e-08,-1.35106e+09,-1.35485e+09,-1.35225e+09,2370.87,2.84077e-08,0.349356,0,0.349356,0,-47804.3,0,47804.3,2370.87
step02_gravity_refstate-mantle.xmf,855,5.61778e-06,-2.23768e-05,0,5.57904e-06,-1.40908e+09,-1.41282e+09,-1.40983e+09,745639,-0.00709636,0.377744,-0,0.377811,-1250.43,-49567.2,-0,49583,745639
step02_gravity_refstate-mantle.xmf,856,3.98502e-06,-2.25987e-05,0,6.39357e-06,-1.42346e+09,-1.42701e+09,-1.42399e+09,854500,-0.00600967,0.383114,-0,0.383161,-1500.17,-50000,-0,50022.5,854500
step02_gravity_refstate-mantle.xmf,857,-2.03265e-05,5.38809e-05,0,9.49997e-06,-1.63081e+09,-1.62089e+09,-1.62809e+09,1.26967e+06,0.0619779,0.18398,0,0.194139,-2695.27,-56438.2,-0,56502.5,1.26967e+06
step02_gravity_refstate-mantle.xmf,858,-2.23695e-05,5.4556e-05,0,5.12251e-06,-1.67824e+09,-1.66796e+09,-1.67525e+09,684623,0.054962,0.113383,0,0.126002,-2212.44,-57891.4,-0,57933.7,684623
step02_gravity_refstate-mantle.xmf,859,-2.47853e-05,5.73779e-05,0,2.12788e-06,-1.70439e+09,-1.69341e+09,-1.70108e+09,284392,0.036307,0.074659,0,0.0830191,-1405.91,-58690.2,-0,58707,284392
step02_gravity_refstate-mantle.xmf,860,-2.54005e-05,5.7902e-05,0,1.0293e-06,-1.7229e+09,-1.71177e+09,-1.71951e+09,137565,0.0300509,0.0427177,0,0.0522289,-1153.05,-59259.3,-0,59270.5,137565
step02_gravity_refstate-mantle.xmf,861,-2.55632e-05,5.79092e-05,0,-4.41565e-09,-1.74692e+09,-1.73576e+09,-1.7435e+09,-590.151,0.027161,-4.16435e-18,0,0.027161,-1038.24,-60000,-0,60009,590.151
step02_gravity_refstate-mantle.xmf,862,6.86863e-06,-1.18986e-05,0,-7.27235e-06,-1.28969e+09,-1.2922e+09,-1.29061e+09,-971950,0.0168395,0.302374,0,0.302842,2093.06,-45914.5,0,45962.2,971950
step02_gravity_refstate-mantle.xmf,863,6.19169e-06,-1.00479e-05,0,-7.45584e-06,-1.27038e+09,-1.27255e+09,-1.2712e+09,-996473,0.0186134,0.291065,0,0.29166,2439.39,-45318.2,0,45383.8,996473
step02_gravity_refstate-mantle.xmf,864,8.95208e-06,-1.69324e-05,0,-1.46978e-06,-1.32028e+09,-1.32374e+09,-1.32148e+09,-196436,0.00308648,0.33166,0,0.331674,344.506,-46860.6,0,46861.9,196436
step02_gravity_refstate-mantle.xmf,865,2.86909e-06,-2.82502e-06,0,-7.03265e-06,-1.1793e+09,-1.18006e+09,-1.17969e+09,-939914,0.0296095,0.2342,0,0.236064,5117.77,-42501.1,0,42808.1,939914
step02_gravity_refstate-mantle.xmf,866,1.14952e-06,-2.43252e-07,0,-4.84834e-06,-1.11632e+09,-1.11651e+09,-1.11648e+09,-647981,0.0393325,0.197779,0,0.201652,7426.37,-40550.8,0,41225.2,647981
step02_gravity_refstate-mantle.xmf,867,5.52807e-06,-8.29624e-06,0,-7.49501e-06,-1.24979e+09,-1.25163e+09,-1.25052e+09,-1.00171e+06,0.0204113,0.279702,0,0.280445,2834.62,-44682.1,0,44772,1.00171e+06
step02_gravity_refstate-mantle.xmf,868,4.73302e-06,-6.5486e-06,0,-7.61496e-06,-1.23017e+09,-1.23168e+09,-1.23081e+09,-1.01774e+06,0.0228586,0.267225,0,0.268201,3390.09,-44075.5,0,44205.7,1.01774e+06
step02_gravity_refstate-mantle.xmf,869,4.36534e-06,-5.26352e-06,0,-7.05641e-06,-1.20294e+09,-1.20423e+09,-1.20353e+09,-943090,0.0244711,0.256539,0,0.257703,3794.36,-43235.2,0,43401.4,943090
step02_gravity_refstate-mantle.xmf,870,8.08436e-06,-2.13863e-05,0,2.12912e-06,-1.37684e+09,-1.38078e+09,-1.37792e+09,284557,-0.00366996,0.364325,-0,0.364343,-454.544,-48590.5,-0,48592.7,284557
step02_gravity_refstate-mantle.xmf,871,8.68236e-06,-2.0026e-05,0,2.08583e-06,-1.35874e+09,-1.36258e+09,-1.3599e+09,278771,-0.00388673,0.352984,-0,0.353005,-447.161,-48038.9,-0,48041,278771
step02_gravity_refstate-mantle.xmf,872,6.65232e-06,-2.21273e-05,0,4.54514e-06,-1.39799e+09,-1.40184e+09,-1.39888e+09,607458,-0.00655315,0.373981,-0,0.374038,-977.841,-49232.4,-0,49242.1,607458
step02_gravity_refstate-mantle.xmf,873,5.49959e-06,-2.14072e-05,0,7.97145e-06,-1.40867e+09,-1.41227e+09,-1.40941e+09,1.06538e+06,-0.00988663,0.368383,-0,0.368516,-1742.65,-49556.4,-0,49587,1.06538e+06
step02_gravity_refstate-mantle.xmf,874,3.8845e-06,-2.15196e-05,0,8.77858e-06,-1.42339e+09,-1.42679e+09,-1.42391e+09,1.17326e+06,-0.00797509,0.371718,-0,0.371804,-2000,-50000,-0,50040,1.17326e+06
step02_gravity_refstate-mantle.xmf,875,-1.89559e-05,5.25673e-05,0,1.11568e-05,-1.61644e+09,-1.60688e+09,-1.6139e+09,1.49111e+06,0.0653553,0.199331,0,0.209772,-2997.53,-56000,-0,56080.2,1.49111e+06
step02_gravity_refstate-mantle.xmf,876,-2.09673e-05,5.30416e-05,0,7.18415e-06,-1.66087e+09,-1.65098e+09,-1.65807e+09,960161,0.0619588,0.137232,0,0.150571,-2566.21,-57360.4,-0,57417.8,960161
step02_gravity_refstate-mantle.xmf,877,-1.95357e-05,5.13297e-05,0,9.25349e-06,-1.64601e+09,-1.63654e+09,-1.6434e+09,1.23673e+06,0.0674679,0.155048,0,0.169091,-2887.68,-56906.6,-0,56979.8,1.23673e+06
step02_gravity_refstate-mantle.xmf,878,-2.30114e-05,5.46527e-05,0,3.12405e-06,-1.70304e+09,-1.69266e+09,-1.69997e+09,417529,0.0515949,0.073221,0,0.0895732,-2045.34,-58653.5,-0,58689.2,417529
step02_gravity_refstate-mantle.xmf,879,7.85926e-06,-1.34926e-05,0,-5.2286e-06,-1.2915e+09,-1.29435e+09,-1.29255e+09,-698802,0.0119772,0.310997,0,0.311228,1426.42,-45972.9,0,45995,698802
step02_gravity_refstate-mantle.xmf,880,8.62865e-06,-1.50079e-05,0,-2.52908e-06,-1.29935e+09,-1.30251e+09,-1.3005e+09,-338012,0.00574631,0.320164,0,0.320216,658.891,-46216.7,0,46221.4,338012
step02_gravity_refstate-mantle.xmf,881,9.06294e-06,-1.79225e-05,0,1.15656e-08,-1.33086e+09,-1.33447e+09,-1.33207e+09,1545.74,1.35032e-06,0.337812,0,0.337812,0,-47185.6,0,47185.6,1545.74
step02_gravity_refstate-mantle.xmf,882,2.56258e-06,-1.99374e-06,0,-6.22686e-06,-1.15389e+09,-1.1545e+09,-1.15423e+09,-832220,0.0325122,0.223305,0,0.225659,5726.96,-41716.2,0,42107.4,832220
step02_gravity_refstate-mantle.xmf,883,4.01839e-06,-4.19352e-06,0,-6.56831e-06,-1.17829e+09,-1.17939e+09,-1.17883e+09,-877854,0.0267363,0.246291,0,0.247737,4276.29,-42474.1,0,42688.8,877854
step02_gravity_refstate-mantle.xmf,884,2.02944e-06,-1.19654e-06,0,-5.3325e-06,-1.12666e+09,-1.12709e+09,-1.12693e+09,-712689,0.036662,0.210632,0,0.213799,6521.96,-40873.5,0,41390.6,712689
step02_gravity_refstate-mantle.xmf,885,1.91985e-06,-8.72296e-07,0,-4.22023e-06,-1.09838e+09,-1.09875e+09,-1.09863e+09,-564033,0.0410233,0.204368,0,0.208445,6916.9,-40000,0,40593.6,564033
step02_gravity_refstate-mantle.xmf,886,8.90289e-06,-1.87537e-05,0,1.86621e-06,-1.34324e+09,-1.34694e+09,-1.34443e+09,249419,-0.00369245,0.343958,-0,0.343978,-413.252,-47564.7,-0,47566.5,249419
step02_gravity_refstate-mantle.xmf,887,7.64548e-06,-2.13159e-05,0,4.44145e-06,-1.38268e+09,-1.38655e+09,-1.3837e+09,593600,-0.00728453,0.36431,-0,0.364383,-942.278,-48768,-0,48777.1,593600
step02_gravity_refstate-mantle.xmf,888,6.92203e-06,-2.09395e-05,0,7.04727e-06,-1.39233e+09,-1.39606e+09,-1.39326e+09,941867,-0.010411,0.363123,-0,0.363273,-1475.71,-49062.3,-0,49084.5,941867
step02_gravity_refstate-mantle.xmf,889,5.18138e-06,-1.98887e-05,0,1.0584e-05,-1.40897e+09,-1.41232e+09,-1.40966e+09,1.41455e+06,-0.0125212,0.35595,-0,0.35617,-2249.92,-49567.3,-0,49618.3,1.41455e+06
step02_gravity_refstate-mantle.xmf,890,-1.80598e-05,4.92053e-05,0,1.16139e-05,-1.63116e+09,-1.62217e+09,-1.62875e+09,1.5522e+06,0.0717995,0.170413,0,0.184921,-3203.58,-56452.3,-0,56543.1,1.5522e+06
step02_gravity_refstate-mantle.xmf,891,-1.99303e-05,5.0842e-05,0,6.32248e-06,-1.6764e+09,-1.66694e+09,-1.67374e+09,845000,0.0677212,0.108538,0,0.127932,-2817.51,-57841.3,-0,57909.9,845000
step02_gravity_refstate-mantle.xmf,892,-2.40622e-05,5.58576e-05,0,1.63202e-06,-1.72063e+09,-1.70995e+09,-1.71741e+09,218120,0.0437502,0.0450287,0,0.0627827,-1707.34,-59192.7,-0,59217.3,218120
step02_gravity_refstate-mantle.xmf,893,-2.40574e-05,5.57327e-05,0,-2.04627e-08,-1.74677e+09,-1.73611e+09,-1.74356e+09,-2734.84,0.0443459,-3.36791e-18,0,0.0443459,-1730.41,-60000,-0,60024.9,2734.84
step02_gravity_refstate-mantle.xmf,894,7.27969e-06,-1.16055e-05,0,-5.55278e-06,-1.2701e+09,-1.27263e+09,-1.27108e+09,-742129,0.0137781,0.299798,0,0.300115,1721.77,-45313,0,45345.7,742129
step02_gravity_refstate-mantle.xmf,895,6.66287e-06,-9.8329e-06,0,-5.84354e-06,-1.24846e+09,-1.25067e+09,-1.24935e+09,-780989,0.0158007,0.288849,0,0.289281,2082.22,-44644.9,0,44693.4,780989
step02_gravity_refstate-mantle.xmf,896,8.88918e-06,-1.61058e-05,0,1.16719e-08,-1.30971e+09,-1.31305e+09,-1.3109e+09,1559.95,-8.48381e-07,0.326782,-0,0.326782,0,-46535.7,0,46535.7,1559.95
step02_gravity_refstate-mantle.xmf,897,3.74878e-06,-3.32354e-06,0,-5.92785e-06,-1.15231e+09,-1.15325e+09,-1.15281e+09,-792258,0.0296633,0.236271,0,0.238126,4795.09,-41671.9,0,41946.9,792258
step02_gravity_refstate-mantle.xmf,898,6.03739e-06,-8.15395e-06,0,-6.03901e-06,-1.2258e+09,-1.22769e+09,-1.2266e+09,-807114,0.0180863,0.277748,0,0.278336,2515.92,-43944.9,0,44016.8,807114
step02_gravity_refstate-mantle.xmf,899,5.52898e-06,-6.72513e-06,0,-5.99703e-06,-1.20236e+09,-1.204e+09,-1.2031e+09,-801503,0.0203117,0.26734,0,0.26811,2953.63,-43221.2,0,43322,801503
step02_gravity_refstate-mantle.xmf,900,5.16938e-06,-5.54057e-06,0,-5.73263e-06,-1.17724e+09,-1.17867e+09,-1.17793e+09,-766166,0.0227063,0.257445,0,0.258444,3395.58,-42445.9,0,42581.5,766166
step02_gravity_refstate-mantle.xmf,901,8.31376e-06,-1.99927e-05,0,4.39246e-06,-1.36469e+09,-1.36847e+09,-1.3658e+09,587052,-0.00788473,0.353161,-0,0.353249,-931.546,-48220.1,-0,48229.1,587052
step02_gravity_refstate-mantle.xmf,902,8.63805e-06,-1.86093e-05,0,4.05992e-06,-1.34678e+09,-1.35042e+09,-1.34793e+09,542608,-0.0078135,0.343059,-0,0.343148,-886.358,-47672.7,-0,47680.9,542608
step02_gravity_refstate-mantle.xmf,903,3.64577e-06,-1.98628e-05,0,1.13511e-05,-1.42331e+09,-1.42645e+09,-1.42379e+09,1.51708e+06,-0.00984879,0.356813,-0,0.356949,-2499.83,-50000,-0,50062.5,1.51708e+06
step02_gravity_refstate-mantle.xmf,904,6.21066e-06,-1.97464e-05,0,9.64125e-06,-1.39615e+09,-1.39962e+09,-1.39698e+09,1.28855e+06,-0.0133555,0.354756,-0,0.355007,-2000,-49178.6,-0,49219.3,1.28855e+06
step02_gravity_refstate-mantle.xmf,905,-1.68987e-05,4.65433e-05,0,1.42486e-05,-1.61649e+09,-1.60801e+09,-1.61423e+09,1.90433e+06,0.0743009,0.183333,0,0.197817,-3497.18,-56000,-0,56109.1,1.90433e+06
step02_gravity_refstate-mantle.xmf,906,-1.83797e-05,4.88296e-05,0,8.30325e-06,-1.66111e+09,-1.65213e+09,-1.65865e+09,1.10973e+06,0.0729146,0.12701,0,0.146452,-3121.83,-57374.2,-0,57459.1,1.10973e+06
step02_gravity_refstate-mantle.xmf,907,-1.64563e-05,4.62614e-05,0,1.03239e-05,-1.64602e+09,-1.63763e+09,-1.64382e+09,1.37978e+06,0.0774148,0.142399,0,0.162082,-3438.68,-56914.3,-0,57018.1,1.37978e+06
step02_gravity_refstate-mantle.xmf,908,-2.09824e-05,5.18629e-05,0,4.53514e-06,-1.69399e+09,-1.68426e+09,-1.69119e+09,606122,0.0635502,0.083442,0,0.104887,-2593.66,-58380.4,-0,58438,606122
step02_gravity_refstate-mantle.xmf,909,-2.2533e-05,5.35452e-05,0,1.58373e-06,-1.72592e+09,-1.71575e+09,-1.72291e+09,211666,0.0552923,0.0342076,0,0.0650184,-2202.01,-59360.6,-0,59401.4,211666
step02_gravity_refstate-mantle.xmf,910,8.05005e-06,-1.28688e-05,0,-3.4281e-06,-1.27341e+09,-1.2762e+09,-1.27448e+09,-458165,0.00840255,0.307043,0,0.307158,1012.8,-45417,0,45428.3,458165
step02_gravity_refstate-mantle.xmf,911,8.68251e-06,-1.44904e-05,0,1.52418e-08,-1.28751e+09,-1.29061e+09,-1.28868e+09,2037.07,-1.42142e-07,0.316361,-0,0.316361,0,-45852.8,0,45852.8,2037.07
step02_gravity_refstate-mantle.xmf,912,8.75119e-06,-1.57629e-05,0,2.21234e-06,-1.30791e+09,-1.31119e+09,-1.30908e+09,295679,-0.00483644,0.324725,-0,0.324761,-547.087,-46480.1,-0,46483.3,295679
step02_gravity_refstate-mantle.xmf,913,8.8065e-06,-1.73269e-05,0,3.19741e-06,-1.32881e+09,-1.3323e+09,-1.32999e+09,427334,-0.00653837,0.334345,-0,0.334409,-732.742,-47122.1,-0,47127.8,427334
step02_gravity_refstate-mantle.xmf,914,3.46178e-06,-2.55482e-06,0,-5.10634e-06,-1.12562e+09,-1.12642e+09,-1.12608e+09,-682462,0.0336225,0.226093,0,0.22858,5382.12,-40847.5,0,41200.5,682462
step02_gravity_refstate-mantle.xmf,915,4.90601e-06,-4.57344e-06,0,-5.31738e-06,-1.15168e+09,-1.15294e+09,-1.15233e+09,-710668,0.0256872,0.2479,0,0.249228,3871.13,-41656.9,0,41836.4,710668
step02_gravity_refstate-mantle.xmf,916,3.19168e-06,-1.97648e-06,0,-4.12472e-06,-1.09819e+09,-1.09888e+09,-1.09862e+09,-551269,0.038472,0.217315,0,0.220694,5915.44,-40000,0,40435,551269
step02_gravity_refstate-mantle.xmf,917,4.62633e-06,-1.75881e-05,0,1.33962e-05,-1.4085e+09,-1.41147e+09,-1.40912e+09,1.79041e+06,-0.0150524,0.340016,-0,0.34035,-2748.08,-49555.1,-0,49631.2,1.79041e+06
step02_gravity_refstate-mantle.xmf,918,7.71353e-06,-1.96244e-05,0,6.8543e-06,-1.372e+09,-1.37565e+09,-1.37303e+09,916077,-0.0116698,0.351171,-0,0.351364,-1440.99,-48442.8,-0,48464.2,916077
step02_gravity_refstate-mantle.xmf,919,6.90377e-06,-1.85647e-05,0,9.59775e-06,-1.38011e+09,-1.38352e+09,-1.38103e+09,1.28274e+06,-0.0149933,0.345961,-0,0.346286,-1975.78,-48690.8,-0,48730.9,1.28274e+06
step02_gravity_refstate-mantle.xmf,920,5.7747e-06,-1.73087e-05,0,1.23241e-05,-1.39127e+09,-1.39436e+09,-1.39205e+09,1.64711e+06,-0.0169727,0.339002,-0,0.339426,-2493.11,-49031.3,-0,49094.6,1.64711e+06
step02_gravity_refstate-mantle.xmf,921,3.13841e-06,-1.73166e-05,0,1.41685e-05,-1.42321e+09,-1.42594e+09,-1.42362e+09,1.89362e+06,-0.0115293,0.338232,-0,0.338428,-2999.32,-50000,-0,50089.9,1.89362e+06
step02_gravity_refstate-mantle.xmf,922,-1.41966e-05,4.30604e-05,0,1.21548e-05,-1.63085e+09,-1.62319e+09,-1.62895e+09,1.62449e+06,0.0804131,0.155475,0,0.17504,-3734.73,-56452.6,-0,56576,1.62449e+06
step02_gravity_refstate-mantle.xmf,923,-1.71508e-05,4.64661e-05,0,7.02387e-06,-1.67609e+09,-1.66759e+09,-1.6738e+09,938740,0.0784208,0.100283,0,0.127305,-3394.32,-57839.2,-0,57938.8,938740
step02_gravity_refstate-mantle.xmf,924,-1.86576e-05,4.84579e-05,0,5.50334e-06,-1.68921e+09,-1.68024e+09,-1.68672e+09,735521,0.073824,0.0849905,0,0.112576,-3116.36,-58239.5,-0,58322.8,735521
step02_gravity_refstate-mantle.xmf,925,-2.1166e-05,5.17743e-05,0,2.9519e-06,-1.71157e+09,-1.70182e+09,-1.70874e+09,394521,0.06299,0.0556632,0,0.0840603,-2557.55,-58922,-0,58977.4,394521
step02_gravity_refstate-mantle.xmf,926,7.53628e-06,-1.10791e-05,0,-3.8335e-06,-1.24905e+09,-1.25154e+09,-1.25006e+09,-512348,0.0102579,0.296166,0,0.296344,1299.57,-44665.8,0,44684.7,512348
step02_gravity_refstate-mantle.xmf,927,7.01406e-06,-9.45346e-06,0,-4.25769e-06,-1.22609e+09,-1.22829e+09,-1.22703e+09,-569040,0.0125584,0.286156,0,0.286431,1667.75,-43957.2,0,43988.8,569040
step02_gravity_refstate-mantle.xmf,928,8.40558e-06,-1.34645e-05,0,-1.49749e-06,-1.27588e+09,-1.2788e+09,-1.277e+09,-200139,0.00367574,0.310732,0,0.310753,434.977,-45494.1,0,45496.2,200139
step02_gravity_refstate-mantle.xmf,929,4.68998e-06,-3.77817e-06,0,-4.70544e-06,-1.12507e+09,-1.1262e+09,-1.12569e+09,-628882,0.029642,0.238336,0,0.240172,4396.28,-40835.5,0,41071.5,628882
step02_gravity_refstate-mantle.xmf,930,6.51948e-06,-7.97442e-06,0,-4.55944e-06,-1.20237e+09,-1.20431e+09,-1.20324e+09,-609369,0.0151543,0.276208,0,0.276623,2097.1,-43224.9,0,43275.7,609369
step02_gravity_refstate-mantle.xmf,931,6.17119e-06,-6.73237e-06,0,-4.58286e-06,-1.17741e+09,-1.17914e+09,-1.17824e+09,-612500,0.0176776,0.266869,0,0.267454,2508.97,-42454.8,0,42528.9,612500
step02_gravity_refstate-mantle.xmf,932,5.93926e-06,-5.69533e-06,0,-4.42177e-06,-1.15169e+09,-1.15325e+09,-1.15249e+09,-590970,0.0207074,0.257785,0,0.258615,2953.48,-41661.5,0,41766,590970
step02_gravity_refstate-mantle.xmf,933,8.07406e-06,-1.81289e-05,0,6.54996e-06,-1.35284e+09,-1.35634e+09,-1.35392e+09,875402,-0.0121383,0.340566,-0,0.340782,-1415.54,-47857.2,-0,47878.2,875402
step02_gravity_refstate-mantle.xmf,934,8.2292e-06,-1.67128e-05,0,5.91016e-06,-1.33346e+09,-1.33679e+09,-1.33456e+09,789893,-0.0117853,0.331139,-0,0.331348,-1349.02,-47263.4,-0,47282.6,789893
step02_gravity_refstate-mantle.xmf,935,3.53914e-06,-1.38409e-05,0,1.65302e-05,-1.40795e+09,-1.41028e+09,-1.40843e+09,2.20926e+06,-0.0171699,0.321276,-0,0.321735,-3236.64,-49540.5,-0,49646.1,2.20926e+06
step02_gravity_refstate-mantle.xmf,936,-1.01776e-05,3.75376e-05,0,1.96458e-05,-1.58336e+09,-1.57698e+09,-1.582e+09,2.62566e+06,0.073128,0.208106,0,0.220581,-4000,-54998.6,-0,55143.8,2.62566e+06
step02_gravity_refstate-mantle.xmf,937,-9.45685e-06,3.34132e-05,0,2.15279e-05,-1.56735e+09,-1.56162e+09,-1.56609e+09,2.87721e+06,0.0651824,0.225996,0,0.235209,-4000,-54498.4,-0,54645,2.87721e+06
step02_gravity_refstate-mantle.xmf,938,-7.19626e-06,3.05307e-05,0,1.64173e-05,-1.57438e+09,-1.56934e+09,-1.57342e+09,2.19417e+06,0.0723912,0.196403,0,0.20932,-4408.42,-54723.2,-0,54900.5,2.19417e+06
step02_gravity_refstate-mantle.xmf,939,-8.69496e-06,2.90821e-05,0,2.28794e-05,-1.55139e+09,-1.54634e+09,-1.55023e+09,3.05784e+06,0.0561498,0.241664,0,0.248102,-4000,-53999.3,-0,54147.3,3.05784e+06
step02_gravity_refstate-mantle.xmf,940,-7.13199e-06,2.74448e-05,0,1.77109e-05,-1.5576e+09,-1.55298e+09,-1.55665e+09,2.36706e+06,0.0631143,0.211943,0,0.221141,-4405.23,-54197.5,-0,54376.2,2.36706e+06
step02_gravity_refstate-mantle.xmf,941,-7.91702e-06,2.46878e-05,0,2.38641e-05,-1.5354e+09,-1.53104e+09,-1.53434e+09,3.18944e+06,0.0464103,0.255157,0,0.259344,-4000,-53499.2,-0,53648.6,3.18944e+06
step02_gravity_refstate-mantle.xmf,942,-7.02125e-06,2.42863e-05,0,1.87967e-05,-1.54174e+09,-1.53756e+09,-1.5408e+09,2.51218e+06,0.0533724,0.22562,0,0.231847,-4392.24,-53700,-0,53879.4,2.51218e+06
step02_gravity_refstate-mantle.xmf,943,-7.14606e-06,2.03e-05,0,2.4468e-05,-1.51943e+09,-1.51576e+09,-1.51847e+09,3.27015e+06,0.0363274,0.266405,0,0.268871,-4000,-52999.8,-0,53150.5,3.27015e+06
step02_gravity_refstate-mantle.xmf,944,-6.77456e-06,2.11279e-05,0,1.94998e-05,-1.52674e+09,-1.52301e+09,-1.52583e+09,2.60614e+06,0.0437904,0.236416,0,0.240437,-4390.58,-53230.1,-0,53410.9,2.60614e+06
step02_gravity_refstate-mantle.xmf,945,-5.58962e-06,1.15604e-05,0,2.46839e-05,-1.48746e+09,-1.48516e+09,-1.48671e+09,3.299e+06,0.0162336,0.282277,0,0.282744,-4000,-52000.2,-0,52153.8,3.299e+06
step02_gravity_refstate-mantle.xmf,946,-4.81037e-06,7.33716e-06,0,2.42737e-05,-1.47148e+09,-1.46986e+09,-1.47084e+09,3.24418e+06,0.00682659,0.286938,0,0.287019,-4000,-51501.2,-0,51656.3,3.24418e+06
step02_gravity_refstate-mantle.xmf,947,-5.92765e-06,1.09592e-05,0,1.98551e-05,-1.4793e+09,-1.47704e+09,-1.4785e+09,2.65364e+06,0.0136126,0.258838,0,0.259196,-4411.12,-51744.4,-0,51932.1,2.65364e+06
step02_gravity_refstate-mantle.xmf,948,-6.35187e-06,1.58982e-05,0,2.47466e-05,-1.50345e+09,-1.50048e+09,-1.5026e+09,3.30739e+06,0.0261806,0.275439,0,0.276681,-4000,-52500.3,-0,52652.5,3.30739e+06
step02_gravity_refstate-mantle.xmf,949,-6.48033e-06,1.77565e-05,0,1.97902e-05,-1.51139e+09,-1.50815e+09,-1.51053e+09,2.64496e+06,0.0339029,0.244968,0,0.247303,-4403.49,-52749.6,-0,52933.1,2.64496e+06
step02_gravity_refstate-mantle.xmf,950,-6.19088e-06,1.43073e-05,0,1.99251e-05,-1.49544e+09,-1.4927e+09,-1.49461e+09,2.66299e+06,0.0236379,0.252628,0,0.253731,-4408.87,-52249.8,-0,52435.5,2.66299e+06
step02_gravity_refstate-mantle.xmf,951,-1.33605e-05,4.25365e-05,0,1.38353e-05,-1.61606e+09,-1.60859e+09,-1.61427e+09,1.84909e+06,0.082062,0.166173,0,0.185331,-4000,-56000,-0,56142.7,1.84909e+06
step02_gravity_refstate-mantle.xmf,952,-1.07533e-05,4.06789e-05,0,1.69534e-05,-1.59939e+09,-1.59251e+09,-1.59795e+09,2.26582e+06,0.0792997,0.188119,0,0.20415,-4000,-55497.8,-0,55641.7,2.26582e+06
step02_gravity_refstate-mantle.xmf,953,-7.04102e-06,3.27585e-05,0,1.50049e-05,-1.59112e+09,-1.5858e+09,-1.59018e+09,2.00541e+06,0.0801899,0.178813,0,0.195971,-4426.41,-55246.8,-0,55423.9,2.00541e+06
step02_gravity_refstate-mantle.xmf,954,-1.52586e-05,4.39472e-05,0,8.71326e-06,-1.66125e+09,-1.65334e+09,-1.65921e+09,1.16453e+06,0.082638,0.115527,0,0.14204,-3698.38,-57386.9,-0,57506,1.16453e+06
step02_gravity_refstate-mantle.xmf,955,-1.31928e-05,4.11108e-05,0,1.02659e-05,-1.64567e+09,-1.63841e+09,-1.64391e+09,1.37204e+06,0.0855885,0.129467,0,0.1552,-3990.56,-56912.3,-0,57052,1.37204e+06
step02_gravity_refstate-mantle.xmf,956,-1.61131e-05,4.45309e-05,0,5.51441e-06,-1.69171e+09,-1.68361e+09,-1.68956e+09,737001,0.0831344,0.0748046,0,0.111835,-3647.89,-58323.8,-0,58437.7,737001
step02_gravity_refstate-mantle.xmf,957,-1.87104e-05,4.81362e-05,0,3.75186e-06,-1.70738e+09,-1.69844e+09,-1.70488e+09,501436,0.0745257,0.0577316,0,0.094271,-3137.62,-58799.5,-0,58883.1,501436
step02_gravity_refstate-mantle.xmf,958,-2.02229e-05,5.01479e-05,0,1.7126e-06,-1.72749e+09,-1.71808e+09,-1.72479e+09,228889,0.0682789,0.0292804,0,0.0742924,-2809.11,-59415.8,-0,59482.1,228889
step02_gravity_refstate-mantle.xmf,959,-2.17799e-05,5.23847e-05,0,-2.79747e-09,-1.74655e+09,-1.73664e+09,-1.74364e+09,-373.881,0.0601982,-2.88881e-18,0,0.0601982,-2422.55,-60000,-0,60048.9,373.881
step02_gravity_refstate-mantle.xmf,960,8.07089e-06,-1.20795e-05,0,-1.81228e-06,-1.25479e+09,-1.25748e+09,-1.25587e+09,-242212,0.00475698,0.301999,0,0.302037,585.237,-44844.1,0,44847.9,242212
step02_gravity_refstate-mantle.xmf,961,8.31598e-06,-1.27654e-05,0,3.52065e-08,-1.26423e+09,-1.26704e+09,-1.26534e+09,4705.35,7.95895e-08,0.306622,0,0.306622,0,-45135.4,0,45135.4,4705.35
step02_gravity_refstate-mantle.xmf,962,8.44482e-06,-1.4225e-05,0,2.90501e-06,-1.29029e+09,-1.29332e+09,-1.29142e+09,388254,-0.00669127,0.31546,-0,0.315531,-779.68,-45937.6,-0,45944.2,388254
step02_gravity_refstate-mantle.xmf,963,8.27713e-06,-1.51519e-05,0,4.87362e-06,-1.31107e+09,-1.3142e+09,-1.31218e+09,651359,-0.0104522,0.32176,-0,0.32193,-1202.52,-46576.1,-0,46591.6,651359
step02_gravity_refstate-mantle.xmf,964,4.50187e-06,-3.09963e-06,0,-3.84975e-06,-1.098e+09,-1.09902e+09,-1.0986e+09,-514518,0.0346693,0.229326,0,0.231931,4924.17,-40000,0,40302,514518
step02_gravity_refstate-mantle.xmf,965,5.81655e-06,-4.86053e-06,0,-4.03018e-06,-1.12486e+09,-1.12629e+09,-1.12564e+09,-538634,0.024584,0.248782,0,0.249993,3432.74,-40834,0,40978,538634
step02_gravity_refstate-mantle.xmf,966,4.40715e-06,-1.46409e-05,0,1.49967e-05,-1.39541e+09,-1.39796e+09,-1.396e+09,2.00431e+06,-0.0188555,0.324922,-0,0.325469,-2995.98,-49156.9,-0,49248.1,2.00431e+06
step02_gravity_refstate-mantle.xmf,967,7.20797e-06,-1.72659e-05,0,9.12789e-06,-1.36112e+09,-1.36439e+09,-1.36208e+09,1.21994e+06,-0.0159726,0.336117,-0,0.336497,-1950.4,-48109.5,-0,48149,1.21994e+06
step02_gravity_refstate-mantle.xmf,968,6.02153e-06,-1.55773e-05,0,1.18645e-05,-1.37033e+09,-1.37321e+09,-1.37113e+09,1.58569e+06,-0.0190364,0.328591,-0,0.329142,-2488.47,-48390.3,-0,48454.3,1.58569e+06
step02_gravity_refstate-mantle.xmf,969,2.34708e-06,-1.33441e-05,0,1.73397e-05,-1.42305e+09,-1.42514e+09,-1.42336e+09,2.31745e+06,-0.0128427,0.315726,-0,0.315987,-3499.28,-50000,-0,50122.3,2.31745e+06
step02_gravity_refstate-mantle.xmf,970,-4.00354e-06,3.03763e-06,0,2.34161e-05,-1.45547e+09,-1.45453e+09,-1.45493e+09,3.12956e+06,-0.00172105,0.2895,-0,0.289505,-4000,-51001,-0,51157.6,3.12956e+06
step02_gravity_refstate-mantle.xmf,971,-5.69467e-06,7.92861e-06,0,1.95962e-05,-1.46343e+09,-1.46161e+09,-1.46267e+09,2.61904e+06,0.00446703,0.263298,0,0.263335,-4414.04,-51248.1,-0,51437.8,2.61904e+06
step02_gravity_refstate-mantle.xmf,972,-1.14311e-05,3.83815e-05,0,1.15518e-05,-1.63141e+09,-1.62475e+09,-1.62988e+09,1.5439e+06,0.087321,0.139773,0,0.164808,-4266.84,-56476.5,-0,56637.5,1.5439e+06
step02_gravity_refstate-mantle.xmf,973,-7.35263e-06,3.39678e-05,0,1.42071e-05,-1.60591e+09,-1.60039e+09,-1.60493e+09,1.89877e+06,0.0851852,0.162034,0,0.183061,-4460.73,-55704.9,-0,55883.2,1.89877e+06
step02_gravity_refstate-mantle.xmf,974,-1.42329e-05,4.19569e-05,0,7.0446e-06,-1.67682e+09,-1.66931e+09,-1.67492e+09,941511,0.0874023,0.0901376,0,0.125555,-3963.98,-57869.7,-0,58005.3,941511
step02_gravity_refstate-mantle.xmf,975,7.6588e-06,-1.03876e-05,0,-2.05887e-06,-1.22676e+09,-1.22917e+09,-1.22778e+09,-275168,0.00599028,0.29171,0,0.291771,772.388,-43979.6,0,43986.4,275168
step02_gravity_refstate-mantle.xmf,976,7.2178e-06,-8.89203e-06,0,-2.89678e-06,-1.20372e+09,-1.20587e+09,-1.20468e+09,-387154,0.0094873,0.282556,0,0.282715,1269.99,-43268.9,0,43287.5,387154
step02_gravity_refstate-mantle.xmf,977,8.3559e-06,-1.32675e-05,0,1.67265e-06,-1.27359e+09,-1.27648e+09,-1.2747e+09,223550,-0.00402371,0.309661,-0,0.309688,-478.478,-45423.5,-0,45426.1,223550
step02_gravity_refstate-mantle.xmf,978,5.75668e-06,-4.16649e-06,0,-3.39286e-06,-1.09782e+09,-1.09915e+09,-1.09859e+09,-453456,0.029621,0.239996,0,0.241817,3938.38,-40000,0,40193.4,453456
step02_gravity_refstate-mantle.xmf,979,6.93236e-06,-7.66914e-06,0,-3.17121e-06,-1.17845e+09,-1.18041e+09,-1.17938e+09,-423832,0.0119536,0.273966,0,0.274226,1635.56,-42489.7,0,42521.2,423832
step02_gravity_refstate-mantle.xmf,980,6.77051e-06,-6.60899e-06,0,-3.26203e-06,-1.1521e+09,-1.15389e+09,-1.15301e+09,-435970,0.014895,0.265506,0,0.265923,2040.56,-41677.4,0,41727.3,435970
step02_gravity_refstate-mantle.xmf,981,6.75518e-06,-5.76713e-06,0,-3.1275e-06,-1.12504e+09,-1.12671e+09,-1.12594e+09,-417990,0.0185919,0.257162,0,0.257833,2481.98,-40843.4,0,40918.8,417990
step02_gravity_refstate-mantle.xmf,982,7.36349e-06,-1.5834e-05,0,8.46454e-06,-1.34155e+09,-1.34465e+09,-1.34253e+09,1.13129e+06,-0.0161521,0.326942,-0,0.327341,-1914.05,-47509.7,-0,47548.2,1.13129e+06
step02_gravity_refstate-mantle.xmf,983,7.46091e-06,-1.45866e-05,0,7.53807e-06,-1.32158e+09,-1.32453e+09,-1.32258e+09,1.00746e+06,-0.0155553,0.318921,-0,0.3193,-1836.27,-46896.8,-0,46932.7,1.00746e+06
step02_gravity_refstate-mantle.xmf,984,4.45244e-06,-1.33481e-05,0,1.43413e-05,-1.37963e+09,-1.382e+09,-1.38022e+09,1.91671e+06,-0.0208788,0.318487,-0,0.31917,-2985.42,-48672.8,-0,48764.2,1.91671e+06
step02_gravity_refstate-mantle.xmf,985,2.42375e-06,-1.01998e-05,0,1.67747e-05,-1.3906e+09,-1.39229e+09,-1.39093e+09,2.24194e+06,-0.0212084,0.305901,-0,0.306635,-3463.11,-49006.4,-0,49128.6,2.24194e+06
step02_gravity_refstate-mantle.xmf,986,9.76197e-07,-7.94564e-06,0,1.89978e-05,-1.4075e+09,-1.40869e+09,-1.40763e+09,2.53905e+06,-0.0184041,0.300425,-0,0.300988,-3714.05,-49524.4,-0,49663.5,2.53905e+06
step02_gravity_refstate-mantle.xmf,987,-5.17032e-06,2.77355e-05,0,1.31741e-05,-1.58178e+09,-1.57738e+09,-1.58108e+09,1.76072e+06,0.0784875,0.171824,0,0.188901,-4801.11,-54958,-0,55167.3,1.76072e+06
step02_gravity_refstate-mantle.xmf,988,-5.43526e-06,2.55226e-05,0,1.38152e-05,-1.56446e+09,-1.56032e+09,-1.56373e+09,1.84641e+06,0.0696627,0.185905,0,0.198529,-4812.05,-54415.5,-0,54627.9,1.84641e+06
step02_gravity_refstate-mantle.xmf,989,-5.72053e-06,2.28457e-05,0,1.46084e-05,-1.54623e+09,-1.54241e+09,-1.54546e+09,1.95242e+06,0.0589416,0.199623,0,0.208143,-4816.56,-53843.7,-0,54058.7,1.95242e+06
step02_gravity_refstate-mantle.xmf,990,-6.12647e-06,2.12483e-05,0,1.5917e-05,-1.53338e+09,-1.52972e+09,-1.53256e+09,2.12731e+06,0.050257,0.213367,0,0.219206,-4721.99,-53440.1,-0,53648.3,2.12731e+06
step02_gravity_refstate-mantle.xmf,991,-6.09833e-06,1.88451e-05,0,1.57181e-05,-1.52003e+09,-1.51669e+09,-1.51921e+09,2.10072e+06,0.0420501,0.217846,0,0.221868,-4796.3,-53021.6,-0,53238,2.10072e+06
step02_gravity_refstate-mantle.xmf,992,-5.51594e-06,5.20288e-06,0,1.90487e-05,-1.44754e+09,-1.4461e+09,-1.4468e+09,2.54586e+06,-0.00350634,0.265472,-0,0.265496,-4432.9,-50751.4,-0,50944.6,2.54586e+06
step02_gravity_refstate-mantle.xmf,993,-6.42813e-06,1.06415e-05,0,1.64591e-05,-1.47004e+09,-1.46776e+09,-1.46918e+09,2.19975e+06,0.0104934,0.240823,0,0.241052,-4794.21,-51454.4,-0,51677.2,2.19975e+06
step02_gravity_refstate-mantle.xmf,994,-6.33305e-06,1.33008e-05,0,1.61776e-05,-1.48687e+09,-1.48424e+09,-1.48602e+09,2.16213e+06,0.0207449,0.233562,0,0.234482,-4813.22,-51981.5,-0,52203.9,2.16213e+06
step02_gravity_refstate-mantle.xmf,995,-6.20311e-06,1.60524e-05,0,1.60088e-05,-1.50373e+09,-1.50076e+09,-1.5029e+09,2.13957e+06,0.0314657,0.226264,0,0.228442,-4805.09,-52510.4,-0,52729.8,2.13957e+06
step02_gravity_refstate-mantle.xmf,996,-8.72025e-06,3.49859e-05,0,1.30634e-05,-1.61959e+09,-1.61375e+09,-1.61842e+09,1.74593e+06,0.0883066,0.145594,0,0.170281,-4519.97,-56120.8,-0,56302.5,1.74593e+06
step02_gravity_refstate-mantle.xmf,997,-5.27825e-06,2.96336e-05,0,1.29496e-05,-1.59773e+09,-1.59306e+09,-1.59702e+09,1.73071e+06,0.0848667,0.158011,0,0.179359,-4787.76,-55454.9,-0,55661.2,1.73071e+06
step02_gravity_refstate-mantle.xmf,998,-1.22531e-05,3.92005e-05,0,8.50264e-06,-1.66118e+09,-1.65431e+09,-1.65955e+09,1.13638e+06,0.0904206,0.104279,0,0.138022,-4263.19,-57392.9,-0,57551,1.13638e+06
step02_gravity_refstate-mantle.xmf,999,-1.02862e-05,3.63324e-05,0,9.77923e-06,-1.64559e+09,-1.63936e+09,-1.64422e+09,1.30699e+06,0.0920876,0.116324,0,0.148363,-4542.54,-56917.1,-0,57098,1.30699e+06
step02_gravity_refstate-mantle.xmf,1000,-1.32656e-05,4.01605e-05,0,5.30074e-06,-1.69308e+09,-1.68594e+09,-1.69131e+09,708444,0.0917186,0.0658124,0,0.112887,-4228.69,-58373.9,-0,58526.9,708444
step02_gravity_refstate-mantle.xmf,1001,-1.53453e-05,4.30899e-05,0,3.69005e-06,-1.70954e+09,-1.70173e+09,-1.70749e+09,493175,0.0867955,0.0485507,0,0.0994516,-3855.79,-58875.9,-0,59002,493175
step02_gravity_refstate-mantle.xmf,1002,-1.73552e-05,4.59283e-05,0,1.928e-06,-1.72673e+09,-1.71827e+09,-1.72441e+09,257677,0.0805219,0.0275349,0,0.0850996,-3460.81,-59400.6,-0,59501.3,257677
step02_gravity_refstate-mantle.xmf,1003,-1.89527e-05,4.82497e-05,0,5.62189e-09,-1.74629e+09,-1.7373e+09,-1.74375e+09,751.365,0.0742951,-2.72311e-18,0,0.0742951,-3114.73,-60000,-0,60080.8,751.365
step02_gravity_refstate-mantle.xmf,1004,7.9902e-06,-1.13556e-05,0,1.27236e-08,-1.23978e+09,-1.24237e+09,-1.24085e+09,1700.51,1.00355e-07,0.297578,0,0.297578,0,-44381.7,0,44381.7,1700.51
step02_gravity_refstate-mantle.xmf,1005,8.04436e-06,-1.19041e-05,0,1.92125e-06,-1.25404e+09,-1.2567e+09,-1.25511e+09,256775,-0.00493626,0.301645,-0,0.301685,-608.276,-44821,-0,44825.2,256775
step02_gravity_refstate-mantle.xmf,1006,7.99909e-06,-1.26176e-05,0,3.53374e-06,-1.27143e+09,-1.27418e+09,-1.2725e+09,472284,-0.00864836,0.306048,-0,0.30617,-1046.84,-45356.2,-0,45368.3,472284
step02_gravity_refstate-mantle.xmf,1007,7.85373e-06,-1.33196e-05,0,5.129e-06,-1.29021e+09,-1.29304e+09,-1.29126e+09,685490,-0.0118018,0.310661,-0,0.310885,-1407.06,-45933.5,-0,45955,685490
step02_gravity_refstate-mantle.xmf,1008,6.87351e-06,-5.10803e-06,0,-2.75252e-06,-1.09766e+09,-1.09926e+09,-1.09857e+09,-367874,0.0234071,0.248909,0,0.250007,2953.78,-40000,0,40108.9,367874
step02_gravity_refstate-mantle.xmf,1009,7.48919e-06,-1.35614e-05,0,6.65654e-06,-1.30423e+09,-1.30704e+09,-1.30523e+09,889647,-0.0146552,0.312661,-0,0.313005,-1746.91,-46363.5,-0,46396.4,889647
step02_gravity_refstate-mantle.xmf,1010,6.12022e-06,-1.43278e-05,0,1.09915e-05,-1.35039e+09,-1.35312e+09,-1.35121e+09,1.46901e+06,-0.0198006,0.319808,-0,0.320421,-2474.98,-47778.3,-0,47842.4,1.46901e+06
step02_gravity_refstate-mantle.xmf,1011,4.3674e-06,-1.18083e-05,0,1.34588e-05,-1.35989e+09,-1.36206e+09,-1.36048e+09,1.79877e+06,-0.0224814,0.309142,-0,0.309959,-3043.05,-48066.6,-0,48162.9,1.79877e+06
step02_gravity_refstate-mantle.xmf,1012,-3.48323e-06,-6.7842e-07,0,2.19632e-05,-1.4395e+09,-1.43913e+09,-1.43904e+09,2.93538e+06,-0.00886327,0.290056,-0,0.290192,-4000,-50501.8,-0,50659.9,2.93538e+06
step02_gravity_refstate-mantle.xmf,1013,-1.09875e-06,-2.96499e-06,0,1.94575e-05,-1.42293e+09,-1.42318e+09,-1.42279e+09,2.60049e+06,-0.0136631,0.28909,-0,0.289413,-4000,-50000,-0,50159.7,2.60049e+06
step02_gravity_refstate-mantle.xmf,1014,-6.32842e-06,8.31007e-06,0,1.68596e-05,-1.45587e+09,-1.45391e+09,-1.45502e+09,2.25328e+06,0.00246499,0.247248,0,0.24726,-4750.4,-51011.2,-0,51231.9,2.25328e+06
step02_gravity_refstate-mantle.xmf,1015,-8.01502e-06,3.30623e-05,0,1.08501e-05,-1.63051e+09,-1.62502e+09,-1.62944e+09,1.45012e+06,0.0925464,0.125536,0,0.155962,-4813.28,-56457.9,-0,56662.7,1.45012e+06
step02_gravity_refstate-mantle.xmf,1016,-5.14583e-06,2.87824e-05,0,1.13828e-05,-1.61059e+09,-1.60606e+09,-1.60991e+09,1.52131e+06,0.0899974,0.13795,0,0.164711,-5035.57,-55851,-0,56077.5,1.52131e+06
step02_gravity_refstate-mantle.xmf,1017,-1.14076e-05,3.75457e-05,0,6.73391e-06,-1.67681e+09,-1.67027e+09,-1.67528e+09,899988,0.0946107,0.0811183,0,0.124625,-4525.19,-57876.9,-0,58053.6,899988
step02_gravity_refstate-mantle.xmf,1018,-3.85936e-06,2.5691e-05,0,1.10941e-05,-1.59032e+09,-1.58638e+09,-1.58981e+09,1.48272e+06,0.0838602,0.150743,0,0.172499,-5166.24,-55225.6,-0,55466.7,1.48272e+06
step02_gravity_refstate-mantle.xmf,1019,7.51635e-06,-9.22478e-06,0,-1.35181e-06,-1.2026e+09,-1.20484e+09,-1.20361e+09,-180669,0.0044428,0.285052,0,0.285086,586.037,-43235.6,0,43239.5,180669
step02_gravity_refstate-mantle.xmf,1020,7.40234e-06,-8.33409e-06,0,-1.55424e-06,-1.18083e+09,-1.18293e+09,-1.18182e+09,-207724,0.00575389,0.278665,0,0.278724,770.085,-42564.5,0,42571.5,207724
step02_gravity_refstate-mantle.xmf,1021,7.70335e-06,-9.95627e-06,0,-8.30525e-09,-1.21409e+09,-1.21645e+09,-1.21512e+09,-1110,-3.38184e-08,0.289214,-0,0.289214,0,-43589.8,0,43589.8,1110
step02_gravity_refstate-mantle.xmf,1022,7.33131e-06,-7.28701e-06,0,-1.91291e-06,-1.15444e+09,-1.15639e+09,-1.15542e+09,-255661,0.00844124,0.271081,0,0.271212,1128.92,-41751.5,0,41766.7,255661
step02_gravity_refstate-mantle.xmf,1023,7.40319e-06,-6.42598e-06,0,-2.06981e-06,-1.12618e+09,-1.12803e+09,-1.12717e+09,-276631,0.0120321,0.26319,0,0.263465,1561.92,-40881.4,0,40911.2,276631
step02_gravity_refstate-mantle.xmf,1024,7.75452e-06,-5.84696e-06,0,-1.94882e-06,-1.09753e+09,-1.09934e+09,-1.09856e+09,-260460,0.0162066,0.255638,0,0.256151,1969.19,-40000,0,40048.4,260460
step02_gravity_refstate-mantle.xmf,1025,6.2621e-06,-1.31583e-05,0,9.95962e-06,-1.33009e+09,-1.33268e+09,-1.33092e+09,1.3311e+06,-0.0197024,0.312228,-0,0.312849,-2431.7,-47155.1,-0,47217.7,1.3311e+06
step02_gravity_refstate-mantle.xmf,1026,6.44101e-06,-1.22112e-05,0,8.78187e-06,-1.30943e+09,-1.31192e+09,-1.31029e+09,1.1737e+06,-0.0189139,0.305814,-0,0.306398,-2344.02,-46520.5,-0,46579.6,1.1737e+06
step02_gravity_refstate-mantle.xmf,1027,2.51032e-06,-9.31765e-06,0,1.53253e-05,-1.3714e+09,-1.37298e+09,-1.37173e+09,2.04823e+06,-0.0233181,0.299619,-0,0.300525,-3476.65,-48415.9,-0,48540.6,2.04823e+06
step02_gravity_refstate-mantle.xmf,1028,-5.43493e-07,-5.01355e-06,0,1.75542e-05,-1.39321e+09,-1.3938e+09,-1.39313e+09,2.34612e+06,-0.0213254,0.286564,-0,0.287357,-3969.22,-49080.2,-0,49240.5,2.34612e+06
step02_gravity_refstate-mantle.xmf,1029,-4.53814e-06,2.72957e-06,0,1.87681e-05,-1.43163e+09,-1.43066e+09,-1.43102e+09,2.50836e+06,-0.00987986,0.266274,-0,0.266457,-4456.13,-50260.2,-0,50457.4,2.50836e+06
step02_gravity_refstate-mantle.xmf,1030,-2.19056e-06,-2.5058e-06,0,1.82636e-05,-1.40651e+09,-1.40655e+09,-1.40621e+09,2.44092e+06,-0.0184767,0.281291,-0,0.281897,-4133.11,-49486.4,-0,49658.7,2.44092e+06
step02_gravity_refstate-mantle.xmf,1031,-3.9502e-06,2.37802e-05,0,1.11028e-05,-1.57275e+09,-1.56904e+09,-1.57222e+09,1.48389e+06,0.0759572,0.16303,0,0.179856,-5203.66,-54677.1,-0,54924.1,1.48389e+06
step02_gravity_refstate-mantle.xmf,1032,-5.20307e-06,1.95912e-05,0,1.23338e-05,-1.53303e+09,-1.52972e+09,-1.53234e+09,1.64841e+06,0.0526213,0.191661,0,0.198753,-5171.76,-53431.2,-0,53680.9,1.64841e+06
step02_gravity_refstate-mantle.xmf,1033,-4.4264e-06,2.17059e-05,0,1.13812e-05,-1.55378e+09,-1.55028e+09,-1.55318e+09,1.52109e+06,0.0656508,0.175503,0,0.18738,-5232.27,-54082.6,-0,54335.1,1.52109e+06
step02_gravity_refstate-mantle.xmf,1034,-5.6751e-06,1.70391e-05,0,1.24522e-05,-1.51342e+09,-1.51038e+09,-1.51266e+09,1.66423e+06,0.040352,0.200039,0,0.204069,-5235.53,-52815.6,-0,53074.5,1.66423e+06
step02_gravity_refstate-mantle.xmf,1035,-6.52624e-06,7.61567e-06,0,1.56654e-05,-1.44193e+09,-1.44004e+09,-1.44106e+09,2.09369e+06,-0.00296122,0.241298,-0,0.241316,-4945.56,-50577.6,-0,50818.8,2.09369e+06
step02_gravity_refstate-mantle.xmf,1036,-6.8786e-06,1.02444e-05,0,1.41901e-05,-1.45778e+09,-1.45549e+09,-1.45686e+09,1.89651e+06,0.00612401,0.227492,0,0.227575,-5153.04,-51071.5,-0,51330.8,1.89651e+06
step02_gravity_refstate-mantle.xmf,1037,-6.62078e-06,1.26348e-05,0,1.33462e-05,-1.4772e+09,-1.47462e+09,-1.47631e+09,1.78372e+06,0.0174895,0.217499,0,0.218201,-5220.91,-51679.2,-0,51942.3,1.78372e+06
step02_gravity_refstate-mantle.xmf,1038,-6.17776e-06,1.48137e-05,0,1.28328e-05,-1.49532e+09,-1.49252e+09,-1.4945e+09,1.7151e+06,0.0287685,0.208841,0,0.210813,-5240.37,-52247.6,-0,52509.7,1.7151e+06
step02_gravity_refstate-mantle.xmf,1039,-9.40457e-06,3.4646e-05,0,7.90217e-06,-1.66104e+09,-1.65515e+09,-1.65978e+09,1.05613e+06,0.0965447,0.0933113,0,0.134268,-4827.91,-57395.7,-0,57598.4,1.05613e+06
step02_gravity_refstate-mantle.xmf,1040,-7.34791e-06,3.15519e-05,0,8.73372e-06,-1.64576e+09,-1.64056e+09,-1.64478e+09,1.16726e+06,0.0971912,0.102886,0,0.141533,-5115.59,-56929.6,-0,57158.9,1.16726e+06
step02_gravity_refstate-mantle.xmf,1041,-1.0325e-05,3.56034e-05,0,4.9942e-06,-1.69247e+09,-1.68633e+09,-1.69109e+09,667474,0.0988883,0.0591149,0,0.115211,-4837.54,-58362.9,-0,58563,667474
step02_gravity_refstate-mantle.xmf,1042,-1.21337e-05,3.82226e-05,0,3.47238e-06,-1.71022e+09,-1.70349e+09,-1.7086e+09,464083,0.0960504,0.0420361,0,0.104846,-4527.74,-58905.9,-0,59079.7,464083
step02_gravity_refstate-mantle.xmf,1043,-1.40209e-05,4.09707e-05,0,1.80065e-06,-1.72784e+09,-1.72049e+09,-1.72596e+09,240656,0.0916626,0.0227845,0,0.0944519,-4170.06,-59444.5,-0,59590.6,240656
step02_gravity_refstate-mantle.xmf,1044,-1.57957e-05,4.36015e-05,0,1.25343e-08,-1.74599e+09,-1.73805e+09,-1.74388e+09,1675.21,0.0863224,-2.26215e-18,0,0.0863224,-3806.89,-60000,-0,60120.6,1675.21
step02_gravity_refstate-mantle.xmf,1045,7.54515e-06,-8.66843e-06,0,2.30662e-08,-1.18708e+09,-1.18925e+09,-1.18809e+09,3082.79,8.08764e-09,0.281517,0,0.281517,0,-42757.7,0,42757.7,3082.79
step02_gravity_refstate-mantle.xmf,1046,6.85029e-06,-1.18675e-05,0,7.23083e-06,-1.28992e+09,-1.29242e+09,-1.29083e+09,966400,-0.0168162,0.302514,-0,0.302981,-2088.9,-45921.5,-0,45969,966400
step02_gravity_refstate-mantle.xmf,1047,7.6645e-06,-1.02701e-05,0,2.13269e-06,-1.2264e+09,-1.22879e+09,-1.22742e+09,285034,-0.00612929,0.291526,-0,0.291591,-790.967,-43968.9,-0,43976,285034
step02_gravity_refstate-mantle.xmf,1048,7.49331e-06,-1.09115e-05,0,3.95665e-06,-1.24882e+09,-1.25128e+09,-1.24982e+09,528806,-0.0105443,0.295811,-0,0.295999,-1338.23,-44658.9,-0,44678.9,528806
step02_gravity_refstate-mantle.xmf,1049,7.2681e-06,-1.1484e-05,0,5.57323e-06,-1.26991e+09,-1.27242e+09,-1.27088e+09,744862,-0.0137991,0.299698,-0,0.300015,-1725.25,-45307.4,-0,45340.2,744862
step02_gravity_refstate-mantle.xmf,1050,7.46686e-07,-6.72928e-06,0,1.64706e-05,-1.38016e+09,-1.38116e+09,-1.38026e+09,2.2013e+06,-0.0230834,0.28976,-0,0.290678,-3823.11,-48681.5,-0,48831.4,2.2013e+06
step02_gravity_refstate-mantle.xmf,1051,4.61536e-06,-1.10139e-05,0,1.21971e-05,-1.33947e+09,-1.34156e+09,-1.34009e+09,1.63014e+06,-0.0228992,0.302569,-0,0.303434,-3021.6,-47439.4,-0,47535.5,1.63014e+06
step02_gravity_refstate-mantle.xmf,1052,2.34636e-06,-7.80926e-06,0,1.41802e-05,-1.3512e+09,-1.35255e+09,-1.35151e+09,1.89519e+06,-0.0247972,0.289444,-0,0.290504,-3631.76,-47794.7,-0,47932.4,1.89519e+06
step02_gravity_refstate-mantle.xmf,1053,-3.80074e-06,8.19972e-07,0,1.7461e-05,-1.41467e+09,-1.41405e+09,-1.41416e+09,2.33367e+06,-0.0153136,0.266513,-0,0.266953,-4470.51,-49736.4,-0,49936.9,2.33367e+06
step02_gravity_refstate-mantle.xmf,1054,-5.22884e-06,2.83323e-05,0,9.24886e-06,-1.62913e+09,-1.62465e+09,-1.62843e+09,1.23611e+06,0.0960026,0.112205,0,0.14767,-5366.94,-56421.9,-0,56676.6,1.23611e+06
step02_gravity_refstate-mantle.xmf,1055,-2.95368e-06,2.37477e-05,0,9.07967e-06,-1.59895e+09,-1.59538e+09,-1.59856e+09,1.2135e+06,0.0886493,0.129804,0,0.157187,-5607.16,-55493.1,-0,55775.7,1.2135e+06
step02_gravity_refstate-mantle.xmf,1056,-9.0009e-06,3.3725e-05,0,6.25281e-06,-1.67625e+09,-1.67054e+09,-1.67505e+09,835689,0.099704,0.0738514,0,0.124076,-5026.28,-57866.1,-0,58084,835689
step02_gravity_refstate-mantle.xmf,1057,-2.76275e-06,2.19822e-05,0,8.90451e-06,-1.58086e+09,-1.57755e+09,-1.58049e+09,1.19009e+06,0.0813836,0.141387,0,0.163137,-5650.08,-54931,-0,55220.9,1.19009e+06
step02_gravity_refstate-mantle.xmf,1058,7.60564e-06,-7.71051e-06,0,6.179e-08,-1.15869e+09,-1.16074e+09,-1.1597e+09,8258.23,6.40979e-09,0.274385,0,0.274385,0,-41883.5,0,41883.5,8258.23
step02_gravity_refstate-mantle.xmf,1059,7.51689e-06,-9.20629e-06,0,1.38749e-06,-1.2026e+09,-1.20484e+09,-1.20361e+09,185438,-0.00444287,0.285052,-0,0.285086,-586.037,-43235.6,-0,43239.5,185438
step02_gravity_refstate-mantle.xmf,1060,7.71744e-06,-6.86789e-06,0,-1.04478e-06,-1.13052e+09,-1.13247e+09,-1.13155e+09,-139634,0.00594606,0.267088,0,0.267154,766.256,-41016.2,0,41023.4,139634
step02_gravity_refstate-mantle.xmf,1061,8.31175e-06,-6.31555e-06,0,-1.01644e-06,-1.09744e+09,-1.0994e+09,-1.09855e+09,-135847,0.00828819,0.259828,0,0.259961,984.598,-40000,0,40012.1,135847
step02_gravity_refstate-mantle.xmf,1062,-3.01573e-06,-5.55496e-07,0,1.68801e-05,-1.39731e+09,-1.39698e+09,-1.39691e+09,2.25603e+06,-0.019793,0.268244,-0,0.268973,-4429.8,-49201.9,-0,49400.9,2.25603e+06
step02_gravity_refstate-mantle.xmf,1063,4.94576e-06,-1.03281e-05,0,1.08832e-05,-1.31792e+09,-1.31996e+09,-1.31858e+09,1.45454e+06,-0.0225979,0.296779,-0,0.297638,-2967.35,-46777.7,-0,46871.7,1.45454e+06
step02_gravity_refstate-mantle.xmf,1064,5.355e-06,-9.78301e-06,0,9.38444e-06,-1.29257e+09,-1.29459e+09,-1.29328e+09,1.25423e+06,-0.0215565,0.291197,-0,0.291994,-2853.74,-45998.7,-0,46087.1,1.25423e+06
step02_gravity_refstate-mantle.xmf,1065,7.6024e-07,-6.0778e-06,0,1.54304e-05,-1.36676e+09,-1.36767e+09,-1.36686e+09,2.06227e+06,-0.0243957,0.284074,-0,0.285119,-3910.1,-48269.2,-0,48427.3,2.06227e+06
step02_gravity_refstate-mantle.xmf,1066,-1.08591e-06,-3.42561e-06,0,1.60504e-05,-1.37689e+09,-1.3772e+09,-1.37674e+09,2.14514e+06,-0.0233918,0.273804,-0,0.274801,-4248.77,-48576.5,-0,48761.9,2.14514e+06
step02_gravity_refstate-mantle.xmf,1067,-5.69111e-06,5.01012e-06,0,1.57052e-05,-1.42339e+09,-1.42196e+09,-1.42263e+09,2.099e+06,-0.0103517,0.245494,-0,0.245713,-4931.43,-50003.8,-0,50246.4,2.099e+06
step02_gravity_refstate-mantle.xmf,1068,-3.1351e-06,2.03804e-05,0,8.78881e-06,-1.56267e+09,-1.55953e+09,-1.56225e+09,1.17463e+06,0.0724203,0.152085,0,0.168447,-5691.93,-54362.6,-0,54659.8,1.17463e+06
step02_gravity_refstate-mantle.xmf,1069,-3.88975e-06,1.88678e-05,0,9.01746e-06,-1.54348e+09,-1.54043e+09,-1.54296e+09,1.20518e+06,0.0614931,0.163827,0,0.174988,-5695.55,-53760.8,-0,54061.6,1.20518e+06
step02_gravity_refstate-mantle.xmf,1070,-4.73838e-06,1.72295e-05,0,9.39186e-06,-1.52383e+09,-1.52089e+09,-1.52319e+09,1.25522e+06,0.0494392,0.174908,0,0.181761,-5697.82,-53143.9,-0,53448.5,1.25522e+06
step02_gravity_refstate-mantle.xmf,1071,-5.54368e-06,1.55525e-05,0,9.77308e-06,-1.50469e+09,-1.50187e+09,-1.50395e+09,1.30617e+06,0.0374892,0.184152,0,0.187929,-5713.18,-52543.2,-0,52852.9,1.30617e+06
step02_gravity_refstate-mantle.xmf,1072,-7.07958e-06,1.02861e-05,0,1.22417e-05,-1.44844e+09,-1.44612e+09,-1.4475e+09,1.6361e+06,0.00423953,0.213384,0,0.213426,-5554.02,-50781.9,-0,51084.7,1.6361e+06
step02_gravity_refstate-mantle.xmf,1073,-6.87538e-06,1.22e-05,0,1.1129e-05,-1.46666e+09,-1.46411e+09,-1.46574e+09,1.4874e+06,0.0144417,0.202711,0,0.203225,-5661.57,-51351,-0,51662.1,1.4874e+06
step02_gravity_refstate-mantle.xmf,1074,-6.28871e-06,1.3915e-05,0,1.03601e-05,-1.48585e+09,-1.48315e+09,-1.48501e+09,1.38463e+06,0.0257778,0.193485,0,0.195195,-5697.04,-51951.9,-0,52263.3,1.38463e+06
step02_gravity_refstate-mantle.xmf,1075,-3.57035e-06,2.52619e-05,0,8.86032e-06,-1.6153e+09,-1.61145e+09,-1.61483e+09,1.18418e+06,0.0938616,0.116884,0,0.149907,-5625.46,-55998,-0,56279.9,1.18418e+06
step02_gravity_refstate-mantle.xmf,1076,-6.64101e-06,2.99773e-05,0,6.57172e-06,-1.66417e+09,-1.65927e+09,-1.66328e+09,878311,0.101976,0.0786205,0,0.128765,-5461.15,-57499,-0,57757.8,878311
step02_gravity_refstate-mantle.xmf,1077,-4.97857e-06,2.74005e-05,0,7.40317e-06,-1.64459e+09,-1.64026e+09,-1.64393e+09,989433,0.100486,0.0918419,0,0.136134,-5678.26,-56898.8,-0,57181.4,989433
step02_gravity_refstate-mantle.xmf,1078,-7.4194e-06,3.10066e-05,0,4.82939e-06,-1.68697e+09,-1.68183e+09,-1.68598e+09,645448,0.104088,0.0571576,0,0.118748,-5459.79,-58200.7,-0,58456.2,645448
step02_gravity_refstate-mantle.xmf,1079,-9.01675e-06,3.34117e-05,0,3.33472e-06,-1.70773e+09,-1.70206e+09,-1.70652e+09,445685,0.103075,0.0392042,0,0.110279,-5198.83,-58837.5,-0,59066.7,445685
step02_gravity_refstate-mantle.xmf,1080,-1.07875e-05,3.60724e-05,0,1.6835e-06,-1.72752e+09,-1.72126e+09,-1.72608e+09,225000,0.100245,0.0201014,0,0.102241,-4862.03,-59443.9,-0,59642.4,225000
step02_gravity_refstate-mantle.xmf,1081,-1.25247e-05,3.87136e-05,0,1.84177e-08,-1.74568e+09,-1.73884e+09,-1.74401e+09,2461.53,0.0961563,-2.00129e-18,0,0.0961563,-4501.23,-60000,-0,60168.6,2461.53
step02_gravity_refstate-mantle.xmf,1082,6.16612e-06,-9.98975e-06,0,7.40723e-06,-1.27036e+09,-1.27252e+09,-1.27118e+09,989977,-0.0186121,0.291062,-0,0.291656,-2439.25,-45317.6,-0,45383.2,989977
step02_gravity_refstate-mantle.xmf,1083,7.39723e-06,-8.22988e-06,0,1.60258e-06,-1.18069e+09,-1.18278e+09,-1.18168e+09,214185,-0.00577897,0.27862,-0,0.27868,-773.511,-42560.4,-0,42567.4,214185
step02_gravity_refstate-mantle.xmf,1084,7.19931e-06,-8.77976e-06,0,2.95918e-06,-1.20286e+09,-1.205e+09,-1.20382e+09,395495,-0.00958668,0.282241,-0,0.282404,-1284.71,-43242.6,-0,43261.7,395495
step02_gravity_refstate-mantle.xmf,1085,6.99039e-06,-9.32883e-06,0,4.3179e-06,-1.22572e+09,-1.2279e+09,-1.22665e+09,577088,-0.0126916,0.28589,-0,0.286171,-1687.63,-43945.9,-0,43978.3,577088
step02_gravity_refstate-mantle.xmf,1086,6.64315e-06,-9.7107e-06,0,5.87349e-06,-1.24838e+09,-1.25057e+09,-1.24927e+09,784992,-0.0158514,0.288741,-0,0.289175,-2090.15,-44642.6,-0,44691.5,784992
step02_gravity_refstate-mantle.xmf,1087,3.05688e-06,-7.79832e-06,0,1.26038e-05,-1.32766e+09,-1.32911e+09,-1.32807e+09,1.68449e+06,-0.0250885,0.285284,-0,0.286385,-3575.58,-47072.5,-0,47208.1,1.68449e+06
step02_gravity_refstate-mantle.xmf,1088,-8.34348e-09,-4.112e-06,0,1.48219e-05,-1.35648e+09,-1.35703e+09,-1.35648e+09,1.98095e+06,-0.025235,0.272499,-0,0.273665,-4215.92,-47951.6,-0,48136.5,1.98095e+06
step02_gravity_refstate-mantle.xmf,1089,-6.80468e-06,8.25668e-06,0,1.32043e-05,-1.43166e+09,-1.42965e+09,-1.43075e+09,1.76476e+06,-0.00401308,0.222738,-0,0.222774,-5440.48,-50260.1,-0,50553.7,1.76476e+06
step02_gravity_refstate-mantle.xmf,1090,-4.8926e-06,3.13946e-06,0,1.55235e-05,-1.40576e+09,-1.40469e+09,-1.40511e+09,2.07471e+06,-0.0159206,0.248752,-0,0.249261,-4906.18,-49459.8,-0,49702.5,2.07471e+06
step02_gravity_refstate-mantle.xmf,1091,-1.79861e-06,2.03856e-05,0,6.89175e-06,-1.59218e+09,-1.58922e+09,-1.59194e+09,921083,0.0874264,0.118422,0,0.147198,-6174.62,-55283.2,-0,55627,921083
step02_gravity_refstate-mantle.xmf,1092,-3.27387e-06,2.45193e-05,0,7.39288e-06,-1.62814e+09,-1.62443e+09,-1.62771e+09,988058,0.0982108,0.0994571,0,0.139775,-5933.01,-56394.8,-0,56706,988058
step02_gravity_refstate-mantle.xmf,1093,-2.14063e-06,2.20094e-05,0,7.05919e-06,-1.61084e+09,-1.60761e+09,-1.61055e+09,943461,0.0939907,0.107276,0,0.142627,-6129.55,-55861.4,-0,56196.6,943461
step02_gravity_refstate-mantle.xmf,1094,-2.04689e-06,1.90322e-05,0,6.73717e-06,-1.57234e+09,-1.56952e+09,-1.57207e+09,900423,0.0786705,0.130151,0,0.15208,-6192.76,-54665.1,-0,55014.8,900423
step02_gravity_refstate-mantle.xmf,1095,7.83141e-06,-6.91701e-06,0,-1.64581e-09,-1.12884e+09,-1.13081e+09,-1.12989e+09,-219.963,-2.46026e-08,0.267701,-0,0.267701,0,-40965,0,40965,219.963
step02_gravity_refstate-mantle.xmf,1096,5.04105e-06,-8.42533e-06,0,8.75462e-06,-1.27193e+09,-1.27373e+09,-1.27261e+09,1.17006e+06,-0.022033,0.28219,-0,0.283049,-3041.43,-45362.7,-0,45464.5,1.17006e+06
step02_gravity_refstate-mantle.xmf,1097,8.52272e-06,-6.52407e-06,0,-4.84424e-08,-1.09742e+09,-1.09943e+09,-1.09855e+09,-6474.33,-1.9222e-07,0.261255,-0,0.261255,0,-40000,0,40000,6474.33
step02_gravity_refstate-mantle.xmf,1098,-3.7626e-06,1.42697e-06,0,1.52892e-05,-1.38637e+09,-1.38568e+09,-1.38587e+09,2.0434e+06,-0.0205124,0.252203,-0,0.253035,-4849.61,-48864.1,-0,49104.2,2.0434e+06
step02_gravity_refstate-mantle.xmf,1099,3.88602e-06,-7.14997e-06,0,1.01066e-05,-1.28305e+09,-1.28452e+09,-1.28357e+09,1.35075e+06,-0.0245009,0.275847,-0,0.276933,-3537.02,-45701.5,-0,45838.2,1.35075e+06
step02_gravity_refstate-mantle.xmf,1100,3.56624e-06,-7.57387e-06,0,1.12639e-05,-1.30513e+09,-1.30662e+09,-1.30561e+09,1.50543e+06,-0.0248602,0.28082,-0,0.281918,-3538.61,-46380.6,-0,46515.3,1.50543e+06
step02_gravity_refstate-mantle.xmf,1101,9.07305e-07,-4.71507e-06,0,1.36286e-05,-1.3368e+09,-1.33755e+09,-1.33692e+09,1.82146e+06,-0.0261372,0.270977,-0,0.272235,-4175.1,-47348.1,-0,47531.9,1.82146e+06
step02_gravity_refstate-mantle.xmf,1102,-6.24456e-06,6.42531e-06,0,1.36059e-05,-1.41443e+09,-1.41273e+09,-1.41359e+09,1.81843e+06,-0.0105455,0.228014,-0,0.228258,-5405.32,-49726.9,-0,50019.8,1.81843e+06
step02_gravity_refstate-mantle.xmf,1103,-2.71959e-06,1.78836e-05,0,6.71983e-06,-1.55318e+09,-1.55042e+09,-1.55281e+09,898106,0.0687455,0.141021,0,0.156885,-6200.9,-54065.7,-0,54420.1,898106
step02_gravity_refstate-mantle.xmf,1104,-7.11195e-06,1.0194e-05,0,1.08613e-05,-1.43827e+09,-1.43596e+09,-1.43732e+09,1.45162e+06,0.00220638,0.202436,0,0.202448,-5926.55,-50467.3,-0,50814.1,1.45162e+06
step02_gravity_refstate-mantle.xmf,1105,-3.61937e-06,1.67754e-05,0,6.88932e-06,-1.53399e+09,-1.53127e+09,-1.53351e+09,920757,0.057782,0.151363,0,0.162017,-6204.61,-53464.2,-0,53823.1,920757
step02_gravity_refstate-mantle.xmf,1106,-4.6071e-06,1.56357e-05,0,7.24334e-06,-1.51456e+09,-1.51185e+09,-1.51394e+09,968073,0.0461073,0.161277,0,0.167739,-6204.21,-52854.3,-0,53217.2,968073
step02_gravity_refstate-mantle.xmf,1107,-5.55312e-06,1.44563e-05,0,7.74046e-06,-1.49516e+09,-1.49248e+09,-1.49441e+09,1.03451e+06,0.0344054,0.170432,0,0.17387,-6204.1,-52245.7,-0,52612.8,1.03451e+06
step02_gravity_refstate-mantle.xmf,1108,-6.95395e-06,1.18487e-05,0,9.17282e-06,-1.45418e+09,-1.45167e+09,-1.45325e+09,1.22595e+06,0.0116265,0.187455,0,0.187815,-6196.92,-50964,-0,51339.4,1.22595e+06
step02_gravity_refstate-mantle.xmf,1109,-6.36115e-06,1.32546e-05,0,8.36205e-06,-1.47577e+09,-1.47315e+09,-1.47492e+09,1.11759e+06,0.0231466,0.178844,0,0.180336,-6203.21,-51638.4,-0,52009.7,1.11759e+06
step02_gravity_refstate-mantle.xmf,1110,-3.2289e-06,2.41973e-05,0,6.21104e-06,-1.64238e+09,-1.63872e+09,-1.64195e+09,830106,0.102033,0.0841923,0,0.132284,-6152.17,-56834.1,-0,57166.1,830106
step02_gravity_refstate-mantle.xmf,1111,-4.0625e-06,2.56295e-05,0,5.65338e-06,-1.65801e+09,-1.65404e+09,-1.65747e+09,755574,0.104551,0.0731918,0,0.127624,-6094.96,-57314.9,-0,57638.1,755574
step02_gravity_refstate-mantle.xmf,1112,-4.96949e-06,2.69834e-05,0,4.63243e-06,-1.67832e+09,-1.67405e+09,-1.67765e+09,619124,0.106808,0.0577924,0,0.121441,-6020.73,-57939.6,-0,58251.6,619124
step02_gravity_refstate-mantle.xmf,1113,-5.8689e-06,2.84492e-05,0,3.04917e-06,-1.70332e+09,-1.69873e+09,-1.70253e+09,407522,0.108405,0.0371908,0,0.114607,-5943.25,-58709.6,-0,59009.6,407522
step02_gravity_refstate-mantle.xmf,1114,-7.71193e-06,3.13101e-05,0,1.60997e-06,-1.72539e+09,-1.72017e+09,-1.72436e+09,215173,0.106672,0.0192741,0,0.108399,-5560.86,-59386.3,-0,59646.1,215173
step02_gravity_refstate-mantle.xmf,1115,-9.33324e-06,3.38409e-05,0,2.49009e-08,-1.7454e+09,-1.73963e+09,-1.74415e+09,3328.01,0.103829,-1.92336e-18,0,0.103829,-5203.28,-60000,-0,60225.2,3328.01
step02_gravity_refstate-mantle.xmf,1116,-1.14869e-06,1.77103e-05,0,5.01824e-06,-1.58268e+09,-1.58016e+09,-1.58252e+09,670687,0.0842866,0.109749,0,0.13838,-6739.82,-54987.1,-0,55398.6,670687
step02_gravity_refstate-mantle.xmf,1117,7.69691e-06,-6.80052e-06,0,1.12481e-06,-1.13051e+09,-1.13245e+09,-1.13154e+09,150330,-0.00594612,0.267088,-0,0.267154,-766.256,-41016.2,-0,41023.4,150330
step02_gravity_refstate-mantle.xmf,1118,5.49746e-06,-8.23646e-06,0,7.4379e-06,-1.24932e+09,-1.25116e+09,-1.25006e+09,994075,-0.0204074,0.279568,-0,0.280311,-2835.78,-44667.8,-0,44757.8,994075
step02_gravity_refstate-mantle.xmf,1119,7.33115e-06,-7.23548e-06,0,1.95292e-06,-1.15446e+09,-1.15641e+09,-1.15544e+09,261008,-0.00845784,0.271078,-0,0.27121,-1131.21,-41752.4,-0,41767.7,261008
step02_gravity_refstate-mantle.xmf,1120,6.92721e-06,-7.58832e-06,0,3.21715e-06,-1.1785e+09,-1.18044e+09,-1.17942e+09,429972,-0.011994,0.27394,-0,0.274202,-1641.39,-42491.2,-0,42522.9,429972
step02_gravity_refstate-mantle.xmf,1121,6.51294e-06,-7.87398e-06,0,4.58884e-06,-1.20211e+09,-1.20404e+09,-1.20299e+09,613299,-0.0151696,0.276124,-0,0.27654,-2099.78,-43217.3,-0,43268.2,613299
step02_gravity_refstate-mantle.xmf,1122,6.03152e-06,-8.06239e-06,0,6.05069e-06,-1.22598e+09,-1.22787e+09,-1.22679e+09,808675,-0.0180557,0.277861,-0,0.278447,-2510.31,-43950.9,-0,44022.5,808675
step02_gravity_refstate-mantle.xmf,1123,-2.3885e-06,-4.90337e-07,0,1.46778e-05,-1.36628e+09,-1.36603e+09,-1.36596e+09,1.96169e+06,-0.0236811,0.254625,-0,0.255723,-4786.57,-48247.7,-0,48484.5,1.96169e+06
step02_gravity_refstate-mantle.xmf,1124,4.27587e-06,-6.85591e-06,0,8.90559e-06,-1.25913e+09,-1.26061e+09,-1.2597e+09,1.19023e+06,-0.0237911,0.271715,-0,0.272754,-3481.25,-44966,-0,45100.5,1.19023e+06
step02_gravity_refstate-mantle.xmf,1125,1.67872e-06,-5.03882e-06,0,1.24014e-05,-1.3154e+09,-1.3163e+09,-1.31562e+09,1.65745e+06,-0.0264967,0.268475,-0,0.26978,-4146.56,-46691.6,-0,46875.3,1.65745e+06
step02_gravity_refstate-mantle.xmf,1126,-1.20708e-06,-1.53599e-06,0,1.38517e-05,-1.34563e+09,-1.34567e+09,-1.34547e+09,1.85128e+06,-0.025633,0.255326,-0,0.25661,-4742.45,-47615,-0,47850.6,1.85128e+06
step02_gravity_refstate-mantle.xmf,1127,-6.92609e-06,8.86435e-06,0,1.14089e-05,-1.42361e+09,-1.4215e+09,-1.42269e+09,1.5248e+06,-0.00392329,0.207299,-0,0.207336,-5911.34,-50012.2,-0,50360.4,1.5248e+06
step02_gravity_refstate-mantle.xmf,1128,-5.41739e-06,4.67146e-06,0,1.37673e-05,-1.39585e+09,-1.39451e+09,-1.39513e+09,1.84e+06,-0.0160331,0.232198,-0,0.232751,-5377.91,-49154.2,-0,49447.5,1.84e+06
step02_gravity_refstate-mantle.xmf,1129,-1.0107e-06,1.88796e-05,0,5.1667e-06,-1.60329e+09,-1.60063e+09,-1.60316e+09,690529,0.0923996,0.0982948,0,0.134906,-6726.26,-55627.7,-0,56032.9,690529
step02_gravity_refstate-mantle.xmf,1130,-1.58435e-06,2.08089e-05,0,5.39422e-06,-1.62613e+09,-1.62314e+09,-1.62592e+09,720938,0.0993166,0.0869635,0,0.132009,-6593.36,-56334.3,-0,56718.8,720938
step02_gravity_refstate-mantle.xmf,1131,-2.03669e-06,2.18185e-05,0,4.82164e-06,-1.64682e+09,-1.64363e+09,-1.64654e+09,644412,0.104256,0.0722354,0,0.126835,-6651.02,-56972.9,-0,57359.8,644412
step02_gravity_refstate-mantle.xmf,1132,-1.70962e-06,1.67652e-05,0,4.90251e-06,-1.56276e+09,-1.56029e+09,-1.56253e+09,655221,0.0749842,0.120372,0,0.141817,-6744.98,-54365.7,-0,54782.5,655221
step02_gravity_refstate-mantle.xmf,1133,-4.37131e-06,3.14919e-06,0,1.36972e-05,-1.37602e+09,-1.37502e+09,-1.37544e+09,1.83063e+06,-0.0203563,0.235542,-0,0.23642,-5348.43,-48544.7,-0,48838.5,1.83063e+06
step02_gravity_refstate-mantle.xmf,1134,2.83115e-06,-5.11509e-06,0,1.01113e-05,-1.27045e+09,-1.27152e+09,-1.27083e+09,1.35137e+06,-0.0262344,0.262089,-0,0.263399,-4113.77,-45310.7,-0,45497.1,1.35137e+06
step02_gravity_refstate-mantle.xmf,1135,2.27795e-06,-5.11116e-06,0,1.12471e-05,-1.29362e+09,-1.29461e+09,-1.29393e+09,1.50317e+06,-0.0264932,0.265273,-0,0.266593,-4136.83,-46022.7,-0,46208.2,1.50317e+06
step02_gravity_refstate-mantle.xmf,1136,-2.53949e-07,-2.29638e-06,0,1.28829e-05,-1.32516e+09,-1.32543e+09,-1.32513e+09,1.72179e+06,-0.026707,0.254416,-0,0.255814,-4729.37,-46987.1,-0,47224.5,1.72179e+06
step02_gravity_refstate-mantle.xmf,1137,-7.05249e-06,1.07189e-05,0,9.27162e-06,-1.43553e+09,-1.43316e+09,-1.43459e+09,1.23915e+06,0.00421571,0.187922,0,0.187969,-6375.86,-50384.4,-0,50786.2,1.23915e+06
step02_gravity_refstate-mantle.xmf,1138,-6.43648e-06,7.33877e-06,0,1.18785e-05,-1.40556e+09,-1.40372e+09,-1.4047e+09,1.58757e+06,-0.0102096,0.212239,-0,0.212485,-5899.22,-49454.1,-0,49804.7,1.58757e+06
step02_gravity_refstate-mantle.xmf,1139,-2.55725e-06,1.5973e-05,0,4.94446e-06,-1.54345e+09,-1.54097e+09,-1.54311e+09,660827,0.064841,0.130369,0,0.145604,-6742.29,-53761.4,-0,54182.6,660827
step02_gravity_refstate-mantle.xmf,1140,-3.53881e-06,1.52331e-05,0,5.16326e-06,-1.52455e+09,-1.52204e+09,-1.52407e+09,690070,0.0542031,0.139785,0,0.149926,-6736.85,-53169.1,-0,53594.2,690070
step02_gravity_refstate-mantle.xmf,1141,-4.57566e-06,1.44264e-05,0,5.55063e-06,-1.50496e+09,-1.50242e+09,-1.50435e+09,741842,0.0429141,0.148815,0,0.154879,-6739.65,-52555.1,-0,52985.5,741842
step02_gravity_refstate-mantle.xmf,1142,-5.50075e-06,1.36061e-05,0,6.11187e-06,-1.48601e+09,-1.48345e+09,-1.48527e+09,816851,0.0320958,0.157257,0,0.160498,-6735.51,-51961.3,-0,52396,816851
step02_gravity_refstate-mantle.xmf,1143,-6.19604e-06,1.27618e-05,0,6.60408e-06,-1.46739e+09,-1.46485e+09,-1.46656e+09,882636,0.0222986,0.163463,0,0.164977,-6783.22,-51379.3,-0,51825.1,882636
step02_gravity_refstate-mantle.xmf,1144,-2.77025e-06,2.32177e-05,0,4.12668e-06,-1.66788e+09,-1.66441e+09,-1.66751e+09,551531,0.107806,0.0580808,0,0.122456,-6616.11,-57622.2,-0,58000.8,551531
step02_gravity_refstate-mantle.xmf,1145,-3.40529e-06,2.42277e-05,0,3.20139e-06,-1.68921e+09,-1.68552e+09,-1.68875e+09,427866,0.110227,0.0429674,0,0.118306,-6570.61,-58279.4,-0,58648.6,427866
step02_gravity_refstate-mantle.xmf,1146,-5.10605e-06,2.71138e-05,0,1.27525e-06,-1.72602e+09,-1.72172e+09,-1.72534e+09,170437,0.110987,0.0159989,0,0.112135,-6229.61,-59412.6,-0,59738.3,170437
step02_gravity_refstate-mantle.xmf,1147,-6.36621e-06,2.91698e-05,0,1.71667e-08,-1.74514e+09,-1.74039e+09,-1.74429e+09,2294.33,0.109444,-1.59546e-18,0,0.109444,-5918.45,-60000,-0,60291.2,2294.33
step02_gravity_refstate-mantle.xmf,1148,-3.78469e-07,1.64389e-05,0,3.58086e-06,-1.59333e+09,-1.59108e+09,-1.59328e+09,478582,0.0890965,0.0915603,0,0.127756,-7314.95,-55318,-0,55799.6,478582
step02_gravity_refstate-mantle.xmf,1149,-8.44615e-07,1.55888e-05,0,3.41248e-06,-1.57216e+09,-1.56996e+09,-1.57204e+09,456078,0.0802032,0.101826,0,0.129619,-7330.87,-54658.7,-0,55148.1,456078
step02_gravity_refstate-mantle.xmf,1150,8.3272e-06,-6.36952e-06,0,9.70663e-07,-1.09744e+09,-1.09941e+09,-1.09856e+09,129729,-0.00828872,0.259829,-0,0.259961,-984.598,-40000,-0,40012.1,129729
step02_gravity_refstate-mantle.xmf,1151,7.41698e-06,-6.38521e-06,0,2.12786e-06,-1.1262e+09,-1.12804e+09,-1.12719e+09,284389,-0.0120355,0.263192,-0,0.263467,-1562.44,-40882,-0,40911.9,284389
step02_gravity_refstate-mantle.xmf,1152,4.70999e-06,-6.41852e-06,0,7.57334e-06,-1.22959e+09,-1.23108e+09,-1.23022e+09,1.01218e+06,-0.0228042,0.267251,-0,0.268222,-3380.38,-44057.6,-0,44187.1,1.01218e+06
step02_gravity_refstate-mantle.xmf,1153,6.76891e-06,-6.54327e-06,0,3.3061e-06,-1.15221e+09,-1.15399e+09,-1.15312e+09,441860,-0.0149143,0.265507,-0,0.265926,-2043.68,-41680.9,-0,41731,441860
step02_gravity_refstate-mantle.xmf,1154,6.16477e-06,-6.64173e-06,0,4.61602e-06,-1.1774e+09,-1.17911e+09,-1.17822e+09,616932,-0.0177022,0.266831,-0,0.267417,-2512.93,-42454.6,-0,42528.9,616932
step02_gravity_refstate-mantle.xmf,1155,5.5378e-06,-6.63352e-06,0,5.99783e-06,-1.20228e+09,-1.20391e+09,-1.20302e+09,801610,-0.0202598,0.267435,-0,0.268201,-2944.34,-43219.1,-0,43319.3,801610
step02_gravity_refstate-mantle.xmf,1156,-3.15326e-06,1.48236e-06,0,1.33106e-05,-1.35563e+09,-1.35501e+09,-1.35521e+09,1.77896e+06,-0.0234545,0.237981,-0,0.239134,-5315.68,-47918.5,-0,48212.5,1.77896e+06
step02_gravity_refstate-mantle.xmf,1157,3.337e-06,-5.079e-06,0,8.96962e-06,-1.2455e+09,-1.24662e+09,-1.24594e+09,1.19879e+06,-0.0258314,0.258894,-0,0.26018,-4074.69,-44543.2,-0,44729.2,1.19879e+06
step02_gravity_refstate-mantle.xmf,1158,5.53423e-07,-2.78476e-06,0,1.18692e-05,-1.30359e+09,-1.30404e+09,-1.30367e+09,1.58632e+06,-0.0272869,0.252623,-0,0.254093,-4731.47,-46325.1,-0,46566.1,1.58632e+06
step02_gravity_refstate-mantle.xmf,1159,-2.04519e-06,4.03355e-07,0,1.27449e-05,-1.33481e+09,-1.33448e+09,-1.33453e+09,1.70336e+06,-0.0255308,0.239403,-0,0.24076,-5286.22,-47280,-0,47574.6,1.70336e+06
step02_gravity_refstate-mantle.xmf,1160,-6.86539e-06,9.29635e-06,0,9.8225e-06,-1.41607e+09,-1.41391e+09,-1.41515e+09,1.31278e+06,-0.00317969,0.192498,-0,0.192524,-6420.61,-49780.7,-0,50193.1,1.31278e+06
step02_gravity_refstate-mantle.xmf,1161,-5.65406e-06,5.76415e-06,0,1.21644e-05,-1.38605e+09,-1.38452e+09,-1.38529e+09,1.62577e+06,-0.0155702,0.216557,-0,0.217116,-5887.8,-48852.6,-0,49206.1,1.62577e+06
step02_gravity_refstate-mantle.xmf,1162,-6.66174e-06,1.17678e-05,0,7.14419e-06,-1.44721e+09,-1.44474e+09,-1.44632e+09,954822,0.0129391,0.168343,0,0.16884,-6876.91,-50750.3,-0,51214.1,954822
step02_gravity_refstate-mantle.xmf,1163,-3.09716e-07,1.75039e-05,0,3.72874e-06,-1.6149e+09,-1.61252e+09,-1.61486e+09,498347,0.0966687,0.080827,0,0.126007,-7279.21,-55987.6,-0,56458.8,498347
step02_gravity_refstate-mantle.xmf,1164,-6.1144e-07,1.8746e-05,0,3.72457e-06,-1.63645e+09,-1.63386e+09,-1.63637e+09,497789,0.102684,0.0696409,0,0.124072,-7222.04,-56654.4,-0,57112.9,497789
step02_gravity_refstate-mantle.xmf,1165,-1.02882e-06,1.98242e-05,0,3.38513e-06,-1.65766e+09,-1.65487e+09,-1.65752e+09,452422,0.107222,0.057252,0,0.121549,-7200.23,-57309.4,-0,57760,452422
step02_gravity_refstate-mantle.xmf,1166,-3.76485e-06,2.48502e-05,0,2.14095e-06,-1.70903e+09,-1.70521e+09,-1.70853e+09,286138,0.111771,0.0279242,0,0.115206,-6569.66,-58890.9,-0,59256.2,286138
step02_gravity_refstate-mantle.xmf,1167,-1.63076e-06,1.50289e-05,0,3.42523e-06,-1.55234e+09,-1.55011e+09,-1.55212e+09,457782,0.0706791,0.112052,0,0.132481,-7298.59,-54039.8,-0,54530.4,457782
step02_gravity_refstate-mantle.xmf,1168,-4.70195e-06,4.38421e-06,0,1.22179e-05,-1.36568e+09,-1.36446e+09,-1.36505e+09,1.63293e+06,-0.0197872,0.220112,-0,0.221,-5874.29,-48226,-0,48582.5,1.63293e+06
step02_gravity_refstate-mantle.xmf,1169,1.8893e-06,-3.31214e-06,0,9.8364e-06,-1.25726e+09,-1.25795e+09,-1.25751e+09,1.31464e+06,-0.0276124,0.24819,-0,0.249721,-4729.68,-44901.4,-0,45149.8,1.31464e+06
step02_gravity_refstate-mantle.xmf,1170,1.24467e-06,-3.08978e-06,0,1.08592e-05,-1.2812e+09,-1.28178e+09,-1.28136e+09,1.45133e+06,-0.0275458,0.250409,-0,0.251919,-4738,-45637.1,-0,45882.4,1.45133e+06
step02_gravity_refstate-mantle.xmf,1171,-1.13081e-06,-3.95598e-07,0,1.19826e-05,-1.31395e+09,-1.31385e+09,-1.31379e+09,1.60148e+06,-0.0267905,0.238883,-0,0.24038,-5303.19,-46639.7,-0,46940.3,1.60148e+06
step02_gravity_refstate-mantle.xmf,1172,-6.8046e-06,1.07122e-05,0,7.75494e-06,-1.42766e+09,-1.42532e+09,-1.42675e+09,1.03645e+06,0.00490563,0.173105,0,0.173175,-6946.19,-50142.8,-0,50621.6,1.03645e+06
step02_gravity_refstate-mantle.xmf,1173,-6.40169e-06,7.90708e-06,0,1.03592e-05,-1.39636e+09,-1.39445e+09,-1.3955e+09,1.38451e+06,-0.00955572,0.197532,-0,0.197763,-6427.35,-49171.5,-0,49589.8,1.38451e+06
step02_gravity_refstate-mantle.xmf,1174,-2.55963e-06,1.45873e-05,0,3.59427e-06,-1.53374e+09,-1.53145e+09,-1.5334e+09,480375,0.0609473,0.12131,0,0.13576,-7272.46,-53458,-0,53950.4,480375
step02_gravity_refstate-mantle.xmf,1175,-3.5264e-06,1.40316e-05,0,3.80747e-06,-1.51493e+09,-1.51258e+09,-1.51446e+09,508869,0.0507939,0.129242,0,0.138866,-7292.68,-52869,-0,53369.6,508869
step02_gravity_refstate-mantle.xmf,1176,-4.56419e-06,1.34514e-05,0,4.29263e-06,-1.4949e+09,-1.4925e+09,-1.49429e+09,573710,0.0398164,0.138009,0,0.143638,-7287.02,-52242,-0,52747.8,573710
step02_gravity_refstate-mantle.xmf,1177,-5.38386e-06,1.2914e-05,0,4.99679e-06,-1.47801e+09,-1.47556e+09,-1.47729e+09,667820,0.0304117,0.146889,0,0.150004,-7215.3,-51713.3,-0,52214.2,667820
step02_gravity_refstate-mantle.xmf,1178,-5.74026e-06,1.23427e-05,0,4.90827e-06,-1.46308e+09,-1.46067e+09,-1.46232e+09,655990,0.0242793,0.146043,0,0.148048,-7471.45,-51248.3,-0,51790.1,655990
step02_gravity_refstate-mantle.xmf,1179,-1.52801e-06,2.08975e-05,0,2.76776e-06,-1.6795e+09,-1.6765e+09,-1.67929e+09,369911,0.110621,0.0437269,0,0.11895,-7179.43,-57983.4,-0,58426.2,369911
step02_gravity_refstate-mantle.xmf,1180,-1.95903e-06,2.16728e-05,0,1.9554e-06,-1.7021e+09,-1.69894e+09,-1.70184e+09,261340,0.112917,0.029194,0,0.116629,-7136.65,-58680.8,-0,59113.1,261340
step02_gravity_refstate-mantle.xmf,1181,-2.70337e-06,2.30398e-05,0,1.04304e-06,-1.7244e+09,-1.72096e+09,-1.72404e+09,139403,0.113781,0.0146524,0,0.114721,-6957.79,-59368,-0,59774.4,139403
step02_gravity_refstate-mantle.xmf,1182,-3.74376e-06,2.48684e-05,0,2.00524e-08,-1.74493e+09,-1.74111e+09,-1.74443e+09,2680,0.113144,-1.46259e-18,0,0.113144,-6651.63,-60000,-0,60367.6,2680
step02_gravity_refstate-mantle.xmf,1183,3.23475e-07,1.52523e-05,0,2.42406e-06,-1.60479e+09,-1.6028e+09,-1.60484e+09,323975,0.0933104,0.0756598,0,0.12013,-7891.38,-55673.8,-0,56230.2,323975
step02_gravity_refstate-mantle.xmf,1184,-6.10003e-08,1.44911e-05,0,2.22493e-06,-1.58277e+09,-1.58083e+09,-1.58276e+09,297362,0.0850288,0.0851575,0,0.12034,-7933.53,-54989,-0,55558.4,297362
step02_gravity_refstate-mantle.xmf,1185,-8.40524e-07,1.38064e-05,0,2.01198e-06,-1.55899e+09,-1.55703e+09,-1.55887e+09,268902,0.0747189,0.0948229,0,0.120724,-7980.51,-54247.3,-0,54831.2,268902
step02_gravity_refstate-mantle.xmf,1186,7.74975e-06,-5.89399e-06,0,1.91122e-06,-1.09753e+09,-1.09935e+09,-1.09857e+09,255435,-0.0162071,0.255639,-0,0.256152,-1969.19,-40000,-0,40048.4,255435
step02_gravity_refstate-mantle.xmf,1187,6.75709e-06,-5.71278e-06,0,3.17132e-06,-1.12504e+09,-1.1267e+09,-1.12594e+09,423847,-0.0185918,0.257162,-0,0.257833,-2481.98,-40843.4,-0,40918.8,423847
step02_gravity_refstate-mantle.xmf,1188,3.67929e-06,-4.92396e-06,0,8.07183e-06,-1.22426e+09,-1.22541e+09,-1.22475e+09,1.0788e+06,-0.0255994,0.255898,-0,0.257175,-4058.5,-43889.8,-0,44077,1.0788e+06
step02_gravity_refstate-mantle.xmf,1189,5.93929e-06,-5.61945e-06,0,4.447e-06,-1.1516e+09,-1.15315e+09,-1.15239e+09,594341,-0.0207055,0.257776,-0,0.258607,-2952.8,-41658.8,-0,41763.4,594341
step02_gravity_refstate-mantle.xmf,1190,5.16586e-06,-5.4523e-06,0,5.75245e-06,-1.17744e+09,-1.17886e+09,-1.17813e+09,768815,-0.022692,0.257507,-0,0.258505,-3393.26,-42452.3,-0,42587.7,768815
step02_gravity_refstate-mantle.xmf,1191,4.37628e-06,-5.16923e-06,0,7.03567e-06,-1.20258e+09,-1.20385e+09,-1.20316e+09,940318,-0.0244215,0.256641,-0,0.2578,-3782.98,-43224.2,-0,43389.4,940318
step02_gravity_refstate-mantle.xmf,1192,-3.60574e-06,2.88113e-06,0,1.1997e-05,-1.34478e+09,-1.34392e+09,-1.3443e+09,1.6034e+06,-0.0229103,0.222769,-0,0.223944,-5861.56,-47584.2,-0,47943.8,1.6034e+06
step02_gravity_refstate-mantle.xmf,1193,2.51519e-06,-3.54754e-06,0,8.80687e-06,-1.23229e+09,-1.2331e+09,-1.23262e+09,1.17704e+06,-0.0275543,0.246381,-0,0.247917,-4684.58,-44133.7,-0,44381.6,1.17704e+06
step02_gravity_refstate-mantle.xmf,1194,-3.35348e-07,-9.69705e-07,0,1.1155e-05,-1.29221e+09,-1.2923e+09,-1.29217e+09,1.49086e+06,-0.0276232,0.237601,-0,0.239202,-5334.85,-45972.3,-0,46280.8,1.49086e+06
step02_gravity_refstate-mantle.xmf,1195,-2.62967e-06,1.89118e-06,0,1.1596e-05,-1.32394e+09,-1.32333e+09,-1.32359e+09,1.54981e+06,-0.0250729,0.224267,-0,0.225664,-5861.43,-46944.2,-0,47308.7,1.54981e+06
step02_gravity_refstate-mantle.xmf,1196,-6.63938e-06,9.45484e-06,0,8.44492e-06,-1.40741e+09,-1.40526e+09,-1.40653e+09,1.12866e+06,-0.00246216,0.178698,-0,0.178715,-6971.31,-49515.3,-0,50003.6,1.12866e+06
step02_gravity_refstate-mantle.xmf,1197,-5.68319e-06,6.4978e-06,0,1.07037e-05,-1.37591e+09,-1.37428e+09,-1.37515e+09,1.43055e+06,-0.0148067,0.20186,-0,0.202402,-6434.66,-48540.9,-0,48965.5,1.43055e+06
step02_gravity_refstate-mantle.xmf,1198,-6.27654e-06,1.14514e-05,0,5.74617e-06,-1.4402e+09,-1.43783e+09,-1.43936e+09,767976,0.0138936,0.153605,0,0.154232,-7506.06,-50535.5,-0,51089.9,767976
step02_gravity_refstate-mantle.xmf,1199,3.82937e-07,1.61264e-05,0,2.55005e-06,-1.62578e+09,-1.62367e+09,-1.62583e+09,340814,0.099917,0.0661789,0,0.119846,-7841.08,-56324.6,-0,56867.8,340814
step02_gravity_refstate-mantle.xmf,1200,2.38057e-07,1.70122e-05,0,2.48502e-06,-1.64702e+09,-1.64478e+09,-1.64705e+09,332123,0.105291,0.055667,0,0.1191,-7808.74,-56982.2,-0,57514.7,332123
step02_gravity_refstate-mantle.xmf,1201,-3.63894e-08,1.78811e-05,0,2.20761e-06,-1.66893e+09,-1.66654e+09,-1.66893e+09,295048,0.109523,0.0441176,0,0.118075,-7779.17,-57659.4,-0,58181.8,295048
step02_gravity_refstate-mantle.xmf,1202,-1.79469e-06,1.39228e-05,0,2.48366e-06,-1.54157e+09,-1.53947e+09,-1.54133e+09,331941,0.0660423,0.106995,0,0.125736,-7749.62,-53703.3,-0,54259.6,331941
step02_gravity_refstate-mantle.xmf,1203,-4.83673e-06,5.27157e-06,0,1.08268e-05,-1.35497e+09,-1.35362e+09,-1.35433e+09,1.447e+06,-0.018946,0.205436,-0,0.206308,-6440.92,-47896.8,-0,48327.9,1.447e+06
step02_gravity_refstate-mantle.xmf,1204,1.11161e-06,-1.81641e-06,0,9.37097e-06,-1.24402e+09,-1.24441e+09,-1.24417e+09,1.25243e+06,-0.0286808,0.2348,-0,0.236545,-5362.48,-44491.2,-0,44813.2,1.25243e+06
step02_gravity_refstate-mantle.xmf,1205,3.75677e-07,-1.38343e-06,0,1.02724e-05,-1.26889e+09,-1.26913e+09,-1.26894e+09,1.3729e+06,-0.0282254,0.235764,-0,0.237447,-5377.56,-45255.6,-0,45573.9,1.3729e+06
step02_gravity_refstate-mantle.xmf,1206,-1.75298e-06,1.0505e-06,0,1.10186e-05,-1.30284e+09,-1.30247e+09,-1.30261e+09,1.47263e+06,-0.0265522,0.224362,-0,0.225928,-5893.52,-46296.3,-0,46669.9,1.47263e+06
step02_gravity_refstate-mantle.xmf,1207,-6.45136e-06,1.05035e-05,0,6.53722e-06,-1.4189e+09,-1.41664e+09,-1.41804e+09,873699,0.00541961,0.160068,0,0.16016,-7536.11,-49874.2,-0,50440.3,873699
step02_gravity_refstate-mantle.xmf,1208,-6.21654e-06,8.23276e-06,0,8.97792e-06,-1.38683e+09,-1.3849e+09,-1.386e+09,1.1999e+06,-0.00861695,0.18346,-0,0.183662,-7002.81,-48879.2,-0,49378.3,1.1999e+06
step02_gravity_refstate-mantle.xmf,1209,-2.5265e-06,1.34474e-05,0,2.46152e-06,-1.52481e+09,-1.52268e+09,-1.52448e+09,328982,0.0577533,0.111977,0,0.125993,-7852.57,-53179.6,-0,53756.2,328982
step02_gravity_refstate-mantle.xmf,1210,-4.65052e-06,1.25768e-05,0,3.42524e-06,-1.48134e+09,-1.47903e+09,-1.48071e+09,457783,0.0353685,0.129666,0,0.134403,-7852.76,-51820.1,-0,52411.7,457783
step02_gravity_refstate-mantle.xmf,1211,-3.54352e-06,1.30074e-05,0,2.75544e-06,-1.50414e+09,-1.50193e+09,-1.50367e+09,368264,0.0471768,0.119792,0,0.128747,-7886.23,-52533.1,-0,53121.8,368264
step02_gravity_refstate-mantle.xmf,1212,-5.44958e-06,1.17074e-05,0,3.95388e-06,-1.45324e+09,-1.45095e+09,-1.45251e+09,528436,0.0231387,0.134924,0,0.136894,-8087.91,-50944.6,-0,51582.6,528436
step02_gravity_refstate-mantle.xmf,1213,-3.66749e-07,1.87358e-05,0,1.68671e-06,-1.6919e+09,-1.68934e+09,-1.69185e+09,225429,0.112661,0.0312781,0,0.116922,-7758.11,-58368.6,-0,58882,225429
step02_gravity_refstate-mantle.xmf,1214,-4.85539e-07,1.91122e-05,0,8.53101e-07,-1.71861e+09,-1.71599e+09,-1.71855e+09,114017,0.114838,0.0155047,0,0.11588,-7784.32,-59194.2,-0,59703.8,114017
step02_gravity_refstate-mantle.xmf,1215,-1.51205e-06,2.10129e-05,0,2.48485e-08,-1.74477e+09,-1.74176e+09,-1.74456e+09,3321.01,0.115119,-1.55469e-18,0,0.115119,-7406.53,-60000,-0,60455.4,3321.01
step02_gravity_refstate-mantle.xmf,1216,9.6814e-07,1.41193e-05,0,1.51724e-06,-1.61608e+09,-1.61432e+09,-1.61621e+09,202779,0.0966256,0.0623158,0,0.114977,-8458.75,-56023.8,-0,56658.8,202779
step02_gravity_refstate-mantle.xmf,1217,6.74904e-07,1.34577e-05,0,1.31273e-06,-1.595e+09,-1.59329e+09,-1.59509e+09,175447,0.0895283,0.0703923,0,0.113888,-8529.8,-55369.1,-0,56022.3,175447
step02_gravity_refstate-mantle.xmf,1218,7.86735e-08,1.2931e-05,0,1.12322e-06,-1.57248e+09,-1.57076e+09,-1.57249e+09,150118,0.0808159,0.0788303,0,0.112896,-8585.34,-54668.1,-0,55338.1,150118
step02_gravity_refstate-mantle.xmf,1219,-1.5124e-06,1.28607e-05,0,1.46576e-06,-1.538e+09,-1.53607e+09,-1.53779e+09,195898,0.0652747,0.0968106,0,0.116761,-8343.98,-53592,-0,54237.7,195898
step02_gravity_refstate-mantle.xmf,1220,6.86032e-06,-5.15698e-06,0,2.72662e-06,-1.09766e+09,-1.09927e+09,-1.09858e+09,364413,-0.023408,0.248909,-0,0.250007,-2953.78,-40000,-0,40108.9,364413
step02_gravity_refstate-mantle.xmf,1221,5.81572e-06,-4.79785e-06,0,4.0579e-06,-1.12485e+09,-1.12627e+09,-1.12563e+09,542338,-0.024583,0.248783,-0,0.249995,-3432.54,-40833.9,-0,40977.9,542338
step02_gravity_refstate-mantle.xmf,1222,3.00791e-06,-3.50482e-06,0,7.81961e-06,-1.20607e+09,-1.20694e+09,-1.20647e+09,1.04509e+06,-0.0276941,0.243742,-0,0.24531,-4670.92,-43327.2,-0,43578.2,1.04509e+06
step02_gravity_refstate-mantle.xmf,1223,4.9042e-06,-4.49357e-06,0,5.33047e-06,-1.15166e+09,-1.15291e+09,-1.15231e+09,712417,-0.0256833,0.247909,-0,0.249236,-3870.24,-41656.5,-0,41835.9,712417
step02_gravity_refstate-mantle.xmf,1224,4.02275e-06,-4.10614e-06,0,6.56166e-06,-1.17821e+09,-1.17929e+09,-1.17875e+09,876965,-0.0267216,0.246337,-0,0.247782,-4272.24,-42471.8,-0,42686.1,876965
step02_gravity_refstate-mantle.xmf,1225,-3.83961e-06,3.87327e-06,0,1.07561e-05,-1.33355e+09,-1.33252e+09,-1.33304e+09,1.43756e+06,-0.0221897,0.208642,-0,0.209819,-6432.11,-47238.2,-0,47674.1,1.43756e+06
step02_gravity_refstate-mantle.xmf,1226,1.82417e-06,-2.31818e-06,0,8.59668e-06,-1.22235e+09,-1.2229e+09,-1.22259e+09,1.14895e+06,-0.0288698,0.235553,-0,0.237316,-5245.36,-43825.1,-0,44137.9,1.14895e+06
step02_gravity_refstate-mantle.xmf,1227,-1.03857e-06,4.94456e-07,0,1.03252e-05,-1.2811e+09,-1.2809e+09,-1.28096e+09,1.37996e+06,-0.0276134,0.222899,-0,0.224603,-5977.67,-45628,-0,46017.9,1.37996e+06
step02_gravity_refstate-mantle.xmf,1228,-2.96147e-06,2.92709e-06,0,1.04923e-05,-1.31254e+09,-1.31175e+09,-1.31215e+09,1.4023e+06,-0.0244989,0.21058,-0,0.212,-6441.37,-46592.6,-0,47035.8,1.4023e+06
step02_gravity_refstate-mantle.xmf,1229,-6.31058e-06,9.43278e-06,0,7.25814e-06,-1.39843e+09,-1.39633e+09,-1.39759e+09,970050,-0.0016447,0.165984,-0,0.165992,-7551.66,-49240,-0,49815.7,970050
step02_gravity_refstate-mantle.xmf,1230,-5.59182e-06,7.03139e-06,0,9.30478e-06,-1.36597e+09,-1.36428e+09,-1.36522e+09,1.24358e+06,-0.0135914,0.187258,-0,0.187751,-7044.9,-48235.9,-0,48747.6,1.24358e+06
step02_gravity_refstate-mantle.xmf,1231,-5.89996e-06,1.0978e-05,0,4.78475e-06,-1.43068e+09,-1.42843e+09,-1.4299e+09,639482,0.013645,0.142265,0,0.142918,-8114.35,-50243,-0,50894,639482
step02_gravity_refstate-mantle.xmf,1232,1.05259e-06,1.4767e-05,0,1.60623e-06,-1.63575e+09,-1.63392e+09,-1.63589e+09,214672,0.102203,0.0540974,0,0.115637,-8408.36,-56633.8,-0,57254.5,214672
step02_gravity_refstate-mantle.xmf,1233,1.04548e-06,1.53714e-05,0,1.52226e-06,-1.65764e+09,-1.65572e+09,-1.65778e+09,203450,0.107158,0.0439119,0,0.115807,-8401.56,-57311.3,-0,57923.9,203450
step02_gravity_refstate-mantle.xmf,1234,9.03921e-07,1.60389e-05,0,1.30106e-06,-1.68066e+09,-1.67863e+09,-1.68078e+09,173887,0.111076,0.0328958,0,0.115845,-8375.02,-58023.1,-0,58624.4,173887
step02_gravity_refstate-mantle.xmf,1235,-5.57922e-07,1.24752e-05,0,9.49883e-07,-1.55355e+09,-1.55181e+09,-1.55348e+09,126952,0.072779,0.0846604,0,0.111643,-8692.28,-54077.9,-0,54772.1,126952
step02_gravity_refstate-mantle.xmf,1236,-4.84356e-06,5.90974e-06,0,9.51802e-06,-1.3444e+09,-1.34297e+09,-1.34376e+09,1.27208e+06,-0.0178235,0.191272,-0,0.192101,-7054.69,-47571.9,-0,48092.1,1.27208e+06
step02_gravity_refstate-mantle.xmf,1237,6.4396e-07,-7.52606e-07,0,8.66267e-06,-1.22629e+09,-1.22648e+09,-1.22638e+09,1.15777e+06,-0.0296915,0.22226,-0,0.224235,-5990.48,-43943.1,-0,44349.6,1.15777e+06
step02_gravity_refstate-mantle.xmf,1238,-3.12848e-07,1.51491e-08,0,9.52751e-06,-1.25592e+09,-1.25588e+09,-1.25588e+09,1.27335e+06,-0.0286375,0.221338,-0,0.223183,-6058.64,-44854,-0,45261.3,1.27335e+06
step02_gravity_refstate-mantle.xmf,1239,-2.16595e-06,2.04162e-06,0,1.01675e-05,-1.29341e+09,-1.29284e+09,-1.29312e+09,1.35889e+06,-0.0261406,0.212199,-0,0.213803,-6433.14,-46004.6,-0,46452.2,1.35889e+06
step02_gravity_refstate-mantle.xmf,1240,-6.06215e-06,1.01548e-05,0,5.62412e-06,-1.40922e+09,-1.40705e+09,-1.40841e+09,751664,0.00549688,0.149389,0,0.14949,-8109.89,-49576.7,-0,50235.7,751664
step02_gravity_refstate-mantle.xmf,1241,-5.94611e-06,8.40404e-06,0,7.71903e-06,-1.37802e+09,-1.37611e+09,-1.37723e+09,1.03165e+06,-0.00727783,0.170026,-0,0.170182,-7616.06,-48609.4,-0,49202.5,1.03165e+06
step02_gravity_refstate-mantle.xmf,1242,-2.41763e-06,1.23887e-05,0,1.48776e-06,-1.51606e+09,-1.51408e+09,-1.51574e+09,198840,0.0550482,0.102248,0,0.116125,-8518.24,-52907.1,-0,53588.5,198840
step02_gravity_refstate-mantle.xmf,1243,-3.4915e-06,1.20982e-05,0,1.9299e-06,-1.49301e+09,-1.49093e+09,-1.49254e+09,257931,0.0439077,0.110865,0,0.119244,-8528.34,-52187.2,-0,52879.5,257931
step02_gravity_refstate-mantle.xmf,1244,-5.11066e-06,1.10841e-05,0,3.23746e-06,-1.44336e+09,-1.4412e+09,-1.44268e+09,432687,0.0221137,0.125461,0,0.127395,-8699.36,-50640.1,-0,51381.9,432687
step02_gravity_refstate-mantle.xmf,1245,-4.40908e-06,1.17057e-05,0,2.52134e-06,-1.46981e+09,-1.46766e+09,-1.46922e+09,336977,0.0331428,0.118546,0,0.123092,-8575.86,-51463.4,-0,52173.1,336977
step02_gravity_refstate-mantle.xmf,1246,6.54965e-07,1.67645e-05,0,9.83129e-07,-1.70227e+09,-1.70012e+09,-1.70236e+09,131395,0.113622,0.0222837,0,0.115786,-8313.77,-58690.9,-0,59276.8,131395
step02_gravity_refstate-mantle.xmf,1247,3.17695e-07,1.76313e-05,0,8.60806e-09,-1.74465e+09,-1.74234e+09,-1.74469e+09,1150.47,0.115589,-1.1509e-18,0,0.115589,-8185.04,-60000,-0,60555.7,1150.47
step02_gravity_refstate-mantle.xmf,1248,1.48045e-06,1.31814e-05,0,8.81688e-07,-1.6257e+09,-1.62413e+09,-1.6259e+09,117838,0.0988388,0.0524975,0,0.111916,-8943.97,-56322,-0,57027.7,117838
step02_gravity_refstate-mantle.xmf,1249,1.34268e-06,1.24786e-05,0,6.25843e-07,-1.60762e+09,-1.60613e+09,-1.6078e+09,83643.9,0.0932145,0.057812,0,0.109687,-9113.79,-55760.7,-0,56500.6,83643.9
step02_gravity_refstate-mantle.xmf,1250,8.36965e-07,1.19822e-05,0,4.06292e-07,-1.58461e+09,-1.58312e+09,-1.58473e+09,54300.9,0.0852399,0.0655176,0,0.10751,-9200.79,-55045.5,-0,55809.1,54300.9
step02_gravity_refstate-mantle.xmf,1251,3.59227e-08,1.16618e-05,0,2.89397e-07,-1.56004e+09,-1.55849e+09,-1.56005e+09,38677.9,0.075685,0.0738777,0,0.105765,-9253.83,-54280.4,-0,55063.5,38677.9
step02_gravity_refstate-mantle.xmf,1252,-1.09916e-06,1.16846e-05,0,5.10373e-07,-1.53455e+09,-1.53285e+09,-1.53441e+09,68211.3,0.0647205,0.0850734,0,0.106894,-9123.07,-53485.5,-0,54258,68211.3
step02_gravity_refstate-mantle.xmf,1253,5.74178e-06,-4.21882e-06,0,3.3804e-06,-1.09783e+09,-1.09916e+09,-1.09859e+09,451790,-0.0296208,0.239996,-0,0.241817,-3938.38,-40000,-0,40193.4,451790
step02_gravity_refstate-mantle.xmf,1254,4.68785e-06,-3.70926e-06,0,4.71731e-06,-1.12506e+09,-1.12618e+09,-1.12568e+09,630469,-0.0296407,0.23834,-0,0.240176,-4395.96,-40835.4,-0,41071.3,630469
step02_gravity_refstate-mantle.xmf,1255,1.85266e-06,-1.94076e-06,0,7.92293e-06,-1.20306e+09,-1.20357e+09,-1.20331e+09,1.0589e+06,-0.0298199,0.229565,-0,0.231494,-5518.34,-43230.6,-0,43581.4,1.0589e+06
step02_gravity_refstate-mantle.xmf,1256,2.86739e-06,-2.7424e-06,0,7.01612e-06,-1.1793e+09,-1.18004e+09,-1.17968e+09,937704,-0.0296094,0.2342,-0,0.236064,-5117.77,-42501.1,-0,42808.1,937704
step02_gravity_refstate-mantle.xmf,1257,3.74622e-06,-3.24357e-06,0,5.92584e-06,-1.15228e+09,-1.15322e+09,-1.15279e+09,791989,-0.0296606,0.236282,-0,0.238136,-4794.15,-41671.4,-0,41946.2,791989
step02_gravity_refstate-mantle.xmf,1258,-3.92317e-06,4.58366e-06,0,9.58164e-06,-1.32206e+09,-1.32092e+09,-1.32153e+09,1.28059e+06,-0.0213309,0.195201,-0,0.196363,-7039.89,-46884.4,-0,47410,1.28059e+06
step02_gravity_refstate-mantle.xmf,1259,-1.81791e-06,2.04712e-06,0,9.35873e-06,-1.27277e+09,-1.27225e+09,-1.27252e+09,1.25079e+06,-0.0269737,0.206126,-0,0.207884,-6768.97,-45369.4,-0,45871.5,1.25079e+06
step02_gravity_refstate-mantle.xmf,1260,-3.02931e-06,3.513e-06,0,9.48024e-06,-1.29884e+09,-1.29796e+09,-1.29843e+09,1.26703e+06,-0.0241926,0.198935,-0,0.200401,-7001.79,-46170.3,-0,46698.2,1.26703e+06
step02_gravity_refstate-mantle.xmf,1261,-5.99618e-06,9.33496e-06,0,6.3636e-06,-1.39126e+09,-1.38921e+09,-1.39046e+09,850495,-0.000735066,0.155866,-0,0.155868,-8063.19,-49020.4,-0,49679.1,850495
step02_gravity_refstate-mantle.xmf,1262,-5.37975e-06,7.33498e-06,0,8.00618e-06,-1.35558e+09,-1.35388e+09,-1.35486e+09,1.07003e+06,-0.0121808,0.173011,-0,0.173439,-7720.25,-47917,-0,48535,1.07003e+06
step02_gravity_refstate-mantle.xmf,1263,-5.50054e-06,1.04159e-05,0,4.06097e-06,-1.41934e+09,-1.41721e+09,-1.4186e+09,542748,0.0128433,0.132683,0,0.133303,-8738.82,-49893.8,-0,50653.3,542748
step02_gravity_refstate-mantle.xmf,1264,1.74653e-06,1.33098e-05,0,8.26644e-07,-1.64485e+09,-1.6433e+09,-1.64508e+09,110481,0.103553,0.0437998,0,0.112435,-9025.29,-56915.6,-0,57626.8,110481
step02_gravity_refstate-mantle.xmf,1265,1.83276e-06,1.37521e-05,0,7.73571e-07,-1.66895e+09,-1.66736e+09,-1.66919e+09,103388,0.108346,0.0335656,0,0.113426,-9034.76,-57661.8,-0,58365.3,103388
step02_gravity_refstate-mantle.xmf,1266,1.80631e-06,1.43279e-05,0,5.82957e-07,-1.69688e+09,-1.69521e+09,-1.69712e+09,77912.2,0.112212,0.0214577,0,0.114245,-9024.37,-58525.9,-0,59217.6,77912.2
step02_gravity_refstate-mantle.xmf,1267,1.14209e-06,1.593e-05,0,4.38298e-07,-1.72146e+09,-1.71948e+09,-1.72161e+09,58578.5,0.114714,0.0114546,0,0.115284,-8615.56,-59284.8,-0,59907.6,58578.5
step02_gravity_refstate-mantle.xmf,1268,-4.74232e-06,6.30528e-06,0,8.31775e-06,-1.33384e+09,-1.33236e+09,-1.3332e+09,1.11167e+06,-0.0165857,0.177906,-0,0.178677,-7704.72,-47247.2,-0,47871.3,1.11167e+06
step02_gravity_refstate-mantle.xmf,1269,9.72087e-07,-7.78249e-07,0,7.83319e-06,-1.20231e+09,-1.20255e+09,-1.20244e+09,1.04691e+06,-0.0308047,0.218124,-0,0.220289,-6190.21,-43204.5,-0,43645.7,1.04691e+06
step02_gravity_refstate-mantle.xmf,1270,-7.9237e-07,1.07681e-06,0,8.66881e-06,-1.24151e+09,-1.24126e+09,-1.24141e+09,1.15859e+06,-0.0289385,0.20736,-0,0.209369,-6777.98,-44408.3,-0,44922.6,1.15859e+06
step02_gravity_refstate-mantle.xmf,1271,-5.67909e-06,9.67384e-06,0,5.01465e-06,-1.3971e+09,-1.39505e+09,-1.39634e+09,670208,0.00457324,0.141436,0,0.14151,-8649.2,-49203.8,-0,49958.2,670208
step02_gravity_refstate-mantle.xmf,1272,-5.65469e-06,8.7259e-06,0,6.21664e-06,-1.37348e+09,-1.37156e+09,-1.37273e+09,830854,-0.00400578,0.153621,-0,0.153673,-8389.12,-48472,-0,49192.6,830854
step02_gravity_refstate-mantle.xmf,1273,-2.29107e-06,1.14312e-05,0,7.63696e-07,-1.50664e+09,-1.5048e+09,-1.50633e+09,102068,0.0522904,0.0937267,0,0.107326,-9213.77,-52614.5,-0,53415.2,102068
step02_gravity_refstate-mantle.xmf,1274,-3.33076e-06,1.12125e-05,0,1.2685e-06,-1.48136e+09,-1.47941e+09,-1.48091e+09,169535,0.0410079,0.102073,0,0.110003,-9249.25,-51826,-0,52644.9,169535
step02_gravity_refstate-mantle.xmf,1275,-4.75807e-06,1.03857e-05,0,2.68356e-06,-1.43045e+09,-1.42843e+09,-1.42981e+09,358658,0.0203205,0.117088,0,0.118838,-9373.2,-50241.9,-0,51108.7,358658
step02_gravity_refstate-mantle.xmf,1276,-4.16014e-06,1.08581e-05,0,1.90902e-06,-1.456e+09,-1.454e+09,-1.45545e+09,255140,0.0303276,0.109533,0,0.113654,-9322.79,-51036.5,-0,51881,255140
step02_gravity_refstate-mantle.xmf,1277,1.72641e-06,1.4775e-05,0,5.32378e-09,-1.74458e+09,-1.74284e+09,-1.74481e+09,711.523,0.114768,-9.53008e-19,0,0.114768,-8990.76,-60000,-0,60669.9,711.523
step02_gravity_refstate-mantle.xmf,1278,2.05676e-06,1.16145e-05,0,1.51108e-07,-1.62696e+09,-1.62568e+09,-1.62723e+09,20195.6,0.0979197,0.0450397,0,0.107781,-9657.29,-56360.8,-0,57182.2,20195.6
step02_gravity_refstate-mantle.xmf,1279,1.58956e-06,1.1042e-05,0,-1.29347e-07,-1.59931e+09,-1.59805e+09,-1.59953e+09,-17287.2,0.0895199,0.0532025,0,0.104136,-9825.12,-55502.2,-0,56365.1,17287.2
step02_gravity_refstate-mantle.xmf,1280,8.60653e-07,1.0769e-05,0,-2.93347e-07,-1.57324e+09,-1.57191e+09,-1.57335e+09,-39205.8,0.0804897,0.0612965,0,0.101172,-9897.4,-54691.1,-0,55579.5,39205.8
step02_gravity_refstate-mantle.xmf,1281,-9.00473e-08,1.06661e-05,0,-2.96456e-07,-1.54696e+09,-1.54553e+09,-1.54695e+09,-39621.3,0.0704272,0.0698475,0,0.09919,-9917.25,-53872.9,-0,54778.1,39621.3
step02_gravity_refstate-mantle.xmf,1282,4.4813e-06,-3.15276e-06,0,3.84993e-06,-1.09801e+09,-1.09903e+09,-1.09861e+09,514543,-0.034669,0.229324,-0,0.23193,-4924.17,-40000,-0,40302,514543
step02_gravity_refstate-mantle.xmf,1283,3.44753e-06,-2.50853e-06,0,5.13848e-06,-1.12561e+09,-1.12641e+09,-1.12607e+09,686757,-0.0336219,0.226096,-0,0.228582,-5381.89,-40847.4,-0,41200.4,686757
step02_gravity_refstate-mantle.xmf,1284,1.78066e-06,-1.45639e-06,0,7.19576e-06,-1.18133e+09,-1.18176e+09,-1.18157e+09,961714,-0.0313902,0.221894,-0,0.224103,-5916.71,-42560,-0,42969.3,961714
step02_gravity_refstate-mantle.xmf,1285,2.54022e-06,-1.94006e-06,0,6.24462e-06,-1.15388e+09,-1.15448e+09,-1.15422e+09,834594,-0.0325121,0.223307,-0,0.225661,-5726.79,-41716,-0,42107.2,834594
step02_gravity_refstate-mantle.xmf,1286,-3.85758e-06,4.99225e-06,0,8.50954e-06,-1.30932e+09,-1.30814e+09,-1.30881e+09,1.1373e+06,-0.0206312,0.18302,-0,0.184179,-7664.53,-46492.5,-0,47120.1,1.1373e+06
step02_gravity_refstate-mantle.xmf,1287,7.01814e-09,3.63315e-07,0,8.00047e-06,-1.2144e+09,-1.21435e+09,-1.2144e+09,1.06926e+06,-0.0304761,0.208567,-0,0.210782,-6742.38,-43574.3,-0,44092.9,1.06926e+06
step02_gravity_refstate-mantle.xmf,1288,-1.96776e-06,2.70268e-06,0,8.27254e-06,-1.25514e+09,-1.25452e+09,-1.25488e+09,1.10562e+06,-0.0269461,0.192366,-0,0.194245,-7514.79,-44825.6,-0,45451.1,1.10562e+06
step02_gravity_refstate-mantle.xmf,1289,-2.93546e-06,3.82126e-06,0,8.5256e-06,-1.28304e+09,-1.28214e+09,-1.28265e+09,1.13945e+06,-0.0241414,0.188414,-0,0.189954,-7575.92,-45683.8,-0,46307.7,1.13945e+06
step02_gravity_refstate-mantle.xmf,1290,-5.14217e-06,7.5483e-06,0,6.82828e-06,-1.34807e+09,-1.34637e+09,-1.34738e+09,912600,-0.0102582,0.159785,-0,0.160114,-8398.62,-47687.3,-0,48421.2,912600
step02_gravity_refstate-mantle.xmf,1291,-5.06163e-06,9.68298e-06,0,3.5632e-06,-1.40314e+09,-1.40116e+09,-1.40246e+09,476222,0.0107271,0.124861,0,0.125321,-9414.8,-49394.3,-0,50283.5,476222
step02_gravity_refstate-mantle.xmf,1292,2.42704e-06,1.18465e-05,0,2.15663e-07,-1.65517e+09,-1.65392e+09,-1.6555e+09,28823.3,0.104324,0.0342302,0,0.109797,-9720.23,-57235.4,-0,58054.9,28823.3
step02_gravity_refstate-mantle.xmf,1293,2.55633e-06,1.2209e-05,0,2.46928e-07,-1.68057e+09,-1.67928e+09,-1.68091e+09,33001.9,0.108704,0.0248343,0,0.111505,-9701.74,-58021.6,-0,58827.1,33001.9
step02_gravity_refstate-mantle.xmf,1294,2.28405e-06,1.3463e-05,0,1.96463e-07,-1.72185e+09,-1.72035e+09,-1.72215e+09,26257.3,0.113401,0.00950402,0,0.113798,-9395.1,-59298,-0,60037.7,26257.3
step02_gravity_refstate-mantle.xmf,1295,-1.15951e-06,1.06286e-05,0,-1.08011e-07,-1.52067e+09,-1.51909e+09,-1.52051e+09,-14435.7,0.0596477,0.078523,0,0.0986089,-9922.13,-53053.4,-0,53973.3,14435.7
step02_gravity_refstate-mantle.xmf,1296,-4.51639e-06,6.43483e-06,0,7.2673e-06,-1.32202e+09,-1.32056e+09,-1.32142e+09,971275,-0.0156323,0.16599,-0,0.166724,-8368.85,-46884,-0,47625.1,971275
step02_gravity_refstate-mantle.xmf,1297,6.69684e-07,-1.56531e-07,0,7.24834e-06,-1.18758e+09,-1.18769e+09,-1.18767e+09,968741,-0.0320463,0.208821,-0,0.211266,-6730.01,-42748.8,-0,43275.4,968741
step02_gravity_refstate-mantle.xmf,1298,-1.1108e-06,1.80124e-06,0,7.81153e-06,-1.22701e+09,-1.22662e+09,-1.22686e+09,1.04401e+06,-0.029242,0.194849,-0,0.197031,-7483.18,-43959.9,-0,44592.3,1.04401e+06
step02_gravity_refstate-mantle.xmf,1299,-5.3091e-06,9.14677e-06,0,4.64194e-06,-1.38284e+09,-1.3809e+09,-1.38213e+09,620395,0.00280402,0.135972,0,0.136001,-9135.05,-48764.3,-0,49612.5,620395
step02_gravity_refstate-mantle.xmf,1300,-5.18234e-06,8.42672e-06,0,5.28136e-06,-1.36136e+09,-1.35954e+09,-1.36067e+09,705854,-0.00334396,0.142325,-0,0.142364,-9107.15,-48099.9,-0,48954.5,705854
step02_gravity_refstate-mantle.xmf,1301,-2.21228e-06,1.05494e-05,0,2.64569e-07,-1.49451e+09,-1.4928e+09,-1.49421e+09,35359.6,0.0486748,0.0867668,0,0.0994872,-9951.43,-52238.1,-0,53177.5,35359.6
step02_gravity_refstate-mantle.xmf,1302,-3.13509e-06,1.03912e-05,0,8.04816e-07,-1.46877e+09,-1.46697e+09,-1.46835e+09,107564,0.0380844,0.0945678,0,0.101948,-9992.91,-51436.6,-0,52398.3,107564
step02_gravity_refstate-mantle.xmf,1303,-4.38076e-06,9.72805e-06,0,2.24216e-06,-1.41782e+09,-1.41593e+09,-1.41723e+09,299665,0.0187929,0.109771,0,0.111368,-10044.6,-49852.5,-0,50854.4,299665
step02_gravity_refstate-mantle.xmf,1304,-3.87208e-06,1.0116e-05,0,1.48421e-06,-1.44298e+09,-1.44111e+09,-1.44247e+09,198364,0.0279935,0.102213,0,0.105977,-10031.8,-50634.2,-0,51618.4,198364
step02_gravity_refstate-mantle.xmf,1305,2.64583e-06,1.23881e-05,0,2.02119e-07,-1.70253e+09,-1.70123e+09,-1.70288e+09,27013.3,0.111191,0.0163074,0,0.112381,-9734.94,-58701.1,-0,59502.8,27013.3
step02_gravity_refstate-mantle.xmf,1306,2.78509e-06,1.23821e-05,0,2.11487e-09,-1.74455e+09,-1.74327e+09,-1.74492e+09,282.652,0.112878,-8.26893e-19,0,0.112878,-9827.13,-60000,-0,60799.4,282.652
step02_gravity_refstate-mantle.xmf,1307,2.77745e-06,1.02651e-05,0,-3.36443e-07,-1.64262e+09,-1.64162e+09,-1.64299e+09,-44965.6,0.0997578,0.0336117,0,0.105268,-10461.8,-56845.8,-0,57800.5,44965.6
step02_gravity_refstate-mantle.xmf,1308,2.29961e-06,1.0021e-05,0,-5.40606e-07,-1.61481e+09,-1.61378e+09,-1.61512e+09,-72252,0.0927833,0.0420505,0,0.101867,-10510.1,-55983.2,-0,56961.2,72252
step02_gravity_refstate-mantle.xmf,1309,1.63853e-06,9.83585e-06,0,-7.23808e-07,-1.58769e+09,-1.58659e+09,-1.58791e+09,-96737,0.0845823,0.0498878,0,0.0981986,-10576.7,-55140.3,-0,56145.5,96737
step02_gravity_refstate-mantle.xmf,1310,7.8199e-07,9.76276e-06,0,-8.0463e-07,-1.56038e+09,-1.55918e+09,-1.56048e+09,-107539,0.075254,0.0577921,0,0.0948847,-10623.2,-54290.9,-0,55320.4,107539
step02_gravity_refstate-mantle.xmf,1311,-1.7481e-07,9.77007e-06,0,-7.27799e-07,-1.53398e+09,-1.53265e+09,-1.53395e+09,-97270.3,0.0654652,0.0655892,0,0.0926694,-10646.8,-53468.9,-0,54518.6,97270.3
step02_gravity_refstate-mantle.xmf,1312,3.17507e-06,-2.03414e-06,0,4.13163e-06,-1.0982e+09,-1.0989e+09,-1.09863e+09,552192,-0.0384719,0.217314,-0,0.220693,-5915.44,-40000,-0,40435,552192
step02_gravity_refstate-mantle.xmf,1313,2.03705e-06,-1.14919e-06,0,5.30634e-06,-1.12665e+09,-1.12708e+09,-1.12693e+09,709193,-0.036662,0.210632,-0,0.213799,-6521.96,-40873.5,-0,41390.6,709193
step02_gravity_refstate-mantle.xmf,1314,1.34982e-06,-6.64374e-07,0,6.3739e-06,-1.15846e+09,-1.15873e+09,-1.15864e+09,851871,-0.0340014,0.209577,-0,0.212317,-6656.85,-41852.6,-0,42378.7,851871
step02_gravity_refstate-mantle.xmf,1315,-3.70703e-06,5.19709e-06,0,7.52329e-06,-1.29561e+09,-1.29442e+09,-1.29511e+09,1.00549e+06,-0.0200887,0.171739,-0,0.17291,-8316.77,-46070.3,-0,46814.9,1.00549e+06
step02_gravity_refstate-mantle.xmf,1316,-3.65177e-07,1.07602e-06,0,7.21887e-06,-1.19892e+09,-1.19873e+09,-1.19887e+09,964802,-0.031375,0.196484,-0,0.198974,-7458.09,-43095.4,-0,43736,964802
step02_gravity_refstate-mantle.xmf,1317,-2.06784e-06,3.136e-06,0,7.34199e-06,-1.23983e+09,-1.23913e+09,-1.23955e+09,981257,-0.0269413,0.180543,-0,0.182542,-8223.48,-44353,-0,45108.9,981257
step02_gravity_refstate-mantle.xmf,1318,-2.86999e-06,4.10329e-06,0,7.55255e-06,-1.26737e+09,-1.26644e+09,-1.26698e+09,1.0094e+06,-0.0239318,0.177006,-0,0.178616,-8251.79,-45200.8,-0,45947.9,1.0094e+06
step02_gravity_refstate-mantle.xmf,1319,-4.76855e-06,7.40385e-06,0,5.90195e-06,-1.33599e+09,-1.33436e+09,-1.33535e+09,788796,-0.00950277,0.148937,-0,0.149239,-9084.67,-47316.2,-0,48180.4,788796
step02_gravity_refstate-mantle.xmf,1320,-4.86875e-06,8.89522e-06,0,3.77243e-06,-1.37757e+09,-1.37573e+09,-1.37692e+09,504186,0.00472146,0.125236,0,0.125325,-9813.34,-48603.8,-0,49584.6,504186
step02_gravity_refstate-mantle.xmf,1321,-4.56828e-06,9.2692e-06,0,2.81473e-06,-1.39727e+09,-1.39542e+09,-1.39666e+09,376189,0.0121567,0.114868,0,0.11551,-10104.8,-49215.2,-0,50241.9,376189
step02_gravity_refstate-mantle.xmf,1322,3.06863e-06,1.05325e-05,0,-1.71137e-07,-1.66983e+09,-1.66883e+09,-1.67024e+09,-22872.5,0.105036,0.0250075,0,0.107972,-10425.3,-57689.1,-0,58623.5,22872.5
step02_gravity_refstate-mantle.xmf,1323,3.21447e-06,1.07993e-05,0,-6.00634e-08,-1.69574e+09,-1.69472e+09,-1.69616e+09,-8027.47,0.108618,0.0165774,0,0.109876,-10384.3,-58490.9,-0,59405.6,8027.47
step02_gravity_refstate-mantle.xmf,1324,3.12932e-06,1.13947e-05,0,2.38925e-08,-1.72123e+09,-1.72012e+09,-1.72165e+09,3193.23,0.111208,0.00826805,0,0.111515,-10193.7,-59279.3,-0,60149.4,3193.23
step02_gravity_refstate-mantle.xmf,1325,-1.15526e-06,9.79826e-06,0,-4.79022e-07,-1.50822e+09,-1.50675e+09,-1.50806e+09,-64021.2,0.0554662,0.0733299,0,0.0919444,-10657.7,-52666.7,-0,53734.3,64021.2
step02_gravity_refstate-mantle.xmf,1326,-4.23027e-06,6.39228e-06,0,6.34148e-06,-1.30902e+09,-1.3076e+09,-1.30846e+09,847539,-0.0149777,0.155255,-0,0.155976,-9052.46,-46484.3,-0,47357.6,847539
step02_gravity_refstate-mantle.xmf,1327,2.71963e-07,5.02717e-07,0,6.50283e-06,-1.1704e+09,-1.17037e+09,-1.17044e+09,869104,-0.0336657,0.197372,-0,0.200222,-7443.81,-42217.4,-0,42868.6,869104
step02_gravity_refstate-mantle.xmf,1328,-1.33191e-06,2.30694e-06,0,6.96633e-06,-1.21205e+09,-1.21156e+09,-1.21187e+09,931050,-0.0296372,0.183241,-0,0.185622,-8199.63,-43497.8,-0,44263.9,931050
step02_gravity_refstate-mantle.xmf,1329,-4.73359e-06,8.08069e-06,0,4.50108e-06,-1.35003e+09,-1.34832e+09,-1.3494e+09,601569,-0.00273502,0.132499,-0,0.132527,-9810.4,-47752,-0,48749.4,601569
step02_gravity_refstate-mantle.xmf,1330,-2.13564e-06,9.82188e-06,0,-3.82759e-08,-1.48221e+09,-1.48061e+09,-1.48192e+09,-5115.58,0.0452032,0.0814433,0,0.0931469,-10644.7,-51856.8,-0,52938,5115.58
step02_gravity_refstate-mantle.xmf,1331,-2.92793e-06,9.67856e-06,0,5.00874e-07,-1.45635e+09,-1.45466e+09,-1.45596e+09,66941.8,0.0353725,0.0886037,0,0.0954035,-10698.1,-51052.3,-0,52161.2,66941.8
step02_gravity_refstate-mantle.xmf,1332,-4.03586e-06,9.09115e-06,0,1.94031e-06,-1.40398e+09,-1.40222e+09,-1.40344e+09,259322,0.0169119,0.1039,0,0.105267,-10701.1,-49425.7,-0,50570.9,259322
step02_gravity_refstate-mantle.xmf,1333,-3.58091e-06,9.43173e-06,0,1.18305e-06,-1.42959e+09,-1.42785e+09,-1.42911e+09,158115,0.0256879,0.0961564,0,0.0995285,-10727.8,-50220.7,-0,51353.7,158115
step02_gravity_refstate-mantle.xmf,1334,3.55539e-06,1.0385e-05,0,-1.58427e-09,-1.74455e+09,-1.74364e+09,-1.74502e+09,-211.738,0.110115,-8.63237e-19,0,0.110115,-10697.4,-60000,-0,60946.2,211.738
step02_gravity_refstate-mantle.xmf,1335,3.35432e-06,9.14168e-06,0,-5.7035e-07,-1.658e+09,-1.65723e+09,-1.65845e+09,-76227.3,0.100578,0.0250105,0,0.103641,-11187.4,-57322.1,-0,58403.6,76227.3
step02_gravity_refstate-mantle.xmf,1336,2.93422e-06,8.97452e-06,0,-8.05136e-07,-1.63025e+09,-1.62944e+09,-1.63064e+09,-107606,0.0947367,0.032531,0,0.100166,-11246,-56461.4,-0,57570.5,107606
step02_gravity_refstate-mantle.xmf,1337,2.32636e-06,8.88616e-06,0,-1.01365e-06,-1.60213e+09,-1.60125e+09,-1.60244e+09,-135474,0.0874688,0.0400468,0,0.0962005,-11293.8,-55588.5,-0,56724.1,135474
step02_gravity_refstate-mantle.xmf,1338,1.54989e-06,8.86787e-06,0,-1.14636e-06,-1.57398e+09,-1.573e+09,-1.57419e+09,-153211,0.0789961,0.0474726,0,0.092163,-11342,-54713.8,-0,55877,153211
step02_gravity_refstate-mantle.xmf,1339,6.37751e-07,8.91138e-06,0,-1.14998e-06,-1.54572e+09,-1.54462e+09,-1.54581e+09,-153695,0.0695673,0.0549479,0,0.0886503,-11384.3,-53835,-0,55025.5,153695
step02_gravity_refstate-mantle.xmf,1340,-2.90443e-07,9.0173e-06,0,-9.89568e-07,-1.5195e+09,-1.51825e+09,-1.51946e+09,-132256,0.0602575,0.0624061,0,0.0867496,-11370.8,-53018.9,-0,54224.6,132256
step02_gravity_refstate-mantle.xmf,1341,1.89566e-06,-9.00746e-07,0,4.2253e-06,-1.09838e+09,-1.09876e+09,-1.09864e+09,564711,-0.0410234,0.204368,-0,0.208445,-6916.9,-40000,-0,40593.6,564711
step02_gravity_refstate-mantle.xmf,1342,7.82114e-07,7.52673e-08,0,5.67769e-06,-1.14182e+09,-1.14191e+09,-1.14192e+09,758823,-0.0363705,0.197638,-0,0.200957,-7441.07,-41336.7,-0,42001.1,758823
step02_gravity_refstate-mantle.xmf,1343,-3.50956e-06,5.26167e-06,0,6.59887e-06,-1.28093e+09,-1.27976e+09,-1.28046e+09,881939,-0.0196962,0.160989,-0,0.16219,-9013.44,-45618.5,-0,46500.4,881939
step02_gravity_refstate-mantle.xmf,1344,-6.78589e-07,1.61177e-06,0,6.43595e-06,-1.1835e+09,-1.1832e+09,-1.18341e+09,860165,-0.032328,0.185155,-0,0.187956,-8185.7,-42618.5,-0,43397.5,860165
step02_gravity_refstate-mantle.xmf,1345,-2.11767e-06,3.3977e-06,0,6.50981e-06,-1.2252e+09,-1.22447e+09,-1.22492e+09,870036,-0.0270518,0.170058,-0,0.172197,-8914.79,-43901.6,-0,44797.6,870036
step02_gravity_refstate-mantle.xmf,1346,-2.81386e-06,4.3001e-06,0,6.63835e-06,-1.2527e+09,-1.25175e+09,-1.25233e+09,887216,-0.0236678,0.165903,-0,0.167583,-8969.54,-44748.7,-0,45638.8,887216
step02_gravity_refstate-mantle.xmf,1347,-4.3745e-06,7.14327e-06,0,5.108e-06,-1.32277e+09,-1.32123e+09,-1.32218e+09,682684,-0.00910861,0.139314,-0,0.139611,-9786.03,-46909.9,-0,47919.7,682684
step02_gravity_refstate-mantle.xmf,1348,-4.33559e-06,8.80135e-06,0,2.68302e-06,-1.38415e+09,-1.3824e+09,-1.38357e+09,358586,0.0100083,0.111889,0,0.112335,-10532.5,-48810.5,-0,49934,358586
step02_gravity_refstate-mantle.xmf,1349,3.60401e-06,9.34992e-06,0,-3.55936e-07,-1.68496e+09,-1.68419e+09,-1.68544e+09,-47570.9,0.104852,0.0175027,0,0.106303,-11125.6,-58157,-0,59211.6,47570.9
step02_gravity_refstate-mantle.xmf,1350,3.78547e-06,9.45302e-06,0,-1.68753e-07,-1.71535e+09,-1.71459e+09,-1.71586e+09,-22553.8,0.107656,0.00861754,0,0.108,-11124.6,-59097.2,-0,60135.2,22553.8
step02_gravity_refstate-mantle.xmf,1351,-1.26965e-06,9.26326e-06,0,-6.22257e-07,-1.49509e+09,-1.49369e+09,-1.49492e+09,-83164.7,0.0511094,0.0710681,0,0.0875377,-11205,-52259.2,-0,53446.9,83164.7
step02_gravity_refstate-mantle.xmf,1352,1.12851e-06,-1.99455e-07,0,4.84932e-06,-1.11632e+09,-1.1165e+09,-1.11647e+09,648112,-0.0393327,0.197778,-0,0.201652,-7426.4,-40550.7,-0,41225.2,648112
step02_gravity_refstate-mantle.xmf,1353,-3.90998e-06,6.23044e-06,0,5.50282e-06,-1.29458e+09,-1.29322e+09,-1.29405e+09,735452,-0.0146273,0.145322,-0,0.146056,-9773.69,-46039.8,-0,47065.8,735452
step02_gravity_refstate-mantle.xmf,1354,-1.88629e-07,1.10972e-06,0,5.77507e-06,-1.15537e+09,-1.1552e+09,-1.15534e+09,771838,-0.0351645,0.185786,-0,0.189084,-8219.32,-41751.5,-0,42552.8,771838
step02_gravity_refstate-mantle.xmf,1355,-1.48357e-06,2.62917e-06,0,6.19531e-06,-1.19753e+09,-1.19698e+09,-1.19734e+09,828004,-0.0301415,0.173108,-0,0.175713,-8883.48,-43049.2,-0,43956.2,828004
step02_gravity_refstate-mantle.xmf,1356,-4.38327e-06,8.35276e-06,0,3.17928e-06,-1.36359e+09,-1.36189e+09,-1.363e+09,424911,0.00427971,0.116822,0,0.1169,-10566.9,-48173.9,-0,49319.2,424911
step02_gravity_refstate-mantle.xmf,1357,-4.28045e-06,7.6536e-06,0,3.82539e-06,-1.33673e+09,-1.33513e+09,-1.33615e+09,511263,-0.00261125,0.123628,-0,0.123655,-10555.2,-47343,-0,48505.4,511263
step02_gravity_refstate-mantle.xmf,1358,-1.98198e-06,9.1584e-06,0,-2.73682e-07,-1.47089e+09,-1.4694e+09,-1.47062e+09,-36577.5,0.0423747,0.0764895,0,0.0874429,-11342.3,-51506.5,-0,52740.5,36577.5
step02_gravity_refstate-mantle.xmf,1359,-2.6801e-06,9.0064e-06,0,2.61214e-07,-1.44413e+09,-1.44257e+09,-1.44377e+09,34911.3,0.0329838,0.0831623,0,0.0894645,-11419,-50674.8,-0,51945.4,34911.3
step02_gravity_refstate-mantle.xmf,1360,-3.81091e-06,8.40706e-06,0,1.91267e-06,-1.38138e+09,-1.37975e+09,-1.38087e+09,255629,0.0124265,0.101434,0,0.102192,-11322.4,-48727.4,-0,50025.5,255629
step02_gravity_refstate-mantle.xmf,1361,-3.29168e-06,8.76962e-06,0,9.63446e-07,-1.41491e+09,-1.4133e+09,-1.41447e+09,128765,0.0231979,0.0909618,0,0.0938732,-11441.5,-49767.6,-0,51065.8,128765
step02_gravity_refstate-mantle.xmf,1362,4.0874e-06,8.72834e-06,0,-5.50124e-09,-1.74457e+09,-1.74395e+09,-1.74512e+09,-735.241,0.106649,-6.28166e-19,0,0.106649,-11604.5,-60000,-0,61111.9,735.241
step02_gravity_refstate-mantle.xmf,1363,3.81694e-06,8.16896e-06,0,-6.38127e-07,-1.67353e+09,-1.67294e+09,-1.67404e+09,-85285.7,0.100548,0.0181629,0,0.102175,-11879.4,-57802.2,-0,59010.3,85285.7
step02_gravity_refstate-mantle.xmf,1364,3.46608e-06,8.01305e-06,0,-9.16221e-07,-1.64573e+09,-1.64513e+09,-1.6462e+09,-122453,0.0956426,0.0248019,0,0.098806,-11973.9,-56940.9,-0,58186.3,122453
step02_gravity_refstate-mantle.xmf,1365,2.93411e-06,7.96183e-06,0,-1.16621e-06,-1.6172e+09,-1.61653e+09,-1.6176e+09,-155864,0.0893781,0.0315999,0,0.0947998,-12035.7,-56055.9,-0,57333.5,155864
step02_gravity_refstate-mantle.xmf,1366,2.23685e-06,7.99222e-06,0,-1.34857e-06,-1.58837e+09,-1.5876e+09,-1.58866e+09,-180236,0.0818604,0.0385079,0,0.0904654,-12080.1,-55160.5,-0,56467.8,180236
step02_gravity_refstate-mantle.xmf,1367,1.39363e-06,8.07158e-06,0,-1.42538e-06,-1.55888e+09,-1.55798e+09,-1.55906e+09,-190502,0.0731116,0.0455438,0,0.0861368,-12131.4,-54244.1,-0,55584.2,190502
step02_gravity_refstate-mantle.xmf,1368,4.16473e-07,8.17928e-06,0,-1.34586e-06,-1.52764e+09,-1.5266e+09,-1.5277e+09,-179875,0.0630382,0.0529987,0,0.082357,-12191.5,-53273.1,-0,54650.3,179875
step02_gravity_refstate-mantle.xmf,1369,-7.48541e-07,8.49095e-06,0,-9.84892e-07,-1.49518e+09,-1.49395e+09,-1.49508e+09,-131631,0.0519716,0.0629616,0,0.0816408,-12013.5,-52263.4,-0,53626.3,131631
step02_gravity_refstate-mantle.xmf,1370,7.23858e-07,1.42405e-07,0,4.18551e-06,-1.09855e+09,-1.09863e+09,-1.09865e+09,559393,-0.0423596,0.190856,-0,0.1955,-7933.15,-40000,-0,40779.1,559393
step02_gravity_refstate-mantle.xmf,1371,8.72551e-08,8.16274e-07,0,4.92799e-06,-1.12552e+09,-1.12543e+09,-1.12554e+09,658626,-0.0387072,0.184911,-0,0.188919,-8338.38,-40830.7,-0,41673.4,658626
step02_gravity_refstate-mantle.xmf,1372,-3.29266e-06,5.22214e-06,0,5.75326e-06,-1.26566e+09,-1.26453e+09,-1.26522e+09,768923,-0.0194998,0.150979,-0,0.152233,-9739.35,-45148.2,-0,46186.8,768923
step02_gravity_refstate-mantle.xmf,1373,-1.01296e-06,2.07884e-06,0,5.69765e-06,-1.17008e+09,-1.16967e+09,-1.16994e+09,761491,-0.0331055,0.174207,-0,0.177325,-8939.56,-42202.8,-0,43139.2,761491
step02_gravity_refstate-mantle.xmf,1374,-2.08595e-06,3.43105e-06,0,5.89336e-06,-1.21106e+09,-1.21032e+09,-1.21078e+09,787648,-0.0275668,0.16278,-0,0.165097,-9457.07,-43465,-0,44482,787648
step02_gravity_refstate-mantle.xmf,1375,-2.67709e-06,4.28575e-06,0,5.85636e-06,-1.23589e+09,-1.23496e+09,-1.23554e+09,782702,-0.0239962,0.156904,-0,0.158728,-9642.24,-44230.3,-0,45269.2,782702
step02_gravity_refstate-mantle.xmf,1376,-3.97667e-06,6.82013e-06,0,4.37271e-06,-1.30848e+09,-1.30703e+09,-1.30794e+09,584413,-0.0088989,0.130113,-0,0.130417,-10543.5,-46470.2,-0,47651.3,584413
step02_gravity_refstate-mantle.xmf,1377,3.97451e-06,8.41638e-06,0,-4.00916e-07,-1.69718e+09,-1.69659e+09,-1.69771e+09,-53582.4,0.103779,0.0124093,0,0.104518,-11758.4,-58534.6,-0,59703.9,53582.4
step02_gravity_refstate-mantle.xmf,1378,4.23358e-06,7.93173e-06,0,-2.51753e-07,-1.71917e+09,-1.71868e+09,-1.71974e+09,-33646.8,0.103913,0.00626402,0,0.104101,-12109.6,-59214.4,-0,60440,33646.8
step02_gravity_refstate-mantle.xmf,1379,-3.59962e-06,6.0115e-06,0,4.73216e-06,-1.27966e+09,-1.27838e+09,-1.27918e+09,632453,-0.0144266,0.135936,-0,0.136699,-10535,-45580.6,-0,46782.3,632453
step02_gravity_refstate-mantle.xmf,1380,-6.43837e-07,1.6253e-06,0,5.18147e-06,-1.14473e+09,-1.14443e+09,-1.14464e+09,692503,-0.0361154,0.175711,-0,0.179384,-8934.4,-41421.1,-0,42373.7,692503
step02_gravity_refstate-mantle.xmf,1381,-1.70942e-06,2.97293e-06,0,5.496e-06,-1.18636e+09,-1.18573e+09,-1.18613e+09,734541,-0.0302792,0.162911,-0,0.165701,-9607.43,-42703.3,-0,43770.7,734541
step02_gravity_refstate-mantle.xmf,1382,-3.90915e-06,7.84428e-06,0,2.59651e-06,-1.35204e+09,-1.35046e+09,-1.35151e+09,347024,0.00449494,0.108363,0,0.108456,-11355.3,-47818.8,-0,49148.6,347024
step02_gravity_refstate-mantle.xmf,1383,-3.84394e-06,7.2068e-06,0,3.20742e-06,-1.32309e+09,-1.32162e+09,-1.32258e+09,428672,-0.00256436,0.115212,-0,0.11524,-11346,-46923.6,-0,48275.9,428672
step02_gravity_refstate-mantle.xmf,1384,-1.6928e-06,8.4464e-06,0,-5.12423e-07,-1.46134e+09,-1.45999e+09,-1.46111e+09,-68485.4,0.0405055,0.0706589,0,0.0814455,-12142.1,-51211.6,-0,52631.4,68485.4
step02_gravity_refstate-mantle.xmf,1385,-2.41861e-06,8.3403e-06,0,7.53486e-08,-1.43067e+09,-1.42923e+09,-1.43035e+09,10070.3,0.0304651,0.0781506,0,0.0838788,-12192.5,-50259.1,-0,51716.9,10070.3
step02_gravity_refstate-mantle.xmf,1386,-2.98245e-06,8.13102e-06,0,7.62392e-07,-1.39974e+09,-1.39826e+09,-1.39935e+09,101894,0.0208534,0.0860354,0,0.0885266,-12195.2,-49299.5,-0,50785.5,101894
step02_gravity_refstate-mantle.xmf,1387,4.42013e-06,7.38152e-06,0,-7.21297e-09,-1.74461e+09,-1.74422e+09,-1.7452e+09,-964.013,0.102622,-5.67712e-19,0,0.102622,-12551.5,-60000,-0,61298.8,964.013
step02_gravity_refstate-mantle.xmf,1388,4.19388e-06,7.37502e-06,0,-5.48543e-07,-1.69289e+09,-1.69247e+09,-1.69345e+09,-73312.8,0.100295,0.0118671,0,0.100994,-12510.4,-58400.9,-0,59725.8,73312.8
step02_gravity_refstate-mantle.xmf,1389,3.92773e-06,7.12045e-06,0,-8.89525e-07,-1.66326e+09,-1.66283e+09,-1.66378e+09,-118885,0.095847,0.0180322,0,0.0975285,-12713.4,-57483,-0,58872.1,118885
step02_gravity_refstate-mantle.xmf,1390,3.45533e-06,7.09554e-06,0,-1.19447e-06,-1.63314e+09,-1.63266e+09,-1.63361e+09,-159641,0.0904023,0.0244363,0,0.0936467,-12788.2,-56549.6,-0,57977.5,159641
step02_gravity_refstate-mantle.xmf,1391,2.84725e-06,7.14467e-06,0,-1.42831e-06,-1.60386e+09,-1.60328e+09,-1.60424e+09,-190894,0.0838867,0.0306849,0,0.0893227,-12844,-55641,-0,57104.2,190894
step02_gravity_refstate-mantle.xmf,1392,2.09274e-06,7.2641e-06,0,-1.56958e-06,-1.57398e+09,-1.57329e+09,-1.57426e+09,-209774,0.0761844,0.0371924,0,0.0847781,-12881.5,-54713.4,-0,56209.4,209774
step02_gravity_refstate-mantle.xmf,1393,1.22043e-06,7.42441e-06,0,-1.58184e-06,-1.54337e+09,-1.54254e+09,-1.54353e+09,-211412,0.0673887,0.0439961,0,0.0804791,-12914.6,-53762.2,-0,55291.6,211412
step02_gravity_refstate-mantle.xmf,1394,2.66362e-07,7.61326e-06,0,-1.42725e-06,-1.5119e+09,-1.51092e+09,-1.51194e+09,-190752,0.0577222,0.0513253,0,0.0772408,-12920.5,-52784.4,-0,54342.7,190752
step02_gravity_refstate-mantle.xmf,1395,-3.12235e-07,1.09561e-06,0,4.00521e-06,-1.0987e+09,-1.09851e+09,-1.09866e+09,535296,-0.0425781,0.177115,-0,0.182161,-8968.72,-40000,-0,40993.1,535296
step02_gravity_refstate-mantle.xmf,1396,-3.05282e-06,5.06349e-06,0,5.0065e-06,-1.24835e+09,-1.24727e+09,-1.24794e+09,669119,-0.0198034,0.14218,-0,0.143553,-10474.8,-44614.6,-0,45827.8,669119
step02_gravity_refstate-mantle.xmf,1397,-8.52127e-07,1.77753e-06,0,4.48471e-06,-1.12469e+09,-1.12434e+09,-1.12458e+09,599381,-0.0384044,0.169365,-0,0.173664,-9462.99,-40801.2,-0,41884.2,599381
step02_gravity_refstate-mantle.xmf,1398,-1.42309e-06,2.54226e-06,0,4.8767e-06,-1.15542e+09,-1.15489e+09,-1.15523e+09,651770,-0.0338121,0.16198,-0,0.165471,-9851.78,-41748.6,-0,42895.2,651770
step02_gravity_refstate-mantle.xmf,1399,-2.42158e-06,4.03585e-06,0,5.15425e-06,-1.21166e+09,-1.21079e+09,-1.21133e+09,688865,-0.0256685,0.150425,-0,0.152599,-10265,-43482.8,-0,44678,688865
step02_gravity_refstate-mantle.xmf,1400,-3.6015e-06,6.46814e-06,0,3.70435e-06,-1.29364e+09,-1.2923e+09,-1.29316e+09,495087,-0.00885943,0.121493,-0,0.121815,-11341.1,-46013.6,-0,47390.6,495087
step02_gravity_refstate-mantle.xmf,1401,-3.32828e-06,7.78999e-06,0,1.45968e-06,-1.36944e+09,-1.36795e+09,-1.36899e+09,195086,0.0121389,0.0936841,0,0.0944672,-12180.7,-48360.1,-0,49870.5,195086
step02_gravity_refstate-mantle.xmf,1402,4.47195e-06,6.7552e-06,0,-3.3257e-07,-1.71761e+09,-1.71731e+09,-1.71821e+09,-44448,0.0997296,0.00567272,0,0.0998908,-13052.3,-59164.8,-0,60587.4,44448
step02_gravity_refstate-mantle.xmf,1403,-6.68342e-07,7.76235e-06,0,-1.10243e-06,-1.48032e+09,-1.47919e+09,-1.48023e+09,-147339,0.0476822,0.0588989,0,0.0757804,-12919.1,-51802.9,-0,53389.5,147339
step02_gravity_refstate-mantle.xmf,1404,-3.3036e-06,5.73576e-06,0,4.04607e-06,-1.26346e+09,-1.26225e+09,-1.26302e+09,540757,-0.014589,0.127458,-0,0.12829,-11320.3,-45081.3,-0,46480.9,540757
step02_gravity_refstate-mantle.xmf,1405,-2.00169e-06,3.38532e-06,0,4.82372e-06,-1.18027e+09,-1.17955e+09,-1.18e+09,644690,-0.029585,0.151946,-0,0.1548,-10406.6,-42514.2,-0,43769.3,644690
step02_gravity_refstate-mantle.xmf,1406,-3.47404e-06,7.31886e-06,0,2.11548e-06,-1.33891e+09,-1.33747e+09,-1.33845e+09,282734,0.00420418,0.100977,0,0.101065,-12167.8,-47414.9,-0,48951.3,282734
step02_gravity_refstate-mantle.xmf,1407,-3.44497e-06,6.75652e-06,0,2.66476e-06,-1.30888e+09,-1.30751e+09,-1.30842e+09,356145,-0.00275169,0.10757,-0,0.107605,-12162.5,-46486,-0,48050.7,356145
step02_gravity_refstate-mantle.xmf,1408,-1.50825e-06,7.78468e-06,0,-6.24642e-07,-1.44737e+09,-1.44613e+09,-1.44717e+09,-83483.4,0.0373082,0.0664386,0,0.0761971,-12970.3,-50779.6,-0,52409.9,83483.4
step02_gravity_refstate-mantle.xmf,1409,-2.16532e-06,7.70556e-06,0,-5.83081e-08,-1.41597e+09,-1.41465e+09,-1.41568e+09,-7792.87,0.0277754,0.0737728,0,0.0788282,-12995.4,-49805,-0,51472.5,7792.87
step02_gravity_refstate-mantle.xmf,1410,-2.64383e-06,7.52157e-06,0,5.48866e-07,-1.38563e+09,-1.38427e+09,-1.38528e+09,73355.9,0.0190524,0.0809522,0,0.083164,-12994.9,-48864.3,-0,50562.7,73355.9
step02_gravity_refstate-mantle.xmf,1411,4.6061e-06,6.27863e-06,0,-7.40871e-09,-1.74466e+09,-1.74444e+09,-1.74528e+09,-990.174,0.0981546,-4.73961e-19,0,0.0981546,-13541.2,-60000,-0,61509.1,990.174
step02_gravity_refstate-mantle.xmf,1412,4.34675e-06,6.22251e-06,0,-7.11964e-07,-1.68725e+09,-1.687e+09,-1.68783e+09,-95154,0.0952865,0.0111178,0,0.0959329,-13554,-58224.6,-0,59781.4,95154
step02_gravity_refstate-mantle.xmf,1413,3.92014e-06,6.25422e-06,0,-1.10322e-06,-1.65208e+09,-1.65177e+09,-1.6526e+09,-147446,0.0906899,0.0178426,0,0.0924284,-13600.1,-57135.4,-0,58731.8,147446
step02_gravity_refstate-mantle.xmf,1414,3.37505e-06,6.3374e-06,0,-1.39945e-06,-1.62064e+09,-1.62024e+09,-1.62109e+09,-187036,0.0850331,0.0238725,0,0.0883206,-13641.4,-56160.8,-0,57793.8,187036
step02_gravity_refstate-mantle.xmf,1415,2.70436e-06,6.47602e-06,0,-1.60566e-06,-1.58984e+09,-1.58934e+09,-1.5902e+09,-214597,0.078286,0.0298894,0,0.0837978,-13673.1,-55205.3,-0,56873.4,214597
step02_gravity_refstate-mantle.xmf,1416,1.92705e-06,6.66286e-06,0,-1.69831e-06,-1.55912e+09,-1.55849e+09,-1.55938e+09,-226979,0.0705869,0.0360921,0,0.0792789,-13690.2,-54251.8,-0,55952.4,226979
step02_gravity_refstate-mantle.xmf,1417,1.0755e-06,6.86417e-06,0,-1.65632e-06,-1.52802e+09,-1.52724e+09,-1.52816e+09,-221367,0.0620179,0.0425414,0,0.0752063,-13709,-53285.7,-0,55020.9,221367
step02_gravity_refstate-mantle.xmf,1418,1.96093e-07,7.034e-06,0,-1.46483e-06,-1.49587e+09,-1.49496e+09,-1.4959e+09,-195775,0.052662,0.049241,0,0.0720969,-13750.4,-52287.3,-0,54065.1,195775
step02_gravity_refstate-mantle.xmf,1419,-1.17428e-06,1.92225e-06,0,3.73111e-06,-1.09881e+09,-1.0984e+09,-1.09866e+09,498663,-0.0417943,0.163435,-0,0.168694,-10028,-40000,-0,41237.9,498663
step02_gravity_refstate-mantle.xmf,1420,-2.8487e-06,4.86279e-06,0,4.30145e-06,-1.22959e+09,-1.22855e+09,-1.2292e+09,574889,-0.0204318,0.134012,-0,0.13556,-11245.5,-44035.8,-0,45449,574889
step02_gravity_refstate-mantle.xmf,1421,-1.58186e-06,2.56699e-06,0,4.03809e-06,-1.12714e+09,-1.12658e+09,-1.12693e+09,539691,-0.0367306,0.154743,-0,0.159042,-10555.5,-40873.8,-0,42214.8,539691
step02_gravity_refstate-mantle.xmf,1422,-2.05303e-06,3.38393e-06,0,4.14991e-06,-1.15966e+09,-1.15893e+09,-1.15938e+09,554635,-0.0310296,0.144572,-0,0.147864,-11113.3,-41877.3,-0,43326.8,554635
step02_gravity_refstate-mantle.xmf,1423,-2.443e-06,4.10863e-06,0,4.31658e-06,-1.19559e+09,-1.19471e+09,-1.19526e+09,576911,-0.0256997,0.139478,-0,0.141826,-11187.9,-42986.4,-0,44418.5,576911
step02_gravity_refstate-mantle.xmf,1424,-3.26353e-06,6.10405e-06,0,3.1102e-06,-1.27819e+09,-1.27694e+09,-1.27775e+09,415679,-0.00905704,0.113626,-0,0.113986,-12165.4,-45537.6,-0,47134.6,415679
step02_gravity_refstate-mantle.xmf,1425,-2.95113e-06,7.22098e-06,0,1.15952e-06,-1.3552e+09,-1.35384e+09,-1.35481e+09,154970,0.0109335,0.0879784,0,0.0886551,-12988.2,-47921.4,-0,49650.3,154970
step02_gravity_refstate-mantle.xmf,1426,4.59866e-06,5.78396e-06,0,-3.48439e-07,-1.71827e+09,-1.71811e+09,-1.71889e+09,-46568.8,0.0952381,0.00474451,0,0.0953562,-14048.6,-59183.5,-0,60828,46568.8
step02_gravity_refstate-mantle.xmf,1427,-6.28652e-07,7.13894e-06,0,-1.12975e-06,-1.46348e+09,-1.46244e+09,-1.46339e+09,-150992,0.0430967,0.0560548,0,0.0707069,-13798.6,-51281.3,-0,53105.3,150992
step02_gravity_refstate-mantle.xmf,1428,-3.03537e-06,5.42716e-06,0,3.43243e-06,-1.24549e+09,-1.24436e+09,-1.24508e+09,458744,-0.0151632,0.119833,-0,0.120789,-12134,-44527.2,-0,46150.9,458744
step02_gravity_refstate-mantle.xmf,1429,-3.08514e-06,6.80891e-06,0,1.70946e-06,-1.32465e+09,-1.32333e+09,-1.32424e+09,228469,0.00355249,0.0944777,0,0.0945445,-13000.5,-46975.8,-0,48741.6,228469
step02_gravity_refstate-mantle.xmf,1430,-3.08834e-06,6.31504e-06,0,2.1847e-06,-1.29378e+09,-1.29252e+09,-1.29336e+09,291985,-0.00319354,0.100594,-0,0.100645,-13013.3,-46020.8,-0,47825.3,291985
step02_gravity_refstate-mantle.xmf,1431,-1.35257e-06,7.172e-06,0,-6.75855e-07,-1.43132e+09,-1.43018e+09,-1.43114e+09,-90328.1,0.0337329,0.063042,0,0.0714997,-13821.4,-50283.2,-0,52148.2,90328.1
step02_gravity_refstate-mantle.xmf,1432,-2.37669e-06,6.98153e-06,0,4.14589e-07,-1.37054e+09,-1.36929e+09,-1.37022e+09,55409.9,0.0169055,0.0771328,0,0.0789637,-13743.9,-48398.6,-0,50312.2,55409.9
step02_gravity_refstate-mantle.xmf,1433,-1.92487e-06,7.11481e-06,0,-1.57672e-07,-1.40064e+09,-1.39943e+09,-1.40038e+09,-21072.9,0.0250842,0.0699266,0,0.0742896,-13813.1,-49331.5,-0,51228.9,21072.9
step02_gravity_refstate-mantle.xmf,1434,4.68056e-06,5.37868e-06,0,-7.0564e-09,-1.74472e+09,-1.74463e+09,-1.74535e+09,-943.088,0.0933462,-3.90071e-19,0,0.0933462,-14576.4,-60000,-0,61745.2,943.088
step02_gravity_refstate-mantle.xmf,1435,4.24633e-06,5.50247e-06,0,-9.39417e-07,-1.67016e+09,-1.66999e+09,-1.67073e+09,-125553,0.0896576,0.0126582,0,0.0905467,-14441.6,-57694.2,-0,59474.2,125553
step02_gravity_refstate-mantle.xmf,1436,3.80788e-06,5.59232e-06,0,-1.27678e-06,-1.63866e+09,-1.63842e+09,-1.63917e+09,-170641,0.0852554,0.0180393,0,0.087143,-14466.8,-56718.5,-0,58534.4,170641
step02_gravity_refstate-mantle.xmf,1437,3.2164e-06,5.72857e-06,0,-1.5486e-06,-1.60624e+09,-1.60591e+09,-1.60667e+09,-206970,0.0793358,0.0236257,0,0.0827789,-14509.4,-55713.5,-0,57571.8,206970
step02_gravity_refstate-mantle.xmf,1438,2.51439e-06,5.91881e-06,0,-1.71531e-06,-1.57422e+09,-1.57377e+09,-1.57456e+09,-229252,0.0724231,0.0293386,0,0.07814,-14534.5,-54720.2,-0,56617.6,229252
step02_gravity_refstate-mantle.xmf,1439,1.75237e-06,6.14121e-06,0,-1.7597e-06,-1.54317e+09,-1.54258e+09,-1.5434e+09,-235184,0.0649172,0.0351655,0,0.0738299,-14535,-53756.4,-0,55686.8,235184
step02_gravity_refstate-mantle.xmf,1440,9.62862e-07,6.33502e-06,0,-1.67794e-06,-1.51202e+09,-1.51131e+09,-1.51215e+09,-224257,0.0567237,0.0409843,0,0.0699807,-14580.7,-52789.6,-0,54766.2,224257
step02_gravity_refstate-mantle.xmf,1441,1.74763e-07,6.47012e-06,0,-1.4646e-06,-1.47924e+09,-1.4784e+09,-1.47927e+09,-195744,0.0477839,0.0470972,0,0.0670929,-14655.2,-51772.1,-0,53806.4,195744
step02_gravity_refstate-mantle.xmf,1442,-1.85305e-06,2.61112e-06,0,3.38347e-06,-1.0989e+09,-1.09831e+09,-1.09866e+09,452201,-0.0401524,0.150061,-0,0.15534,-11115.2,-40000,-0,41515.6,452201
step02_gravity_refstate-mantle.xmf,1443,-2.71653e-06,4.70474e-06,0,3.63293e-06,-1.2122e+09,-1.21121e+09,-1.21184e+09,485542,-0.0208524,0.125739,-0,0.127456,-12077.1,-43499.2,-0,45144.7,485542
step02_gravity_refstate-mantle.xmf,1444,-2.09609e-06,3.15677e-06,0,3.52153e-06,-1.12754e+09,-1.12683e+09,-1.12726e+09,470652,-0.034686,0.141238,-0,0.145435,-11640.7,-40884.2,-0,42509.1,470652
step02_gravity_refstate-mantle.xmf,1445,-2.46177e-06,4.10371e-06,0,3.64301e-06,-1.17972e+09,-1.17884e+09,-1.17939e+09,486889,-0.0260043,0.130756,-0,0.133317,-12027.3,-42496.1,-0,44165.4,486889
step02_gravity_refstate-mantle.xmf,1446,-2.97113e-06,5.73419e-06,0,2.59166e-06,-1.26146e+09,-1.2603e+09,-1.26106e+09,346376,-0.00960847,0.106631,-0,0.107063,-13011,-45021.8,-0,46864.2,346376
step02_gravity_refstate-mantle.xmf,1447,-2.63946e-06,6.71344e-06,0,9.40885e-07,-1.34029e+09,-1.33904e+09,-1.33994e+09,125749,0.00940204,0.0834816,0,0.0840094,-13752.2,-47461.6,-0,49413.9,125749
step02_gravity_refstate-mantle.xmf,1448,4.50049e-06,5.41337e-06,0,-6.12198e-07,-1.69684e+09,-1.69671e+09,-1.69744e+09,-81820.3,0.0918613,0.00803102,0,0.0922117,-14513.2,-58519.8,-0,60292.6,81820.3
step02_gravity_refstate-mantle.xmf,1449,4.63528e-06,4.99522e-06,0,-3.37669e-07,-1.71948e+09,-1.71943e+09,-1.7201e+09,-45129.5,0.0904915,0.00391224,0,0.090576,-15086.1,-59219,-0,61110.4,45129.5
step02_gravity_refstate-mantle.xmf,1450,-5.70442e-07,6.58171e-06,0,-1.12591e-06,-1.44651e+09,-1.44555e+09,-1.44643e+09,-150478,0.0388261,0.0535896,0,0.0661763,-14680.3,-50756.2,-0,52836.6,150478
step02_gravity_refstate-mantle.xmf,1451,-2.82975e-06,5.15337e-06,0,2.86877e-06,-1.22799e+09,-1.22692e+09,-1.22761e+09,383411,-0.0156992,0.11255,-0,0.113639,-12984.7,-43987.4,-0,45863.9,383411
step02_gravity_refstate-mantle.xmf,1452,-2.31603e-06,3.66906e-06,0,3.47953e-06,-1.15176e+09,-1.15096e+09,-1.15145e+09,465039,-0.0300301,0.133189,-0,0.136533,-12103.2,-41632.2,-0,43355.9,465039
step02_gravity_refstate-mantle.xmf,1453,-2.74566e-06,6.36478e-06,0,1.32675e-06,-1.31169e+09,-1.31047e+09,-1.31132e+09,177321,0.00311288,0.0882982,0,0.088353,-13851.7,-46576.6,-0,48592.7,177321
step02_gravity_refstate-mantle.xmf,1454,-2.78225e-06,5.90217e-06,0,1.76064e-06,-1.27853e+09,-1.27737e+09,-1.27816e+09,235310,-0.00374814,0.0942364,-0,0.0943109,-13885.9,-45550.8,-0,47620.4,235310
step02_gravity_refstate-mantle.xmf,1455,-1.2117e-06,6.60376e-06,0,-6.94535e-07,-1.41371e+09,-1.41266e+09,-1.41355e+09,-92824.7,0.0300152,0.060184,0,0.0672535,-14699.5,-49738.8,-0,51865.4,92824.7
step02_gravity_refstate-mantle.xmf,1456,-2.18755e-06,6.31682e-06,0,4.16078e-07,-1.34092e+09,-1.33978e+09,-1.34063e+09,55608.8,0.01183,0.0749244,0,0.0758526,-14691.9,-47483.1,-0,49704.1,55608.8
step02_gravity_refstate-mantle.xmf,1457,-1.75129e-06,6.53287e-06,0,-1.82619e-07,-1.37981e+09,-1.3787e+09,-1.37957e+09,-24407.1,0.0212467,0.0671401,0,0.0704217,-14695,-48687.8,-0,50857.1,24407.1
step02_gravity_refstate-mantle.xmf,1458,4.6771e-06,4.63936e-06,0,-1.06162e-08,-1.74478e+09,-1.74479e+09,-1.74541e+09,-1418.86,0.0882757,-4.19195e-19,0,0.0882757,-15660.2,-60000,-0,62010,1418.86
step02_gravity_refstate-mantle.xmf,1459,4.46396e-06,4.85021e-06,0,-7.12662e-07,-1.68921e+09,-1.68916e+09,-1.68981e+09,-95247.3,0.0877092,0.00834684,0,0.0881055,-15309.8,-58282.6,-0,60259.9,95247.3
step02_gravity_refstate-mantle.xmf,1460,4.12764e-06,4.9155e-06,0,-1.08476e-06,-1.6573e+09,-1.6572e+09,-1.65785e+09,-144978,0.0843579,0.01314,0,0.0853751,-15345.6,-57294.8,-0,59314.2,144978
step02_gravity_refstate-mantle.xmf,1461,3.63291e-06,5.04231e-06,0,-1.40946e-06,-1.62379e+09,-1.62361e+09,-1.62428e+09,-188374,0.0794788,0.0182533,0,0.0815479,-15381.9,-56256.7,-0,58321.7,188374
step02_gravity_refstate-mantle.xmf,1462,1.59402e-06,5.77272e-06,0,-1.78282e-06,-1.52836e+09,-1.5278e+09,-1.52857e+09,-238274,0.0600085,0.0345951,0,0.0692665,-15275.5,-53297,-0,55442.9,238274
step02_gravity_refstate-mantle.xmf,1463,3.00555e-06,5.23457e-06,0,-1.64589e-06,-1.59005e+09,-1.58976e+09,-1.59046e+09,-219974,0.0733927,0.0236028,0,0.0770946,-15398.4,-55210.8,-0,57317.9,219974
step02_gravity_refstate-mantle.xmf,1464,2.29332e-06,5.46457e-06,0,-1.7684e-06,-1.55693e+09,-1.5565e+09,-1.55723e+09,-236347,0.0664348,0.0291087,0,0.0725321,-15401.2,-54183.3,-0,56329.6,236347
step02_gravity_refstate-mantle.xmf,1465,9.61472e-07,5.79618e-06,0,-1.68838e-06,-1.49748e+09,-1.49684e+09,-1.49761e+09,-225652,0.0520415,0.0388636,0,0.0649515,-15558.8,-52339.1,-0,54602.7,225652
step02_gravity_refstate-mantle.xmf,1466,1.48123e-07,5.9924e-06,0,-1.4301e-06,-1.46206e+09,-1.46128e+09,-1.46208e+09,-191133,0.0431121,0.0454243,0,0.0626261,-15544.3,-51239.9,-0,53545.8,191133
step02_gravity_refstate-mantle.xmf,1467,-2.34632e-06,3.15121e-06,0,2.9965e-06,-1.09897e+09,-1.09823e+09,-1.09865e+09,400482,-0.037804,0.137192,-0,0.142306,-12234.4,-40000,-0,41829.2,400482
step02_gravity_refstate-mantle.xmf,1468,-2.63043e-06,4.55163e-06,0,3.03367e-06,-1.19434e+09,-1.19338e+09,-1.19399e+09,405450,-0.0213765,0.11805,-0,0.11997,-12943.5,-42947.9,-0,44855.9,405450
step02_gravity_refstate-mantle.xmf,1469,-2.42416e-06,3.59298e-06,0,3.01806e-06,-1.12886e+09,-1.12806e+09,-1.12854e+09,403363,-0.0320853,0.128917,-0,0.13285,-12703.2,-40924,-0,42850.3,403363
step02_gravity_refstate-mantle.xmf,1470,-2.51336e-06,4.06771e-06,0,3.03091e-06,-1.16127e+09,-1.16039e+09,-1.16093e+09,405081,-0.0265991,0.122653,-0,0.125504,-12924.8,-41925.7,-0,43872.7,405081
step02_gravity_refstate-mantle.xmf,1471,-2.73319e-06,5.39395e-06,0,2.12664e-06,-1.24447e+09,-1.24338e+09,-1.2441e+09,284225,-0.0102452,0.100158,-0,0.10068,-13888.1,-44497.7,-0,46614.6,284225
step02_gravity_refstate-mantle.xmf,1472,4.5865e-06,4.29468e-06,0,-4.12698e-07,-1.71331e+09,-1.71335e+09,-1.71393e+09,-55157.1,0.0850039,0.00420689,0,0.0851079,-16223.2,-59026.4,-0,61215.3,55157.1
step02_gravity_refstate-mantle.xmf,1473,-4.87167e-07,6.06029e-06,0,-1.11347e-06,-1.42942e+09,-1.42855e+09,-1.42936e+09,-148816,0.0348472,0.0512441,0,0.0619701,-15596.6,-50227.6,-0,52593.4,148816
step02_gravity_refstate-mantle.xmf,1474,-2.6781e-06,4.90526e-06,0,2.36984e-06,-1.21027e+09,-1.20926e+09,-1.20991e+09,316729,-0.0162934,0.105824,-0,0.10707,-13865.5,-43440.4,-0,45599.6,316729
step02_gravity_refstate-mantle.xmf,1475,-2.43128e-06,5.93151e-06,0,9.81428e-07,-1.29928e+09,-1.29816e+09,-1.29896e+09,131168,0.00275607,0.0823982,0,0.0824443,-14741.9,-46194.2,-0,48489.5,131168
step02_gravity_refstate-mantle.xmf,1476,-2.52736e-06,5.51004e-06,0,1.40044e-06,-1.26186e+09,-1.26078e+09,-1.26152e+09,187169,-0.00461399,0.0886232,-0,0.0887433,-14786.4,-45036.6,-0,47401.8,187169
step02_gravity_refstate-mantle.xmf,1477,-1.09701e-06,6.08917e-06,0,-6.89625e-07,-1.39455e+09,-1.39359e+09,-1.3944e+09,-92168.3,0.0261865,0.0578719,0,0.0635208,-15590.4,-49146.4,-0,51559.9,92168.3
step02_gravity_refstate-mantle.xmf,1478,-1.59203e-06,6.0019e-06,0,-2.08332e-07,-1.35809e+09,-1.35707e+09,-1.35787e+09,-27843.5,0.0175418,0.0646315,0,0.0669697,-15603.6,-48016.5,-0,50488.2,27843.5
step02_gravity_refstate-mantle.xmf,1479,4.6122e-06,4.03764e-06,0,-6.87022e-09,-1.74485e+09,-1.74492e+09,-1.74546e+09,-918.205,0.083002,-2.92246e-19,0,0.083002,-16795.3,-60000,-0,62306.4,918.205
step02_gravity_refstate-mantle.xmf,1480,4.33469e-06,4.35569e-06,0,-8.49335e-07,-1.67654e+09,-1.67654e+09,-1.67712e+09,-113514,0.0826649,0.00914724,0,0.0831695,-16216.7,-57889,-0,60117.6,113514
step02_gravity_refstate-mantle.xmf,1481,3.95194e-06,4.43485e-06,0,-1.20447e-06,-1.64281e+09,-1.64275e+09,-1.64334e+09,-160978,0.0787729,0.0136568,0,0.079948,-16284.6,-56844.8,-0,59131.4,160978
step02_gravity_refstate-mantle.xmf,1482,3.42951e-06,4.59165e-06,0,-1.49548e-06,-1.60825e+09,-1.6081e+09,-1.60871e+09,-199871,0.0736589,0.0184352,0,0.0759309,-16321.4,-55774.2,-0,58113.2,199871
step02_gravity_refstate-mantle.xmf,1483,1.9178e-06,5.14893e-06,0,-1.77199e-06,-1.53204e+09,-1.53161e+09,-1.5323e+09,-236827,0.0591655,0.0302019,0,0.0664283,-16240.4,-53411.3,-0,55825.8,236827
step02_gravity_refstate-mantle.xmf,1484,2.77047e-06,4.81588e-06,0,-1.69554e-06,-1.57223e+09,-1.57195e+09,-1.5726e+09,-226609,0.0672511,0.0236854,0,0.0713001,-16330.4,-54657.5,-0,57044.9,226609
step02_gravity_refstate-mantle.xmf,1485,7.13177e-07,5.49224e-06,0,-1.59288e-06,-1.4753e+09,-1.47466e+09,-1.47539e+09,-212889,0.0460447,0.0393788,0,0.0605872,-16296.1,-51651.2,-0,54161,212889
step02_gravity_refstate-mantle.xmf,1486,2.97917e-07,5.43872e-06,0,-1.42988e-06,-1.44923e+09,-1.44855e+09,-1.44927e+09,-191103,0.0397567,0.042382,0,0.0581105,-16607.6,-50843.3,-0,53486.9,191103
step02_gravity_refstate-mantle.xmf,1487,-2.66649e-06,3.55173e-06,0,2.59537e-06,-1.099e+09,-1.09817e+09,-1.09865e+09,346872,-0.0349057,0.124984,-0,0.129767,-13389.8,-40000,-0,42181.6,346872
step02_gravity_refstate-mantle.xmf,1488,-2.59601e-06,4.41473e-06,0,2.50471e-06,-1.176e+09,-1.17506e+09,-1.17565e+09,334755,-0.0219081,0.110856,-0,0.113,-13855.3,-42381,-0,44588.3,334755
step02_gravity_refstate-mantle.xmf,1489,-2.61538e-06,4.00318e-06,0,2.49381e-06,-1.1368e+09,-1.13591e+09,-1.13645e+09,333298,-0.0278332,0.115404,-0,0.118713,-13908.7,-41168.9,-0,43454.9,333298
step02_gravity_refstate-mantle.xmf,1490,-2.55605e-06,5.0928e-06,0,1.74006e-06,-1.22729e+09,-1.22627e+09,-1.22695e+09,232559,-0.0110208,0.0945814,-0,0.0952213,-14754.1,-43967.5,-0,46376.9,232559
step02_gravity_refstate-mantle.xmf,1491,-1.96643e-06,5.80479e-06,0,2.95903e-07,-1.31988e+09,-1.31885e+09,-1.31962e+09,39547.5,0.00904559,0.071596,0,0.0721651,-15608.2,-46833.5,-0,49365.9,39547.5
step02_gravity_refstate-mantle.xmf,1492,4.51986e-06,3.74575e-06,0,-3.17236e-07,-1.71964e+09,-1.71974e+09,-1.72024e+09,-42398.6,0.0797775,0.00293502,0,0.0798315,-17418.9,-59219.9,-0,61728.6,42398.6
step02_gravity_refstate-mantle.xmf,1493,-4.14082e-07,5.58425e-06,0,-1.08809e-06,-1.4113e+09,-1.4105e+09,-1.41124e+09,-145424,0.0309069,0.0491788,0,0.0580844,-16549.3,-49667.1,-0,52351.7,145424
step02_gravity_refstate-mantle.xmf,1494,1.29874e-06,5.22583e-06,0,-1.71185e-06,-1.49995e+09,-1.49942e+09,-1.50012e+09,-228789,0.051561,0.0343879,0,0.0619764,-16507.8,-52415.9,-0,54953.9,228789
step02_gravity_refstate-mantle.xmf,1495,-2.57684e-06,4.68655e-06,0,1.94704e-06,-1.19214e+09,-1.19117e+09,-1.1918e+09,260222,-0.0169421,0.0997943,-0,0.101222,-14764.4,-42880.6,-0,45351.2,260222
step02_gravity_refstate-mantle.xmf,1496,-2.19981e-06,5.50632e-06,0,7.48985e-07,-1.28145e+09,-1.28042e+09,-1.28116e+09,100102,0.00120868,0.0781108,0,0.0781202,-15636.6,-45643.9,-0,48248.1,100102
step02_gravity_refstate-mantle.xmf,1497,-2.33462e-06,5.16836e-06,0,1.10601e-06,-1.24482e+09,-1.24382e+09,-1.24451e+09,147818,-0.00561751,0.0838419,-0,0.0840299,-15676.3,-44510.6,-0,47190.5,147818
step02_gravity_refstate-mantle.xmf,1498,-9.79075e-07,5.60644e-06,0,-6.89198e-07,-1.37461e+09,-1.37373e+09,-1.37448e+09,-92111.3,0.0225182,0.0556145,0,0.0600003,-16539.7,-48530.2,-0,51271.2,92111.3
step02_gravity_refstate-mantle.xmf,1499,-1.44048e-06,5.5349e-06,0,-2.51085e-07,-1.33726e+09,-1.33633e+09,-1.33707e+09,-33557.6,0.0143305,0.0621707,0,0.0638009,-16524.5,-47373.1,-0,50172.4,33557.6
step02_gravity_refstate-mantle.xmf,1500,4.41077e-06,3.9507e-06,0,-6.55729e-07,-1.69178e+09,-1.69184e+09,-1.69237e+09,-87638.1,0.0803346,0.00646242,0,0.0805941,-17009.7,-58359.1,-0,60787.4,87638.1
step02_gravity_refstate-mantle.xmf,1501,4.51001e-06,3.54481e-06,0,-9.7432e-09,-1.74491e+09,-1.74504e+09,-1.74551e+09,-1302.18,0.077577,-3.14761e-19,0,0.077577,-17984.9,-60000,-0,62637.5,1302.18
step02_gravity_refstate-mantle.xmf,1502,4.15967e-06,3.94477e-06,0,-9.6809e-07,-1.66193e+09,-1.66196e+09,-1.66249e+09,-129385,0.0773421,0.00997772,0,0.077983,-17155.8,-57435.5,-0,59942.9,129385
step02_gravity_refstate-mantle.xmf,1503,3.76144e-06,4.02914e-06,0,-1.28121e-06,-1.62841e+09,-1.62838e+09,-1.62891e+09,-171233,0.0731681,0.0139843,0,0.0744925,-17264.2,-56397.6,-0,58980.9,171233
step02_gravity_refstate-mantle.xmf,1504,3.21824e-06,4.20599e-06,0,-1.53931e-06,-1.59219e+09,-1.59206e+09,-1.59262e+09,-205729,0.0678086,0.018541,0,0.0702978,-17309.3,-55275.6,-0,57922.4,205729
step02_gravity_refstate-mantle.xmf,1505,1.07845e-06,5.02797e-06,0,-1.65156e-06,-1.481e+09,-1.48047e+09,-1.48114e+09,-220731,0.0466266,0.035107,0,0.0583656,-17105.7,-51828.6,-0,54578.4,220731
step02_gravity_refstate-mantle.xmf,1506,1.7996e-06,4.71478e-06,0,-1.73325e-06,-1.51528e+09,-1.51489e+09,-1.51552e+09,-231649,0.0536383,0.0292224,0,0.061082,-17304.3,-52891.5,-0,55650.3,231649
step02_gravity_refstate-mantle.xmf,1507,2.54255e-06,4.45165e-06,0,-1.70008e-06,-1.55393e+09,-1.55367e+09,-1.55427e+09,-227216,0.0611951,0.0236899,0,0.0656205,-17311.6,-54089.7,-0,56792.5,227216
step02_gravity_refstate-mantle.xmf,1508,2.37623e-07,5.05811e-06,0,-1.35391e-06,-1.42847e+09,-1.42782e+09,-1.4285e+09,-180950,0.0348501,0.0415641,0,0.0542412,-17548.1,-50200.4,-0,53179.1,180950
step02_gravity_refstate-mantle.xmf,1509,-2.83463e-06,3.83656e-06,0,2.18858e-06,-1.09902e+09,-1.09812e+09,-1.09864e+09,292503,-0.0316178,0.113556,-0,0.117875,-14585.2,-40000,-0,42576.1,292503
step02_gravity_refstate-mantle.xmf,1510,-2.60242e-06,4.33337e-06,0,2.08028e-06,-1.16126e+09,-1.16034e+09,-1.16092e+09,278030,-0.0219507,0.104463,-0,0.106744,-14724.7,-41925.7,-0,44436.2,278030
step02_gravity_refstate-mantle.xmf,1511,-2.43443e-06,4.84167e-06,0,1.43002e-06,-1.21086e+09,-1.20989e+09,-1.21054e+09,191122,-0.0117764,0.0898816,-0,0.0906498,-15581.1,-43460.1,-0,46168.8,191122
step02_gravity_refstate-mantle.xmf,1512,-1.77711e-06,5.35861e-06,0,1.7322e-07,-1.2994e+09,-1.29845e+09,-1.29916e+09,23150.8,0.00658565,0.0684046,0,0.0687209,-16549.4,-46200.9,-0,49075.5,23150.8
step02_gravity_refstate-mantle.xmf,1513,4.30855e-06,3.5739e-06,0,-6.86286e-07,-1.68621e+09,-1.68631e+09,-1.68679e+09,-91722.2,0.0759067,0.00645716,0,0.0761809,-17943.3,-58185.5,-0,60889.4,91722.2
step02_gravity_refstate-mantle.xmf,1514,4.39237e-06,3.31177e-06,0,-3.58239e-07,-1.71413e+09,-1.71427e+09,-1.71471e+09,-47878.7,0.0743097,0.00316833,0,0.0743772,-18607.7,-59047.7,-0,61910.2,47878.7
step02_gravity_refstate-mantle.xmf,1515,-3.56507e-07,5.15872e-06,0,-1.05231e-06,-1.39202e+09,-1.39128e+09,-1.39197e+09,-140642,0.0269967,0.0474645,0,0.054605,-17523.7,-49070.8,-0,52105.9,140642
step02_gravity_refstate-mantle.xmf,1516,7.82758e-07,4.90725e-06,0,-1.54575e-06,-1.45801e+09,-1.45746e+09,-1.45811e+09,-206589,0.0411636,0.0366508,0,0.0551155,-17633.1,-51116.2,-0,54072.1,206589
step02_gravity_refstate-mantle.xmf,1517,-2.6904e-06,4.13926e-06,0,1.94233e-06,-1.13195e+09,-1.13104e+09,-1.13159e+09,259593,-0.0250616,0.103844,-0,0.106825,-15225.1,-41019.1,-0,43753.5,259593
step02_gravity_refstate-mantle.xmf,1518,-2.52517e-06,4.46335e-06,0,1.58368e-06,-1.17164e+09,-1.1707e+09,-1.1713e+09,211659,-0.0177579,0.0943132,-0,0.0959705,-15728.4,-42246.9,-0,45079.8,211659
step02_gravity_refstate-mantle.xmf,1519,-2.014e-06,5.11904e-06,0,5.49194e-07,-1.26216e+09,-1.26121e+09,-1.26189e+09,73399.8,-0.000470587,0.0742277,-0,0.0742292,-16581.4,-45048.3,-0,48003.1,73399.8
step02_gravity_refstate-mantle.xmf,1520,-2.18982e-06,4.87735e-06,0,8.64351e-07,-1.22836e+09,-1.22741e+09,-1.22807e+09,115521,-0.00653579,0.0796657,-0,0.0799333,-16552.8,-44002.3,-0,47012.8,115521
step02_gravity_refstate-mantle.xmf,1521,-8.79784e-07,5.17779e-06,0,-6.87239e-07,-1.35417e+09,-1.35336e+09,-1.35405e+09,-91849.4,0.0190274,0.0536148,0,0.056891,-17509.7,-47898.3,-0,50998.4,91849.4
step02_gravity_refstate-mantle.xmf,1522,-1.30278e-06,5.10938e-06,0,-3.0316e-07,-1.31608e+09,-1.31523e+09,-1.31591e+09,-40517.4,0.0113687,0.0596802,0,0.0607533,-17512.8,-46718.7,-0,49893.3,40517.4
step02_gravity_refstate-mantle.xmf,1523,4.40601e-06,3.14247e-06,0,-1.64442e-09,-1.74497e+09,-1.74513e+09,-1.74555e+09,-219.777,0.072034,1.83224e-19,0,0.072034,-19232,-60000,-0,63006.9,219.777
step02_gravity_refstate-mantle.xmf,1524,4.00631e-06,3.55931e-06,0,-1.01491e-06,-1.65131e+09,-1.65137e+09,-1.65184e+09,-135643,0.0720678,0.0100972,0,0.0727717,-18200.4,-57105.3,-0,59935.5,135643
step02_gravity_refstate-mantle.xmf,1525,3.56726e-06,3.67417e-06,0,-1.32081e-06,-1.614e+09,-1.61399e+09,-1.61448e+09,-176526,0.0674952,0.0141507,0,0.0689627,-18313.9,-55950.4,-0,58871.4,176526
step02_gravity_refstate-mantle.xmf,1526,3.00114e-06,3.87698e-06,0,-1.55045e-06,-1.57507e+09,-1.57495e+09,-1.57547e+09,-207218,0.0619107,0.0186702,0,0.0646647,-18345.6,-54744.4,-0,57736.6,207218
step02_gravity_refstate-mantle.xmf,1527,1.50013e-06,4.43954e-06,0,-1.6591e-06,-1.48878e+09,-1.48838e+09,-1.48898e+09,-221739,0.046733,0.0300116,0,0.0555398,-18274.7,-52070.2,-0,55184,221739
step02_gravity_refstate-mantle.xmf,1528,2.318e-06,4.12619e-06,0,-1.67226e-06,-1.53391e+09,-1.53367e+09,-1.53422e+09,-223497,0.0550255,0.0237668,0,0.0599389,-18359.1,-53469.1,-0,56533.2,223497
step02_gravity_refstate-mantle.xmf,1529,8.62619e-07,4.55081e-06,0,-1.51856e-06,-1.44894e+09,-1.44845e+09,-1.44906e+09,-202956,0.0385724,0.0348134,0,0.0519597,-18516.1,-50835.8,-0,54102.9,202956
step02_gravity_refstate-mantle.xmf,1530,2.49242e-07,4.68692e-06,0,-1.30003e-06,-1.4104e+09,-1.4098e+09,-1.41043e+09,-173749,0.0308565,0.0402308,0,0.0507015,-18549.3,-49641.4,-0,52993.8,173749
step02_gravity_refstate-mantle.xmf,1531,-2.86766e-06,3.99927e-06,0,1.80634e-06,-1.09901e+09,-1.09809e+09,-1.09863e+09,241417,-0.0280812,0.102987,-0,0.106747,-15824.5,-40000,-0,43016.5,241417
step02_gravity_refstate-mantle.xmf,1532,-2.33464e-06,4.64005e-06,0,1.13424e-06,-1.19688e+09,-1.19594e+09,-1.19656e+09,151591,-0.0119614,0.0849435,-0,0.0857815,-16466.8,-43028.3,-0,46071.5,151591
step02_gravity_refstate-mantle.xmf,1533,-1.63005e-06,4.96593e-06,0,6.51223e-08,-1.27806e+09,-1.27718e+09,-1.27785e+09,8703.59,0.00419929,0.0654832,0,0.0656177,-17536,-45541.8,-0,48801.2,8703.59
step02_gravity_refstate-mantle.xmf,1534,4.23265e-06,2.81627e-06,0,-7.97922e-09,-1.74503e+09,-1.74522e+09,-1.7456e+09,-1066.42,0.0664013,-2.81521e-19,0,0.0664013,-20539.9,-60000,-0,63418.4,1066.42
step02_gravity_refstate-mantle.xmf,1535,4.2821e-06,2.94181e-06,0,-3.59753e-07,-1.71061e+09,-1.71079e+09,-1.71118e+09,-48081,0.0686665,0.0031464,0,0.0687385,-19888,-58937.5,-0,62202.5,48081
step02_gravity_refstate-mantle.xmf,1536,4.16111e-06,3.19491e-06,0,-7.16372e-07,-1.67838e+09,-1.67851e+09,-1.67893e+09,-95743.1,0.0704418,0.00653299,0,0.0707441,-19115.8,-57941.6,-0,61013.5,95743.1
step02_gravity_refstate-mantle.xmf,1537,-3.13807e-07,4.77325e-06,0,-1.01192e-06,-1.37148e+09,-1.3708e+09,-1.37144e+09,-135243,0.0231386,0.0459666,0,0.0514618,-18546.2,-48435.7,-0,51865,135243
step02_gravity_refstate-mantle.xmf,1538,-2.62357e-06,4.22521e-06,0,1.48425e-06,-1.13441e+09,-1.1335e+09,-1.13406e+09,198370,-0.0214626,0.0936542,-0,0.096082,-16445,-41095.9,-0,44264.1,198370
step02_gravity_refstate-mantle.xmf,1539,-1.89506e-06,4.77912e-06,0,4.0881e-07,-1.24019e+09,-1.23929e+09,-1.23993e+09,54637.4,-0.00249882,0.0712117,-0,0.0712556,-17534.5,-44369.4,-0,47708.6,54637.4
step02_gravity_refstate-mantle.xmf,1540,-2.13025e-06,4.58493e-06,0,7.33818e-07,-1.2037e+09,-1.2028e+09,-1.20342e+09,98074.7,-0.00871564,0.0771933,-0,0.0776838,-17428.4,-43240.3,-0,46620.6,98074.7
step02_gravity_refstate-mantle.xmf,1541,-2.37754e-06,4.40759e-06,0,1.09935e-06,-1.16931e+09,-1.16841e+09,-1.169e+09,146928,-0.014929,0.0847543,-0,0.086059,-17024.3,-42176,-0,45482.3,146928
step02_gravity_refstate-mantle.xmf,1542,-7.92565e-07,4.79208e-06,0,-6.88097e-07,-1.33329e+09,-1.33254e+09,-1.33318e+09,-91964.1,0.0157609,0.0516894,0,0.0540389,-18535.6,-47252.7,-0,50758.1,91964.1
step02_gravity_refstate-mantle.xmf,1543,-1.18998e-06,4.73965e-06,0,-3.52975e-07,-1.29496e+09,-1.29417e+09,-1.2948e+09,-47175.1,0.0086972,0.0573095,0,0.0579657,-18545.3,-46066,-0,49658.9,47175.1
step02_gravity_refstate-mantle.xmf,1544,4.1075e-06,2.65372e-06,0,-3.259e-07,-1.71057e+09,-1.71077e+09,-1.71112e+09,-43556.5,0.0631504,0.00284404,0,0.0632144,-21206.6,-58934.4,-0,62633.7,43556.5
step02_gravity_refstate-mantle.xmf,1545,3.82717e-06,3.22012e-06,0,-1.04942e-06,-1.63879e+09,-1.63887e+09,-1.6393e+09,-140254,0.0663856,0.0102898,0,0.0671783,-19349.7,-56716.6,-0,59926.5,140254
step02_gravity_refstate-mantle.xmf,1546,3.35209e-06,3.38149e-06,0,-1.34142e-06,-1.59764e+09,-1.59764e+09,-1.59809e+09,-179281,0.0616511,0.0144431,0,0.0633204,-19412.2,-55442.7,-0,58742.9,179281
step02_gravity_refstate-mantle.xmf,1547,2.76899e-06,3.59759e-06,0,-1.53644e-06,-1.55577e+09,-1.55566e+09,-1.55614e+09,-205346,0.0558265,0.0189402,0,0.0589519,-19442.2,-54146.1,-0,57530.9,205346
step02_gravity_refstate-mantle.xmf,1548,2.11519e-06,3.83502e-06,0,-1.61659e-06,-1.51354e+09,-1.51331e+09,-1.51383e+09,-216057,0.0490624,0.0237733,0,0.0545187,-19467.7,-52837.8,-0,56310.1,216057
step02_gravity_refstate-mantle.xmf,1549,1.45652e-06,4.04811e-06,0,-1.58143e-06,-1.47195e+09,-1.4716e+09,-1.47214e+09,-211358,0.0417488,0.0287458,0,0.0506881,-19521.2,-51549.1,-0,55121.6,211358
step02_gravity_refstate-mantle.xmf,1550,2.20429e-07,4.35568e-06,0,-1.22554e-06,-1.38871e+09,-1.38815e+09,-1.38874e+09,-163793,0.0264616,0.0393767,0,0.047442,-19614.4,-48970.3,-0,52752.4,163793
step02_gravity_refstate-mantle.xmf,1551,8.14028e-07,4.22108e-06,0,-1.44219e-06,-1.42989e+09,-1.42944e+09,-1.43e+09,-192748,0.0340355,0.0339475,0,0.0480713,-19595.1,-50246.1,-0,53931.8,192748
step02_gravity_refstate-mantle.xmf,1552,4.07728e-06,2.55229e-06,0,-6.85706e-09,-1.74509e+09,-1.74529e+09,-1.74563e+09,-916.446,0.0607,-2.53636e-19,0,0.0607,-21911.9,-60000,-0,63875.9,916.446
step02_gravity_refstate-mantle.xmf,1553,-2.79111e-06,4.06689e-06,0,1.44841e-06,-1.09899e+09,-1.09807e+09,-1.09861e+09,193580,-0.0244363,0.0933252,-0,0.0964713,-17111.7,-40000,-0,43506.4,193580
step02_gravity_refstate-mantle.xmf,1554,-1.52401e-06,4.62938e-06,0,-2.09357e-08,-1.25601e+09,-1.25519e+09,-1.25581e+09,-2798.06,0.00194601,0.0628779,0,0.062908,-18561.9,-44860.4,-0,48548.9,2798.06
step02_gravity_refstate-mantle.xmf,1555,3.98991e-06,2.83917e-06,0,-7.25985e-07,-1.66926e+09,-1.66942e+09,-1.6698e+09,-97027.9,0.0641831,0.00659784,0,0.0645214,-20512.3,-57658,-0,61198,97027.9
step02_gravity_refstate-mantle.xmf,1556,-2.98832e-07,4.44885e-06,0,-9.63323e-07,-1.35007e+09,-1.34944e+09,-1.35003e+09,-128748,0.0194279,0.044853,0,0.0488798,-19562.6,-47773.6,-0,51623.7,128748
step02_gravity_refstate-mantle.xmf,1557,3.96019e-06,2.41895e-06,0,-2.86638e-07,-1.71095e+09,-1.71116e+09,-1.71148e+09,-38309.1,0.0576101,0.00256788,0,0.0576673,-22581.7,-58944.6,-0,63122.1,38309.1
step02_gravity_refstate-mantle.xmf,1558,-2.47434e-06,4.2141e-06,0,1.07831e-06,-1.13539e+09,-1.1345e+09,-1.13506e+09,144116,-0.0179996,0.0843572,-0,0.0862561,-17748.8,-41127,-0,44793.4,144116
step02_gravity_refstate-mantle.xmf,1559,-1.83809e-06,4.48611e-06,0,3.22907e-07,-1.21491e+09,-1.21407e+09,-1.21467e+09,43156.5,-0.00479939,0.068973,-0,0.0691398,-18509.5,-43588.4,-0,47355.6,43156.5
step02_gravity_refstate-mantle.xmf,1560,-2.14401e-06,4.32804e-06,0,6.74229e-07,-1.17368e+09,-1.17281e+09,-1.17339e+09,90110.7,-0.0113671,0.0757593,-0,0.0766073,-18312.6,-42312.1,-0,46105,90110.7
step02_gravity_refstate-mantle.xmf,1561,-7.19433e-07,4.46647e-06,0,-6.9043e-07,-1.31329e+09,-1.31259e+09,-1.31319e+09,-92276,0.0129258,0.0498803,0,0.0515278,-19577.6,-46634.6,-0,50577.3,92276
step02_gravity_refstate-mantle.xmf,1562,-1.089e-06,4.41899e-06,0,-4.01012e-07,-1.27479e+09,-1.27406e+09,-1.27465e+09,-53595.3,0.00648024,0.054919,0,0.0553,-19637.7,-45442.9,-0,49504.5,53595.3
step02_gravity_refstate-mantle.xmf,1563,3.92978e-06,2.57273e-06,0,-5.73505e-07,-1.67966e+09,-1.67984e+09,-1.68019e+09,-76648.9,0.0597664,0.00518171,0,0.0599906,-21767.1,-57978.1,-0,61929.5,76648.9
step02_gravity_refstate-mantle.xmf,1564,3.60127e-06,2.96524e-06,0,-1.091e-06,-1.622e+09,-1.62208e+09,-1.62248e+09,-145811,0.0604173,0.0108364,0,0.0613814,-20529.7,-56195.6,-0,59828.2,145811
step02_gravity_refstate-mantle.xmf,1565,3.11513e-06,3.14567e-06,0,-1.34544e-06,-1.57862e+09,-1.57861e+09,-1.57903e+09,-179818,0.0556324,0.0149283,0,0.0576005,-20553.1,-54852.9,-0,58577,179818
step02_gravity_refstate-mantle.xmf,1566,2.55356e-06,3.35396e-06,0,-1.4964e-06,-1.53598e+09,-1.53587e+09,-1.53632e+09,-199994,0.0498976,0.0191828,0,0.0534579,-20591.1,-53532.5,-0,57356.1,199994
step02_gravity_refstate-mantle.xmf,1567,1.95544e-06,3.56625e-06,0,-1.54361e-06,-1.49385e+09,-1.49363e+09,-1.49411e+09,-206304,0.0435048,0.0236368,0,0.0495113,-20636.2,-52227.6,-0,56156.7,206304
step02_gravity_refstate-mantle.xmf,1568,1.3381e-06,3.76767e-06,0,-1.49245e-06,-1.45106e+09,-1.45074e+09,-1.45124e+09,-199466,0.0365496,0.0284203,0,0.0462989,-20681.1,-50902.4,-0,54943.3,199466
step02_gravity_refstate-mantle.xmf,1569,1.47167e-07,4.09062e-06,0,-1.13503e-06,-1.36438e+09,-1.36385e+09,-1.3644e+09,-151697,0.0220054,0.0391516,0,0.0449119,-20642.8,-48217.6,-0,52450.6,151697
step02_gravity_refstate-mantle.xmf,1570,7.25166e-07,3.9438e-06,0,-1.35006e-06,-1.40739e+09,-1.40696e+09,-1.40748e+09,-180436,0.0292336,0.0336027,0,0.0445392,-20702.8,-49549.6,-0,53700.7,180436
step02_gravity_refstate-mantle.xmf,1571,3.92036e-06,2.33801e-06,0,-1.04169e-08,-1.74514e+09,-1.74535e+09,-1.74566e+09,-1392.22,0.0549459,-3.23021e-19,0,0.0549459,-23351.3,-60000,-0,64383.9,1392.22
step02_gravity_refstate-mantle.xmf,1572,-2.62799e-06,4.05538e-06,0,1.12721e-06,-1.09895e+09,-1.09806e+09,-1.0986e+09,150652,-0.0208042,0.0845939,-0,0.0871145,-18450.5,-40000,-0,44050.2,150652
step02_gravity_refstate-mantle.xmf,1573,-1.45518e-06,4.347e-06,0,-7.82326e-08,-1.23308e+09,-1.23231e+09,-1.23289e+09,-10455.8,-0.000152109,0.0606479,-0,0.0606481,-19623.7,-44151.8,-0,48316.4,10455.8
step02_gravity_refstate-mantle.xmf,1574,3.72651e-06,2.65115e-06,0,-8.48924e-07,-1.64541e+09,-1.64555e+09,-1.64591e+09,-113459,0.0581827,0.00799643,0,0.0587296,-21661.2,-56918.9,-0,60901.3,113459
step02_gravity_refstate-mantle.xmf,1575,-3.17532e-07,4.21124e-06,0,-9.07739e-07,-1.32928e+09,-1.32867e+09,-1.32924e+09,-121319,0.0161062,0.0442951,0,0.0471324,-20458.7,-47130.6,-0,51379.5,121319
step02_gravity_refstate-mantle.xmf,1576,3.80513e-06,2.4089e-06,0,-5.83346e-07,-1.67239e+09,-1.67258e+09,-1.6729e+09,-77964.2,0.0555916,0.005404,0,0.0558536,-22759,-57752.2,-0,62074.9,77964.2
step02_gravity_refstate-mantle.xmf,1577,3.78855e-06,2.22829e-06,0,-3.55713e-07,-1.69793e+09,-1.69814e+09,-1.69844e+09,-47541,0.0519079,0.00327863,0,0.0520114,-23970.3,-58540.7,-0,63258.1,47541
step02_gravity_refstate-mantle.xmf,1578,-2.24714e-06,4.14423e-06,0,7.16775e-07,-1.13838e+09,-1.13752e+09,-1.13808e+09,95796.9,-0.0144061,0.0758131,-0,0.0771697,-19103.5,-41220.5,-0,45432.1,95796.9
step02_gravity_refstate-mantle.xmf,1579,-1.80255e-06,4.19438e-06,0,2.56135e-07,-1.18482e+09,-1.18402e+09,-1.18458e+09,34232.4,-0.00702067,0.0665923,-0,0.0669614,-19714.7,-42658.2,-0,46993.5,34232.4
step02_gravity_refstate-mantle.xmf,1580,-5.9705e-07,4.15926e-06,0,-7.21836e-07,-1.29742e+09,-1.29679e+09,-1.29734e+09,-96473.4,0.0110772,0.0473385,0,0.0486173,-20758.7,-46144.6,-0,50598.9,96473.4
step02_gravity_refstate-mantle.xmf,1581,-1.01757e-06,4.15029e-06,0,-4.22835e-07,-1.25456e+09,-1.25387e+09,-1.25442e+09,-56511.9,0.00448193,0.0529179,0,0.0531074,-20742.9,-44817.7,-0,49385.2,56511.9
step02_gravity_refstate-mantle.xmf,1582,2.88867e-06,2.94788e-06,0,-1.32513e-06,-1.55892e+09,-1.55891e+09,-1.5593e+09,-177104,0.049752,0.0154145,0,0.0520852,-21731.2,-54242.3,-0,58433.5,177104
step02_gravity_refstate-mantle.xmf,1583,3.36057e-06,2.77483e-06,0,-1.122e-06,-1.60229e+09,-1.60236e+09,-1.60273e+09,-149955,0.0545067,0.0116016,0,0.0557277,-21689.4,-55584.7,-0,59666.5,149955
step02_gravity_refstate-mantle.xmf,1584,2.36072e-06,3.14224e-06,0,-1.4372e-06,-1.51611e+09,-1.516e+09,-1.51642e+09,-192082,0.0442477,0.0194033,0,0.048315,-21780.6,-52916.9,-0,57224,192082
step02_gravity_refstate-mantle.xmf,1585,1.80187e-06,3.34336e-06,0,-1.46129e-06,-1.47346e+09,-1.47325e+09,-1.4737e+09,-195302,0.0382374,0.0236539,0,0.0449622,-21811.4,-51596.3,-0,56017.1,195302
step02_gravity_refstate-mantle.xmf,1586,1.21077e-06,3.53608e-06,0,-1.39672e-06,-1.42867e+09,-1.42836e+09,-1.42883e+09,-186672,0.0315283,0.028373,0,0.0424153,-21848.5,-50209.3,-0,54757,186672
step02_gravity_refstate-mantle.xmf,1587,-4.58031e-08,3.89084e-06,0,-9.93383e-07,-1.32986e+09,-1.32934e+09,-1.32986e+09,-132766,0.0164205,0.0402929,0,0.0435104,-21664,-47149.7,-0,51888.5,132766
step02_gravity_refstate-mantle.xmf,1588,6.04516e-07,3.71397e-06,0,-1.24457e-06,-1.38161e+09,-1.38119e+09,-1.38169e+09,-166337,0.0243353,0.0337096,0,0.0415757,-21834.9,-48752,-0,53418.3,166337
step02_gravity_refstate-mantle.xmf,1589,3.76132e-06,2.17015e-06,0,-6.96975e-09,-1.74519e+09,-1.7454e+09,-1.74569e+09,-931.507,0.0491408,-2.72752e-19,0,0.0491408,-24862,-60000,-0,64947,931.507
step02_gravity_refstate-mantle.xmf,1590,-2.40204e-06,3.98221e-06,0,8.46385e-07,-1.09891e+09,-1.09806e+09,-1.09859e+09,113119,-0.0172929,0.0767916,-0,0.0787147,-19844.8,-40000,-0,44652.2,113119
step02_gravity_refstate-mantle.xmf,1591,-1.37232e-06,4.11838e-06,0,-1.33075e-07,-1.21535e+09,-1.21461e+09,-1.21516e+09,-17785.5,-0.00128115,0.058304,-0,0.058318,-20655.7,-43604,-0,48249,17785.5
step02_gravity_refstate-mantle.xmf,1592,3.51e-06,2.498e-06,0,-8.99069e-07,-1.62674e+09,-1.62687e+09,-1.6272e+09,-120161,0.052774,0.00885576,0,0.0535119,-22786.7,-56340.2,-0,60773.8,120161
step02_gravity_refstate-mantle.xmf,1593,3.61482e-06,2.30492e-06,0,-6.83316e-07,-1.65127e+09,-1.65145e+09,-1.65176e+09,-91325.2,0.0510175,0.00661751,0,0.0514448,-23709,-57098.5,-0,61825.1,91325.2
step02_gravity_refstate-mantle.xmf,1594,3.63602e-06,2.06252e-06,0,-2.78534e-07,-1.70214e+09,-1.70235e+09,-1.70263e+09,-37226.1,0.0457519,0.00276983,0,0.0458356,-25654.7,-58669.2,-0,64033.2,37226.1
step02_gravity_refstate-mantle.xmf,1595,-1.98586e-06,4.01498e-06,0,4.27007e-07,-1.1394e+09,-1.13859e+09,-1.13913e+09,57069.5,-0.0112609,0.0684365,-0,0.0693568,-20528.5,-41253.4,-0,46078.9,57069.5
step02_gravity_refstate-mantle.xmf,1596,-5.38439e-07,3.91201e-06,0,-7.0967e-07,-1.27947e+09,-1.27887e+09,-1.2794e+09,-94847.4,0.00900807,0.0457492,0,0.0466276,-21872.6,-45589.8,-0,50565.2,94847.4
step02_gravity_refstate-mantle.xmf,1597,-1.54496e-06,3.97276e-06,0,3.08478e-08,-1.179e+09,-1.17827e+09,-1.1788e+09,4122.81,-0.00517687,0.060313,-0,0.0605347,-21267.1,-42479.8,-0,47506,4122.81
step02_gravity_refstate-mantle.xmf,1598,-1.01526e-06,3.90897e-06,0,-3.80089e-07,-1.2269e+09,-1.22624e+09,-1.22676e+09,-50798.9,0.00181233,0.0519395,0,0.0519711,-21928.5,-43962.5,-0,49128,50798.9
step02_gravity_refstate-mantle.xmf,1599,2.67939e-06,2.77907e-06,0,-1.28306e-06,-1.53896e+09,-1.53895e+09,-1.53932e+09,-171481,0.0440667,0.0158776,0,0.0468399,-22957.5,-53624.1,-0,58331.8,171481
step02_gravity_refstate-mantle.xmf,1600,3.13171e-06,2.61165e-06,0,-1.12329e-06,-1.5823e+09,-1.58237e+09,-1.58272e+09,-150128,0.0486885,0.0122985,0,0.0502178,-22900.5,-54965.5,-0,59545.3,150128
step02_gravity_refstate-mantle.xmf,1601,2.17876e-06,2.96773e-06,0,-1.36602e-06,-1.49562e+09,-1.49552e+09,-1.49591e+09,-182569,0.0388807,0.0197167,0,0.0435942,-22984.1,-52282.5,-0,57111.5,182569
step02_gravity_refstate-mantle.xmf,1602,1.64702e-06,3.15599e-06,0,-1.3697e-06,-1.45159e+09,-1.45138e+09,-1.45181e+09,-183060,0.0331057,0.0238468,0,0.0408002,-23026.5,-50919.1,-0,55883.6,183060
step02_gravity_refstate-mantle.xmf,1603,1.087e-06,3.33938e-06,0,-1.29472e-06,-1.40545e+09,-1.40515e+09,-1.4056e+09,-173039,0.0267863,0.0284558,0,0.0390799,-23054,-49490.8,-0,54597,173039
step02_gravity_refstate-mantle.xmf,1604,5.14805e-07,3.50729e-06,0,-1.14314e-06,-1.35712e+09,-1.35673e+09,-1.35719e+09,-152781,0.0200817,0.0336384,0,0.0391767,-23033.9,-47994.5,-0,53235.6,152781
step02_gravity_refstate-mantle.xmf,1605,3.55539e-06,2.15645e-06,0,-5.76259e-07,-1.65835e+09,-1.65853e+09,-1.65882e+09,-77017,0.0471536,0.00576404,0,0.0475046,-24881.6,-57316.1,-0,62483.8,77017
step02_gravity_refstate-mantle.xmf,1606,3.61062e-06,2.03904e-06,0,-7.42502e-09,-1.74523e+09,-1.74544e+09,-1.74571e+09,-992.353,0.0432961,-2.69552e-19,0,0.0432961,-26447.5,-60000,-0,65570.4,992.353
step02_gravity_refstate-mantle.xmf,1607,-2.13292e-06,3.86243e-06,0,6.0835e-07,-1.09886e+09,-1.09806e+09,-1.09858e+09,81305.9,-0.0139936,0.0699009,-0,0.0712878,-21297.9,-40000,-0,45316.6,81305.9
step02_gravity_refstate-mantle.xmf,1608,3.33167e-06,2.32093e-06,0,-8.75734e-07,-1.6131e+09,-1.61324e+09,-1.61355e+09,-117042,0.0469756,0.00914467,0,0.0478574,-24199.3,-55917.4,-0,60929.2,117042
step02_gravity_refstate-mantle.xmf,1609,-2.39191e-08,3.62707e-06,0,-9.26447e-07,-1.3078e+09,-1.30731e+09,-1.3078e+09,-123820,0.0132926,0.0390716,0,0.0412709,-23046.8,-46467.7,-0,51869,123820
step02_gravity_refstate-mantle.xmf,1610,3.45147e-06,2.02743e-06,0,-5.01166e-07,-1.66024e+09,-1.66043e+09,-1.6607e+09,-66980.9,0.0424135,0.00532434,0,0.0427464,-26255.5,-57373.6,-0,63095.8,66980.9
step02_gravity_refstate-mantle.xmf,1611,3.49502e-06,1.94601e-06,0,-2.52735e-07,-1.70013e+09,-1.70034e+09,-1.7006e+09,-33778.1,0.0401149,0.00274347,0,0.0402086,-27224.3,-58606,-0,64620.6,33778.1
step02_gravity_refstate-mantle.xmf,1612,-1.70112e-06,3.8438e-06,0,2.03069e-07,-1.13931e+09,-1.13857e+09,-1.13908e+09,27140.1,-0.00848589,0.0620639,-0,0.0626414,-22035.9,-41252.2,-0,46768.8,27140.1
step02_gravity_refstate-mantle.xmf,1613,-4.90238e-07,3.6911e-06,0,-6.75794e-07,-1.26027e+09,-1.25971e+09,-1.2602e+09,-90319.9,0.00703514,0.0443403,0,0.0448949,-23094.8,-44996.4,-0,50577.1,90319.9
step02_gravity_refstate-mantle.xmf,1614,-1.24191e-06,3.77571e-06,0,-1.65864e-07,-1.18266e+09,-1.18199e+09,-1.18249e+09,-22167.7,-0.00275122,0.0545891,-0,0.0546584,-22691.3,-42594.3,-0,48261.5,22167.7
step02_gravity_refstate-mantle.xmf,1615,2.47953e-06,2.64325e-06,0,-1.22661e-06,-1.51818e+09,-1.51816e+09,-1.51851e+09,-163936,0.0386033,0.0164165,0,0.041949,-24208.5,-52980.4,-0,58249.2,163936
step02_gravity_refstate-mantle.xmf,1616,2.91978e-06,2.47552e-06,0,-1.09706e-06,-1.56284e+09,-1.5629e+09,-1.56323e+09,-146622,0.0430168,0.0128867,0,0.0449055,-24185.8,-54362.6,-0,59500,146622
step02_gravity_refstate-mantle.xmf,1617,2.02056e-06,2.81853e-06,0,-1.28452e-06,-1.47562e+09,-1.47552e+09,-1.47589e+09,-171676,0.0338907,0.0200098,0,0.039357,-24223.1,-51663.3,-0,57060.1,171676
step02_gravity_refstate-mantle.xmf,1618,1.50187e-06,3.00563e-06,0,-1.27202e-06,-1.42968e+09,-1.42948e+09,-1.42988e+09,-170006,0.0283922,0.0241354,0,0.0372644,-24245.2,-50241,-0,55785.2,170006
step02_gravity_refstate-mantle.xmf,1619,9.83262e-07,3.16586e-06,0,-1.1884e-06,-1.38273e+09,-1.38244e+09,-1.38286e+09,-158830,0.022502,0.0285331,0,0.0363384,-24311.1,-48787.6,-0,54509.3,158830
step02_gravity_refstate-mantle.xmf,1620,4.59009e-07,3.31825e-06,0,-1.04301e-06,-1.3344e+09,-1.33402e+09,-1.33446e+09,-139399,0.0164733,0.0334041,0,0.0372452,-24309,-47291.8,-0,53173.6,139399
step02_gravity_refstate-mantle.xmf,1621,3.33188e-06,2.14708e-06,0,-7.23165e-07,-1.62541e+09,-1.62557e+09,-1.62585e+09,-96650.9,0.0433913,0.00776829,0,0.0440812,-25500.7,-56297.1,-0,61803.3,96650.9
step02_gravity_refstate-mantle.xmf,1622,3.46805e-06,1.9383e-06,0,-8.02087e-09,-1.74527e+09,-1.74547e+09,-1.74573e+09,-1071.99,0.0374053,-2.78076e-19,0,0.0374053,-28111.9,-60000,-0,66259.2,1071.99
step02_gravity_refstate-mantle.xmf,1623,-1.83913e-06,3.71056e-06,0,4.11369e-07,-1.09881e+09,-1.09807e+09,-1.09856e+09,54979.4,-0.0109791,0.0638852,-0,0.0648217,-22813.7,-40000,-0,46048.5,54979.4
step02_gravity_refstate-mantle.xmf,1624,-8.31279e-07,3.70182e-06,0,-4.4694e-07,-1.2206e+09,-1.22e+09,-1.22049e+09,-59733.5,0.00219645,0.048606,0,0.0486556,-23192,-43768.9,-0,49533.7,59733.5
step02_gravity_refstate-mantle.xmf,1625,-3.73544e-08,3.43576e-06,0,-8.42527e-07,-1.28572e+09,-1.28526e+09,-1.28572e+09,-112604,0.0105152,0.0385135,0,0.0399232,-24306.8,-45785,-0,51837.1,112604
step02_gravity_refstate-mantle.xmf,1626,3.06228e-06,2.24468e-06,0,-9.13334e-07,-1.58515e+09,-1.58526e+09,-1.58556e+09,-122067,0.0410135,0.0105214,0,0.0423416,-25450.6,-55052,-0,60650.2,122067
step02_gravity_refstate-mantle.xmf,1627,3.19307e-06,2.05402e-06,0,-7.0142e-07,-1.61405e+09,-1.6142e+09,-1.61448e+09,-93744.7,0.0388601,0.00812726,0,0.0397009,-26701.3,-55945.1,-0,61990.4,93744.7
step02_gravity_refstate-mantle.xmf,1628,3.35377e-06,1.84959e-06,0,-2.29558e-07,-1.69639e+09,-1.69659e+09,-1.69683e+09,-30680.4,0.0340139,0.00283426,0,0.0341318,-28987.4,-58489,-0,65278.1,30680.4
step02_gravity_refstate-mantle.xmf,1629,3.29916e-06,1.91795e-06,0,-4.6882e-07,-1.65155e+09,-1.65174e+09,-1.65199e+09,-62657.8,0.0365895,0.00556229,0,0.0370099,-27888.9,-57103.9,-0,63550.3,62657.8
step02_gravity_refstate-mantle.xmf,1630,3.33597e-06,1.86577e-06,0,-6.37762e-09,-1.7453e+09,-1.7455e+09,-1.74575e+09,-852.369,0.0314597,-2.65715e-19,0,0.0314597,-29859.4,-60000,-0,67019.3,852.369
step02_gravity_refstate-mantle.xmf,1631,-1.39262e-06,3.6629e-06,0,1.76289e-08,-1.14249e+09,-1.14181e+09,-1.1423e+09,2356.1,-0.00581364,0.0564115,-0,0.0567102,-23552.6,-41352.1,-0,47589.1,2356.1
step02_gravity_refstate-mantle.xmf,1632,-4.90948e-07,3.51201e-06,0,-6.00437e-07,-1.23721e+09,-1.23668e+09,-1.23715e+09,-80248.5,0.0048644,0.043729,0,0.0439987,-24313,-44283.7,-0,50519,80248.5
step02_gravity_refstate-mantle.xmf,1633,-9.29168e-07,3.56889e-06,0,-3.15768e-07,-1.18819e+09,-1.18759e+09,-1.18807e+09,-42202.4,-0.000535814,0.0494721,-0,0.049475,-24174.3,-42766.7,-0,49126.2,42202.4
step02_gravity_refstate-mantle.xmf,1634,2.28402e-06,2.54593e-06,0,-1.16633e-06,-1.49606e+09,-1.49602e+09,-1.49636e+09,-155880,0.0335032,0.0171433,0,0.0376346,-25411.6,-52295.5,-0,58142.6,155880
step02_gravity_refstate-mantle.xmf,1635,2.69805e-06,2.37427e-06,0,-1.06144e-06,-1.53997e+09,-1.54001e+09,-1.54033e+09,-141862,0.0373532,0.0137325,0,0.0397975,-25489.1,-53654.3,-0,59401,141862
step02_gravity_refstate-mantle.xmf,1636,1.83088e-06,2.74648e-06,0,-1.21761e-06,-1.45293e+09,-1.45281e+09,-1.45318e+09,-162734,0.0294025,0.0208436,0,0.0360411,-25241.7,-50960.9,-0,56869.7,162734
step02_gravity_refstate-mantle.xmf,1637,1.40522e-06,2.8498e-06,0,-1.16328e-06,-1.40988e+09,-1.40969e+09,-1.41007e+09,-155473,0.0241271,0.0241637,0,0.0341468,-25607.2,-49628.5,-0,55845.5,155473
step02_gravity_refstate-mantle.xmf,1638,9.10836e-07,3.00437e-06,0,-1.07661e-06,-1.36142e+09,-1.36114e+09,-1.36155e+09,-143889,0.0187085,0.0284766,0,0.0340723,-25676.5,-48128.7,-0,54549.6,143889
step02_gravity_refstate-mantle.xmf,1639,3.97645e-07,3.15797e-06,0,-9.29716e-07,-1.31033e+09,-1.30996e+09,-1.31039e+09,-124256,0.0130891,0.0333768,0,0.0358515,-25669.5,-46547.5,-0,53156.3,124256
step02_gravity_refstate-mantle.xmf,1640,3.23631e-06,1.78875e-06,0,-1.83721e-07,-1.69689e+09,-1.69709e+09,-1.69733e+09,-24554.3,0.028244,0.00271262,0,0.0283739,-30739.9,-58503.8,-0,66088.1,24554.3
step02_gravity_refstate-mantle.xmf,1641,3.21985e-06,1.81322e-06,0,-6.3004e-09,-1.74533e+09,-1.74552e+09,-1.74576e+09,-842.049,0.0254452,-2.72613e-19,0,0.0254452,-31694.1,-60000,-0,67856.6,842.049
step02_gravity_refstate-mantle.xmf,1642,-1.53641e-06,3.54012e-06,0,2.53801e-07,-1.09876e+09,-1.09808e+09,-1.09855e+09,33920.5,-0.00830445,0.058697,-0,0.0592816,-24396.4,-40000,-0,46852.8,33920.5
step02_gravity_refstate-mantle.xmf,1643,-8.862e-08,3.27485e-06,0,-7.26119e-07,-1.25826e+09,-1.25782e+09,-1.25825e+09,-97045.8,0.00754011,0.038524,0,0.0392549,-25697.6,-44936.1,-0,51765.1,97045.8
step02_gravity_refstate-mantle.xmf,1644,2.86249e-06,2.15415e-06,0,-8.80016e-07,-1.56479e+09,-1.56489e+09,-1.56517e+09,-117614,0.0354349,0.0112756,0,0.0371857,-26856.3,-54421.6,-0,60687.5,117614
step02_gravity_refstate-mantle.xmf,1645,3.01806e-06,1.96766e-06,0,-6.67705e-07,-1.59717e+09,-1.59731e+09,-1.59757e+09,-89238.7,0.0331723,0.00875105,0,0.0343072,-28255.9,-55422.3,-0,62209.5,89238.7
step02_gravity_refstate-mantle.xmf,1646,3.14795e-06,1.82148e-06,0,-4.19685e-07,-1.64084e+09,-1.64101e+09,-1.64126e+09,-56090.9,0.0299697,0.00590985,0,0.0305469,-29838.7,-56771.7,-0,64135.5,56090.9
step02_gravity_refstate-mantle.xmf,1647,3.1329e-06,1.74242e-06,0,-1.54497e-07,-1.69433e+09,-1.69452e+09,-1.69475e+09,-20648.5,0.0225244,0.00278698,0,0.0226961,-32526.1,-58423.8,-0,66867.6,20648.5
step02_gravity_refstate-mantle.xmf,1648,-1.08164e-06,3.47134e-06,0,-1.22856e-07,-1.1462e+09,-1.14559e+09,-1.14606e+09,-16419.7,-0.00349456,0.0514805,-0,0.051599,-25153,-41468.4,-0,48500.5,16419.7
step02_gravity_refstate-mantle.xmf,1649,-5.46559e-07,3.33718e-06,0,-4.58518e-07,-1.20161e+09,-1.2011e+09,-1.20154e+09,-61280.9,0.00201947,0.0440309,0,0.0440772,-25849.5,-43183.3,-0,50328.9,61280.9
step02_gravity_refstate-mantle.xmf,1650,1.91168e-06,2.52808e-06,0,-1.09209e-06,-1.45344e+09,-1.45335e+09,-1.45369e+09,-145957,0.0266836,0.0194159,0,0.0329999,-26721.5,-50976.4,-0,57555.5,145957
step02_gravity_refstate-mantle.xmf,1651,2.45975e-06,2.30262e-06,0,-1.00955e-06,-1.51299e+09,-1.51302e+09,-1.51332e+09,-134926,0.0315605,0.014846,0,0.0348779,-26867.7,-52819.3,-0,59260,134926
step02_gravity_refstate-mantle.xmf,1652,3.26443e-07,3.03271e-06,0,-8.05219e-07,-1.28512e+09,-1.28476e+09,-1.28517e+09,-107618,0.0100369,0.0336796,0,0.0351434,-27034.4,-45767.9,-0,53156,107618
step02_gravity_refstate-mantle.xmf,1653,1.35559e-06,2.69591e-06,0,-1.04413e-06,-1.39373e+09,-1.39355e+09,-1.39391e+09,-139548,0.0204126,0.0239164,0,0.0314431,-27103,-49128.7,-0,56108.8,139548
step02_gravity_refstate-mantle.xmf,1654,8.21435e-07,2.88035e-06,0,-9.52892e-07,-1.33817e+09,-1.33789e+09,-1.33828e+09,-127354,0.0150916,0.0287557,0,0.0324753,-27076.3,-47409.4,-0,54596.5,127354
step02_gravity_refstate-mantle.xmf,1655,3.09465e-06,1.76354e-06,0,-3.01105e-07,-1.65408e+09,-1.65426e+09,-1.65449e+09,-40242.7,0.0250138,0.005014,0,0.0255114,-31532.3,-57180.2,-0,65298.2,40242.7
step02_gravity_refstate-mantle.xmf,1656,3.1241e-06,1.77454e-06,0,-9.71842e-09,-1.74536e+09,-1.74554e+09,-1.74577e+09,-1298.87,0.0193374,-3.43388e-19,0,0.0193374,-33620.7,-60000,-0,68777.5,1298.87
step02_gravity_refstate-mantle.xmf,1657,-1.23799e-06,3.36165e-06,0,1.33656e-07,-1.09871e+09,-1.09809e+09,-1.09854e+09,17863.2,-0.00600723,0.0542825,-0,0.0546139,-26050.1,-40000,-0,47734.8,17863.2
step02_gravity_refstate-mantle.xmf,1658,-9.17689e-08,3.14495e-06,0,-6.31352e-07,-1.23782e+09,-1.23739e+09,-1.23781e+09,-84380.2,0.00568492,0.0383202,0,0.0387396,-26963.9,-44304.2,-0,51864.3,84380.2
step02_gravity_refstate-mantle.xmf,1659,2.64986e-06,2.0908e-06,0,-8.3215e-07,-1.54043e+09,-1.5405e+09,-1.54078e+09,-111217,0.0297206,0.0122807,0,0.0321579,-28351.8,-53667.4,-0,60696.1,111217
step02_gravity_refstate-mantle.xmf,1660,2.82189e-06,1.91419e-06,0,-6.30718e-07,-1.57351e+09,-1.57364e+09,-1.57389e+09,-84295.4,0.0273247,0.00979187,0,0.0290262,-29873.5,-54690.1,-0,62317.2,84295.4
step02_gravity_refstate-mantle.xmf,1661,2.91795e-06,1.79897e-06,0,-4.49347e-07,-1.60409e+09,-1.60424e+09,-1.60448e+09,-60055.2,0.0239857,0.00777455,0,0.0252142,-31441.1,-55634.9,-0,63904.6,60055.2
step02_gravity_refstate-mantle.xmf,1662,2.97898e-06,1.72994e-06,0,-2.89534e-07,-1.63658e+09,-1.63675e+09,-1.63698e+09,-38696.2,0.0203108,0.00586362,0,0.0211403,-32963.5,-56639,-0,65532.9,38696.2
step02_gravity_refstate-mantle.xmf,1663,3.02563e-06,1.70045e-06,0,-1.40895e-07,-1.67967e+09,-1.67985e+09,-1.68007e+09,-18830.6,0.0159254,0.00351224,0,0.0163081,-34623.4,-57970.1,-0,67522.7,18830.6
step02_gravity_refstate-mantle.xmf,1664,-7.89518e-07,3.27134e-06,0,-2.02272e-07,-1.14795e+09,-1.14741e+09,-1.14785e+09,-27033.7,-0.00173555,0.0474167,-0,0.0474485,-26880.4,-41524,-0,49465.1,27033.7
step02_gravity_refstate-mantle.xmf,1665,-3.21416e-07,3.1211e-06,0,-4.44188e-07,-1.19587e+09,-1.19541e+09,-1.19582e+09,-59365.7,0.00236369,0.0411074,0,0.0411753,-27758.3,-43006.7,-0,51186.9,59365.7
step02_gravity_refstate-mantle.xmf,1666,2.21654e-06,2.25247e-06,0,-9.29184e-07,-1.48324e+09,-1.48324e+09,-1.48354e+09,-124185,0.025759,0.0161203,0,0.0303874,-28368.8,-51898.5,-0,59145.9,124185
step02_gravity_refstate-mantle.xmf,1667,1.71832e-06,2.43781e-06,0,-9.58283e-07,-1.42509e+09,-1.42499e+09,-1.42532e+09,-128075,0.0211145,0.0203109,0,0.0292978,-28438.3,-50099.3,-0,57607.9,128075
step02_gravity_refstate-mantle.xmf,1668,1.92519e-07,2.94113e-06,0,-6.43319e-07,-1.24967e+09,-1.24931e+09,-1.2497e+09,-85979.5,0.00659735,0.0349248,0,0.0355425,-28553.1,-44671.8,-0,53017.4,85979.5
step02_gravity_refstate-mantle.xmf,1669,7.02658e-07,2.79063e-06,0,-8.12953e-07,-1.31051e+09,-1.31024e+09,-1.31061e+09,-108651,0.0115183,0.0295549,0,0.0317201,-28518.8,-46554.2,-0,54595,108651
step02_gravity_refstate-mantle.xmf,1670,1.20415e-06,2.62109e-06,0,-9.14603e-07,-1.36714e+09,-1.36695e+09,-1.3673e+09,-122237,0.0162378,0.0248033,0,0.0296457,-28513.8,-48306.3,-0,56094,122237
step02_gravity_refstate-mantle.xmf,1671,3.04566e-06,1.75477e-06,0,-5.82481e-09,-1.74538e+09,-1.74555e+09,-1.74578e+09,-778.485,0.0130928,-2.88855e-19,0,0.0130928,-35643.8,-60000,-0,69788.8,778.485
step02_gravity_refstate-mantle.xmf,1672,-9.54869e-07,3.18442e-06,0,4.72579e-08,-1.09866e+09,-1.09811e+09,-1.09854e+09,6316.02,-0.00410795,0.0505843,-0,0.0507509,-27779.3,-40000,-0,48700,6316.02
step02_gravity_refstate-mantle.xmf,1673,2.43781e-06,2.05294e-06,0,-7.63621e-07,-1.51353e+09,-1.51358e+09,-1.51386e+09,-102058,0.0241725,0.0134648,0,0.0276696,-29895.7,-52835,-0,60706.6,102058
step02_gravity_refstate-mantle.xmf,1674,2.61496e-06,1.89504e-06,0,-5.84134e-07,-1.54505e+09,-1.54515e+09,-1.5454e+09,-78069.6,0.0217663,0.0111431,0,0.0244528,-31457.8,-53809.5,-0,62330.2,78069.6
step02_gravity_refstate-mantle.xmf,1675,2.74318e-06,1.78405e-06,0,-4.13774e-07,-1.57716e+09,-1.57729e+09,-1.57752e+09,-55300.9,0.0186321,0.00908423,0,0.0207287,-33044.7,-54801.8,-0,63993.7,55300.9
step02_gravity_refstate-mantle.xmf,1676,2.83681e-06,1.71365e-06,0,-2.64946e-07,-1.6102e+09,-1.61035e+09,-1.61058e+09,-35410,0.0150129,0.0071741,0,0.0166389,-34613.5,-55822.9,-0,65683.2,35410
step02_gravity_refstate-mantle.xmf,1677,2.98127e-06,1.68478e-06,0,-7.55137e-08,-1.6896e+09,-1.68977e+09,-1.68999e+09,-10092.4,0.00960835,0.0029576,0,0.0100533,-36751,-58276.4,-0,68896.8,10092.4
step02_gravity_refstate-mantle.xmf,1678,2.99797e-06,1.74345e-06,0,-3.21847e-09,-1.74539e+09,-1.74555e+09,-1.74579e+09,-430.149,0.00667151,-2.65251e-19,0,0.00667151,-37768.5,-60000,-0,70897.5,430.149
step02_gravity_refstate-mantle.xmf,1679,-5.38024e-07,3.08506e-06,0,-2.31324e-07,-1.14733e+09,-1.14685e+09,-1.14726e+09,-30916.5,-0.000584034,0.0443312,-0,0.0443351,-28673.8,-41505.9,-0,50447.2,30916.5
step02_gravity_refstate-mantle.xmf,1680,-1.08708e-07,2.94702e-06,0,-4.2764e-07,-1.19664e+09,-1.19623e+09,-1.19662e+09,-57154.1,0.00278837,0.0386335,0,0.038734,-29466.3,-43031.4,-0,52153.3,57154.1
step02_gravity_refstate-mantle.xmf,1681,2.00981e-06,2.2118e-06,0,-8.22907e-07,-1.45511e+09,-1.45509e+09,-1.45538e+09,-109981,0.0204793,0.017303,0,0.0268104,-29947.1,-51028.1,-0,59166.7,109981
step02_gravity_refstate-mantle.xmf,1682,1.53575e-06,2.39015e-06,0,-8.26756e-07,-1.39659e+09,-1.39648e+09,-1.3968e+09,-110496,0.0164583,0.0214584,0,0.0270432,-29990.1,-49217.7,-0,57634.9,110496
step02_gravity_refstate-mantle.xmf,1683,6.00479e-07,2.71812e-06,0,-6.70475e-07,-1.28356e+09,-1.28327e+09,-1.28364e+09,-89609,0.00851436,0.0304268,0,0.0315956,-29996.4,-45720.5,-0,54682.2,89609
step02_gravity_refstate-mantle.xmf,1684,1.05516e-06,2.56435e-06,0,-7.72314e-07,-1.33885e+09,-1.33865e+09,-1.33899e+09,-103220,0.0123747,0.0258832,0,0.0286892,-30011.4,-47431.3,-0,56128.5,103220
step02_gravity_refstate-mantle.xmf,1685,2.88968e-06,1.68301e-06,0,-1.57607e-07,-1.63934e+09,-1.6395e+09,-1.63972e+09,-21064.2,0.0112449,0.00558557,0,0.0125557,-36070.6,-56723.2,-0,67220.6,21064.2
step02_gravity_refstate-mantle.xmf,1686,2.96119e-06,1.68485e-06,0,-2.85281e-08,-1.69394e+09,-1.69411e+09,-1.69434e+09,-3812.78,0.00470713,0.00271878,0,0.00543588,-38406.3,-58410.5,-0,69905.9,3812.78
step02_gravity_refstate-mantle.xmf,1687,3.00002e-06,1.73272e-06,0,3.25442e-09,-1.74539e+09,-1.74556e+09,-1.74579e+09,434.953,-4.59666e-19,1.15236e-18,-0,1.24066e-18,-40000,-60000,-0,72111,434.953
step02_gravity_refstate-mantle.xmf,1688,-6.96799e-07,3.01731e-06,0,-9.76832e-09,-1.09862e+09,-1.09812e+09,-1.09853e+09,-1305.54,-0.00261042,0.0475457,-0,0.0476173,-29588.3,-40000,-0,49754.1,1305.54
step02_gravity_refstate-mantle.xmf,1689,2.63268e-07,2.81293e-06,0,-5.48899e-07,-1.23876e+09,-1.23842e+09,-1.2388e+09,-73360.3,0.0054673,0.034162,0,0.0345967,-30106.9,-44334.9,-0,53591.1,73360.3
step02_gravity_refstate-mantle.xmf,1690,2.23559e-06,2.03404e-06,0,-6.71809e-07,-1.4855e+09,-1.48552e+09,-1.48579e+09,-89787.3,0.0189276,0.0147522,0,0.0239975,-31494.7,-51967.6,-0,60766.4,89787.3
step02_gravity_refstate-mantle.xmf,1691,2.42195e-06,1.89081e-06,0,-5.06763e-07,-1.51653e+09,-1.5166e+09,-1.51685e+09,-67728.9,0.0165169,0.0125213,0,0.0207266,-33097.4,-52927.1,-0,62423.6,67728.9
step02_gravity_refstate-mantle.xmf,1692,2.56909e-06,1.78648e-06,0,-3.48095e-07,-1.54826e+09,-1.54837e+09,-1.54861e+09,-46522.8,0.0133757,0.0105158,0,0.0170145,-34734.5,-53908.1,-0,64129.3,46522.8
step02_gravity_refstate-mantle.xmf,1693,2.68754e-06,1.71833e-06,0,-2.14052e-07,-1.581e+09,-1.58113e+09,-1.58136e+09,-28608,0.00989679,0.00864198,0,0.0131389,-36293.4,-54919.9,-0,65828.6,28608
step02_gravity_refstate-mantle.xmf,1694,2.8459e-06,1.66599e-06,0,-8.28284e-08,-1.63388e+09,-1.63403e+09,-1.63426e+09,-11070,0.00569,0.00583178,0,0.00814774,-37993.4,-56554.2,-0,68131.3,11070
step02_gravity_refstate-mantle.xmf,1695,2.92919e-06,1.66388e-06,0,9.43873e-10,-1.67365e+09,-1.67382e+09,-1.67404e+09,126.149,-5.59315e-19,0.00376902,-0,0.00376902,-40000,-57783.5,-0,70277.5,126.149
step02_gravity_refstate-mantle.xmf,1696,-3.10206e-07,2.92096e-06,0,-2.37273e-07,-1.14823e+09,-1.1478e+09,-1.14819e+09,-31711.5,0.000246499,0.0417828,0,0.0417835,-30505.6,-41534.8,-0,51533.8,31711.5
step02_gravity_refstate-mantle.xmf,1697,8.83187e-08,2.79489e-06,0,-3.95989e-07,-1.20057e+09,-1.20021e+09,-1.20058e+09,-52923.9,0.00303738,0.0364583,0,0.0365846,-31170.8,-43153.8,-0,53234.1,52923.9
step02_gravity_refstate-mantle.xmf,1698,1.8153e-06,2.19218e-06,0,-7.02927e-07,-1.4263e+09,-1.42625e+09,-1.42655e+09,-93946.2,0.0157404,0.0186169,0,0.0243793,-31521.5,-50136.8,-0,59222.5,93946.2
step02_gravity_refstate-mantle.xmf,1699,1.36116e-06,2.36342e-06,0,-6.87123e-07,-1.36724e+09,-1.3671e+09,-1.36742e+09,-91834,0.0123428,0.0227804,0,0.0259093,-31544.4,-48309.6,-0,57696.3,91834
step02_gravity_refstate-mantle.xmf,1700,4.86974e-07,2.66682e-06,0,-5.21573e-07,-1.25347e+09,-1.25318e+09,-1.25354e+09,-69708.3,0.005829,0.0317022,0,0.0322336,-31499.9,-44790.4,-0,54757.8,69708.3
step02_gravity_refstate-mantle.xmf,1701,9.10607e-07,2.52461e-06,0,-6.21997e-07,-1.30917e+09,-1.30895e+09,-1.30929e+09,-83129.9,0.00894461,0.0271692,0,0.0286037,-31569.9,-46513.3,-0,56215.2,83129.9
step02_gravity_refstate-mantle.xmf,1702,-4.71681e-07,2.86829e-06,0,-4.23075e-08,-1.09858e+09,-1.09814e+09,-1.09852e+09,-5654.4,-0.00150184,0.0451144,-0,0.0451394,-31481.8,-40000,-0,50902.9,5654.4
step02_gravity_refstate-mantle.xmf,1703,2.0424e-06,2.03282e-06,0,-5.60398e-07,-1.45651e+09,-1.45651e+09,-1.45678e+09,-74897.2,0.014102,0.0161568,0,0.0214454,-33126.1,-51070.8,-0,60873.4,74897.2
step02_gravity_refstate-mantle.xmf,1704,2.23546e-06,1.90381e-06,0,-4.06717e-07,-1.48701e+09,-1.48706e+09,-1.48731e+09,-54357.7,0.0116731,0.0140068,0,0.0182333,-34761,-52014.2,-0,62560.4,54357.7
step02_gravity_refstate-mantle.xmf,1705,2.40545e-06,1.80306e-06,0,-2.51024e-07,-1.51972e+09,-1.5198e+09,-1.52004e+09,-33549.4,0.0083936,0.0119655,0,0.0146159,-36497.6,-53025.4,-0,64372.1,33549.4
step02_gravity_refstate-mantle.xmf,1706,2.58409e-06,1.72314e-06,0,-1.10339e-07,-1.56023e+09,-1.56034e+09,-1.56057e+09,-14746.8,0.00458301,0.00968507,0,0.0107147,-38222.4,-54277.7,-0,66385.4,14746.8
step02_gravity_refstate-mantle.xmf,1707,2.74482e-06,1.67517e-06,0,-2.83808e-11,-1.60214e+09,-1.60228e+09,-1.6025e+09,-3.7931,-4.55052e-19,0.00746279,-0,0.00746279,-40000,-55573.1,-0,68471.7,3.7931
step02_gravity_refstate-mantle.xmf,1708,-8.95284e-08,2.77733e-06,0,-2.35315e-07,-1.15432e+09,-1.15394e+09,-1.15431e+09,-31449.9,0.000900241,0.0393753,0,0.0393856,-32378.8,-41723.9,-0,52813.6,31449.9
step02_gravity_refstate-mantle.xmf,1709,3.13585e-07,2.64818e-06,0,-3.59176e-07,-1.21339e+09,-1.21308e+09,-1.21343e+09,-48003.9,0.00328106,0.0339606,0,0.0341188,-32987.6,-43551.1,-0,54634,48003.9
step02_gravity_refstate-mantle.xmf,1710,1.63041e-06,2.18774e-06,0,-5.67526e-07,-1.3967e+09,-1.39662e+09,-1.39692e+09,-75849.9,0.0114403,0.0200563,0,0.0230897,-33158.1,-49221.1,-0,59347.9,75849.9
step02_gravity_refstate-mantle.xmf,1711,1.19914e-06,2.34953e-06,0,-5.38231e-07,-1.33755e+09,-1.3374e+09,-1.33771e+09,-71934.5,0.00872025,0.024212,0,0.0257345,-33173.4,-47391.5,-0,57848.3,71934.5
step02_gravity_refstate-mantle.xmf,1712,7.49446e-07,2.50797e-06,0,-4.66899e-07,-1.27563e+09,-1.27539e+09,-1.27573e+09,-62401.1,0.00591629,0.0288868,0,0.0294865,-33153.8,-45476,-0,56278.3,62401.1
step02_gravity_refstate-mantle.xmf,1713,-2.85956e-07,2.74383e-06,0,-5.52921e-08,-1.09855e+09,-1.09815e+09,-1.09852e+09,-7389.8,-0.00075068,0.043246,-0,0.0432525,-33464.7,-40000,-0,52152.5,7389.8
step02_gravity_refstate-mantle.xmf,1714,1.85261e-06,2.04846e-06,0,-4.30445e-07,-1.42614e+09,-1.42612e+09,-1.42639e+09,-57528.9,0.00968478,0.0177178,0,0.020192,-34814.6,-50131.7,-0,61034.7,57528.9
step02_gravity_refstate-mantle.xmf,1715,2.05954e-06,1.92941e-06,0,-2.8144e-07,-1.45776e+09,-1.45778e+09,-1.45804e+09,-37614.5,0.00719347,0.0155397,0,0.0171239,-36508.4,-51109.5,-0,62809.6,37614.5
step02_gravity_refstate-mantle.xmf,1716,2.25841e-06,1.83183e-06,0,-1.29427e-07,-1.49288e+09,-1.49293e+09,-1.49318e+09,-17297.9,0.00385546,0.0133843,0,0.0139286,-38290.2,-52195.3,-0,64734,17297.9
step02_gravity_refstate-mantle.xmf,1717,2.45042e-06,1.75845e-06,0,-4.8355e-10,-1.53067e+09,-1.53076e+09,-1.53099e+09,-64.6265,-3.85986e-19,0.0112575,-0,0.0112575,-40000,-53363.7,-0,66690.9,64.6265
step02_gravity_refstate-mantle.xmf,1718,1.40984e-07,2.63093e-06,0,-2.07203e-07,-1.16806e+09,-1.16773e+09,-1.16808e+09,-27692.7,0.00131428,0.0367152,0,0.0367387,-34600.4,-42149.6,-0,54532.4,27692.7
step02_gravity_refstate-mantle.xmf,1719,5.89961e-07,2.50759e-06,0,-3.24191e-07,-1.24152e+09,-1.24126e+09,-1.2416e+09,-43328.1,0.00358059,0.0308301,0,0.0310373,-34662.8,-44421.5,-0,56345.2,43328.1
step02_gravity_refstate-mantle.xmf,1720,1.44469e-06,2.20238e-06,0,-4.25003e-07,-1.36545e+09,-1.36535e+09,-1.36564e+09,-56801.6,0.00768352,0.0217153,0,0.0230346,-34800.5,-48254.6,-0,59494.4,56801.6
step02_gravity_refstate-mantle.xmf,1721,1.01505e-06,2.36278e-06,0,-3.92518e-07,-1.3039e+09,-1.30372e+09,-1.30404e+09,-52460,0.00564185,0.026091,0,0.026694,-34734.7,-46350.9,-0,57921.6,52460
step02_gravity_refstate-mantle.xmf,1722,-1.63598e-07,2.64476e-06,0,-4.146e-08,-1.09854e+09,-1.09816e+09,-1.09851e+09,-5541.14,-0.000301226,0.0419075,-0,0.0419085,-35541.8,-40000,-0,53509.1,5541.14
step02_gravity_refstate-mantle.xmf,1723,-5.34985e-08,2.57935e-06,0,-2.6561e-08,-1.09852e+09,-1.09817e+09,-1.09851e+09,-3549.88,-8.56773e-05,0.0410887,-0,0.0410888,-37718.5,-40000,-0,54978.9,3549.88
step02_gravity_refstate-mantle.xmf,1724,1.67952e-07,2.56821e-06,0,-1.11941e-07,-1.15491e+09,-1.15459e+09,-1.15493e+09,-14961,0.000671819,0.0368556,0,0.0368617,-36787.7,-41743.4,-0,55640.3,14961
step02_gravity_refstate-mantle.xmf,1725,1.6518e-06,2.08586e-06,0,-2.87767e-07,-1.39292e+09,-1.39286e+09,-1.39314e+09,-38460.1,0.00576119,0.0195617,0,0.0203924,-36536.8,-49104.2,-0,61205.9,38460.1
step02_gravity_refstate-mantle.xmf,1726,1.86288e-06,1.98074e-06,0,-1.39955e-07,-1.42451e+09,-1.42449e+09,-1.42476e+09,-18705,0.00316837,0.0174135,0,0.0176994,-38299.4,-50081.1,-0,63047.3,18705
step02_gravity_refstate-mantle.xmf,1727,2.07226e-06,1.89402e-06,0,-1.14654e-09,-1.45921e+09,-1.45923e+09,-1.45949e+09,-153.235,-3.20311e-19,0.015292,-0,0.015292,-40000,-51154.3,-0,64936.6,153.235
step02_gravity_refstate-mantle.xmf,1728,5.01225e-07,2.49228e-06,0,-2.00565e-07,-1.21633e+09,-1.21606e+09,-1.21639e+09,-26805.6,0.00195773,0.0321655,0,0.0322251,-36381.8,-43642.6,-0,56818.2,26805.6
step02_gravity_refstate-mantle.xmf,1729,1.68922e-07,2.54216e-06,0,-4.49041e-08,-1.14523e+09,-1.14492e+09,-1.14526e+09,-6001.44,0.000256238,0.0372241,0,0.037225,-38552.5,-41444.4,-0,56603.3,6001.44
step02_gravity_refstate-mantle.xmf,1730,-3.69048e-08,2.56548e-06,0,4.94039e-09,-1.09852e+09,-1.09817e+09,-1.09851e+09,660.282,-2.01883e-20,0.0408058,-0,0.0408058,-40000,-40000,-0,56568.5,660.282
step02_gravity_refstate-mantle.xmf,1731,8.5439e-07,2.39118e-06,0,-2.74097e-07,-1.2738e+09,-1.27359e+09,-1.27391e+09,-36633.1,0.00348436,0.027903,0,0.0281197,-36088.1,-45419.9,-0,58011.3,36633.1
step02_gravity_refstate-mantle.xmf,1732,1.23425e-06,2.24218e-06,0,-2.76331e-07,-1.32954e+09,-1.32941e+09,-1.32971e+09,-36931.6,0.0044016,0.0238153,0,0.0242186,-36489.4,-47144.1,-0,59615.7,36931.6
step02_gravity_refstate-mantle.xmf,1733,4.66273e-07,2.47788e-06,0,-9.1661e-08,-1.20245e+09,-1.20218e+09,-1.20251e+09,-12250.5,0.000832412,0.0328222,0,0.0328328,-38256.3,-43213.7,-0,57714.6,12250.5
step02_gravity_refstate-mantle.xmf,1734,3.1258e-07,2.50976e-06,0,2.85377e-09,-1.17177e+09,-1.17148e+09,-1.17181e+09,381.407,-2.35168e-20,0.0350567,-0,0.0350567,-40000,-42265,-0,58192.2,381.407
step02_gravity_refstate-mantle.xmf,1735,1.41567e-06,2.15253e-06,0,-1.3709e-07,-1.35412e+09,-1.35402e+09,-1.35431e+09,-18322.1,0.00240299,0.021911,0,0.0220424,-38308.4,-47904.3,-0,61338,18322.1
step02_gravity_refstate-mantle.xmf,1736,1.63849e-06,2.06055e-06,0,-1.75948e-09,-1.38776e+09,-1.3877e+09,-1.38798e+09,-235.155,-2.46508e-19,0.0196603,-0,0.0196603,-40000,-48944.6,-0,63210.5,235.155
step02_gravity_refstate-mantle.xmf,1737,9.11756e-07,2.33329e-06,0,-1.44584e-07,-1.27648e+09,-1.27629e+09,-1.2766e+09,-19323.6,0.00190078,0.027346,0,0.027412,-37936.6,-45503,-0,59242.8,19323.6
step02_gravity_refstate-mantle.xmf,1738,7.27912e-07,2.39173e-06,0,2.66951e-09,-1.24425e+09,-1.24403e+09,-1.24435e+09,356.78,-4.38626e-20,0.0295602,-0,0.0295602,-40000,-44506.4,-0,59840,356.78
step02_gravity_refstate-mantle.xmf,1739,1.18035e-06,2.23462e-06,0,-3.76916e-09,-1.31617e+09,-1.31603e+09,-1.31633e+09,-503.748,-2.0226e-19,0.0244149,-0,0.0244149,-40000,-46730.8,-0,61512.3,503.748
step02_gravity_refstate-intrusion.xmf,0,-8.09951e-06,3.79651e-05,0,-2.77261e-05,-1.58334e+09,-1.57895e+09,-1.58257e+09,-2.64396e+06,-0.0731277,0.208107,-0,0.220582,4000,-54998.6,0,55143.8,2.64396e+06
step02_gravity_refstate-intrusion.xmf,1,-7.84459e-06,3.35913e-05,0,-3.01705e-05,-1.56736e+09,-1.5634e+09,-1.56661e+09,-2.87706e+06,-0.0651834,0.225996,-0,0.235209,4000,-54498.4,0,54645,2.87706e+06
step02_gravity_refstate-intrusion.xmf,2,-7.48604e-06,2.93045e-05,0,-3.20707e-05,-1.55139e+09,-1.54788e+09,-1.55068e+09,-3.05826e+06,-0.056148,0.241666,-0,0.248103,4000,-53999.3,0,54147.3,3.05826e+06
step02_gravity_refstate-intrusion.xmf,3,-7.09987e-06,2.47235e-05,0,-3.34358e-05,-1.5354e+09,-1.53237e+09,-1.53473e+09,-3.18843e+06,-0.0464033,0.255155,-0,0.25934,4000,-53499.2,0,53648.6,3.18843e+06
step02_gravity_refstate-intrusion.xmf,4,-8.87774e-06,4.21034e-05,0,-2.38544e-05,-1.59938e+09,-1.59452e+09,-1.59854e+09,-2.27476e+06,-0.0793017,0.18812,-0,0.204152,4000,-55497.8,0,55641.7,2.27476e+06
step02_gravity_refstate-intrusion.xmf,5,-6.72151e-06,2.03561e-05,0,-3.42716e-05,-1.51943e+09,-1.51684e+09,-1.51878e+09,-3.26814e+06,-0.036323,0.266405,-0,0.26887,4000,-52999.8,0,53150.5,3.26814e+06
step02_gravity_refstate-intrusion.xmf,6,-1.39714e-05,5.15316e-05,0,-1.7768e-05,-1.61588e+09,-1.60963e+09,-1.61455e+09,-1.69435e+06,-0.0820617,0.166173,-0,0.185331,4000,-56000,0,56142.7,1.69435e+06
step02_gravity_refstate-intrusion.xmf,7,-6.33606e-06,1.58898e-05,0,-3.46586e-05,-1.50345e+09,-1.50133e+09,-1.50285e+09,-3.30505e+06,-0.0261776,0.275437,-0,0.276678,4000,-52500.3,0,52652.5,3.30505e+06
step02_gravity_refstate-intrusion.xmf,8,-5.9412e-06,1.14822e-05,0,-3.45546e-05,-1.48745e+09,-1.48579e+09,-1.48689e+09,-3.29513e+06,-0.0162344,0.282275,-0,0.282741,4000,-52000.2,0,52153.8,3.29513e+06
step02_gravity_refstate-intrusion.xmf,9,-5.55634e-06,7.24456e-06,0,-3.39684e-05,-1.47148e+09,-1.47026e+09,-1.47095e+09,-3.23923e+06,-0.00682809,0.286936,-0,0.287017,4000,-51501.2,0,51656.3,3.23923e+06
step02_gravity_refstate-intrusion.xmf,10,-1.68746e-05,6.45342e-05,0,-1.83391e-05,-1.61558e+09,-1.60782e+09,-1.61397e+09,-1.74882e+06,-0.0743038,0.183332,-0,0.197817,3497.18,-56000,0,56109.1,1.74882e+06
step02_gravity_refstate-intrusion.xmf,11,-5.28292e-06,3.03762e-06,0,-3.30621e-05,-1.45549e+09,-1.45469e+09,-1.45498e+09,-3.1528e+06,0.00171702,0.2895,0,0.289505,4000,-51001,0,51157.6,3.1528e+06
step02_gravity_refstate-intrusion.xmf,12,-1.89252e-05,7.16436e-05,0,-1.54437e-05,-1.61549e+09,-1.60685e+09,-1.61368e+09,-1.47271e+06,-0.065355,0.199329,-0,0.20977,2997.53,-56000,0,56080.2,1.47271e+06
step02_gravity_refstate-intrusion.xmf,13,-4.66092e-06,-6.7269e-07,0,-3.12705e-05,-1.43944e+09,-1.43906e+09,-1.439e+09,-2.98195e+06,0.00886163,0.290055,0,0.29019,4000,-50501.8,0,50659.9,2.98195e+06
step02_gravity_refstate-intrusion.xmf,14,-2.04154e-05,7.65143e-05,0,-1.24084e-05,-1.61544e+09,-1.60619e+09,-1.61349e+09,-1.18327e+06,-0.0555205,0.212835,-0,0.219957,2497.35,-56000,0,56055.7,1.18327e+06
step02_gravity_refstate-intrusion.xmf,15,-2.1462e-05,7.99415e-05,0,-9.56809e-06,-1.6154e+09,-1.60573e+09,-1.61336e+09,-912413,-0.0450532,0.223723,-0,0.228214,1997.54,-56000,0,56035.6,912413
step02_gravity_refstate-intrusion.xmf,16,9.30085e-07,-7.86701e-06,0,-2.70754e-05,-1.42276e+09,-1.4236e+09,-1.42285e+09,-2.58191e+06,0.0136635,0.289091,0,0.289413,4000,-50000,0,50159.7,2.58191e+06
step02_gravity_refstate-intrusion.xmf,17,-2.22113e-05,8.23563e-05,0,-6.92866e-06,-1.61538e+09,-1.60541e+09,-1.61326e+09,-660717,-0.0341469,0.23205,-0,0.234549,1498.34,-56000,0,56020,660717
step02_gravity_refstate-intrusion.xmf,18,2.10879e-06,-1.83255e-05,0,-2.40193e-05,-1.42317e+09,-1.42512e+09,-1.42337e+09,-2.29048e+06,0.012841,0.315728,0,0.315989,3499.28,-50000,0,50122.3,2.29048e+06
step02_gravity_refstate-intrusion.xmf,19,-2.27126e-05,8.39971e-05,0,-4.49395e-06,-1.61536e+09,-1.60519e+09,-1.6132e+09,-428543,-0.0229377,0.237914,-0,0.239017,999.46,-56000,0,56008.9,428543
step02_gravity_refstate-intrusion.xmf,20,3.07046e-06,-2.39435e-05,0,-1.98799e-05,-1.42335e+09,-1.42592e+09,-1.42364e+09,-1.89574e+06,0.0115272,0.338234,0,0.33843,2999.32,-50000,0,50089.9,1.89574e+06
step02_gravity_refstate-intrusion.xmf,21,3.60807e-06,-2.75209e-05,0,-1.59582e-05,-1.42347e+09,-1.42644e+09,-1.42381e+09,-1.52177e+06,0.00984902,0.356815,0,0.356951,2499.83,-50000,0,50062.5,1.52177e+06
step02_gravity_refstate-intrusion.xmf,22,-2.30026e-05,8.49406e-05,0,-2.1934e-06,-1.61535e+09,-1.60506e+09,-1.61316e+09,-209162,-0.0115229,0.241404,-0,0.241679,500.036,-56000,0,56002.2,209162
step02_gravity_refstate-intrusion.xmf,23,-2.30866e-05,8.52204e-05,0,2.01191e-08,-1.61535e+09,-1.60502e+09,-1.61315e+09,1918.56,3.69827e-07,0.242563,0,0.242563,-4.01542e-10,-56000,-0,56000,1918.56
step02_gravity_refstate-intrusion.xmf,24,3.8729e-06,-2.9865e-05,0,-1.23382e-05,-1.42356e+09,-1.42678e+09,-1.42393e+09,-1.17657e+06,0.00797541,0.371719,0,0.371805,2000,-50000,0,50040,1.17657e+06
step02_gravity_refstate-intrusion.xmf,25,-2.29929e-05,8.49009e-05,0,2.26293e-06,-1.61535e+09,-1.60506e+09,-1.61316e+09,215793,0.0115226,0.241404,0,0.241679,-500.036,-56000,-0,56002.2,215793
step02_gravity_refstate-intrusion.xmf,26,3.98287e-06,-3.14375e-05,0,-8.96191e-06,-1.42363e+09,-1.42701e+09,-1.42401e+09,-854608,0.00600898,0.383115,0,0.383162,1500.17,-50000,0,50022.5,854608
step02_gravity_refstate-intrusion.xmf,27,4.01489e-06,-3.23753e-05,0,-5.84399e-06,-1.42368e+09,-1.42715e+09,-1.42407e+09,-557283,0.00401387,0.391144,0,0.391165,1000.68,-50000,0,50010,557283
step02_gravity_refstate-intrusion.xmf,28,-2.2707e-05,8.39582e-05,0,4.55836e-06,-1.61536e+09,-1.60519e+09,-1.6132e+09,434685,0.0229389,0.237913,0,0.239017,-999.46,-56000,-0,56008.9,434685
step02_gravity_refstate-intrusion.xmf,29,4.00557e-06,-3.28988e-05,0,-2.87129e-06,-1.42371e+09,-1.42723e+09,-1.4241e+09,-273806,0.00200699,0.395925,0,0.39593,500.717,-50000,0,50002.5,273806
step02_gravity_refstate-intrusion.xmf,30,-2.22135e-05,8.23327e-05,0,7.0089e-06,-1.61538e+09,-1.60541e+09,-1.61326e+09,668368,0.034148,0.232048,0,0.234547,-1498.34,-56000,-0,56020,668368
step02_gravity_refstate-intrusion.xmf,31,4.00994e-06,-3.30599e-05,0,3.7658e-08,-1.42372e+09,-1.42726e+09,-1.42411e+09,3591.06,-1.69723e-07,0.397514,-0,0.397514,0,-50000,0,50000,3591.06
step02_gravity_refstate-intrusion.xmf,32,-2.14694e-05,7.99011e-05,0,9.67062e-06,-1.61541e+09,-1.60574e+09,-1.61336e+09,922191,0.0450541,0.223722,0,0.228214,-1997.54,-56000,-0,56035.6,922191
step02_gravity_refstate-intrusion.xmf,33,4.01004e-06,-3.28804e-05,0,2.95002e-06,-1.42371e+09,-1.42723e+09,-1.4241e+09,281314,-0.0020075,0.395925,-0,0.39593,-500.717,-50000,-0,50002.5,281314
step02_gravity_refstate-intrusion.xmf,34,4.01259e-06,-3.23464e-05,0,5.94137e-06,-1.42368e+09,-1.42715e+09,-1.42406e+09,566569,-0.00401262,0.391143,-0,0.391164,-1000.68,-50000,-0,50010,566569
step02_gravity_refstate-intrusion.xmf,35,-2.041e-05,7.64608e-05,0,1.25783e-05,-1.61544e+09,-1.6062e+09,-1.61349e+09,1.19946e+06,0.0555206,0.212836,0,0.219958,-2497.35,-56000,-0,56055.7,1.19946e+06
step02_gravity_refstate-intrusion.xmf,36,3.98502e-06,-3.13838e-05,0,9.0843e-06,-1.42363e+09,-1.427e+09,-1.42401e+09,866279,-0.00600967,0.383114,-0,0.383161,-1500.17,-50000,-0,50022.5,866279
step02_gravity_refstate-intrusion.xmf,37,3.8845e-06,-2.98605e-05,0,1.24565e-05,-1.42356e+09,-1.42678e+09,-1.42393e+09,1.18785e+06,-0.00797509,0.371718,-0,0.371804,-2000,-50000,-0,50040,1.18785e+06
step02_gravity_refstate-intrusion.xmf,38,-1.89559e-05,7.17427e-05,0,1.57646e-05,-1.61549e+09,-1.60684e+09,-1.61368e+09,1.50332e+06,0.0653553,0.199331,0,0.209772,-2997.53,-56000,-0,56080.2,1.50332e+06
step02_gravity_refstate-intrusion.xmf,39,3.64577e-06,-2.75583e-05,0,1.61188e-05,-1.42346e+09,-1.42644e+09,-1.42381e+09,1.53709e+06,-0.00984879,0.356813,-0,0.356949,-2499.83,-50000,-0,50062.5,1.53709e+06
step02_gravity_refstate-intrusion.xmf,40,-1.68987e-05,6.52684e-05,0,1.9488e-05,-1.61554e+09,-1.60771e+09,-1.61393e+09,1.85838e+06,0.0743009,0.183333,0,0.197817,-3497.18,-56000,-0,56109.1,1.85838e+06
step02_gravity_refstate-intrusion.xmf,41,3.13841e-06,-2.40756e-05,0,2.00992e-05,-1.42334e+09,-1.42594e+09,-1.42364e+09,1.91666e+06,-0.0115293,0.338232,-0,0.338428,-2999.32,-50000,-0,50089.9,1.91666e+06
step02_gravity_refstate-intrusion.xmf,42,-8.07683e-06,3.79473e-05,0,2.77032e-05,-1.58334e+09,-1.57895e+09,-1.58257e+09,2.64178e+06,0.073128,0.208106,0,0.220581,-4000,-54998.6,-0,55143.8,2.64178e+06
step02_gravity_refstate-intrusion.xmf,43,-7.90406e-06,3.36015e-05,0,3.02308e-05,-1.56736e+09,-1.56341e+09,-1.56661e+09,2.88281e+06,0.0651824,0.225996,0,0.235209,-4000,-54498.4,-0,54645,2.88281e+06
step02_gravity_refstate-intrusion.xmf,44,-7.59485e-06,2.9232e-05,0,3.21358e-05,-1.55141e+09,-1.5479e+09,-1.55069e+09,3.06447e+06,0.0561498,0.241664,0,0.248102,-4000,-53999.3,-0,54147.3,3.06447e+06
step02_gravity_refstate-intrusion.xmf,45,-7.18062e-06,2.47356e-05,0,3.34926e-05,-1.53541e+09,-1.53237e+09,-1.53473e+09,3.19386e+06,0.0464103,0.255157,0,0.259344,-4000,-53499.2,-0,53648.6,3.19386e+06
step02_gravity_refstate-intrusion.xmf,46,-6.79639e-06,2.03011e-05,0,3.43704e-05,-1.51944e+09,-1.51686e+09,-1.51879e+09,3.27756e+06,0.0363274,0.266405,0,0.268871,-4000,-52999.8,-0,53150.5,3.27756e+06
step02_gravity_refstate-intrusion.xmf,47,-5.91982e-06,1.15207e-05,0,3.46847e-05,-1.48745e+09,-1.48579e+09,-1.48688e+09,3.30754e+06,0.0162336,0.282277,0,0.282744,-4000,-52000.2,-0,52153.8,3.30754e+06
step02_gravity_refstate-intrusion.xmf,48,-5.62343e-06,7.18801e-06,0,3.41242e-05,-1.47149e+09,-1.47027e+09,-1.47096e+09,3.25408e+06,0.00682659,0.286938,0,0.287019,-4000,-51501.2,-0,51656.3,3.25408e+06
step02_gravity_refstate-intrusion.xmf,49,-6.36896e-06,1.58263e-05,0,3.47781e-05,-1.50346e+09,-1.50134e+09,-1.50285e+09,3.31644e+06,0.0261806,0.275439,0,0.276681,-4000,-52500.3,-0,52652.5,3.31644e+06
step02_gravity_refstate-intrusion.xmf,50,-1.0285e-05,4.52884e-05,0,1.90499e-05,-1.61567e+09,-1.61037e+09,-1.61469e+09,1.8166e+06,0.082062,0.166173,0,0.185331,-4000,-56000,-0,56142.7,1.8166e+06
step02_gravity_refstate-intrusion.xmf,51,-8.85975e-06,4.21037e-05,0,2.38507e-05,-1.59938e+09,-1.59452e+09,-1.59853e+09,2.27441e+06,0.0792997,0.188119,0,0.20415,-4000,-55497.8,-0,55641.7,2.27441e+06
step02_gravity_refstate-intrusion.xmf,52,2.34708e-06,-1.85582e-05,0,2.43654e-05,-1.42315e+09,-1.42514e+09,-1.42337e+09,2.32348e+06,-0.0128427,0.315726,-0,0.315987,-3499.28,-50000,-0,50122.3,2.32348e+06
step02_gravity_refstate-intrusion.xmf,53,-5.21811e-06,3.03763e-06,0,3.30758e-05,-1.45548e+09,-1.45469e+09,-1.45498e+09,3.15411e+06,-0.00172105,0.2895,-0,0.289505,-4000,-51001,-0,51157.6,3.15411e+06
step02_gravity_refstate-intrusion.xmf,54,-4.63276e-06,-6.7842e-07,0,3.12727e-05,-1.43944e+09,-1.43906e+09,-1.439e+09,2.98217e+06,-0.00886327,0.290056,-0,0.290192,-4000,-50501.8,-0,50659.9,2.98217e+06
step02_gravity_refstate-intrusion.xmf,55,-2.56359e-06,-3.17179e-06,0,2.76735e-05,-1.42302e+09,-1.42308e+09,-1.42278e+09,2.63894e+06,-0.0136631,0.28909,-0,0.289413,-4000,-50000,-0,50159.7,2.63894e+06
step02_gravity_refstate-intrusion.xmf,56,-1.16301e-05,4.21563e-05,0,-2.2104e-05,-1.57626e+09,-1.57113e+09,-1.57515e+09,-2.10784e+06,-0.0657665,0.24301,-0,0.251752,3602.3,-54770.7,0,54889.1,2.10784e+06
step02_gravity_refstate-intrusion.xmf,57,-1.34457e-05,4.83273e-05,0,-1.9821e-05,-1.59167e+09,-1.58578e+09,-1.59039e+09,-1.89013e+06,-0.0724542,0.220008,-0,0.231631,3627.1,-55249.1,0,55368,1.89013e+06
step02_gravity_refstate-intrusion.xmf,58,-1.08272e-05,3.69162e-05,0,-2.28577e-05,-1.55875e+09,-1.5542e+09,-1.55772e+09,-2.17971e+06,-0.0557682,0.270606,-0,0.276293,3503.7,-54224.4,0,54337.5,2.17971e+06
step02_gravity_refstate-intrusion.xmf,59,-8.85105e-06,2.96261e-05,0,-2.64018e-05,-1.54315e+09,-1.53948e+09,-1.5423e+09,-2.51768e+06,-0.0482171,0.277413,-0,0.281572,3638.77,-53738.8,0,53861.8,2.51768e+06
step02_gravity_refstate-intrusion.xmf,60,-8.20065e-06,2.4892e-05,0,-2.52184e-05,-1.52756e+09,-1.52441e+09,-1.52678e+09,-2.40483e+06,-0.0376646,0.300421,-0,0.302773,3501.01,-53252.1,0,53367.1,2.40483e+06
step02_gravity_refstate-intrusion.xmf,61,-1.53372e-05,5.15618e-05,0,-1.74022e-05,-1.58597e+09,-1.57959e+09,-1.58451e+09,-1.65947e+06,-0.0655267,0.245794,-0,0.254379,3286.11,-55069.7,0,55167.7,1.65947e+06
step02_gravity_refstate-intrusion.xmf,62,-1.48485e-05,5.47811e-05,0,-1.87606e-05,-1.60404e+09,-1.5974e+09,-1.60262e+09,-1.78901e+06,-0.0759765,0.199697,-0,0.213662,3635.71,-55635.9,0,55754.5,1.78901e+06
step02_gravity_refstate-intrusion.xmf,63,-1.83664e-05,6.0594e-05,0,-1.62698e-05,-1.60084e+09,-1.59331e+09,-1.59908e+09,-1.55148e+06,-0.068748,0.222378,-0,0.232762,3232.06,-55530.5,0,55624.5,1.55148e+06
step02_gravity_refstate-intrusion.xmf,64,-6.92853e-06,1.83506e-05,0,-2.70634e-05,-1.51085e+09,-1.50844e+09,-1.51019e+09,-2.58077e+06,-0.0279988,0.306236,-0,0.307513,3575.37,-52730.3,0,52851.4,2.58077e+06
step02_gravity_refstate-intrusion.xmf,65,-1.47199e-05,4.69897e-05,0,-1.68978e-05,-1.57343e+09,-1.56755e+09,-1.57203e+09,-1.61138e+06,-0.058185,0.272552,-0,0.278693,3129.79,-54677.2,0,54766.7,1.61138e+06
step02_gravity_refstate-intrusion.xmf,66,-1.79684e-05,5.7931e-05,0,-1.41405e-05,-1.58826e+09,-1.58102e+09,-1.58655e+09,-1.34844e+06,-0.0595872,0.258775,-0,0.265547,2886.45,-55139.3,0,55214.8,1.34844e+06
step02_gravity_refstate-intrusion.xmf,67,-5.77147e-06,1.27801e-05,0,-2.65162e-05,-1.4957e+09,-1.49393e+09,-1.49515e+09,-2.52858e+06,-0.0185751,0.316151,-0,0.316696,3540.87,-52258,0,52377.9,2.52858e+06
step02_gravity_refstate-intrusion.xmf,68,-1.06345e-05,3.25821e-05,0,-1.98971e-05,-1.54261e+09,-1.53849e+09,-1.5416e+09,-1.89739e+06,-0.0434186,0.307514,-0,0.310564,3183.84,-53719.1,0,53813.3,1.89739e+06
step02_gravity_refstate-intrusion.xmf,69,-1.37397e-05,4.17811e-05,0,-1.56748e-05,-1.55783e+09,-1.55254e+09,-1.55652e+09,-1.49475e+06,-0.0477183,0.30541,-0,0.309116,2892.25,-54190.9,0,54268,1.49475e+06
step02_gravity_refstate-intrusion.xmf,70,-7.52962e-06,2.03385e-05,0,-2.11258e-05,-1.51514e+09,-1.51248e+09,-1.51442e+09,-2.01456e+06,-0.02768,0.330441,-0,0.331598,3177.66,-52863.6,0,52959,2.01456e+06
step02_gravity_refstate-intrusion.xmf,71,-2.0255e-05,6.73245e-05,0,-1.31896e-05,-1.60166e+09,-1.59331e+09,-1.59973e+09,-1.25776e+06,-0.0586816,0.239216,-0,0.246308,2690.49,-55559.1,0,55624.2,1.25776e+06
step02_gravity_refstate-intrusion.xmf,72,-4.52011e-06,7.00748e-06,0,-2.59905e-05,-1.47989e+09,-1.4788e+09,-1.47946e+09,-2.47845e+06,-0.00929621,0.321963,-0,0.322097,3528.58,-51765.5,0,51885.6,2.47845e+06
step02_gravity_refstate-intrusion.xmf,73,-6.39628e-06,1.56545e-05,0,-2.09572e-05,-1.50346e+09,-1.50136e+09,-1.50286e+09,-1.99848e+06,-0.0208046,0.338472,-0,0.339111,3153.37,-52500,0,52594.6,1.99848e+06
step02_gravity_refstate-intrusion.xmf,74,-1.70502e-05,5.18037e-05,0,-1.25302e-05,-1.573e+09,-1.56643e+09,-1.57137e+09,-1.19488e+06,-0.0495371,0.295762,-0,0.299882,2598.05,-54661.4,0,54723.1,1.19488e+06
step02_gravity_refstate-intrusion.xmf,75,-9.35494e-06,2.63704e-05,0,-1.76135e-05,-1.52646e+09,-1.52305e+09,-1.52557e+09,-1.67962e+06,-0.031938,0.33651,-0,0.338022,2927.74,-53215.2,0,53295.7,1.67962e+06
step02_gravity_refstate-intrusion.xmf,76,-1.96533e-05,6.20566e-05,0,-1.06847e-05,-1.58715e+09,-1.57936e+09,-1.58527e+09,-1.01889e+06,-0.0488955,0.279265,-0,0.283513,2333.76,-55104.2,0,55153.6,1.01889e+06
step02_gravity_refstate-intrusion.xmf,77,-2.65375e-06,1.92642e-07,0,-2.42426e-05,-1.46199e+09,-1.46172e+09,-1.46174e+09,-2.31177e+06,0.000382862,0.327278,0,0.327278,3479.6,-51209.4,0,51327.5,2.31177e+06
step02_gravity_refstate-intrusion.xmf,78,-4.45121e-06,9.07743e-06,0,-1.87562e-05,-1.48904e+09,-1.48775e+09,-1.48861e+09,-1.78859e+06,-0.0119614,0.35352,-0,0.353723,2987.91,-52051.9,0,52137.6,1.78859e+06
step02_gravity_refstate-intrusion.xmf,79,-6.97218e-06,1.77543e-05,0,-1.56908e-05,-1.50769e+09,-1.50533e+09,-1.50702e+09,-1.49628e+06,-0.02021,0.360042,-0,0.360609,2716.24,-52631.5,0,52701.5,1.49628e+06
step02_gravity_refstate-intrusion.xmf,80,-1.21995e-05,3.50172e-05,0,-1.38766e-05,-1.54151e+09,-1.53701e+09,-1.54035e+09,-1.32328e+06,-0.0363832,0.337117,-0,0.339074,2621.37,-53682.1,0,53746.1,1.32328e+06
step02_gravity_refstate-intrusion.xmf,81,-1.55201e-05,4.52343e-05,0,-1.08901e-05,-1.55759e+09,-1.55179e+09,-1.55611e+09,-1.03848e+06,-0.0391644,0.329108,-0,0.33143,2316.74,-54181,0,54230.5,1.03848e+06
step02_gravity_refstate-intrusion.xmf,82,-2.10496e-05,7.14017e-05,0,-1.03816e-05,-1.60224e+09,-1.59343e+09,-1.60024e+09,-989985,-0.0486298,0.251179,-0,0.255843,2195.8,-55580.5,0,55623.8,989985
step02_gravity_refstate-intrusion.xmf,83,-1.54897e-06,-5.05156e-06,0,-2.48639e-05,-1.44619e+09,-1.44652e+09,-1.44604e+09,-2.37102e+06,0.00725962,0.3179,0,0.317983,3605.79,-50717,0,50845.1,2.37102e+06
step02_gravity_refstate-intrusion.xmf,84,-2.7181e-06,2.18941e-06,0,-1.99497e-05,-1.47299e+09,-1.47253e+09,-1.47273e+09,-1.9024e+06,-0.00413209,0.349365,-0,0.34939,3110.78,-51552.4,0,51646.1,1.9024e+06
step02_gravity_refstate-intrusion.xmf,85,-1.85421e-05,5.55836e-05,0,-8.91668e-06,-1.57323e+09,-1.56616e+09,-1.57146e+09,-850294,-0.0393318,0.313651,-0,0.316108,2020.94,-54668,0,54705.4,850294
step02_gravity_refstate-intrusion.xmf,86,-9.91415e-06,2.67218e-05,0,-1.19679e-05,-1.52424e+09,-1.52074e+09,-1.52329e+09,-1.14126e+06,-0.0252021,0.364974,-0,0.365843,2346.71,-53144.6,0,53196.4,1.14126e+06
step02_gravity_refstate-intrusion.xmf,87,-2.09548e-05,6.69046e-05,0,-7.65904e-06,-1.58994e+09,-1.58156e+09,-1.58794e+09,-730366,-0.0373149,0.288202,-0,0.290608,1736.24,-55192.8,0,55220.1,730366
step02_gravity_refstate-intrusion.xmf,88,5.7089e-07,-9.3474e-06,0,-2.01076e-05,-1.44824e+09,-1.44919e+09,-1.4483e+09,-1.91746e+06,0.00668631,0.34278,0,0.342845,3181.61,-50783,0,50882.6,1.91746e+06
step02_gravity_refstate-intrusion.xmf,89,-3.4522e-07,-5.25657e-06,0,-1.77751e-05,-1.46009e+09,-1.46056e+09,-1.46006e+09,-1.69503e+06,0.00205726,0.358315,0,0.358321,2928.48,-51151.9,0,51235.6,1.69503e+06
step02_gravity_refstate-intrusion.xmf,90,-1.79679e-06,3.30068e-07,0,-1.50066e-05,-1.47396e+09,-1.47375e+09,-1.47379e+09,-1.43103e+06,-0.00350554,0.373462,-0,0.373479,2629.31,-51583.2,0,51650.1,1.43103e+06
step02_gravity_refstate-intrusion.xmf,91,-4.04736e-06,7.94221e-06,0,-1.25957e-05,-1.48962e+09,-1.48847e+09,-1.48923e+09,-1.20112e+06,-0.00955498,0.3829,-0,0.38302,2358.75,-52069.8,0,52123.2,1.20112e+06
step02_gravity_refstate-intrusion.xmf,92,-1.3225e-05,3.67576e-05,0,-9.25935e-06,-1.54072e+09,-1.53595e+09,-1.53946e+09,-882972,-0.0284636,0.360082,-0,0.361205,2027.17,-53655.7,0,53694,882972
step02_gravity_refstate-intrusion.xmf,93,-1.65883e-05,4.76544e-05,0,-7.19485e-06,-1.5575e+09,-1.55137e+09,-1.55591e+09,-686101,-0.029439,0.346771,-0,0.348019,1713.47,-54177.4,0,54204.5,686101
step02_gravity_refstate-intrusion.xmf,94,-7.00587e-06,1.71161e-05,0,-9.98669e-06,-1.50651e+09,-1.50421e+09,-1.50585e+09,-952330,-0.0149701,0.387821,-0,0.38811,2046.54,-52593.9,0,52633.7,952330
step02_gravity_refstate-intrusion.xmf,95,-2.18124e-05,7.54681e-05,0,-8.07839e-06,-1.60503e+09,-1.59576e+09,-1.60295e+09,-770355,-0.0392409,0.254048,-0,0.257061,1746.55,-55670.2,0,55697.6,770355
step02_gravity_refstate-intrusion.xmf,96,-6.92071e-08,-9.7663e-06,0,-2.46863e-05,-1.4348e+09,-1.43572e+09,-1.43479e+09,-2.35409e+06,0.0111667,0.31346,0,0.313659,3636.36,-50363.9,0,50495,2.35409e+06
step02_gravity_refstate-intrusion.xmf,97,2.37545e-06,-1.49796e-05,0,-2.11461e-05,-1.43529e+09,-1.43694e+09,-1.43551e+09,-2.01649e+06,0.0107091,0.332791,0,0.332963,3282.8,-50381.4,0,50488.2,2.01649e+06
step02_gravity_refstate-intrusion.xmf,98,-1.94329e-05,5.84035e-05,0,-5.87399e-06,-1.5739e+09,-1.56647e+09,-1.57204e+09,-560143,-0.028045,0.3258,-0,0.327005,1418.09,-54689.5,0,54707.9,560143
step02_gravity_refstate-intrusion.xmf,99,-1.03643e-05,2.72207e-05,0,-7.64089e-06,-1.52346e+09,-1.51988e+09,-1.52247e+09,-728635,-0.0185876,0.385865,-0,0.386313,1726.68,-53119.4,0,53147.4,728635
step02_gravity_refstate-intrusion.xmf,100,-2.21629e-05,7.55251e-05,0,-5.83513e-06,-1.60209e+09,-1.59278e+09,-1.59998e+09,-556438,-0.0293296,0.268074,-0,0.269674,1304.82,-55577.8,0,55593.1,556438
step02_gravity_refstate-intrusion.xmf,101,1.87114e-06,-1.33327e-05,0,-1.55371e-05,-1.4486e+09,-1.45005e+09,-1.44878e+09,-1.48162e+06,0.00593669,0.36773,0,0.367778,2643.49,-50793.1,0,50861.9,1.48162e+06
step02_gravity_refstate-intrusion.xmf,102,2.92746e-06,-1.90396e-05,0,-1.75761e-05,-1.43586e+09,-1.43796e+09,-1.43614e+09,-1.67606e+06,0.00949747,0.35409,0,0.354217,2819.78,-50394.5,0,50473.4,1.67606e+06
step02_gravity_refstate-intrusion.xmf,103,7.53395e-07,-8.94358e-06,0,-1.29077e-05,-1.4596e+09,-1.46053e+09,-1.45968e+09,-1.23088e+06,0.00214091,0.38294,0,0.382946,2347.05,-51135.5,0,51189.3,1.23088e+06
step02_gravity_refstate-intrusion.xmf,104,-1.18061e-06,-1.90116e-06,0,-1.04685e-05,-1.47332e+09,-1.47339e+09,-1.47321e+09,-998273,-0.00237278,0.395691,-0,0.395699,2042.34,-51562.5,0,51602.9,998273
step02_gravity_refstate-intrusion.xmf,105,-3.88006e-06,6.86318e-06,0,-8.21033e-06,-1.48923e+09,-1.48821e+09,-1.48886e+09,-782937,-0.00692971,0.403552,-0,0.403612,1737.08,-52056.8,0,52085.7,782937
step02_gravity_refstate-intrusion.xmf,106,-1.38985e-05,3.81283e-05,0,-5.72686e-06,-1.54062e+09,-1.53566e+09,-1.5393e+09,-546113,-0.0200363,0.376005,-0,0.376539,1408.66,-53652,0,53670.5,546113
step02_gravity_refstate-intrusion.xmf,107,-1.70987e-05,4.89375e-05,0,-4.24014e-06,-1.55712e+09,-1.55083e+09,-1.55549e+09,-404340,-0.0189151,0.359172,-0,0.35967,1094.08,-54165.7,0,54176.8,404340
step02_gravity_refstate-intrusion.xmf,108,-7.1266e-06,1.68521e-05,0,-6.18239e-06,-1.50603e+09,-1.50374e+09,-1.50535e+09,-589552,-0.0104079,0.405027,-0,0.405161,1426.5,-52577.8,0,52597.1,589552
step02_gravity_refstate-intrusion.xmf,109,-2.12128e-05,6.72533e-05,0,-4.4733e-06,-1.58696e+09,-1.57852e+09,-1.58493e+09,-426574,-0.0233013,0.304986,-0,0.305874,1089.68,-55100.2,0,55110.9,426574
step02_gravity_refstate-intrusion.xmf,110,-1.96754e-05,5.91525e-05,0,-3.10139e-06,-1.57281e+09,-1.56529e+09,-1.57093e+09,-295748,-0.0153981,0.33647,-0,0.336822,779.407,-54656.2,0,54661.7,295748
step02_gravity_refstate-intrusion.xmf,111,-1.07107e-05,2.77423e-05,0,-4.41938e-06,-1.52335e+09,-1.51968e+09,-1.52233e+09,-421432,-0.0120164,0.39917,-0,0.399351,1106.68,-53115.2,0,53126.8,421432
step02_gravity_refstate-intrusion.xmf,112,-2.26083e-05,7.65798e-05,0,-3.33479e-06,-1.60166e+09,-1.5922e+09,-1.59951e+09,-318006,-0.0173869,0.274883,-0,0.275432,770.664,-55564.3,0,55569.6,318006
step02_gravity_refstate-intrusion.xmf,113,2.46104e-06,-1.60269e-05,0,-1.17991e-05,-1.44824e+09,-1.45001e+09,-1.44848e+09,-1.12516e+06,0.00493464,0.386347,0,0.386379,2115.33,-50780.1,0,50824.2,1.12516e+06
step02_gravity_refstate-intrusion.xmf,114,3.3536e-06,-2.17516e-05,0,-1.38568e-05,-1.43635e+09,-1.43875e+09,-1.43667e+09,-1.32139e+06,0.00784666,0.372923,0,0.373005,2315.95,-50407,0,50460.1,1.32139e+06
step02_gravity_refstate-intrusion.xmf,115,1.52687e-06,-1.28369e-05,0,-9.10759e-06,-1.45573e+09,-1.4571e+09,-1.45588e+09,-868500,0.00252373,0.400214,0,0.400222,1742.04,-51012.6,0,51042.4,868500
step02_gravity_refstate-intrusion.xmf,116,-8.48598e-07,-3.87273e-06,0,-6.8826e-06,-1.47191e+09,-1.47219e+09,-1.47183e+09,-656325,-0.00134094,0.411534,-0,0.411536,1439.79,-51516.9,0,51537,656325
step02_gravity_refstate-intrusion.xmf,117,-3.85755e-06,6.13879e-06,0,-4.95886e-06,-1.48877e+09,-1.48782e+09,-1.4884e+09,-472877,-0.00446619,0.416795,-0,0.416819,1135.36,-52041.2,0,52053.6,472877
step02_gravity_refstate-intrusion.xmf,118,-1.42535e-05,3.89242e-05,0,-2.93841e-06,-1.54059e+09,-1.53552e+09,-1.53923e+09,-280207,-0.0111809,0.385759,-0,0.385921,780.116,-53650.9,0,53656.6,280207
step02_gravity_refstate-intrusion.xmf,119,-1.73679e-05,4.97381e-05,0,-1.71241e-06,-1.5572e+09,-1.5508e+09,-1.55555e+09,-163295,-0.00807993,0.365489,-0,0.365578,464.722,-54168.3,0,54170.3,163295
step02_gravity_refstate-intrusion.xmf,120,-7.23058e-06,1.66134e-05,0,-3.25436e-06,-1.5057e+09,-1.50342e+09,-1.50501e+09,-310336,-0.00592525,0.415463,-0,0.415505,813.334,-52566.7,0,52573,310336
step02_gravity_refstate-intrusion.xmf,121,-2.15364e-05,6.87857e-05,0,-1.85327e-06,-1.58783e+09,-1.57922e+09,-1.58578e+09,-176728,-0.010097,0.30857,-0,0.308735,468.581,-55128.3,0,55130.3,176728
step02_gravity_refstate-intrusion.xmf,122,-2.26937e-05,7.77675e-05,0,-8.93093e-07,-1.60253e+09,-1.59295e+09,-1.60036e+09,-85165.4,-0.00495978,0.275505,-0,0.27555,218.89,-55592.6,0,55593,85165.4
step02_gravity_refstate-intrusion.xmf,123,3.55265e-06,-2.25886e-05,0,-1.05897e-05,-1.43807e+09,-1.44056e+09,-1.43841e+09,-1.00984e+06,0.00604954,0.387599,0,0.387646,1852.34,-50459.5,0,50493.5,1.00984e+06
step02_gravity_refstate-intrusion.xmf,124,-1.98617e-05,5.99261e-05,0,-6.31714e-07,-1.57312e+09,-1.56551e+09,-1.57122e+09,-60240.3,-0.0029285,0.33944,-0,0.339452,147.53,-54666.1,0,54666.3,60240.3
step02_gravity_refstate-intrusion.xmf,125,-1.08555e-05,2.78911e-05,0,-1.81499e-06,-1.52312e+09,-1.51942e+09,-1.52208e+09,-173077,-0.00521945,0.406548,-0,0.406581,480.059,-53107.6,0,53109.8,173077
step02_gravity_refstate-intrusion.xmf,126,3.14779e-06,-2.18677e-05,0,-8.03244e-06,-1.44105e+09,-1.44343e+09,-1.44135e+09,-765974,0.00440602,0.398516,0,0.39854,1463.36,-50550.8,0,50571.9,765974
step02_gravity_refstate-intrusion.xmf,127,-3.7184e-06,5.55012e-06,0,-2.24799e-06,-1.48817e+09,-1.48729e+09,-1.48781e+09,-214368,-0.00206408,0.424243,-0,0.424248,535.81,-52022.3,0,52025.1,214368
step02_gravity_refstate-intrusion.xmf,128,1.89472e-06,-1.57403e-05,0,-5.83185e-06,-1.45268e+09,-1.45436e+09,-1.45286e+09,-556125,0.00204584,0.411262,0,0.411267,1136.67,-50915.1,0,50927.8,556125
step02_gravity_refstate-intrusion.xmf,129,-8.04823e-07,-4.86233e-06,0,-3.91308e-06,-1.47122e+09,-1.47161e+09,-1.47115e+09,-373151,-0.000721928,0.42125,-0,0.421251,852.529,-51494.2,0,51501.3,373151
step02_gravity_refstate-intrusion.xmf,130,-7.23763e-06,1.64629e-05,0,-7.65544e-07,-1.5053e+09,-1.50304e+09,-1.50461e+09,-73002.2,-0.00142307,0.420188,-0,0.42019,196.76,-52554.1,0,52554.4,73002.2
step02_gravity_refstate-intrusion.xmf,131,-1.4376e-05,3.91895e-05,0,-5.66583e-07,-1.54054e+09,-1.53543e+09,-1.53917e+09,-54029.3,-0.00223509,0.389837,-0,0.389844,155.576,-53649.1,0,53649.4,54029.3
step02_gravity_refstate-intrusion.xmf,132,-1.73925e-05,4.97756e-05,0,5.87979e-07,-1.55709e+09,-1.55068e+09,-1.55543e+09,56069.7,0.00270059,0.366907,0,0.366917,-155.366,-54164.8,-0,54165,56069.7
step02_gravity_refstate-intrusion.xmf,133,-2.17987e-05,7.02439e-05,0,7.38506e-07,-1.5898e+09,-1.58103e+09,-1.58773e+09,70423.9,0.00423395,0.30526,0,0.30529,-194.682,-55190.6,-0,55191,70423.9
step02_gravity_refstate-intrusion.xmf,134,-2.2786e-05,7.91437e-05,0,9.64191e-07,-1.60494e+09,-1.59522e+09,-1.60276e+09,91945.2,0.00534118,0.269476,0,0.269529,-234.551,-55669.1,-0,55669.6,91945.2
step02_gravity_refstate-intrusion.xmf,135,-3.71491e-06,4.9483e-06,0,2.48985e-07,-1.48731e+09,-1.48649e+09,-1.48696e+09,23743.2,0.000256518,0.426418,0,0.426419,-69.5592,-51994.8,-0,51994.9,23743.2
step02_gravity_refstate-intrusion.xmf,136,-1.97923e-05,5.96531e-05,0,1.74134e-06,-1.5729e+09,-1.56533e+09,-1.57102e+09,166055,0.00918836,0.338669,0,0.338794,-464.014,-54659.4,-0,54661.4,166055
step02_gravity_refstate-intrusion.xmf,137,-1.08181e-05,2.7676e-05,0,5.27408e-07,-1.52275e+09,-1.51908e+09,-1.52172e+09,50293.7,0.00158915,0.40835,0,0.408353,-147.015,-53096,-0,53096.2,50293.7
step02_gravity_refstate-intrusion.xmf,138,3.50783e-06,-2.56669e-05,0,-6.40165e-06,-1.43536e+09,-1.43814e+09,-1.43569e+09,-610461,0.00392229,0.399901,0,0.39992,1141.9,-50370.1,0,50383.1,610461
step02_gravity_refstate-intrusion.xmf,139,-6.46514e-07,-5.31919e-06,0,-1.28078e-06,-1.47086e+09,-1.4713e+09,-1.47079e+09,-122135,-0.000231706,0.425783,-0,0.425783,286.436,-51482.9,0,51483.6,122135
step02_gravity_refstate-intrusion.xmf,140,1.5902e-06,-1.52734e-05,0,-2.78077e-06,-1.45433e+09,-1.45594e+09,-1.45448e+09,-265174,0.000872021,0.418878,0,0.418879,555.005,-50965.4,0,50968.5,265174
step02_gravity_refstate-intrusion.xmf,141,-7.04421e-06,1.59655e-05,0,1.69166e-06,-1.50446e+09,-1.50226e+09,-1.50379e+09,161317,0.0030797,0.419514,0,0.419526,-436.426,-52528.2,-0,52530,161317
step02_gravity_refstate-intrusion.xmf,142,-1.42539e-05,3.87674e-05,0,1.70558e-06,-1.54013e+09,-1.53507e+09,-1.53877e+09,162644,0.00661683,0.38904,0,0.389097,-463.627,-53636.2,-0,53638.2,162644
step02_gravity_refstate-intrusion.xmf,143,-1.71297e-05,4.88222e-05,0,2.94789e-06,-1.55636e+09,-1.55007e+09,-1.55473e+09,281111,0.0133661,0.364268,0,0.364513,-776.641,-54141.8,-0,54147.4,281111
step02_gravity_refstate-intrusion.xmf,144,-2.25034e-05,7.68251e-05,0,2.96464e-06,-1.6018e+09,-1.59233e+09,-1.59965e+09,282708,0.0158877,0.275001,0,0.275459,-703.679,-55569.4,-0,55573.8,282708
step02_gravity_refstate-intrusion.xmf,145,-2.12026e-05,6.70142e-05,0,3.24199e-06,-1.58557e+09,-1.57716e+09,-1.58355e+09,309156,0.0172898,0.310914,0,0.311394,-812.227,-55056.9,-0,55062.9,309156
step02_gravity_refstate-intrusion.xmf,146,3.22253e-06,-2.43388e-05,0,-4.23416e-06,-1.43854e+09,-1.44117e+09,-1.43885e+09,-403770,0.00245932,0.4071,0,0.407108,771.868,-50469.4,0,50475.3,403770
step02_gravity_refstate-intrusion.xmf,147,-6.85133e-07,-5.80413e-06,0,1.17486e-06,-1.47011e+09,-1.4706e+09,-1.47005e+09,112035,0.000184399,0.425717,0,0.425717,-269.574,-51458.9,-0,51459.6,112035
step02_gravity_refstate-intrusion.xmf,148,-3.07009e-06,3.06756e-06,0,3.09281e-06,-1.48428e+09,-1.4837e+09,-1.48399e+09,294930,0.00230438,0.422894,0,0.4229,-739.5,-51900.9,-0,51906.2,294930
step02_gravity_refstate-intrusion.xmf,149,-1.9388e-05,5.80617e-05,0,4.29922e-06,-1.5718e+09,-1.56441e+09,-1.56995e+09,409973,0.0214131,0.334683,0,0.335367,-1094.43,-54624.4,-0,54635.3,409973
step02_gravity_refstate-intrusion.xmf,150,-1.06696e-05,2.73056e-05,0,2.9594e-06,-1.52256e+09,-1.51894e+09,-1.52154e+09,282209,0.00833744,0.404363,0,0.404449,-776.663,-53090.3,-0,53096,282209
step02_gravity_refstate-intrusion.xmf,151,1.73098e-06,-1.54293e-05,0,-6.30489e-08,-1.4543e+09,-1.45594e+09,-1.45446e+09,-6012.34,2.03732e-05,0.420987,0,0.420987,13.0836,-50964.8,0,50964.8,6012.34
step02_gravity_refstate-intrusion.xmf,152,3.1452e-06,-2.44842e-05,0,-1.47201e-06,-1.43885e+09,-1.44148e+09,-1.43915e+09,-140371,0.000834713,0.410808,0,0.410809,265.365,-50478.2,0,50478.9,140371
step02_gravity_refstate-intrusion.xmf,153,-6.94634e-06,1.60503e-05,0,4.43754e-06,-1.50459e+09,-1.5024e+09,-1.50393e+09,423163,0.00762376,0.41225,0,0.412321,-1082.58,-52533,-0,52544.1,423163
step02_gravity_refstate-intrusion.xmf,154,-3.61367e-08,-7.93598e-06,0,3.32414e-06,-1.46639e+09,-1.46715e+09,-1.46639e+09,316990,6.76357e-05,0.421726,0,0.421726,-725.157,-51343.3,-0,51348.4,316990
step02_gravity_refstate-intrusion.xmf,155,-1.39568e-05,3.79203e-05,0,4.21968e-06,-1.53979e+09,-1.53485e+09,-1.53846e+09,402388,0.0153728,0.382706,0,0.383015,-1087.9,-53625.8,-0,53636.9,402388
step02_gravity_refstate-intrusion.xmf,156,-1.67365e-05,4.76205e-05,0,5.60028e-06,-1.55632e+09,-1.55018e+09,-1.55472e+09,534042,0.0238189,0.355365,0,0.356162,-1394.52,-54140.3,-0,54158.2,534042
step02_gravity_refstate-intrusion.xmf,157,-2.21895e-05,7.5296e-05,0,5.16794e-06,-1.601e+09,-1.59171e+09,-1.59889e+09,492815,0.0267856,0.272117,0,0.273432,-1193.19,-55543.6,-0,55556.4,492815
step02_gravity_refstate-intrusion.xmf,158,-2.0918e-05,6.60546e-05,0,5.9492e-06,-1.58644e+09,-1.57815e+09,-1.58444e+09,567315,0.030162,0.301307,0,0.302813,-1418.94,-55083.5,-0,55101.7,567315
step02_gravity_refstate-intrusion.xmf,159,1.70141e-06,-1.59132e-05,0,2.39091e-06,-1.45335e+09,-1.45503e+09,-1.45351e+09,227997,-0.000835473,0.41884,-0,0.418841,-494.071,-50934.5,-0,50936.9,227997
step02_gravity_refstate-intrusion.xmf,160,-3.5621e-06,5.26836e-06,0,6.32862e-06,-1.4874e+09,-1.48656e+09,-1.48706e+09,603497,0.0051725,0.411725,0,0.411757,-1413.74,-51998.8,-0,52018,603497
step02_gravity_refstate-intrusion.xmf,161,-4.82041e-07,-5.70005e-06,0,5.45736e-06,-1.46957e+09,-1.47007e+09,-1.46953e+09,520414,0.000666986,0.416215,0,0.416216,-1177.85,-51443.4,-0,51456.8,520414
step02_gravity_refstate-intrusion.xmf,162,-1.8833e-05,5.62949e-05,0,7.11187e-06,-1.57176e+09,-1.5646e+09,-1.56997e+09,678188,0.0329321,0.32406,0,0.325729,-1697.83,-54622.7,-0,54649.1,678188
step02_gravity_refstate-intrusion.xmf,163,-1.03699e-05,2.66725e-05,0,5.82635e-06,-1.52242e+09,-1.51888e+09,-1.52143e+09,555601,0.0149081,0.394438,0,0.39472,-1404,-53086.1,-0,53104.7,555601
step02_gravity_refstate-intrusion.xmf,164,3.3414e-06,-2.46509e-05,0,1.33832e-06,-1.43854e+09,-1.44121e+09,-1.43886e+09,127622,-0.000787936,0.410649,-0,0.41065,-248.485,-50469.3,-0,50470,127622
step02_gravity_refstate-intrusion.xmf,165,1.78162e-06,-1.5573e-05,0,4.86136e-06,-1.45335e+09,-1.45501e+09,-1.45352e+09,463579,-0.00167578,0.413892,-0,0.413895,-980.495,-50935.6,-0,50945,463579
step02_gravity_refstate-intrusion.xmf,166,-6.86986e-06,1.63925e-05,0,7.8207e-06,-1.50519e+09,-1.50297e+09,-1.50454e+09,745782,0.0122199,0.398251,0,0.398438,-1722.43,-52552.4,-0,52580.6,745782
step02_gravity_refstate-intrusion.xmf,167,-1.33755e-05,3.64633e-05,0,7.27665e-06,-1.53935e+09,-1.53459e+09,-1.53807e+09,693901,0.0236829,0.370756,0,0.371512,-1704.56,-53612.1,-0,53639.2,693901
step02_gravity_refstate-intrusion.xmf,168,-1.58376e-05,4.52099e-05,0,8.82154e-06,-1.55562e+09,-1.5498e+09,-1.55411e+09,841222,0.0334557,0.341995,0,0.343628,-1998.33,-54118.7,-0,54155.6,841222
step02_gravity_refstate-intrusion.xmf,169,-2.17082e-05,7.35212e-05,0,7.76706e-06,-1.6013e+09,-1.59221e+09,-1.59923e+09,740666,0.038511,0.263229,0,0.266031,-1726.51,-55551.8,-0,55578.6,740666
step02_gravity_refstate-intrusion.xmf,170,-2.02936e-05,6.39663e-05,0,8.76936e-06,-1.58692e+09,-1.57888e+09,-1.58498e+09,836246,0.0419143,0.288908,0,0.291933,-1985.71,-55097.5,-0,55133.3,836246
step02_gravity_refstate-intrusion.xmf,171,3.24421e-06,-2.45829e-05,0,4.00805e-06,-1.43821e+09,-1.44087e+09,-1.43852e+09,382208,-0.00240578,0.407071,-0,0.407079,-749.449,-50458.9,-0,50464.4,382208
step02_gravity_refstate-intrusion.xmf,172,-3.74718e-06,6.36699e-06,0,1.00329e-05,-1.48834e+09,-1.48737e+09,-1.48798e+09,956736,0.00770797,0.395235,0,0.395311,-2023.31,-52028.9,-0,52068.2,956736
step02_gravity_refstate-intrusion.xmf,173,-7.79322e-07,-3.8903e-06,0,8.53706e-06,-1.47137e+09,-1.47166e+09,-1.47129e+09,814094,0.0014547,0.404263,0,0.404266,-1742.07,-51500.5,-0,51530,814094
step02_gravity_refstate-intrusion.xmf,174,1.74437e-06,-1.43929e-05,0,7.60396e-06,-1.45418e+09,-1.45572e+09,-1.45435e+09,725113,-0.00243686,0.405433,-0,0.405441,-1489.4,-50963,-0,50984.7,725113
step02_gravity_refstate-intrusion.xmf,175,-1.77592e-05,5.33883e-05,0,1.03405e-05,-1.57149e+09,-1.56471e+09,-1.5698e+09,986071,0.0433781,0.309284,0,0.312312,-2272.73,-54614.3,-0,54661.6,986071
step02_gravity_refstate-intrusion.xmf,176,-9.89381e-06,2.57444e-05,0,9.44228e-06,-1.52225e+09,-1.51886e+09,-1.52131e+09,900416,0.0210126,0.378524,0,0.379106,-2011.2,-53081.7,-0,53119.8,900416
step02_gravity_refstate-intrusion.xmf,177,3.28942e-06,-2.37817e-05,0,6.80974e-06,-1.43853e+09,-1.44112e+09,-1.43885e+09,649377,-0.00399957,0.400685,-0,0.400705,-1247.05,-50470.5,-0,50485.9,649377
step02_gravity_refstate-intrusion.xmf,178,-6.6695e-06,1.6374e-05,0,1.20934e-05,-1.50507e+09,-1.50288e+09,-1.50444e+09,1.15323e+06,0.0162705,0.378434,0,0.378784,-2326.47,-52549.7,-0,52601.1,1.15323e+06
step02_gravity_refstate-intrusion.xmf,179,-1.24378e-05,3.44191e-05,0,1.12157e-05,-1.53892e+09,-1.53445e+09,-1.53774e+09,1.06953e+06,0.0312333,0.352811,0,0.354191,-2300.72,-53599.9,-0,53649.3,1.06953e+06
step02_gravity_refstate-intrusion.xmf,180,-1.44835e-05,4.21896e-05,0,1.27544e-05,-1.55525e+09,-1.54985e+09,-1.55387e+09,1.21626e+06,0.0417877,0.323409,0,0.326097,-2556.18,-54108.4,-0,54168.7,1.21626e+06
step02_gravity_refstate-intrusion.xmf,181,-2.09366e-05,7.07828e-05,0,1.05323e-05,-1.60156e+09,-1.59281e+09,-1.59956e+09,1.00436e+06,0.0496598,0.251443,0,0.2563,-2248.57,-55558.7,-0,55604.2,1.00436e+06
step02_gravity_refstate-intrusion.xmf,182,-1.90684e-05,6.0235e-05,0,1.18083e-05,-1.58653e+09,-1.57896e+09,-1.58471e+09,1.12604e+06,0.0524932,0.274516,0,0.279489,-2528.11,-55084.6,-0,55142.6,1.12604e+06
step02_gravity_refstate-intrusion.xmf,183,-3.8803e-06,6.91586e-06,0,1.47099e-05,-1.48753e+09,-1.4865e+09,-1.48716e+09,1.40274e+06,0.00954394,0.37344,0,0.373562,-2595.2,-52004.3,-0,52069,1.40274e+06
step02_gravity_refstate-intrusion.xmf,184,-1.08704e-06,-2.39252e-06,0,1.23497e-05,-1.47163e+09,-1.47176e+09,-1.47153e+09,1.17767e+06,0.00207702,0.386479,0,0.386484,-2306.52,-51510,-0,51561.6,1.17767e+06
step02_gravity_refstate-intrusion.xmf,185,3.28599e-06,-2.23876e-05,0,9.85916e-06,-1.43905e+09,-1.4415e+09,-1.43936e+09,940169,-0.0056057,0.390617,-0,0.390657,-1757.75,-50488.8,-0,50519.4,940169
step02_gravity_refstate-intrusion.xmf,186,1.5234e-06,-1.24602e-05,0,1.07884e-05,-1.45532e+09,-1.45665e+09,-1.45546e+09,1.02878e+06,-0.00304196,0.392267,-0,0.392279,-2023.44,-51000.6,-0,51040.7,1.02878e+06
step02_gravity_refstate-intrusion.xmf,187,-1.59573e-05,4.92994e-05,0,1.42103e-05,-1.57103e+09,-1.56481e+09,-1.56951e+09,1.35509e+06,0.0522334,0.290631,0,0.295288,-2806.75,-54601.4,-0,54673.5,1.35509e+06
step02_gravity_refstate-intrusion.xmf,188,-9.19334e-06,2.44774e-05,0,1.43778e-05,-1.52207e+09,-1.51886e+09,-1.52119e+09,1.37107e+06,0.0266832,0.355566,0,0.356566,-2611.39,-53077.1,-0,53141.3,1.37107e+06
step02_gravity_refstate-intrusion.xmf,189,-6.42567e-06,1.55368e-05,0,1.85328e-05,-1.50396e+09,-1.50187e+09,-1.50335e+09,1.76729e+06,0.0199045,0.348827,0,0.349394,-2970.06,-52515,-0,52598.9,1.76729e+06
step02_gravity_refstate-intrusion.xmf,190,-1.11563e-05,3.20563e-05,0,1.63957e-05,-1.53906e+09,-1.53494e+09,-1.538e+09,1.56349e+06,0.038068,0.328002,0,0.330203,-2871.35,-53606,-0,53682.8,1.56349e+06
step02_gravity_refstate-intrusion.xmf,191,-1.2556e-05,3.86783e-05,0,1.78099e-05,-1.5555e+09,-1.55061e+09,-1.5543e+09,1.69835e+06,0.0490409,0.299046,0,0.303041,-3079.59,-54118.9,-0,54206.5,1.69835e+06
step02_gravity_refstate-intrusion.xmf,192,-1.98227e-05,6.69801e-05,0,1.33635e-05,-1.60188e+09,-1.5936e+09,-1.59999e+09,1.27434e+06,0.0598368,0.236919,0,0.244359,-2747.44,-55567.1,-0,55635,1.27434e+06
step02_gravity_refstate-intrusion.xmf,193,-1.6512e-05,5.40415e-05,0,1.58284e-05,-1.58545e+09,-1.57872e+09,-1.58388e+09,1.50939e+06,0.0624697,0.254797,0,0.262343,-3105.15,-55052.5,-0,55140,1.50939e+06
step02_gravity_refstate-intrusion.xmf,194,-4.11985e-06,7.22331e-06,0,2.02316e-05,-1.48504e+09,-1.48396e+09,-1.48465e+09,1.92929e+06,0.0103368,0.347842,0,0.347995,-3106.45,-51926.7,-0,52019.6,1.92929e+06
step02_gravity_refstate-intrusion.xmf,195,-1.72886e-06,-6.42147e-07,0,1.6949e-05,-1.47111e+09,-1.471e+09,-1.47094e+09,1.61625e+06,0.00260089,0.364073,0,0.364083,-2831.1,-51493.7,-0,51571.5,1.61625e+06
step02_gravity_refstate-intrusion.xmf,196,1.06279e-06,-1.02867e-05,0,1.45798e-05,-1.45531e+09,-1.45639e+09,-1.45541e+09,1.39033e+06,-0.00373017,0.37344,-0,0.373459,-2562.32,-51002,-0,51066.3,1.39033e+06
step02_gravity_refstate-intrusion.xmf,197,3.16231e-06,-2.04371e-05,0,1.32907e-05,-1.4392e+09,-1.44145e+09,-1.4395e+09,1.2674e+06,-0.00725772,0.375876,-0,0.375946,-2282.82,-50496.2,-0,50547.8,1.2674e+06
step02_gravity_refstate-intrusion.xmf,198,-1.34922e-05,4.38209e-05,0,1.84906e-05,-1.56859e+09,-1.56312e+09,-1.5673e+09,1.76326e+06,0.0573157,0.274691,0,0.280607,-3222.53,-54527.9,-0,54623,1.76326e+06
step02_gravity_refstate-intrusion.xmf,199,-8.5304e-06,2.37463e-05,0,2.08559e-05,-1.52322e+09,-1.52015e+09,-1.52241e+09,1.98882e+06,0.0323327,0.324969,0,0.326574,-3175.99,-53114.6,-0,53209.4,1.98882e+06
step02_gravity_refstate-intrusion.xmf,200,-5.58687e-06,1.24906e-05,0,2.42598e-05,-1.49504e+09,-1.49331e+09,-1.49451e+09,2.31341e+06,0.0173398,0.326961,0,0.327421,-3389.99,-52237.9,-0,52347.8,2.31341e+06
step02_gravity_refstate-intrusion.xmf,201,-9.31074e-06,2.96341e-05,0,2.38488e-05,-1.53978e+09,-1.53607e+09,-1.5389e+09,2.27422e+06,0.0446248,0.292679,0,0.296061,-3464.15,-53632.8,-0,53744.6,2.27422e+06
step02_gravity_refstate-intrusion.xmf,202,-1.04888e-05,3.62279e-05,0,2.36399e-05,-1.55947e+09,-1.55502e+09,-1.55847e+09,2.2543e+06,0.0567275,0.266319,0,0.272293,-3557.71,-54247,-0,54363.5,2.2543e+06
step02_gravity_refstate-intrusion.xmf,203,-6.79573e-06,1.7951e-05,0,2.66724e-05,-1.50942e+09,-1.50706e+09,-1.50877e+09,2.54348e+06,0.0269818,0.30858,0,0.309757,-3554.39,-52686.1,-0,52805.9,2.54348e+06
step02_gravity_refstate-intrusion.xmf,204,-4.81203e-06,7.83385e-06,0,2.6973e-05,-1.48132e+09,-1.48012e+09,-1.48086e+09,2.57215e+06,0.0103693,0.317582,0,0.317751,-3585.19,-51809.7,-0,51933.6,2.57215e+06
step02_gravity_refstate-intrusion.xmf,205,-1.77941e-05,6.11911e-05,0,1.62781e-05,-1.60248e+09,-1.59495e+09,-1.60078e+09,1.55228e+06,0.0694803,0.218125,0,0.228924,-3256.64,-55585.1,-0,55680.4,1.55228e+06
step02_gravity_refstate-intrusion.xmf,206,-1.17141e-05,4.24384e-05,0,2.19094e-05,-1.57595e+09,-1.57078e+09,-1.57483e+09,2.08928e+06,0.065365,0.244777,0,0.253354,-3579.55,-54761,-0,54877.9,2.08928e+06
step02_gravity_refstate-intrusion.xmf,207,-2.92955e-06,2.17308e-06,0,2.20038e-05,-1.4713e+09,-1.47081e+09,-1.47102e+09,2.09829e+06,0.00367938,0.340746,0,0.340766,-3260.36,-51499.1,-0,51602.2,2.09829e+06
step02_gravity_refstate-intrusion.xmf,208,-3.25479e-07,-6.3787e-06,0,1.96448e-05,-1.4552e+09,-1.45578e+09,-1.45517e+09,1.87333e+06,-0.00399294,0.347468,-0,0.347491,-3124.06,-50999,-0,51094.6,1.87333e+06
step02_gravity_refstate-intrusion.xmf,209,2.63214e-06,-1.73549e-05,0,1.69475e-05,-1.43948e+09,-1.44139e+09,-1.43973e+09,1.61611e+06,-0.00866178,0.357244,-0,0.357349,-2793.02,-50508,-0,50585.2,1.61611e+06
step02_gravity_refstate-intrusion.xmf,210,-7.82678e-06,2.35431e-05,0,2.72669e-05,-1.52547e+09,-1.52247e+09,-1.52472e+09,2.60017e+06,0.037299,0.293702,0,0.296061,-3615.8,-53186.8,-0,53309.5,2.60017e+06
step02_gravity_refstate-intrusion.xmf,211,-5.93036e-06,1.31867e-05,0,2.97895e-05,-1.49545e+09,-1.49363e+09,-1.49488e+09,2.84073e+06,0.0195124,0.302173,0,0.302802,-3726.59,-52250.3,-0,52383,2.84073e+06
step02_gravity_refstate-intrusion.xmf,212,-1.34558e-05,4.92739e-05,0,1.96807e-05,-1.59182e+09,-1.58583e+09,-1.59053e+09,1.87675e+06,0.0721122,0.221297,0,0.23275,-3596.18,-55255.1,-0,55372,1.87675e+06
step02_gravity_refstate-intrusion.xmf,213,-3.4057e-06,1.63728e-06,0,2.63352e-05,-1.46367e+09,-1.46318e+09,-1.46334e+09,2.51133e+06,0.000792128,0.319441,0,0.319442,-3595.86,-51260,-0,51386,2.51133e+06
step02_gravity_refstate-intrusion.xmf,214,-1.58056e-05,5.68463e-05,0,1.82593e-05,-1.60407e+09,-1.59714e+09,-1.60256e+09,1.74121e+06,0.0759718,0.199698,0,0.213661,-3635.71,-55635.9,-0,55754.5,1.74121e+06
step02_gravity_refstate-intrusion.xmf,215,1.67872e-06,-1.4272e-05,0,2.08127e-05,-1.437e+09,-1.43852e+09,-1.43716e+09,1.9847e+06,-0.0102913,0.334086,-0,0.334244,-3271.63,-50432.3,-0,50538.3,1.9847e+06
step02_gravity_refstate-intrusion.xmf,216,-1.8764e-06,-4.47216e-06,0,2.50223e-05,-1.44756e+09,-1.44781e+09,-1.44738e+09,2.38613e+06,-0.00671278,0.318235,-0,0.318306,-3603.51,-50759,-0,50886.7,2.38613e+06
step02_gravity_refstate-intrusion.xmf,217,2.503e-07,-1.08343e-05,0,2.43272e-05,-1.4348e+09,-1.43586e+09,-1.43483e+09,2.31984e+06,-0.0111711,0.313445,-0,0.313644,-3636.59,-50363.7,-0,50494.8,2.31984e+06
step02_gravity_refstate-crust.xmf,0,-2.12588e-08,4.96691e-06,0,7.51216e-09,-1.09851e+09,-1.09817e+09,-1.09851e+09,515.334,1.76353e-20,0.0408058,0,0.0408058,40000,-40000,0,56568.5,515.334
step02_gravity_refstate-crust.xmf,1,-5.51701e-08,5.00611e-06,0,5.38057e-08,-1.09851e+09,-1.09817e+09,-1.09851e+09,3691.07,8.59707e-05,0.0410883,0,0.0410883,37718.5,-40000,0,54978.9,3691.07
step02_gravity_refstate-crust.xmf,2,-1.4663e-07,5.09682e-06,0,8.65397e-08,-1.09852e+09,-1.09816e+09,-1.09851e+09,5936.62,0.00030133,0.0419075,0,0.0419085,35541.8,-40000,0,53509.1,5936.62
step02_gravity_refstate-crust.xmf,3,-2.85741e-07,5.23428e-06,0,9.53985e-08,-1.09853e+09,-1.09815e+09,-1.09851e+09,6544.34,0.000750835,0.0432461,0,0.0432526,33464.7,-40000,0,52152.5,6544.34
step02_gravity_refstate-crust.xmf,4,-4.86554e-07,5.4059e-06,0,6.27565e-08,-1.09854e+09,-1.09814e+09,-1.09851e+09,4305.1,0.00150192,0.0451145,0,0.0451395,31481.8,-40000,0,50902.9,4305.1
step02_gravity_refstate-crust.xmf,5,-7.00451e-07,5.62399e-06,0,9.85246e-09,-1.09856e+09,-1.09812e+09,-1.09851e+09,675.879,0.00261051,0.0475459,0,0.0476175,29588.3,-40000,0,49754.1,675.879
step02_gravity_refstate-crust.xmf,6,-9.59007e-07,5.85566e-06,0,-1.02295e-07,-1.09858e+09,-1.09811e+09,-1.09851e+09,-7017.45,0.00410774,0.0505844,0,0.0507509,27779.3,-40000,0,48700,7017.45
step02_gravity_refstate-crust.xmf,7,-1.24224e-06,6.09845e-06,0,-2.71698e-07,-1.0986e+09,-1.0981e+09,-1.09851e+09,-18638.5,0.00600704,0.0542825,0,0.0546138,26050.1,-40000,0,47734.8,18638.5
step02_gravity_refstate-crust.xmf,8,-1.5418e-06,6.34106e-06,0,-5.0538e-07,-1.09862e+09,-1.09808e+09,-1.09852e+09,-34669.1,0.00830419,0.0586968,0,0.0592814,24396.4,-40000,0,46852.8,34669.1
step02_gravity_refstate-crust.xmf,9,-1.84499e-06,6.56504e-06,0,-8.12693e-07,-1.09865e+09,-1.09807e+09,-1.09852e+09,-55750.8,0.0109791,0.0638851,0,0.0648216,22813.7,-40000,0,46048.5,55750.8
step02_gravity_refstate-crust.xmf,10,-2.13872e-06,6.75268e-06,0,-1.197e-06,-1.09867e+09,-1.09806e+09,-1.09852e+09,-82114,0.0139938,0.0699009,0,0.0712879,21297.9,-40000,0,45316.6,82114
step02_gravity_refstate-crust.xmf,11,-2.4083e-06,6.88983e-06,0,-1.66107e-06,-1.09869e+09,-1.09806e+09,-1.09853e+09,-113950,0.017293,0.0767918,0,0.0787149,19844.8,-40000,0,44652.2,113950
step02_gravity_refstate-crust.xmf,12,-2.63458e-06,6.93652e-06,0,-2.21881e-06,-1.09872e+09,-1.09806e+09,-1.09854e+09,-152211,0.0208043,0.0845942,0,0.0871149,18450.5,-40000,0,44050.2,152211
step02_gravity_refstate-crust.xmf,13,-2.79544e-06,6.9135e-06,0,-2.82886e-06,-1.09874e+09,-1.09807e+09,-1.09854e+09,-194060,0.0244363,0.0933256,0,0.0964718,17111.7,-40000,0,43506.4,194060
step02_gravity_refstate-crust.xmf,14,-2.86175e-06,6.74703e-06,0,-3.52487e-06,-1.09875e+09,-1.09809e+09,-1.09855e+09,-241806,0.0280814,0.102987,0,0.106747,15824.5,-40000,0,43016.5,241806
step02_gravity_refstate-crust.xmf,15,-2.82254e-06,6.44512e-06,0,-4.26781e-06,-1.09876e+09,-1.09812e+09,-1.09857e+09,-292772,0.0316182,0.113556,0,0.117876,14585.2,-40000,0,42576.1,292772
step02_gravity_refstate-crust.xmf,16,-2.67205e-06,5.97077e-06,0,-5.04524e-06,-1.09876e+09,-1.09817e+09,-1.09858e+09,-346104,0.0349053,0.124985,0,0.129767,13389.8,-40000,0,42181.6,346104
step02_gravity_refstate-crust.xmf,17,-2.34447e-06,5.2984e-06,0,-5.82795e-06,-1.09876e+09,-1.09823e+09,-1.09859e+09,-399798,0.0378037,0.137192,0,0.142305,12234.4,-40000,0,41829.2,399798
step02_gravity_refstate-crust.xmf,18,-1.84693e-06,4.42007e-06,0,-6.57637e-06,-1.09874e+09,-1.09831e+09,-1.09861e+09,-451139,0.0401522,0.150061,0,0.15534,11115.2,-40000,0,41515.6,451139
step02_gravity_refstate-crust.xmf,19,-1.13656e-06,3.35361e-06,0,-7.21448e-06,-1.0987e+09,-1.0984e+09,-1.09863e+09,-494913,0.0417943,0.163435,0,0.168694,10028,-40000,0,41237.9,494913
step02_gravity_refstate-crust.xmf,20,-3.02467e-07,2.03256e-06,0,-7.77508e-06,-1.09867e+09,-1.09851e+09,-1.09865e+09,-533370,0.0425779,0.177115,0,0.182161,8968.72,-40000,0,40993.1,533370
step02_gravity_refstate-crust.xmf,21,7.33819e-07,5.49735e-07,0,-8.11414e-06,-1.09862e+09,-1.09863e+09,-1.09867e+09,-556630,0.0423596,0.190856,0,0.1955,7933.15,-40000,0,40779.1,556630
step02_gravity_refstate-crust.xmf,22,1.91985e-06,-1.08622e-06,0,-8.21328e-06,-1.09855e+09,-1.09876e+09,-1.09868e+09,-563431,0.0410233,0.204368,0,0.208445,6916.9,-40000,0,40593.6,563431
step02_gravity_refstate-crust.xmf,23,3.19168e-06,-2.80304e-06,0,-8.00452e-06,-1.09848e+09,-1.0989e+09,-1.0987e+09,-549110,0.038472,0.217315,0,0.220694,5915.44,-40000,0,40435,549110
step02_gravity_refstate-crust.xmf,24,4.50604e-06,-4.46652e-06,0,-7.41547e-06,-1.09841e+09,-1.09902e+09,-1.09872e+09,-508701,0.0346693,0.229326,0,0.231931,4924.17,-40000,0,40302,508701
step02_gravity_refstate-crust.xmf,25,5.75668e-06,-6.14174e-06,0,-6.54382e-06,-1.09834e+09,-1.09916e+09,-1.09874e+09,-448906,0.029621,0.239996,0,0.241817,3938.38,-40000,0,40193.4,448906
step02_gravity_refstate-crust.xmf,26,6.87351e-06,-7.54895e-06,0,-5.27967e-06,-1.09828e+09,-1.09927e+09,-1.09875e+09,-362185,0.0234071,0.248909,0,0.250007,2953.78,-40000,0,40108.9,362185
step02_gravity_refstate-crust.xmf,27,7.75452e-06,-8.66254e-06,0,-3.71134e-06,-1.09823e+09,-1.09935e+09,-1.09876e+09,-254598,0.0162066,0.255638,0,0.256151,1969.19,-40000,0,40048.4,254598
step02_gravity_refstate-crust.xmf,28,8.31175e-06,-9.36416e-06,0,-1.90575e-06,-1.09819e+09,-1.09941e+09,-1.09876e+09,-130734,0.00828819,0.259828,0,0.259961,984.598,-40000,0,40012.1,130734
step02_gravity_refstate-crust.xmf,29,8.52272e-06,-9.60362e-06,0,2.29805e-08,-1.09818e+09,-1.09942e+09,-1.09877e+09,1576.47,-1.9222e-07,0.261255,-0,0.261255,0,-40000,0,40000,1576.47
step02_gravity_refstate-crust.xmf,30,8.3272e-06,-9.3411e-06,0,1.9419e-06,-1.09819e+09,-1.0994e+09,-1.09876e+09,133214,-0.00828872,0.259829,-0,0.259961,-984.598,-40000,-0,40012.1,133214
step02_gravity_refstate-crust.xmf,31,7.74975e-06,-8.61188e-06,0,3.74386e-06,-1.09823e+09,-1.09935e+09,-1.09876e+09,256828,-0.0162071,0.255639,-0,0.256152,-1969.19,-40000,-0,40048.4,256828
step02_gravity_refstate-crust.xmf,32,6.84349e-06,-7.52849e-06,0,5.25948e-06,-1.09828e+09,-1.09927e+09,-1.09875e+09,360800,-0.023408,0.248909,-0,0.250007,-2953.78,-40000,-0,40108.9,360800
step02_gravity_refstate-crust.xmf,33,5.74178e-06,-6.0477e-06,0,6.55579e-06,-1.09834e+09,-1.09915e+09,-1.09873e+09,449727,-0.0296208,0.239996,-0,0.241817,-3938.38,-40000,-0,40193.4,449727
step02_gravity_refstate-crust.xmf,34,4.4813e-06,-4.41867e-06,0,7.45351e-06,-1.09841e+09,-1.09902e+09,-1.09872e+09,511311,-0.034669,0.229324,-0,0.23193,-4924.17,-40000,-0,40302,511311
step02_gravity_refstate-crust.xmf,35,3.17507e-06,-2.70331e-06,0,7.98736e-06,-1.09848e+09,-1.09889e+09,-1.0987e+09,547933,-0.0384719,0.217314,-0,0.220693,-5915.44,-40000,-0,40435,547933
step02_gravity_refstate-crust.xmf,36,1.89566e-06,-9.9738e-07,0,8.19175e-06,-1.09855e+09,-1.09875e+09,-1.09868e+09,561954,-0.0410234,0.204368,-0,0.208445,-6916.9,-40000,-0,40593.6,561954
step02_gravity_refstate-crust.xmf,37,7.23858e-07,6.11977e-07,0,8.08881e-06,-1.09861e+09,-1.09862e+09,-1.09866e+09,554892,-0.0423596,0.190856,-0,0.1955,-7933.15,-40000,-0,40779.1,554892
step02_gravity_refstate-crust.xmf,38,-3.12235e-07,2.08169e-06,0,7.74546e-06,-1.09867e+09,-1.0985e+09,-1.09864e+09,531338,-0.0425781,0.177115,-0,0.182161,-8968.72,-40000,-0,40993.1,531338
step02_gravity_refstate-crust.xmf,39,-1.17428e-06,3.36594e-06,0,7.21185e-06,-1.09871e+09,-1.0984e+09,-1.09863e+09,494733,-0.0417943,0.163435,-0,0.168694,-10028,-40000,-0,41237.9,494733
step02_gravity_refstate-crust.xmf,40,-1.85305e-06,4.44488e-06,0,6.54708e-06,-1.09874e+09,-1.0983e+09,-1.09861e+09,449130,-0.0401524,0.150061,-0,0.15534,-11115.2,-40000,-0,41515.6,449130
step02_gravity_refstate-crust.xmf,41,-2.34632e-06,5.31077e-06,0,5.80297e-06,-1.09875e+09,-1.09823e+09,-1.09859e+09,398084,-0.037804,0.137192,-0,0.142306,-12234.4,-40000,-0,41829.2,398084
step02_gravity_refstate-crust.xmf,42,-2.66649e-06,5.96741e-06,0,5.02361e-06,-1.09876e+09,-1.09817e+09,-1.09858e+09,344620,-0.0349057,0.124984,-0,0.129767,-13389.8,-40000,-0,42181.6,344620
step02_gravity_refstate-crust.xmf,43,-2.83463e-06,6.43132e-06,0,4.25388e-06,-1.09876e+09,-1.09813e+09,-1.09857e+09,291816,-0.0316178,0.113556,-0,0.117875,-14585.2,-40000,-0,42576.1,291816
step02_gravity_refstate-crust.xmf,44,-2.86766e-06,6.73143e-06,0,3.51211e-06,-1.09875e+09,-1.09809e+09,-1.09856e+09,240930,-0.0280812,0.102987,-0,0.106747,-15824.5,-40000,-0,43016.5,240930
step02_gravity_refstate-crust.xmf,45,-2.79111e-06,6.88792e-06,0,2.82431e-06,-1.09874e+09,-1.09807e+09,-1.09855e+09,193748,-0.0244363,0.0933252,-0,0.0964713,-17111.7,-40000,-0,43506.4,193748
step02_gravity_refstate-crust.xmf,46,-2.62799e-06,6.92178e-06,0,2.20507e-06,-1.09872e+09,-1.09806e+09,-1.09854e+09,151268,-0.0208042,0.0845939,-0,0.0871145,-18450.5,-40000,-0,44050.2,151268
step02_gravity_refstate-crust.xmf,47,-2.40204e-06,6.85949e-06,0,1.6625e-06,-1.0987e+09,-1.09806e+09,-1.09853e+09,114048,-0.0172929,0.0767916,-0,0.0787147,-19844.8,-40000,-0,44652.2,114048
step02_gravity_refstate-crust.xmf,48,-2.13292e-06,6.72319e-06,0,1.20074e-06,-1.09867e+09,-1.09806e+09,-1.09852e+09,82371,-0.0139936,0.0699009,-0,0.0712878,-21297.9,-40000,-0,45316.6,82371
step02_gravity_refstate-crust.xmf,49,-1.83913e-06,6.53512e-06,0,8.19363e-07,-1.09865e+09,-1.09807e+09,-1.09852e+09,56208.3,-0.0109791,0.0638852,-0,0.0648217,-22813.7,-40000,-0,46048.5,56208.3
step02_gravity_refstate-crust.xmf,50,-1.53641e-06,6.314e-06,0,5.14842e-07,-1.09862e+09,-1.09808e+09,-1.09852e+09,35318.2,-0.00830445,0.058697,-0,0.0592816,-24396.4,-40000,-0,46852.8,35318.2
step02_gravity_refstate-crust.xmf,51,-1.23799e-06,6.07728e-06,0,2.8203e-07,-1.0986e+09,-1.0981e+09,-1.09851e+09,19347.3,-0.00600723,0.0542825,-0,0.0546139,-26050.1,-40000,-0,47734.8,19347.3
step02_gravity_refstate-crust.xmf,52,-9.54869e-07,5.83829e-06,0,1.12953e-07,-1.09858e+09,-1.09811e+09,-1.09851e+09,7748.55,-0.00410795,0.0505843,-0,0.0507509,-27779.3,-40000,-0,48700,7748.55
step02_gravity_refstate-crust.xmf,53,-6.96799e-07,5.60889e-06,0,4.21889e-10,-1.09856e+09,-1.09813e+09,-1.09851e+09,28.9416,-0.00261042,0.0475457,-0,0.0476173,-29588.3,-40000,-0,49754.1,28.9416
step02_gravity_refstate-crust.xmf,54,-4.71681e-07,5.40143e-06,0,-6.21661e-08,-1.09854e+09,-1.09814e+09,-1.09851e+09,-4264.59,-0.00150184,0.0451144,-0,0.0451394,-31481.8,-40000,-0,50902.9,4264.59
step02_gravity_refstate-crust.xmf,55,-2.85956e-07,5.22606e-06,0,-8.29056e-08,-1.09853e+09,-1.09815e+09,-1.09851e+09,-5687.32,-0.00075068,0.043246,-0,0.0432525,-33464.7,-40000,-0,52152.5,5687.32
step02_gravity_refstate-crust.xmf,56,-1.42461e-07,5.09016e-06,0,-7.47011e-08,-1.09852e+09,-1.09816e+09,-1.09851e+09,-5124.49,-0.000301226,0.0419075,-0,0.0419085,-35541.8,-40000,-0,53509.1,5124.49
step02_gravity_refstate-crust.xmf,57,-5.34985e-08,5.00282e-06,0,-4.52196e-08,-1.09851e+09,-1.09817e+09,-1.09851e+09,-3102.07,-8.56773e-05,0.0410887,-0,0.0410888,-37718.5,-40000,-0,54978.9,3102.07
step02_gravity_refstate-crust.xmf,58,-2.16061e-08,4.96708e-06,0,-7.62513e-09,-1.09851e+09,-1.09817e+09,-1.09851e+09,-523.084,-5.81127e-20,0.0408058,-0,0.0408058,-40000,-40000,-0,56568.5,523.084
step02_gravity_refstate-crust.xmf,59,-3.32093e-07,4.9054e-06,0,1.62522e-09,-1.03714e+09,-1.03678e+09,-1.03712e+09,111.49,7.02823e-20,0.0518628,0,0.0518628,40000,-37764.5,0,55010.5,111.49
step02_gravity_refstate-crust.xmf,60,-2.64143e-07,4.94902e-06,0,6.93921e-09,-1.05443e+09,-1.05407e+09,-1.05441e+09,476.03,0.000409903,0.0489273,0,0.048929,38402.6,-38394.1,0,54303.5,476.03
step02_gravity_refstate-crust.xmf,61,-5.74011e-07,4.78943e-06,0,3.02757e-09,-9.74817e+08,-9.74449e+08,-9.74778e+08,207.691,2.27275e-19,0.0628806,0,0.0628806,40000,-35494.3,0,53477.5,207.691
step02_gravity_refstate-crust.xmf,62,-4.7921e-07,4.86374e-06,0,-3.32069e-08,-1.00543e+09,-1.00507e+09,-1.0054e+09,-2277.99,0.000792008,0.0577113,0,0.0577167,38305.4,-36609.4,0,52986.3,2277.99
step02_gravity_refstate-crust.xmf,63,-3.85377e-07,4.97463e-06,0,-1.628e-08,-1.03945e+09,-1.03909e+09,-1.03943e+09,-1116.81,0.00118498,0.0522492,0,0.0522626,36544.7,-37848.5,0,52612,1116.81
step02_gravity_refstate-crust.xmf,64,-6.74589e-07,4.72537e-06,0,-7.28915e-08,-9.46461e+08,-9.4609e+08,-9.46414e+08,-5000.36,0.00122978,0.0680608,0,0.0680719,38151.4,-34461.4,0,51411.3,5000.36
step02_gravity_refstate-crust.xmf,65,-7.51991e-07,4.60178e-06,0,3.15485e-09,-9.11366e+08,-9.10999e+08,-9.11315e+08,216.423,3.60208e-19,0.0737349,0,0.0737349,40000,-33183.3,0,51972.4,216.423
step02_gravity_refstate-crust.xmf,66,-5.98558e-07,4.85043e-06,0,-9.33347e-08,-9.82264e+08,-9.8189e+08,-9.82223e+08,-6402.76,0.00183027,0.062384,0,0.0624108,36754.2,-35765.4,0,51283.9,6402.76
step02_gravity_refstate-crust.xmf,67,-4.50109e-07,5.09122e-06,0,-3.20472e-08,-1.04921e+09,-1.04883e+09,-1.04918e+09,-2198.44,0.00188479,0.0517904,0,0.0518246,34395.1,-38203.5,0,51405.5,2198.44
step02_gravity_refstate-crust.xmf,68,-8.29883e-07,4.4994e-06,0,-1.41092e-07,-8.80096e+08,-8.79731e+08,-8.80039e+08,-9678.93,0.00190858,0.0793813,0,0.0794043,37678.7,-32044.4,0,49462.4,9678.93
step02_gravity_refstate-crust.xmf,69,-7.57016e-07,4.72352e-06,0,-1.86379e-07,-9.33296e+08,-9.3292e+08,-9.33244e+08,-12785.6,0.00282575,0.0713192,0,0.0713752,36064.5,-33981.8,0,49552.1,12785.6
step02_gravity_refstate-crust.xmf,70,-6.59765e-07,4.93889e-06,0,-1.55347e-07,-9.88275e+08,-9.8789e+08,-9.88229e+08,-10656.8,0.00298232,0.0626163,0,0.0626873,34775.3,-35984.1,0,50041.8,10656.8
step02_gravity_refstate-crust.xmf,71,-5.78719e-07,5.2403e-06,0,-6.59894e-08,-1.05414e+09,-1.05374e+09,-1.0541e+09,-4526.88,0.00274927,0.0526792,0,0.0527509,32427.5,-38382.9,0,50247.3,4526.88
step02_gravity_refstate-crust.xmf,72,-8.73244e-07,4.35866e-06,0,1.07449e-09,-8.46623e+08,-8.46264e+08,-8.46563e+08,73.7103,3.52188e-19,0.0842973,0,0.0842973,40000,-30825.4,0,50499.5,73.7103
step02_gravity_refstate-crust.xmf,73,-7.70924e-07,5.4006e-06,0,-1.53724e-07,-1.05556e+09,-1.05514e+09,-1.05551e+09,-10545.5,0.00397228,0.0548106,0,0.0549543,30517.6,-38434,0,49076.5,10545.5
step02_gravity_refstate-crust.xmf,74,-6.61921e-07,5.07788e-06,0,-1.56208e-07,-1.01343e+09,-1.01303e+09,-1.01338e+09,-10715.9,0.00340646,0.059392,0,0.0594896,33307.5,-36900,0,49709.2,10715.9
step02_gravity_refstate-crust.xmf,75,-9.22477e-07,4.21178e-06,0,-1.57883e-07,-8.11816e+08,-8.11464e+08,-8.11753e+08,-10830.7,0.00183918,0.0900962,0,0.090115,37986.6,-29557.8,0,48131.6,10830.7
step02_gravity_refstate-crust.xmf,76,-9.65972e-07,5.59625e-06,0,-2.59264e-07,-1.0575e+09,-1.05705e+09,-1.05743e+09,-17785.5,0.00546218,0.0574258,0,0.057685,28688.9,-38504,0,48016.8,17785.5
step02_gravity_refstate-crust.xmf,77,-8.87771e-07,4.53076e-06,0,-3.098e-07,-8.78108e+08,-8.77736e+08,-8.78047e+08,-21252.3,0.00398435,0.0812106,0,0.0813083,35276.8,-31971.8,0,47609.3,21252.3
step02_gravity_refstate-crust.xmf,78,-8.58131e-07,4.75848e-06,0,-3.31005e-07,-9.25512e+08,-9.25127e+08,-9.25453e+08,-22706.9,0.00466652,0.0745131,0,0.0746591,33905,-33698.1,0,47802.8,22706.9
step02_gravity_refstate-crust.xmf,79,-8.35582e-07,4.98441e-06,0,-3.14084e-07,-9.70574e+08,-9.70175e+08,-9.70517e+08,-21546.2,0.00498723,0.0680793,0,0.0682617,32568.2,-35339.1,0,48057.6,21546.2
step02_gravity_refstate-crust.xmf,80,-8.20489e-07,5.19425e-06,0,-2.66952e-07,-1.01029e+09,-1.00988e+09,-1.01024e+09,-18312.9,0.00491462,0.0622939,0,0.0624875,31389.8,-36785.4,0,48357.9,18312.9
step02_gravity_refstate-crust.xmf,81,-9.3701e-07,4.06193e-06,0,9.06637e-10,-7.80417e+08,-7.80074e+08,-7.80353e+08,62.1953,4.10184e-19,0.0944487,0,0.0944487,40000,-28414.4,0,49065,62.1953
step02_gravity_refstate-crust.xmf,82,-9.19529e-07,4.32526e-06,0,-2.80732e-07,-8.34689e+08,-8.34329e+08,-8.34626e+08,-19258.2,0.00335573,0.0874549,0,0.0875193,36261.3,-30390.7,0,47312.5,19258.2
step02_gravity_refstate-crust.xmf,83,-9.90328e-07,5.33882e-06,0,-3.96694e-07,-1.01467e+09,-1.01424e+09,-1.0146e+09,-27213.2,0.00643174,0.0643948,0,0.0647152,29540.7,-36944.4,0,47302.6,27213.2
step02_gravity_refstate-crust.xmf,84,-1.19871e-06,5.78986e-06,0,-4.26622e-07,-1.05817e+09,-1.05769e+09,-1.05809e+09,-29266.3,0.00731674,0.0609057,0,0.0613436,26944.4,-38528,0,47015,29266.3
step02_gravity_refstate-crust.xmf,85,-9.57989e-07,3.90661e-06,0,-1.99927e-07,-7.48133e+08,-7.47799e+08,-7.48067e+08,-13715,0.00212142,0.0995947,0,0.0996173,37771.6,-27238.7,0,46568.7,13715
step02_gravity_refstate-crust.xmf,86,-9.60816e-07,4.08888e-06,0,-3.38475e-07,-7.83634e+08,-7.83287e+08,-7.83568e+08,-23219.4,0.00373714,0.0954382,0,0.0955114,36034.4,-28531.4,0,45962.1,23219.4
step02_gravity_refstate-crust.xmf,87,-1.15887e-06,5.50274e-06,0,-5.39905e-07,-1.01808e+09,-1.01763e+09,-1.018e+09,-37037.5,0.00812725,0.0671263,0,0.0676165,27832.1,-37068.2,0,46353.8,37037.5
step02_gravity_refstate-crust.xmf,88,-9.67598e-07,4.29283e-06,0,-4.44975e-07,-8.22764e+08,-8.22403e+08,-8.22697e+08,-30525.3,0.00512973,0.0908878,0,0.0910325,34443,-29956.3,0,45647.6,30525.3
step02_gravity_refstate-crust.xmf,89,-9.71704e-07,4.54188e-06,0,-4.97485e-07,-8.70089e+08,-8.6971e+08,-8.70022e+08,-34127.5,0.00608967,0.0848474,0,0.0850656,33090.7,-31679.5,0,45810.4,34127.5
step02_gravity_refstate-crust.xmf,90,-9.84352e-07,4.79294e-06,0,-5.21655e-07,-9.15777e+08,-9.1538e+08,-9.15709e+08,-35785.5,0.00680794,0.078967,0,0.0792599,31743.4,-33343.2,0,46037.1,35785.5
step02_gravity_refstate-crust.xmf,91,-1.02413e-06,5.07639e-06,0,-5.20773e-07,-9.62844e+08,-9.62425e+08,-9.62773e+08,-35725,0.00731501,0.0729532,0,0.0733191,30252.9,-35057,0,46305.9,35725
step02_gravity_refstate-crust.xmf,92,-1.45135e-06,5.97714e-06,0,-6.63291e-07,-1.05751e+09,-1.057e+09,-1.05741e+09,-45501.8,0.0096225,0.0654601,0,0.0661636,25231.5,-38502.9,0,46033.7,45501.8
step02_gravity_refstate-crust.xmf,93,-9.57583e-07,3.72417e-06,0,-3.08109e-11,-7.12578e+08,-7.12257e+08,-7.12512e+08,-2.11363,4.7503e-19,0.104066,0,0.104066,40000,-25944,0,47676.9,2.11363
step02_gravity_refstate-crust.xmf,94,-1.12904e-06,5.26198e-06,0,-6.13325e-07,-9.8272e+08,-9.82282e+08,-9.82643e+08,-42074.1,0.00851872,0.0723968,0,0.0728963,28600,-35780.5,0,45806.2,42074.1
step02_gravity_refstate-crust.xmf,95,-1.36151e-06,5.643e-06,0,-7.63384e-07,-1.01754e+09,-1.01706e+09,-1.01745e+09,-52368.2,0.010307,0.0714247,0,0.0721646,26120.5,-37047.8,0,45330.2,52368.2
step02_gravity_refstate-crust.xmf,96,-9.52795e-07,3.50142e-06,0,-2.49501e-07,-6.70777e+08,-6.70471e+08,-6.70711e+08,-17115.7,0.00243796,0.11018,0,0.110207,37435,-24421.9,0,44696.8,17115.7
step02_gravity_refstate-crust.xmf,97,-9.75259e-07,3.78685e-06,0,-4.31265e-07,-7.24524e+08,-7.24197e+08,-7.24457e+08,-29584.8,0.00440843,0.104412,0,0.104505,35413.8,-26378.9,0,44158.6,29584.8
step02_gravity_refstate-crust.xmf,98,-9.97886e-07,4.02328e-06,0,-5.67491e-07,-7.68778e+08,-7.68433e+08,-7.68709e+08,-38929.9,0.00603354,0.0998641,0,0.100046,33722.5,-27990.3,0,43825.4,38929.9
step02_gravity_refstate-crust.xmf,99,-1.27502e-06,5.33393e-06,0,-8.14928e-07,-9.78117e+08,-9.77664e+08,-9.7803e+08,-55904,0.0104694,0.0767391,0,0.07745,27098.9,-35612.4,0,44750.4,55904
step02_gravity_refstate-crust.xmf,100,-1.02575e-06,4.27823e-06,0,-6.58546e-07,-8.15181e+08,-8.14817e+08,-8.15111e+08,-45176.3,0.00731482,0.0947607,0,0.0950426,32291.1,-29680,0,43859.1,45176.3
step02_gravity_refstate-crust.xmf,101,-1.06132e-06,4.54075e-06,0,-7.16775e-07,-8.61089e+08,-8.60704e+08,-8.61016e+08,-49170.8,0.00832954,0.089494,0,0.0898808,30977.2,-31351.5,0,44073.9,49170.8
step02_gravity_refstate-crust.xmf,102,-1.11345e-06,4.80556e-06,0,-7.58619e-07,-9.0423e+08,-9.03824e+08,-9.04153e+08,-52041.3,0.00918895,0.0846103,0,0.0851078,29654.8,-32922.3,0,44309,52041.3
step02_gravity_refstate-crust.xmf,103,-1.18993e-06,5.05835e-06,0,-8.06072e-07,-9.40926e+08,-9.40498e+08,-9.40845e+08,-55296.6,0.0100367,0.0809463,0,0.0815662,28279.7,-34258.4,0,44422.7,55296.6
step02_gravity_refstate-crust.xmf,104,-1.56903e-06,5.73921e-06,0,-1.07766e-06,-1.01315e+09,-1.01265e+09,-1.01305e+09,-73927.1,0.0130399,0.0775306,0,0.0786195,24380.3,-36887.4,0,44216.3,73927.1
step02_gravity_refstate-crust.xmf,105,-1.70932e-06,6.13308e-06,0,-9.88711e-07,-1.05465e+09,-1.05411e+09,-1.05453e+09,-67825.6,0.0124501,0.0714365,0,0.0725133,23540.3,-38398.2,0,45039.6,67825.6
step02_gravity_refstate-crust.xmf,106,-9.41197e-07,3.35262e-06,0,3.7439e-10,-6.42946e+08,-6.42652e+08,-6.42882e+08,25.6832,7.83355e-20,0.113036,0,0.113036,40000,-23408.5,0,46346.1,25.6832
step02_gravity_refstate-crust.xmf,107,-1.43538e-06,5.39228e-06,0,-1.09624e-06,-9.73548e+08,-9.7308e+08,-9.7345e+08,-75202.1,0.0129426,0.0823859,0,0.0833963,25378.3,-35445.5,0,43594.1,75202.1
step02_gravity_refstate-crust.xmf,108,-1.94198e-06,6.27957e-06,0,-1.34164e-06,-1.05753e+09,-1.05696e+09,-1.05739e+09,-92036.3,0.0151887,0.0768284,0,0.0783154,21956.9,-38502.1,0,44322.9,92036.3
step02_gravity_refstate-crust.xmf,109,-9.21125e-07,3.13619e-06,0,-1.75834e-07,-6.04214e+08,-6.03936e+08,-6.04151e+08,-12062.2,0.00162505,0.1179,0,0.117911,38236.3,-21998.1,0,44112.7,12062.2
step02_gravity_refstate-crust.xmf,110,-9.03271e-07,2.95655e-06,0,-1.09948e-09,-5.71358e+08,-5.71093e+08,-5.71296e+08,-75.4243,4.01369e-19,0.121259,0,0.121259,40000,-20801.8,0,45085.6,75.4243
step02_gravity_refstate-crust.xmf,111,-9.5326e-07,3.42449e-06,0,-5.42432e-07,-6.59188e+08,-6.58888e+08,-6.59123e+08,-37210.8,0.00517309,0.113809,0,0.113926,34546.4,-23999.8,0,42064.8,37210.8
step02_gravity_refstate-crust.xmf,112,-9.89208e-07,3.7087e-06,0,-6.83829e-07,-7.117e+08,-7.11378e+08,-7.11632e+08,-46910.7,0.00678954,0.108833,0,0.109045,32981.4,-25911.9,0,41942.8,46910.7
step02_gravity_refstate-crust.xmf,113,-1.0303e-06,3.97823e-06,0,-8.0378e-07,-7.60585e+08,-7.60242e+08,-7.60515e+08,-55139.3,0.00828425,0.104171,0,0.1045,31514.3,-27691.9,0,41952.3,55139.3
step02_gravity_refstate-crust.xmf,114,-1.32091e-06,5.07995e-06,0,-1.08126e-06,-9.33982e+08,-9.33543e+08,-9.33891e+08,-74174.3,0.0124935,0.0868218,0,0.0877161,26447,-34005.1,0,43078.9,74174.3
step02_gravity_refstate-crust.xmf,115,-1.08081e-06,4.25183e-06,0,-8.95854e-07,-8.08236e+08,-8.0787e+08,-8.08162e+08,-61455.6,0.00957435,0.0994061,0,0.0998662,30177.5,-29426.9,0,42150,61455.6
step02_gravity_refstate-crust.xmf,116,-1.14409e-06,4.52449e-06,0,-9.69502e-07,-8.53119e+08,-8.5273e+08,-8.5304e+08,-66507.8,0.0106983,0.0948664,0,0.0954677,28898.1,-31061,0,42425.1,66507.8
step02_gravity_refstate-crust.xmf,117,-1.22606e-06,4.78752e-06,0,-1.04836e-06,-8.93153e+08,-8.92741e+08,-8.93069e+08,-71917.4,0.0118196,0.0912367,0,0.0919991,27553.7,-32518.6,0,42622.4,71917.4
step02_gravity_refstate-crust.xmf,118,-1.57598e-06,5.3883e-06,0,-1.46073e-06,-9.66815e+08,-9.66337e+08,-9.66707e+08,-100206,0.0158233,0.0896482,0,0.0910339,23589.6,-35199.8,0,42373.3,100206
step02_gravity_refstate-crust.xmf,119,-1.78056e-06,5.77682e-06,0,-1.52583e-06,-1.00785e+09,-1.00733e+09,-1.00773e+09,-104672,0.0164727,0.0856981,0,0.0872669,22446.7,-36693.5,0,43014.7,104672
step02_gravity_refstate-crust.xmf,120,-2.15162e-06,6.38958e-06,0,-1.72618e-06,-1.06066e+09,-1.06008e+09,-1.06051e+09,-118416,0.0179356,0.0824941,0,0.0844214,20536.2,-38615.6,0,43736.7,118416
step02_gravity_refstate-crust.xmf,121,-8.76063e-07,2.7506e-06,0,-2.31601e-07,-5.34904e+08,-5.34655e+08,-5.34844e+08,-15887.8,0.00204483,0.125537,0,0.125553,37669.5,-19474.4,0,42405.7,15887.8
step02_gravity_refstate-crust.xmf,122,-9.16939e-07,3.10899e-06,0,-3.93947e-07,-6.01083e+08,-6.00807e+08,-6.0102e+08,-27024.8,0.0036044,0.119386,0,0.11944,36076.9,-21884.1,0,42195.5,27024.8
step02_gravity_refstate-crust.xmf,123,-8.54404e-07,2.5499e-06,0,8.17536e-15,-4.97635e+08,-4.97401e+08,-4.97576e+08,0.000560829,8.41731e-20,0.128647,0,0.128647,40000,-18117.4,0,43911.7,0.000560829
step02_gravity_refstate-crust.xmf,124,-1.42671e-06,5.05918e-06,0,-1.4007e-06,-9.274e+08,-9.26955e+08,-9.27302e+08,-96088.2,0.0150963,0.093477,0,0.0946882,24646.5,-33765,0,41803.4,96088.2
step02_gravity_refstate-crust.xmf,125,-1.95707e-06,5.98454e-06,0,-1.77063e-06,-1.02694e+09,-1.0264e+09,-1.02681e+09,-121465,0.0182692,0.0874106,0,0.0892994,21100.7,-37388.2,0,42931.6,121465
step02_gravity_refstate-crust.xmf,126,-8.28053e-07,2.35026e-06,0,-1.91016e-07,-4.62628e+08,-4.6241e+08,-4.62572e+08,-13103.7,0.0016563,0.132117,0,0.132127,38007.7,-16842.7,0,41572.4,13103.7
step02_gravity_refstate-crust.xmf,127,-8.10434e-07,2.13803e-06,0,-5.24292e-10,-4.21598e+08,-4.21395e+08,-4.21542e+08,-35.9664,2.54114e-19,0.135125,0,0.135125,40000,-15348.7,0,42843.7,35.9664
step02_gravity_refstate-crust.xmf,128,-8.96656e-07,3.0076e-06,0,-6.61953e-07,-5.88291e+08,-5.88023e+08,-5.88229e+08,-45410,0.00593972,0.123326,0,0.123469,33452,-21418.3,0,39721.3,45410
step02_gravity_refstate-crust.xmf,129,-9.46824e-07,3.36049e-06,0,-8.02135e-07,-6.52856e+08,-6.52561e+08,-6.52791e+08,-55026.5,0.00750738,0.117695,0,0.117934,32066.3,-23769.3,0,39915.2,55026.5
step02_gravity_refstate-crust.xmf,130,-9.95264e-07,3.64565e-06,0,-9.34444e-07,-7.05174e+08,-7.04856e+08,-7.05106e+08,-64102.9,0.0090462,0.113263,0,0.113624,30691.3,-25674.2,0,40014,64102.9
step02_gravity_refstate-crust.xmf,131,-1.05242e-06,3.92381e-06,0,-1.05348e-06,-7.54717e+08,-7.54376e+08,-7.54645e+08,-72268.5,0.010523,0.108994,0,0.109501,29362.7,-27478.1,0,40214.6,72268.5
step02_gravity_refstate-crust.xmf,132,-1.30467e-06,4.75696e-06,0,-1.33267e-06,-8.8706e+08,-8.86644e+08,-8.86971e+08,-91421.4,0.0142035,0.0972759,0,0.0983073,25731.5,-32296.4,0,41293.7,91421.4
step02_gravity_refstate-crust.xmf,133,-1.12089e-06,4.2004e-06,0,-1.15399e-06,-8.01639e+08,-8.01274e+08,-8.01562e+08,-79163.4,0.0118521,0.104798,0,0.105466,28126.4,-29186.5,0,40533.3,79163.4
step02_gravity_refstate-crust.xmf,134,-1.20344e-06,4.4733e-06,0,-1.24821e-06,-8.45249e+08,-8.44859e+08,-8.45166e+08,-85627.2,0.0130971,0.100987,0,0.101833,26904.4,-30774.2,0,40876.6,85627.2
step02_gravity_refstate-crust.xmf,135,-1.48986e-06,4.97554e-06,0,-1.76212e-06,-9.20802e+08,-9.20358e+08,-9.20699e+08,-120881,0.0177769,0.101,0,0.102553,22874.6,-33524.4,0,40584.9,120881
step02_gravity_refstate-crust.xmf,136,-1.65829e-06,5.29022e-06,0,-1.88375e-06,-9.58331e+08,-9.57854e+08,-9.58217e+08,-129225,0.0188571,0.0982437,0,0.100037,21826.2,-34890.5,0,41154.9,129225
step02_gravity_refstate-crust.xmf,137,-1.83664e-06,5.57926e-06,0,-2.04622e-06,-9.90153e+08,-9.89644e+08,-9.90027e+08,-140371,0.0200821,0.0968318,0,0.0988923,20741.4,-36048.7,0,41589.8,140371
step02_gravity_refstate-crust.xmf,138,-2.06033e-06,5.95158e-06,0,-2.17411e-06,-1.02483e+09,-1.02428e+09,-1.02469e+09,-149144,0.0209487,0.0942296,0,0.0965301,19803.9,-37311,0,42241,149144
step02_gravity_refstate-crust.xmf,139,-2.3297e-06,6.43043e-06,0,-2.20791e-06,-1.06228e+09,-1.06168e+09,-1.06212e+09,-151463,0.0210718,0.0896265,0,0.0920703,19102,-38673.9,0,43134.1,151463
step02_gravity_refstate-crust.xmf,140,-7.87346e-07,1.72762e-06,0,-1.77761e-09,-3.43063e+08,-3.4289e+08,-3.43009e+08,-121.944,3.82313e-19,0.140648,0,0.140648,40000,-12489,0,41904.4,121.944
step02_gravity_refstate-crust.xmf,141,-7.88303e-07,1.95657e-06,0,-2.54138e-07,-3.89103e+08,-3.88915e+08,-3.89049e+08,-17433.9,0.00229713,0.138252,0,0.138271,37106.9,-14165.5,0,39718.8,17433.9
step02_gravity_refstate-crust.xmf,142,-8.71457e-07,2.7761e-06,0,-4.72395e-07,-5.43171e+08,-5.42921e+08,-5.43111e+08,-32406.3,0.0041621,0.126227,0,0.126296,35266.5,-19775.4,0,40432.6,32406.3
step02_gravity_refstate-crust.xmf,143,-8.17766e-07,2.36343e-06,0,-4.41632e-07,-4.68895e+08,-4.68676e+08,-4.68839e+08,-30296,0.00380158,0.133058,0,0.133112,35413.2,-17070.9,0,39313,30296
step02_gravity_refstate-crust.xmf,144,-1.35046e-06,4.67996e-06,0,-1.64979e-06,-8.81567e+08,-8.81153e+08,-8.81474e+08,-113176,0.0166435,0.104027,0,0.10535,23929.6,-32096.1,0,40034.8,113176
step02_gravity_refstate-crust.xmf,145,-2.47788e-06,6.42199e-06,0,-2.72605e-06,-1.06749e+09,-1.06688e+09,-1.06732e+09,-187007,0.0240301,0.0963878,0,0.099338,17781.1,-38862.9,0,42737.5,187007
step02_gravity_refstate-crust.xmf,146,-7.7857e-07,1.51994e-06,0,-1.94206e-07,-3.015e+08,-3.01342e+08,-3.01447e+08,-13322.5,0.00197216,0.143616,0,0.143629,37500.1,-10975.6,0,39073.3,13322.5
step02_gravity_refstate-crust.xmf,147,-8.07106e-07,1.35057e-06,0,3.5076e-10,-2.61842e+08,-2.61694e+08,-2.61787e+08,24.0621,9.66368e-20,0.145193,0,0.145193,40000,-9531.44,0,41119.9,24.0621
step02_gravity_refstate-crust.xmf,148,-8.3092e-07,2.59249e-06,0,-6.48259e-07,-5.15303e+08,-5.15068e+08,-5.15246e+08,-44470.6,0.00561241,0.1308,0,0.130921,33425.7,-18760.8,0,38330.7,44470.6
step02_gravity_refstate-crust.xmf,149,-8.79581e-07,3.00585e-06,0,-9.13123e-07,-5.95779e+08,-5.95513e+08,-5.95719e+08,-62640.3,0.00814826,0.125956,0,0.126219,31009.3,-21691,0,37842.8,62640.3
step02_gravity_refstate-crust.xmf,150,-9.27491e-07,3.28447e-06,0,-1.05028e-06,-6.48361e+08,-6.48072e+08,-6.48297e+08,-72049,0.00963301,0.122126,0,0.122506,29770.1,-23605.6,0,37993.2,72049
step02_gravity_refstate-crust.xmf,151,-9.86578e-07,3.56935e-06,0,-1.18661e-06,-7.00918e+08,-7.00606e+08,-7.00851e+08,-81401.2,0.0111949,0.118172,0,0.118701,28501.3,-25519.2,0,38256.4,81401.2
step02_gravity_refstate-crust.xmf,152,-1.05292e-06,3.83802e-06,0,-1.31022e-06,-7.4882e+08,-7.48485e+08,-7.48748e+08,-89880.9,0.0126677,0.114512,0,0.11521,27308.5,-27263.2,0,38588,89880.9
step02_gravity_refstate-crust.xmf,153,-1.23322e-06,4.39502e-06,0,-1.54003e-06,-8.40027e+08,-8.39641e+08,-8.39943e+08,-105646,0.015422,0.107306,0,0.108408,25012.8,-30583.9,0,39509.7,105646
step02_gravity_refstate-crust.xmf,154,-1.13625e-06,4.11948e-06,0,-1.4272e-06,-7.96339e+08,-7.95978e+08,-7.96261e+08,-97905.6,0.0140923,0.110724,0,0.111617,26141.1,-28993.3,0,39038.1,97905.6
step02_gravity_refstate-crust.xmf,155,-1.34884e-06,4.54056e-06,0,-1.99035e-06,-8.76414e+08,-8.7601e+08,-8.76322e+08,-136538,0.0190383,0.111458,0,0.113072,22167,-31908.3,0,38852.5,136538
step02_gravity_refstate-crust.xmf,156,-1.49229e-06,4.8145e-06,0,-2.14944e-06,-9.14369e+08,-9.13937e+08,-9.14267e+08,-147451,0.0203909,0.109239,0,0.111125,21154.6,-33290,0,39442.9,147451
step02_gravity_refstate-crust.xmf,157,-1.65724e-06,5.09478e-06,0,-2.3294e-06,-9.49987e+08,-9.49524e+08,-9.49873e+08,-159797,0.0217437,0.107476,0,0.109654,20150.5,-34586.4,0,40028.3,159797
step02_gravity_refstate-crust.xmf,158,-1.85785e-06,5.4082e-06,0,-2.52886e-06,-9.85263e+08,-9.84765e+08,-9.85136e+08,-173480,0.0230678,0.105765,0,0.108251,19173.2,-35870.3,0,40673,173480
step02_gravity_refstate-crust.xmf,159,-2.13819e-06,5.8116e-06,0,-2.7585e-06,-1.02414e+09,-1.0236e+09,-1.02399e+09,-189233,0.0243916,0.103596,0,0.106429,18169,-37285.2,0,41476.5,189233
step02_gravity_refstate-crust.xmf,160,-2.53509e-06,6.297e-06,0,-3.31376e-06,-1.06907e+09,-1.06846e+09,-1.06889e+09,-227324,0.0272686,0.105078,0,0.108559,16467.9,-38919.9,0,42260.5,227324
step02_gravity_refstate-crust.xmf,161,-7.5504e-07,1.63775e-06,0,-3.82844e-07,-3.29475e+08,-3.29311e+08,-3.29424e+08,-26263.1,0.00365374,0.143278,0,0.143324,35296.3,-11994.4,0,37278.6,26263.1
step02_gravity_refstate-crust.xmf,162,-9.00342e-07,1.00422e-06,0,-3.11484e-09,-1.77746e+08,-1.77615e+08,-1.77684e+08,-213.678,5.43058e-19,0.148781,0,0.148781,40000,-6468.93,0,40519.7,213.678
step02_gravity_refstate-crust.xmf,163,-8.23516e-07,1.1995e-06,0,-1.41335e-07,-2.29112e+08,-2.28973e+08,-2.29056e+08,-9695.59,0.00177646,0.14707,0,0.147081,37865.7,-8339.58,0,38773.2,9695.59
step02_gravity_refstate-crust.xmf,164,-7.50074e-07,1.92073e-06,0,-5.18797e-07,-3.88114e+08,-3.87931e+08,-3.88063e+08,-35589.5,0.00463785,0.140552,0,0.140628,34061.6,-14129.6,0,36875.9,35589.5
step02_gravity_refstate-crust.xmf,165,-8.34486e-07,2.73347e-06,0,-8.26194e-07,-5.46111e+08,-5.45866e+08,-5.46053e+08,-56676.9,0.00720765,0.13005,0,0.130249,31716.9,-19882.6,0,37433.7,56676.9
step02_gravity_refstate-crust.xmf,166,-1.23002e-06,4.28234e-06,0,-1.84504e-06,-8.37341e+08,-8.36963e+08,-8.37256e+08,-126569,0.0176682,0.11387,0,0.115233,23186.5,-30485.9,0,38301.5,126569
step02_gravity_refstate-crust.xmf,167,-2.46598e-06,5.98464e-06,0,-3.97896e-06,-1.06881e+09,-1.06823e+09,-1.06864e+09,-272956,0.0305119,0.11521,0,0.119182,15175.7,-38910.4,0,41765.1,272956
step02_gravity_refstate-crust.xmf,168,-2.3316e-06,5.59635e-06,0,-4.63343e-06,-1.07078e+09,-1.07024e+09,-1.07062e+09,-317853,0.0333653,0.125126,0,0.129498,13987.5,-38982.1,0,41415.6,317853
step02_gravity_refstate-crust.xmf,169,-2.2648e-06,5.89812e-06,0,-3.17464e-06,-1.04148e+09,-1.04092e+09,-1.04132e+09,-217780,0.0266498,0.107539,0,0.110792,16983.3,-37916,0,41545.8,217780
step02_gravity_refstate-crust.xmf,170,-7.72859e-07,1.26849e-06,0,-3.46675e-07,-2.51006e+08,-2.50866e+08,-2.50953e+08,-23781.9,0.00399924,0.147658,0,0.147712,35001.8,-9136.97,0,36174.7,23781.9
step02_gravity_refstate-crust.xmf,171,-9.2295e-07,9.00273e-07,0,-1.54966e-07,-1.51426e+08,-1.513e+08,-1.51362e+08,-10630.7,0.00286043,0.150393,0,0.15042,36955.1,-5510.46,0,37363.7,10630.7
step02_gravity_refstate-crust.xmf,172,-1.09615e-06,7.25691e-07,0,-1.40732e-09,-9.05775e+07,-9.04525e+07,-9.05023e+07,-96.542,5.45976e-19,0.151516,0,0.151516,40000,-3294.25,0,40135.4,96.542
step02_gravity_refstate-crust.xmf,173,-7.09767e-07,1.53585e-06,0,-5.51366e-07,-3.15596e+08,-3.15442e+08,-3.15547e+08,-37823.7,0.00536597,0.146261,0,0.14636,32958.8,-11489.1,0,34903.9,37823.7
step02_gravity_refstate-crust.xmf,174,-7.56446e-07,2.18434e-06,0,-7.00447e-07,-4.44388e+08,-4.44186e+08,-4.44336e+08,-48050.7,0.00601856,0.138123,0,0.138254,32474.8,-16178.7,0,36281.7,48050.7
step02_gravity_refstate-crust.xmf,175,-7.88421e-07,2.63444e-06,0,-1.01924e-06,-5.38251e+08,-5.38017e+08,-5.38197e+08,-69919.7,0.00877591,0.134092,0,0.134379,29709.8,-19596.5,0,35590.7,69919.7
step02_gravity_refstate-crust.xmf,176,-7.67484e-07,2.41807e-06,0,-8.73238e-07,-4.93545e+08,-4.93327e+08,-4.93492e+08,-59904.1,0.00746656,0.136149,0,0.136354,30943.6,-17968.6,0,35782.4,59904.1
step02_gravity_refstate-crust.xmf,177,-8.32745e-07,2.90554e-06,0,-1.14539e-06,-5.90389e+08,-5.90133e+08,-5.90332e+08,-78573.8,0.0100635,0.13072,0,0.131107,28719.3,-21494.8,0,35872.4,78573.8
step02_gravity_refstate-crust.xmf,178,-8.86481e-07,3.17734e-06,0,-1.29118e-06,-6.43458e+08,-6.43179e+08,-6.43397e+08,-88574.9,0.0115805,0.127311,0,0.127836,27575,-23427,0,36182.9,88574.9
step02_gravity_refstate-crust.xmf,179,-9.48285e-07,3.44439e-06,0,-1.4356e-06,-6.94305e+08,-6.94004e+08,-6.9424e+08,-98482.5,0.0131637,0.124024,0,0.124721,26410,-25278.4,0,36558,98482.5
step02_gravity_refstate-crust.xmf,180,-1.02619e-06,3.72382e-06,0,-1.5717e-06,-7.44686e+08,-7.4436e+08,-7.44616e+08,-107819,0.0147136,0.12046,0,0.121355,25313.8,-27112.7,0,37092.9,107819
step02_gravity_refstate-crust.xmf,181,-1.12063e-06,4.00642e-06,0,-1.70512e-06,-7.92865e+08,-7.92513e+08,-7.92788e+08,-116971,0.016212,0.116947,0,0.118066,24249.7,-28866.7,0,37700.6,116971
step02_gravity_refstate-crust.xmf,182,-1.17313e-06,4.09763e-06,0,-2.1516e-06,-8.32963e+08,-8.32601e+08,-8.32883e+08,-147600,0.019724,0.121156,0,0.122751,21451.2,-30326.4,0,37146.3,147600
step02_gravity_refstate-crust.xmf,183,-1.28985e-06,4.33331e-06,0,-2.33824e-06,-8.7196e+08,-8.71575e+08,-8.71872e+08,-160403,0.0212679,0.119363,0,0.121243,20463.7,-31746.1,0,37770.1,160403
step02_gravity_refstate-crust.xmf,184,-2.08137e-06,5.05072e-06,0,-5.3142e-06,-1.073e+09,-1.07251e+09,-1.07285e+09,-364554,0.0359822,0.135905,0,0.140588,12817.3,-39062.9,0,41111.9,364554
step02_gravity_refstate-crust.xmf,185,-1.42755e-06,4.57778e-06,0,-2.54267e-06,-9.09203e+08,-9.08791e+08,-9.09105e+08,-174427,0.0227953,0.117826,0,0.120011,19505,-33101.8,0,38421,174427
step02_gravity_refstate-crust.xmf,186,-1.58428e-06,4.8241e-06,0,-2.77599e-06,-9.44311e+08,-9.43872e+08,-9.44203e+08,-190433,0.0243491,0.116775,0,0.119287,18552.1,-34379.7,0,39065.9,190433
step02_gravity_refstate-crust.xmf,187,-1.77488e-06,5.0939e-06,0,-3.04432e-06,-9.78987e+08,-9.78516e+08,-9.78865e+08,-208840,0.025948,0.115963,0,0.118831,17609.3,-35641.7,0,39754.5,208840
step02_gravity_refstate-crust.xmf,188,-2.17604e-06,5.59355e-06,0,-3.69267e-06,-1.03805e+09,-1.03752e+09,-1.0379e+09,-253317,0.0292641,0.116575,0,0.120192,15823.8,-37791.2,0,40970.4,253317
step02_gravity_refstate-crust.xmf,189,-1.95784e-06,5.32272e-06,0,-3.36184e-06,-1.00891e+09,-1.00841e+09,-1.00877e+09,-230622,0.0276503,0.116365,0,0.119605,16664.4,-36730.6,0,40334.1,230622
step02_gravity_refstate-crust.xmf,190,-1.14921e-06,6.58394e-07,0,-6.35754e-08,-6.76886e+07,-6.75646e+07,-6.76097e+07,-4361.28,0.00290522,0.152548,0,0.152576,37504.2,-2460.64,0,37584.8,4361.28
step02_gravity_refstate-crust.xmf,191,-1.45881e-06,5.57335e-07,0,1.30334e-08,-138416,-108.515,-38341.7,894.089,4.67582e-19,0.153595,0,0.153595,40000,0,0,40000,894.089
step02_gravity_refstate-crust.xmf,192,-6.85598e-07,1.81574e-06,0,-7.34376e-07,-3.77251e+08,-3.77079e+08,-3.77204e+08,-50378.2,0.00656814,0.144518,0,0.144667,31334.1,-13734.2,0,34211.9,50378.2
step02_gravity_refstate-crust.xmf,193,-1.0685e-06,3.85333e-06,0,-1.98477e-06,-7.90883e+08,-7.90546e+08,-7.9081e+08,-136156,0.018191,0.123509,0,0.124841,22424.8,-28794.5,0,36496.5,136156
step02_gravity_refstate-crust.xmf,194,-1.91447e-06,4.91834e-06,0,-4.90683e-06,-1.05258e+09,-1.05211e+09,-1.05245e+09,-336608,0.0344848,0.134419,0,0.138772,13355.9,-38320.2,0,40581,336608
step02_gravity_refstate-crust.xmf,195,-1.93792e-06,5.09023e-06,0,-4.3637e-06,-1.03757e+09,-1.03709e+09,-1.03744e+09,-299350,0.0323052,0.128352,0,0.132355,14354.7,-37773.8,0,40409.4,299350
step02_gravity_refstate-crust.xmf,196,-6.97578e-07,1.18129e-06,0,-5.29729e-07,-2.40698e+08,-2.40569e+08,-2.4065e+08,-36339.4,0.0063395,0.151221,0,0.151354,31878.2,-8761.87,0,33060.4,36339.4
step02_gravity_refstate-crust.xmf,197,-8.25446e-07,9.03481e-07,0,-3.28778e-07,-1.62937e+08,-1.62819e+08,-1.62881e+08,-22554.2,0.00578463,0.152427,0,0.152537,33503.9,-5929.96,0,34024.6,22554.2
step02_gravity_refstate-crust.xmf,198,-1.05553e-06,6.62176e-07,0,-1.49341e-07,-7.86346e+07,-7.85167e+07,-7.85622e+07,-10244.8,0.00564801,0.153673,0,0.153777,34897.8,-2859.52,0,35014.8,10244.8
step02_gravity_refstate-crust.xmf,199,-1.40914e-06,5.34202e-07,0,6.66918e-09,-133880,-566.713,-37213,457.506,0.00492253,0.154389,0,0.154467,36571.8,0,0,36571.8,457.506
step02_gravity_refstate-crust.xmf,200,-6.3029e-07,1.43872e-06,0,-7.34307e-07,-3.06601e+08,-3.06459e+08,-3.06558e+08,-50373.4,0.00720933,0.150306,0,0.150479,30211.6,-11161.8,0,32207.5,50373.4
step02_gravity_refstate-crust.xmf,201,-7.22293e-07,2.52012e-06,0,-1.21129e-06,-5.31942e+08,-5.3172e+08,-5.31893e+08,-83094.3,0.0102886,0.138756,0,0.139136,27622.4,-19366.9,0,33735.4,83094.3
step02_gravity_refstate-crust.xmf,202,-6.78766e-07,2.05046e-06,0,-9.28469e-07,-4.32283e+08,-4.32095e+08,-4.32236e+08,-63692.9,0.00792002,0.143088,0,0.143307,29730.6,-15738.1,0,33639.2,63692.9
step02_gravity_refstate-crust.xmf,203,-6.95428e-07,2.29936e-06,0,-1.07872e-06,-4.85242e+08,-4.85037e+08,-4.85194e+08,-73999.9,0.00912661,0.140937,0,0.141232,28581.7,-17666.5,0,33600.8,73999.9
step02_gravity_refstate-crust.xmf,204,-7.64931e-07,2.7818e-06,0,-1.35844e-06,-5.85314e+08,-5.85071e+08,-5.85262e+08,-93189,0.0117166,0.135936,0,0.13644,26577.3,-21310.2,0,34065.8,93189
step02_gravity_refstate-crust.xmf,205,-8.14621e-07,3.02549e-06,0,-1.51999e-06,-6.36981e+08,-6.36718e+08,-6.36925e+08,-104271,0.0133034,0.133277,0,0.13394,25454.8,-23191.3,0,34435.2,104271
step02_gravity_refstate-crust.xmf,206,-8.76956e-07,3.28365e-06,0,-1.68362e-06,-6.89161e+08,-6.88875e+08,-6.89101e+08,-115496,0.0149958,0.130419,0,0.131278,24333.8,-25091.1,0,34952.8,115496
step02_gravity_refstate-crust.xmf,207,-9.72394e-07,3.59005e-06,0,-1.82544e-06,-7.43481e+08,-7.43168e+08,-7.43414e+08,-125225,0.0165805,0.126442,0,0.127525,23431,-27068.8,0,35801.3,125225
step02_gravity_refstate-crust.xmf,208,-9.74482e-07,3.65303e-06,0,-2.26485e-06,-7.90733e+08,-7.90415e+08,-7.90666e+08,-155369,0.0200078,0.130375,0,0.131901,20643.4,-28789.1,0,35425.5,155369
step02_gravity_refstate-crust.xmf,209,-1.66071e-06,4.29985e-06,0,-5.96256e-06,-1.07363e+09,-1.07322e+09,-1.07352e+09,-409031,0.0381136,0.147535,0,0.152379,11689.5,-39086.5,0,40797,409031
step02_gravity_refstate-crust.xmf,210,-1.06682e-06,3.85965e-06,0,-2.45601e-06,-8.30519e+08,-8.30181e+08,-8.30446e+08,-168482,0.021587,0.128686,0,0.130484,19758.2,-30237.5,0,36120.6,168482
step02_gravity_refstate-crust.xmf,211,-1.16998e-06,4.05828e-06,0,-2.67506e-06,-8.68332e+08,-8.67974e+08,-8.68252e+08,-183509,0.0232159,0.127503,0,0.129599,18844.4,-31614.1,0,36804.4,183509
step02_gravity_refstate-crust.xmf,212,-1.53066e-06,4.22781e-06,0,-5.42783e-06,-1.0494e+09,-1.04901e+09,-1.0493e+09,-372349,0.0362099,0.144982,0,0.149435,12303.9,-38204.8,0,40137.2,372349
step02_gravity_refstate-crust.xmf,213,-1.2886e-06,4.25604e-06,0,-2.92759e-06,-9.04814e+08,-9.04434e+08,-9.04726e+08,-200832,0.0249025,0.126752,0,0.129175,17919.8,-32942,0,37500.6,200832
step02_gravity_refstate-crust.xmf,214,-1.41801e-06,4.44413e-06,0,-3.21692e-06,-9.39069e+08,-9.38667e+08,-9.38972e+08,-220680,0.0266372,0.126602,0,0.129374,16997.4,-34188.9,0,38181,220680
step02_gravity_refstate-crust.xmf,215,-1.56772e-06,4.63856e-06,0,-3.54667e-06,-9.72222e+08,-9.71796e+08,-9.72114e+08,-243302,0.0284252,0.126822,0,0.129968,16099.8,-35395.5,0,38885,243302
step02_gravity_refstate-crust.xmf,216,-1.74046e-06,4.84034e-06,0,-3.92183e-06,-1.00406e+09,-1.00361e+09,-1.00394e+09,-269037,0.0302629,0.127426,0,0.13097,15236.8,-36554.4,0,39602.9,269037
step02_gravity_refstate-crust.xmf,217,-5.9268e-07,1.69484e-06,0,-9.3199e-07,-3.6776e+08,-3.67603e+08,-3.67719e+08,-63934.5,0.00830362,0.149469,0,0.1497,28568.1,-13388.9,0,31549.9,63934.5
step02_gravity_refstate-crust.xmf,218,-6.4404e-07,2.40551e-06,0,-1.38728e-06,-5.29486e+08,-5.29277e+08,-5.29442e+08,-95167.3,0.0116039,0.143401,0,0.14387,25650.2,-19277.6,0,32086.7,95167.3
step02_gravity_refstate-crust.xmf,219,-8.89356e-07,3.43323e-06,0,-2.08584e-06,-7.47037e+08,-7.4674e+08,-7.46976e+08,-143088,0.0183925,0.132547,0,0.133817,21542.5,-27198.3,0,34696.2,143088
step02_gravity_refstate-crust.xmf,220,-1.45097e-06,4.25304e-06,0,-4.91364e-06,-1.02685e+09,-1.02646e+09,-1.02675e+09,-337076,0.0343524,0.141721,0,0.145825,13024.8,-37384.2,0,39588.2,337076
step02_gravity_refstate-crust.xmf,221,-5.93416e-07,1.10418e-06,0,-6.84118e-07,-2.36582e+08,-2.36466e+08,-2.36541e+08,-46930.5,0.00819917,0.155344,0,0.15556,29032.6,-8612.32,0,30283.1,46930.5
step02_gravity_refstate-crust.xmf,222,-7.11592e-07,8.81267e-07,0,-4.71045e-07,-1.698e+08,-1.6969e+08,-1.69751e+08,-32313.7,0.00786794,0.155397,0,0.155596,30679.8,-6180.21,0,31296,32313.7
step02_gravity_refstate-crust.xmf,223,-9.18011e-07,6.27103e-07,0,-2.42611e-07,-8.38679e+07,-8.37619e+07,-8.38049e+07,-16643.1,0.0086143,0.156406,0,0.156643,31790.8,-3050.55,0,31936.8,16643.1
step02_gravity_refstate-crust.xmf,224,-1.27592e-06,4.81028e-07,0,8.93991e-10,-121336,-809.651,-33808.2,61.3278,0.00941903,0.156639,0,0.156922,33233.5,0,0,33233.5,61.3278
step02_gravity_refstate-crust.xmf,225,-5.18235e-07,1.31785e-06,0,-8.92117e-07,-2.97144e+08,-2.97018e+08,-2.97108e+08,-61199.2,0.00881038,0.155345,0,0.155594,27437.5,-10817.8,0,29493.1,61199.2
step02_gravity_refstate-crust.xmf,226,-6.31251e-07,2.23745e-06,0,-1.24908e-06,-4.88777e+08,-4.88581e+08,-4.88734e+08,-85687.1,0.0104508,0.144597,0,0.144974,26638.5,-17795.3,0,32035.7,85687.1
step02_gravity_refstate-crust.xmf,227,-5.74045e-07,1.94625e-06,0,-1.14918e-06,-4.30235e+08,-4.30063e+08,-4.30196e+08,-78833.9,0.00970805,0.148588,0,0.148904,26855.7,-15663.8,0,31090,78833.9
step02_gravity_refstate-crust.xmf,228,-6.67144e-07,2.61975e-06,0,-1.55409e-06,-5.79249e+08,-5.79024e+08,-5.79203e+08,-106610,0.0131393,0.141824,0,0.142431,24465.9,-21089.5,0,32300.9,106610
step02_gravity_refstate-crust.xmf,229,-7.06044e-07,2.82549e-06,0,-1.73114e-06,-6.2936e+08,-6.29118e+08,-6.29312e+08,-118756,0.0147642,0.139926,0,0.140702,23367.8,-22914,0,32727.8,118756
step02_gravity_refstate-crust.xmf,230,-7.62259e-07,3.07106e-06,0,-1.94864e-06,-6.87473e+08,-6.8721e+08,-6.87421e+08,-133677,0.0168031,0.137672,0,0.138693,22093.1,-25029.8,0,33385.6,133677
step02_gravity_refstate-crust.xmf,231,-7.55551e-07,3.20221e-06,0,-2.33695e-06,-7.49184e+08,-7.48912e+08,-7.49132e+08,-160315,0.0199511,0.139344,0,0.140765,19703.2,-27276.7,0,33648.7,160315
step02_gravity_refstate-crust.xmf,232,-8.28061e-07,3.39431e-06,0,-2.52518e-06,-7.90266e+08,-7.89976e+08,-7.90209e+08,-173227,0.0215345,0.137618,0,0.139292,18938.7,-28772.3,0,34445.9,173227
step02_gravity_refstate-crust.xmf,233,-9.76157e-07,3.34057e-06,0,-5.94074e-06,-1.04785e+09,-1.04755e+09,-1.04778e+09,-407534,0.0375994,0.15693,0,0.161371,11140.1,-38149.2,0,39742.4,407534
step02_gravity_refstate-crust.xmf,234,-1.06398e-06,3.33574e-06,0,-6.55917e-06,-1.07391e+09,-1.0736e+09,-1.07383e+09,-449959,0.0396634,0.160013,0,0.164855,10564,-39097.5,0,40499.5,449959
step02_gravity_refstate-crust.xmf,235,-9.07938e-07,3.56413e-06,0,-2.7385e-06,-8.28875e+08,-8.28568e+08,-8.28813e+08,-187861,0.0231402,0.136351,0,0.138301,18149.7,-30177.9,0,35215.3,187861
step02_gravity_refstate-crust.xmf,236,-9.80853e-07,3.70188e-06,0,-2.99369e-06,-8.64957e+08,-8.64636e+08,-8.6489e+08,-205367,0.0248389,0.136011,0,0.13826,17270.5,-31491.4,0,35916.3,205367
step02_gravity_refstate-crust.xmf,237,-9.44545e-07,3.39874e-06,0,-5.38916e-06,-1.02248e+09,-1.02218e+09,-1.02242e+09,-369696,0.0356607,0.153599,0,0.157684,11796,-37225.9,0,39050.1,369696
step02_gravity_refstate-crust.xmf,238,-1.36953e-06,4.22158e-06,0,-4.42896e-06,-1.00007e+09,-9.99684e+08,-9.99974e+08,-303827,0.0323691,0.138952,0,0.142672,13837.7,-36409.5,0,38950.4,303827
step02_gravity_refstate-crust.xmf,239,-1.06038e-06,3.82913e-06,0,-3.28984e-06,-9.00123e+08,-8.99788e+08,-9.0005e+08,-225683,0.0266288,0.136211,0,0.13879,16368,-32771.5,0,36631.7,225683
step02_gravity_refstate-crust.xmf,240,-1.14913e-06,3.94802e-06,0,-3.63038e-06,-9.3425e+08,-9.339e+08,-9.34171e+08,-249044,0.0284918,0.136885,0,0.139819,15475,-34013.8,0,37368.6,249044
step02_gravity_refstate-crust.xmf,241,-1.2634e-06,4.08312e-06,0,-4.01183e-06,-9.67962e+08,-9.67596e+08,-9.67876e+08,-275211,0.0304042,0.137686,0,0.141003,14639.1,-35240.8,0,38160.5,275211
step02_gravity_refstate-crust.xmf,242,-4.69545e-07,1.55032e-06,0,-1.0971e-06,-3.58184e+08,-3.58045e+08,-3.58151e+08,-75261.3,0.00972461,0.15529,0,0.155594,25810.4,-13040.5,0,28917.7,75261.3
step02_gravity_refstate-crust.xmf,243,-5.34912e-07,2.04622e-06,0,-1.35073e-06,-4.69698e+08,-4.6952e+08,-4.69661e+08,-92660,0.0111597,0.149744,0,0.150159,25015.8,-17100.8,0,30302.3,92660
step02_gravity_refstate-crust.xmf,244,-5.29294e-07,2.22951e-06,0,-1.54428e-06,-5.21935e+08,-5.21745e+08,-5.21898e+08,-105937,0.0126996,0.149209,0,0.149749,23581.1,-19002.9,0,30284.9,105937
step02_gravity_refstate-crust.xmf,245,-7.0732e-07,3.04529e-06,0,-2.16811e-06,-7.11273e+08,-7.11016e+08,-7.11225e+08,-148733,0.0184827,0.140606,0,0.141816,20497.8,-25896.5,0,33027.1,148733
step02_gravity_refstate-crust.xmf,246,-9.33311e-07,3.50756e-06,0,-4.86131e-06,-9.97351e+08,-9.97046e+08,-9.97287e+08,-333486,0.0337821,0.150043,0,0.153799,12547.7,-36311.2,0,38418.1,333486
step02_gravity_refstate-crust.xmf,247,-6.79101e-07,3.16551e-06,0,-2.75295e-06,-7.96123e+08,-7.95859e+08,-7.96076e+08,-188853,0.0227903,0.143547,0,0.145345,17477.7,-28985.8,0,33847.4,188853
step02_gravity_refstate-crust.xmf,248,-2.42663e-07,2.18031e-06,0,-6.99019e-06,-1.07301e+09,-1.07285e+09,-1.073e+09,-479527,0.0403496,0.173037,0,0.177679,9454.45,-39066.5,0,40194.2,479527
step02_gravity_refstate-crust.xmf,249,-5.85609e-07,8.37349e-07,0,-5.73297e-07,-1.72033e+08,-1.71935e+08,-1.71992e+08,-39328.2,0.00948268,0.159036,0,0.159319,28137.6,-6261.94,0,28826,39328.2
step02_gravity_refstate-crust.xmf,250,-4.59299e-07,9.62833e-07,0,-7.78474e-07,-2.20072e+08,-2.19974e+08,-2.2004e+08,-53403.3,0.00980629,0.160684,0,0.160983,26260.8,-8011.56,0,27455.7,53403.3
step02_gravity_refstate-crust.xmf,251,-7.24339e-07,5.74531e-07,0,-3.52243e-07,-9.16237e+07,-9.15346e+07,-9.1574e+07,-24163.8,0.0111326,0.160608,0,0.160994,28453.3,-3333.61,0,28647.9,24163.8
step02_gravity_refstate-crust.xmf,252,-1.06783e-06,4.01794e-07,0,-3.15571e-09,-101581,-764.82,-28327.9,-216.482,0.0132581,0.160128,0,0.160676,29976.3,0,0,29976.3,216.482
step02_gravity_refstate-crust.xmf,253,-3.79852e-07,1.19891e-06,0,-1.02153e-06,-2.92036e+08,-2.91928e+08,-2.9201e+08,-70077.2,0.0100526,0.160918,0,0.161232,24678.1,-10632.2,0,26871,70077.2
step02_gravity_refstate-crust.xmf,254,-4.21614e-07,1.71741e-06,0,-1.30424e-06,-4.11731e+08,-4.11585e+08,-4.11702e+08,-89471,0.0109261,0.155952,0,0.156334,24050.9,-14990.4,0,28340.1,89471
step02_gravity_refstate-crust.xmf,255,-5.34735e-07,2.41477e-06,0,-1.72395e-06,-5.71915e+08,-5.71713e+08,-5.71878e+08,-118263,0.0142703,0.148338,0,0.149023,22360.8,-20822.7,0,30554.8,118263
step02_gravity_refstate-crust.xmf,256,-5.46679e-07,2.56427e-06,0,-1.91975e-06,-6.20781e+08,-6.20567e+08,-6.20743e+08,-131695,0.0159468,0.147461,0,0.148321,21192.5,-22601.9,0,30983.3,131695
step02_gravity_refstate-crust.xmf,257,-5.44839e-07,2.68319e-06,0,-2.12696e-06,-6.65954e+08,-6.65732e+08,-6.65916e+08,-145910,0.0177044,0.147259,0,0.148319,19966.3,-24246.7,0,31409.5,145910
step02_gravity_refstate-crust.xmf,258,-5.32236e-07,2.75843e-06,0,-2.34435e-06,-7.06262e+08,-7.06036e+08,-7.06225e+08,-160823,0.0194255,0.147705,0,0.148976,18767.2,-25714.3,0,31834.4,160823
step02_gravity_refstate-crust.xmf,259,-5.36264e-07,2.85264e-06,0,-2.60423e-06,-7.52251e+08,-7.52018e+08,-7.52214e+08,-178650,0.0213893,0.147747,0,0.149287,17611.1,-27388.7,0,32562.1,178650
step02_gravity_refstate-crust.xmf,260,-3.03357e-07,2.43525e-06,0,-5.75034e-06,-1.01986e+09,-1.01967e+09,-1.01984e+09,-394473,0.0362704,0.165491,0,0.169419,10579.9,-37131.4,0,38609.3,394473
step02_gravity_refstate-crust.xmf,261,-2.60476e-07,2.26983e-06,0,-6.35052e-06,-1.04638e+09,-1.0462e+09,-1.04636e+09,-435646,0.0382325,0.169379,0,0.17364,9972.29,-38096.8,0,39380.4,435646
step02_gravity_refstate-crust.xmf,262,-6.83422e-07,3.1869e-06,0,-2.98278e-06,-8.25257e+08,-8.24991e+08,-8.2521e+08,-204619,0.0242548,0.14436,0,0.146383,16621.8,-30046.5,0,34337.6,204619
step02_gravity_refstate-crust.xmf,263,-7.09325e-07,3.24844e-06,0,-3.27114e-06,-8.60386e+08,-8.60114e+08,-8.60337e+08,-224400,0.0260098,0.145012,0,0.147326,15726.3,-31325.4,0,35051.3,224400
step02_gravity_refstate-crust.xmf,264,-3.3653e-07,2.59953e-06,0,-5.18361e-06,-9.91062e+08,-9.90861e+08,-9.91039e+08,-355596,0.0342882,0.161735,0,0.16533,11276.8,-36083.3,0,37804.4,355596
step02_gravity_refstate-crust.xmf,265,-8.51523e-07,3.45185e-06,0,-4.40576e-06,-9.66264e+08,-9.65969e+08,-9.66206e+08,-302235,0.0318314,0.148307,0,0.151685,13248.5,-35179.7,0,37591.7,302235
step02_gravity_refstate-crust.xmf,266,-7.36216e-07,3.29298e-06,0,-3.60944e-06,-8.95523e+08,-8.95246e+08,-8.95472e+08,-247608,0.0278744,0.146138,0,0.148773,14823,-32604.5,0,35815.9,247608
step02_gravity_refstate-crust.xmf,267,-7.7706e-07,3.33933e-06,0,-4.00069e-06,-9.30973e+08,-9.3069e+08,-9.3092e+08,-274447,0.029845,0.147491,0,0.15048,13960,-33895,0,36657.3,274447
step02_gravity_refstate-crust.xmf,268,5.4963e-07,9.74119e-07,0,-7.33077e-06,-1.07421e+09,-1.07418e+09,-1.07425e+09,-502891,0.040312,0.184986,0,0.189327,8450.94,-39111.5,0,40014.1,502891
step02_gravity_refstate-crust.xmf,269,-3.20993e-07,1.38805e-06,0,-1.21839e-06,-3.4948e+08,-3.49362e+08,-3.49457e+08,-83581.4,0.0107318,0.161529,0,0.161885,23142.7,-12724,0,26410,83581.4
step02_gravity_refstate-crust.xmf,270,-3.97122e-07,1.86721e-06,0,-1.49488e-06,-4.63616e+08,-4.63461e+08,-4.63589e+08,-102549,0.0121721,0.155954,0,0.156428,22655.8,-16879.7,0,28252.6,102549
step02_gravity_refstate-crust.xmf,271,-3.77146e-07,2.01766e-06,0,-1.68205e-06,-5.15393e+08,-5.15229e+08,-5.15367e+08,-115389,0.013588,0.155759,0,0.156351,21354.9,-18765,0,28428.1,115389
step02_gravity_refstate-crust.xmf,272,-5.11116e-07,2.89991e-06,0,-4.71724e-06,-9.68869e+08,-9.68635e+08,-9.68834e+08,-323603,0.0326997,0.156532,0,0.159911,12163.9,-35275.1,0,37313.4,323603
step02_gravity_refstate-crust.xmf,273,-4.17115e-07,2.75145e-06,0,-2.88533e-06,-7.83967e+08,-7.83749e+08,-7.83938e+08,-197933,0.0231704,0.151548,0,0.153309,16067.5,-28543.7,0,32755.2,197933
step02_gravity_refstate-crust.xmf,274,6.61688e-07,9.66062e-07,0,-6.63675e-06,-1.04623e+09,-1.04621e+09,-1.04627e+09,-455281,0.0379953,0.18266,0,0.186569,8742.76,-38093.1,0,39083.5,455281
step02_gravity_refstate-crust.xmf,275,1.55003e-06,-4.29758e-07,0,-7.49069e-06,-1.07572e+09,-1.07586e+09,-1.07583e+09,-513861,0.0393882,0.197375,0,0.201267,7424.93,-39168.3,0,39865.9,513861
step02_gravity_refstate-crust.xmf,276,-5.01584e-07,6.81397e-07,0,-5.52898e-07,-1.42092e+08,-1.4201e+08,-1.42057e+08,-37928.8,0.0111023,0.16301,0,0.163387,26261.6,-5172.01,0,26766,37928.8
step02_gravity_refstate-crust.xmf,277,-2.98528e-07,8.88519e-07,0,-8.95367e-07,-2.254e+08,-2.25319e+08,-2.2538e+08,-61422.2,0.0107998,0.16589,0,0.166242,23492.1,-8206.1,0,24884.1,61422.2
step02_gravity_refstate-crust.xmf,278,-8.05452e-07,3.04512e-07,0,-7.10984e-09,-76560,-416.42,-21306,-487.735,0.0162502,0.164595,0,0.165395,26791.5,0,0,26791.5,487.735
step02_gravity_refstate-crust.xmf,279,-2.21803e-07,1.06095e-06,0,-1.10533e-06,-2.85761e+08,-2.85673e+08,-2.85746e+08,-75825.5,0.0108487,0.166823,0,0.167175,22045.7,-10404.2,0,24377.4,75825.5
step02_gravity_refstate-crust.xmf,280,-2.72534e-07,1.54354e-06,0,-1.4116e-06,-4.04878e+08,-4.04753e+08,-4.04859e+08,-96835.7,0.01168,0.162113,0,0.162533,21654.1,-14741.3,0,26195.6,96835.7
step02_gravity_refstate-crust.xmf,281,-3.64404e-07,2.17231e-06,0,-1.86622e-06,-5.66257e+08,-5.66083e+08,-5.66232e+08,-128023,0.0151229,0.155299,0,0.156034,20190.9,-20617.1,0,28857.1,128023
step02_gravity_refstate-crust.xmf,282,-3.50535e-07,2.27487e-06,0,-2.06689e-06,-6.14868e+08,-6.14688e+08,-6.14844e+08,-141788,0.0167495,0.154964,0,0.155867,19073.5,-22387,0,29410.5,141788
step02_gravity_refstate-crust.xmf,283,-3.21588e-07,2.34734e-06,0,-2.27474e-06,-6.59662e+08,-6.59479e+08,-6.5964e+08,-156047,0.0184088,0.155207,0,0.156295,17935,-24018,0,29975.5,156047
step02_gravity_refstate-crust.xmf,284,-2.7674e-07,2.37593e-06,0,-2.49929e-06,-7.01666e+08,-7.01484e+08,-7.01647e+08,-171451,0.0200821,0.156019,0,0.157306,16790.3,-25547.4,0,30570.9,171451
step02_gravity_refstate-crust.xmf,285,3.21348e-07,1.63748e-06,0,-5.44863e-06,-9.92223e+08,-9.92133e+08,-9.92246e+08,-373776,0.0343881,0.173149,0,0.17653,9978.59,-36126.7,0,37479.5,373776
step02_gravity_refstate-crust.xmf,286,4.74696e-07,1.33382e-06,0,-5.95169e-06,-1.0167e+09,-1.01664e+09,-1.01673e+09,-408286,0.0359465,0.177428,0,0.181032,9376.31,-37017.9,0,38186.9,408286
step02_gravity_refstate-crust.xmf,287,-3.83941e-07,2.72053e-06,0,-3.17427e-06,-8.19883e+08,-8.1967e+08,-8.19857e+08,-217755,0.0248888,0.152931,0,0.154943,15079.8,-29851.3,0,33444,217755
step02_gravity_refstate-crust.xmf,288,-3.52154e-07,2.69791e-06,0,-3.49496e-06,-8.55962e+08,-8.55753e+08,-8.55938e+08,-239755,0.0266745,0.154455,0,0.156741,14157.8,-31164.9,0,34230,239755
step02_gravity_refstate-crust.xmf,289,-2.15599e-08,2.18873e-06,0,-4.78389e-06,-9.56304e+08,-9.56153e+08,-9.56303e+08,-328175,0.0322597,0.165041,0,0.168164,11244,-34818.5,0,36589,328175
step02_gravity_refstate-crust.xmf,290,-2.78313e-07,2.57459e-06,0,-4.34695e-06,-9.3171e+08,-9.31514e+08,-9.31691e+08,-298201,0.0307391,0.15887,0,0.161816,12343.8,-33922.7,0,36098.7,298201
step02_gravity_refstate-crust.xmf,291,-3.18182e-07,2.65164e-06,0,-3.87085e-06,-8.92398e+08,-8.92194e+08,-8.92376e+08,-265540,0.0285693,0.156372,0,0.15896,13261,-32491.4,0,35093.4,265540
step02_gravity_refstate-crust.xmf,292,-1.97474e-07,2.33901e-06,0,-2.74796e-06,-7.41195e+08,-7.41021e+08,-7.41182e+08,-188510,0.0217594,0.157745,0,0.159239,15583.1,-26986.8,0,31162.8,188510
step02_gravity_refstate-crust.xmf,293,1.25477e-06,9.01446e-08,0,-6.98017e-06,-1.05746e+09,-1.05754e+09,-1.05754e+09,-478840,0.0382264,0.191724,0,0.195498,7901.93,-38503,0,39305.5,478840
step02_gravity_refstate-crust.xmf,294,-5.18084e-07,4.22378e-07,0,-3.32678e-07,-7.09901e+07,-7.09256e+07,-7.09546e+07,-22821.7,0.0138473,0.166233,0,0.166809,25234.7,-2583.02,0,25366.5,22821.7
step02_gravity_refstate-crust.xmf,295,-3.68618e-07,7.27018e-07,0,-7.09175e-07,-1.72508e+08,-1.72433e+08,-1.72483e+08,-48649.4,0.0112462,0.165564,0,0.165946,24443.7,-6279.96,0,25237.5,48649.4
step02_gravity_refstate-crust.xmf,296,-1.58838e-07,1.22655e-06,0,-1.29538e-06,-3.43603e+08,-3.43508e+08,-3.43592e+08,-88863.3,0.0112995,0.167702,0,0.168082,20618.3,-12510.5,0,24116.9,88863.3
step02_gravity_refstate-crust.xmf,297,-2.28677e-07,1.65891e-06,0,-1.59952e-06,-4.58058e+08,-4.57929e+08,-4.58043e+08,-109727,0.0128238,0.162567,0,0.163072,20278.2,-16677.7,0,26255.5,109727
step02_gravity_refstate-crust.xmf,298,-1.97303e-07,1.78791e-06,0,-1.78323e-06,-5.12066e+08,-5.1193e+08,-5.12052e+08,-122329,0.0141587,0.162406,0,0.163022,19124.4,-18644.2,0,26708.7,122329
step02_gravity_refstate-crust.xmf,299,1.34029e-07,1.95922e-06,0,-5.0718e-06,-9.73479e+08,-9.73353e+08,-9.73488e+08,-347926,0.0332793,0.168809,0,0.172058,10621.7,-35444,0,37001.4,347926
step02_gravity_refstate-crust.xmf,300,-1.02571e-07,2.28934e-06,0,-3.00854e-06,-7.78646e+08,-7.78482e+08,-7.78639e+08,-206386,0.0233868,0.159829,0,0.161531,14459.2,-28350.5,0,31824.8,206386
step02_gravity_refstate-crust.xmf,301,1.71991e-06,-4.37415e-07,0,-6.36889e-06,-1.03342e+09,-1.03356e+09,-1.03353e+09,-436906,0.035463,0.195093,0,0.19829,7574.47,-37628.9,0,38383.6,436906
step02_gravity_refstate-crust.xmf,302,2.18943e-06,-1.17463e-06,0,-6.83235e-06,-1.0543e+09,-1.05453e+09,-1.05445e+09,-468700,0.0362652,0.202294,0,0.205519,6941.49,-38389.9,0,39012.4,468700
step02_gravity_refstate-crust.xmf,303,2.67178e-06,-1.95079e-06,0,-7.36285e-06,-1.07582e+09,-1.07614e+09,-1.076e+09,-505092,0.0372397,0.209566,0,0.212849,6398.22,-39174.1,0,39693.1,505092
step02_gravity_refstate-crust.xmf,304,-3.54691e-07,5.23743e-07,0,-5.26491e-07,-1.17417e+08,-1.17356e+08,-1.17392e+08,-36117.3,0.0128069,0.167958,0,0.168446,23846.9,-4274.05,0,24226.9,36117.3
step02_gravity_refstate-crust.xmf,305,-2.3638e-07,6.16681e-07,0,-7.1976e-07,-1.60066e+08,-1.60008e+08,-1.6005e+08,-49375.5,0.0120997,0.169816,0,0.170246,22444.8,-5827.37,0,23189,49375.5
step02_gravity_refstate-crust.xmf,306,-1.34106e-07,7.68833e-07,0,-9.39515e-07,-2.19283e+08,-2.19221e+08,-2.19274e+08,-64450.8,0.011399,0.171326,0,0.171705,21002.5,-7983.88,0,22468.8,64450.8
step02_gravity_refstate-crust.xmf,307,-4.83519e-07,1.83934e-07,0,-6.30792e-09,-45911.4,-124.097,-12742,-432.724,0.0182819,0.169761,0,0.170742,23670.5,0,0,23670.5,432.724
step02_gravity_refstate-crust.xmf,308,-5.44798e-08,9.17177e-07,0,-1.14295e-06,-2.7956e+08,-2.79494e+08,-2.79557e+08,-78406.4,0.0111955,0.172671,0,0.173034,19559.3,-10178.9,0,22049.4,78406.4
step02_gravity_refstate-crust.xmf,309,-9.84151e-08,1.35271e-06,0,-1.47846e-06,-3.99839e+08,-3.99739e+08,-3.99832e+08,-101422,0.0120673,0.168553,0,0.168984,19214,-14558.2,0,24106.4,101422
step02_gravity_refstate-crust.xmf,310,-1.65856e-07,1.90696e-06,0,-1.96452e-06,-5.62962e+08,-5.6282e+08,-5.62951e+08,-134766,0.0156028,0.162202,0,0.16295,18071,-20497.5,0,27326,134766
step02_gravity_refstate-crust.xmf,311,-1.27529e-07,1.96527e-06,0,-2.15911e-06,-6.10696e+08,-6.10552e+08,-6.10687e+08,-148115,0.0171107,0.162194,0,0.163094,17061,-22235.5,0,28026.7,148115
step02_gravity_refstate-crust.xmf,312,-6.7371e-08,1.98778e-06,0,-2.3626e-06,-6.55161e+08,-6.5502e+08,-6.55156e+08,-162074,0.0186401,0.162809,0,0.163873,16002.6,-23854.6,0,28725,162074
step02_gravity_refstate-crust.xmf,313,2.3469e-08,1.9492e-06,0,-2.57835e-06,-6.96344e+08,-6.96212e+08,-6.96346e+08,-176875,0.0201335,0.164203,0,0.165432,14894.6,-25354.2,0,29405.5,176875
step02_gravity_refstate-crust.xmf,314,1.29742e-06,2.24567e-07,0,-5.84756e-06,-1.00818e+09,-1.00825e+09,-1.00827e+09,-401143,0.0342935,0.188117,0,0.191217,8285.26,-36709.4,0,37632.8,401143
step02_gravity_refstate-crust.xmf,315,5.89861e-07,1.31777e-06,0,-4.91002e-06,-9.54976e+08,-9.54926e+08,-9.55016e+08,-336828,0.0318229,0.175264,0,0.17813,9966.78,-34771.3,0,36171.5,336828
step02_gravity_refstate-crust.xmf,316,9.8136e-07,7.37449e-07,0,-5.30935e-06,-9.7875e+08,-9.78766e+08,-9.78817e+08,-364221,0.0327735,0.182213,0,0.185137,9008.96,-35637.5,0,36758.5,364221
step02_gravity_refstate-crust.xmf,317,-1.43883e-08,2.17909e-06,0,-3.30831e-06,-8.15826e+08,-8.15676e+08,-8.15825e+08,-226950,0.0250371,0.161786,0,0.163712,13484.6,-29704.3,0,32621.7,226950
step02_gravity_refstate-crust.xmf,318,8.53759e-08,2.06235e-06,0,-3.63759e-06,-8.52222e+08,-8.52086e+08,-8.52228e+08,-249539,0.0267148,0.164063,0,0.166223,12574.8,-31029.5,0,33480.7,249539
step02_gravity_refstate-crust.xmf,319,3.80522e-07,1.64166e-06,0,-4.41785e-06,-9.20624e+08,-9.20537e+08,-9.2065e+08,-303065,0.0300457,0.170731,0,0.173355,10820.4,-33520.3,0,35223.5,303065
step02_gravity_refstate-crust.xmf,320,2.02851e-07,1.90198e-06,0,-4.01242e-06,-8.87992e+08,-8.87876e+08,-8.88006e+08,-275252,0.0284368,0.166828,0,0.169234,11706.4,-32332,0,34386,275252
step02_gravity_refstate-crust.xmf,321,1.37992e-07,1.86254e-06,0,-2.81214e-06,-7.35971e+08,-7.35853e+08,-7.35981e+08,-192913,0.0216075,0.166071,0,0.167471,13811.6,-26797.2,0,30147.1,192913
step02_gravity_refstate-crust.xmf,322,-2.42493e-07,3.4125e-07,0,-3.92821e-07,-7.70531e+07,-7.7013e+07,-7.70364e+07,-26947.5,0.0147855,0.171941,0,0.172576,22097.5,-2804.74,0,22274.8,26947.5
step02_gravity_refstate-crust.xmf,323,1.62372e-08,1.05738e-06,0,-1.32461e-06,-3.38495e+08,-3.38423e+08,-3.38496e+08,-90868.1,0.0114366,0.173843,0,0.174219,18162.3,-12324.9,0,21949.3,90868.1
step02_gravity_refstate-crust.xmf,324,-3.60656e-08,1.43888e-06,0,-1.66266e-06,-4.56566e+08,-4.56465e+08,-4.56564e+08,-114058,0.0131141,0.169189,0,0.169697,17891.2,-16623.8,0,24422.2,114058
step02_gravity_refstate-crust.xmf,325,1.27774e-09,1.5535e-06,0,-1.84142e-06,-5.13155e+08,-5.13049e+08,-5.13155e+08,-126321,0.0143989,0.168765,0,0.169378,16960.5,-18684.3,0,25234.2,126321
step02_gravity_refstate-crust.xmf,326,3.96646e-08,1.64661e-06,0,-2.01562e-06,-5.62923e+08,-5.62812e+08,-5.62925e+08,-138271,0.0157231,0.168414,0,0.169146,16139.6,-20496.5,0,26088.2,138271
step02_gravity_refstate-crust.xmf,327,2.70923e-07,1.76591e-06,0,-3.06522e-06,-7.74897e+08,-7.74794e+08,-7.74916e+08,-210274,0.0230872,0.16823,0,0.169807,12796.9,-28214.7,0,30981.1,210274
step02_gravity_refstate-crust.xmf,328,2.1765e-06,-9.49963e-07,0,-5.64631e-06,-1.00532e+09,-1.00553e+09,-1.00547e+09,-387337,0.0320255,0.198739,0,0.201303,7117.34,-36606.9,0,37292.4,387337
step02_gravity_refstate-crust.xmf,329,2.70361e-06,-1.74516e-06,0,-6.06681e-06,-1.03046e+09,-1.03076e+09,-1.03064e+09,-416183,0.032698,0.206063,0,0.208641,6446.97,-37523.1,0,38072.9,416183
step02_gravity_refstate-crust.xmf,330,3.28834e-06,-2.63353e-06,0,-6.45241e-06,-1.05281e+09,-1.05321e+09,-1.05303e+09,-442635,0.0330994,0.213722,0,0.21627,5838.79,-38337.7,0,38779.8,442635
step02_gravity_refstate-crust.xmf,331,3.88218e-06,-3.55308e-06,0,-6.91164e-06,-1.07566e+09,-1.07617e+09,-1.07592e+09,-474139,0.0337669,0.221406,0,0.223966,5340.54,-39170.5,0,39532.9,474139
step02_gravity_refstate-crust.xmf,332,-5.54041e-08,4.86952e-07,0,-7.07865e-07,-1.47658e+08,-1.47621e+08,-1.47654e+08,-48559.5,0.0127316,0.17497,0,0.175433,20058.3,-5376.16,0,20766.3,48559.5
step02_gravity_refstate-crust.xmf,333,4.71983e-08,6.38532e-07,0,-9.44694e-07,-2.12404e+08,-2.12363e+08,-2.12407e+08,-64806,0.0115818,0.176983,0,0.177362,18485.1,-7733.95,0,20037.8,64806
step02_gravity_refstate-crust.xmf,334,-1.34767e-07,5.16862e-08,0,-8.75852e-09,-12778.6,12.086,-3533.58,-600.835,0.0192495,0.17532,0,0.176373,20604.8,0,0,20604.8,600.835
step02_gravity_refstate-crust.xmf,335,1.23536e-07,7.71593e-07,0,-1.14128e-06,-2.75156e+08,-2.75111e+08,-2.75164e+08,-78292,0.011111,0.178499,0,0.178845,17074.8,-10019,0,19797.2,78292
step02_gravity_refstate-crust.xmf,336,9.45495e-08,1.15086e-06,0,-1.49682e-06,-3.97079e+08,-3.97007e+08,-3.97086e+08,-102682,0.012032,0.175016,0,0.17543,16753.9,-14458.2,0,22129.9,102682
step02_gravity_refstate-crust.xmf,337,1.11132e-07,1.64711e-06,0,-2.19574e-06,-6.08237e+08,-6.08131e+08,-6.08244e+08,-150628,0.0170485,0.16892,0,0.169778,15176.3,-22146.5,0,26847.4,150628
step02_gravity_refstate-crust.xmf,338,2.13277e-07,1.60477e-06,0,-2.38099e-06,-6.50814e+08,-6.50718e+08,-6.50828e+08,-163336,0.0183518,0.170117,0,0.171104,14140.8,-23696.9,0,27595.4,163336
step02_gravity_refstate-crust.xmf,339,3.45284e-07,1.5089e-06,0,-2.58007e-06,-6.92215e+08,-6.92135e+08,-6.92239e+08,-176993,0.0196406,0.171847,0,0.172966,13087.4,-25204.5,0,28399.8,176993
step02_gravity_refstate-crust.xmf,340,1.68906e-07,1.38401e-06,0,-1.87591e-06,-5.21617e+08,-5.21534e+08,-5.21629e+08,-128687,0.0144714,0.173421,0,0.174024,15259.2,-18992.8,0,24363.3,128687
step02_gravity_refstate-crust.xmf,341,1.72907e-06,-2.74973e-07,0,-5.19811e-06,-9.7694e+08,-9.77078e+08,-9.77059e+08,-356590,0.0310359,0.192106,0,0.194597,7828.01,-35573.1,0,36424.2,356590
step02_gravity_refstate-crust.xmf,342,1.3338e-06,3.08745e-07,0,-4.79621e-06,-9.48373e+08,-9.48444e+08,-9.48465e+08,-329020,0.0300643,0.185982,0,0.188396,8613.99,-34532.4,0,35590.5,329020
step02_gravity_refstate-crust.xmf,343,4.13174e-07,1.57967e-06,0,-3.35305e-06,-8.12294e+08,-8.12214e+08,-8.12323e+08,-230019,0.0245521,0.170578,0,0.172336,11886.5,-29576.5,0,31875.7,230019
step02_gravity_refstate-crust.xmf,344,1.01581e-06,7.70225e-07,0,-4.4032e-06,-9.1773e+08,-9.17747e+08,-9.178e+08,-302060,0.0288833,0.180812,0,0.183104,9413.94,-33416.2,0,34716.9,302060
step02_gravity_refstate-crust.xmf,345,5.79088e-07,1.37579e-06,0,-3.66728e-06,-8.48699e+08,-8.48645e+08,-8.48739e+08,-251576,0.0260194,0.173363,0,0.175305,11027.7,-30902.2,0,32810.9,251576
step02_gravity_refstate-crust.xmf,346,7.71567e-07,1.11689e-06,0,-4.02002e-06,-8.84125e+08,-8.84101e+08,-8.84178e+08,-275774,0.027492,0.176658,0,0.178785,10216.4,-32192.3,0,33774.5,275774
step02_gravity_refstate-crust.xmf,347,5.03073e-07,1.36407e-06,0,-2.79549e-06,-7.32467e+08,-7.32408e+08,-7.32502e+08,-191770,0.020903,0.173961,0,0.175213,12076.7,-26670.3,0,29277.2,191770
step02_gravity_refstate-crust.xmf,348,4.6572e-08,2.14285e-07,0,-4.01333e-07,-7.36876e+07,-7.36761e+07,-7.36908e+07,-27531.5,0.015234,0.178116,0,0.178766,18974.3,-2683.19,0,19163,27531.5
step02_gravity_refstate-crust.xmf,349,2.01061e-07,8.83779e-07,0,-1.30543e-06,-3.34839e+08,-3.34792e+08,-3.34853e+08,-89552.3,0.0111407,0.179856,0,0.180201,15714.9,-12192.3,0,19890,89552.3
step02_gravity_refstate-crust.xmf,350,1.90477e-07,1.20004e-06,0,-1.68678e-06,-4.62799e+08,-4.6273e+08,-4.62812e+08,-115713,0.0130551,0.175912,0,0.176396,15355.6,-16851.3,0,22798.3,115713
step02_gravity_refstate-crust.xmf,351,2.57363e-07,1.37264e-06,0,-2.00725e-06,-5.61038e+08,-5.60961e+08,-5.61056e+08,-137698,0.0153981,0.174332,0,0.175011,14326.6,-20428.3,0,24951.3,137698
step02_gravity_refstate-crust.xmf,352,6.78543e-07,1.21168e-06,0,-3.02326e-06,-7.71092e+08,-7.71055e+08,-7.71138e+08,-207396,0.0221357,0.176295,0,0.177679,11162.1,-28077,0,30214.4,207396
step02_gravity_refstate-crust.xmf,353,2.54055e-06,-1.3456e-06,0,-4.8843e-06,-9.75322e+08,-9.75589e+08,-9.75497e+08,-335063,0.0282726,0.201815,0,0.203786,6591.52,-35515.8,0,36122.3,335063
step02_gravity_refstate-crust.xmf,354,5.06435e-06,-5.02618e-06,0,-6.1396e-06,-1.07681e+09,-1.0775e+09,-1.07716e+09,-421176,0.0292722,0.232092,0,0.233931,4303.93,-39215.1,0,39450.6,421176
step02_gravity_refstate-crust.xmf,355,3.09998e-06,-2.15992e-06,0,-5.21995e-06,-1.00381e+09,-1.00417e+09,-1.00402e+09,-358089,0.0287066,0.208927,0,0.21089,5905.95,-36553.8,0,37027.8,358089
step02_gravity_refstate-crust.xmf,356,3.74528e-06,-3.10286e-06,0,-5.52014e-06,-1.02999e+09,-1.03046e+09,-1.03024e+09,-378681,0.0288339,0.216732,0,0.218642,5258.82,-37508.1,0,37874.9,378681
step02_gravity_refstate-crust.xmf,357,4.43686e-06,-4.11911e-06,0,-5.71869e-06,-1.0516e+09,-1.05219e+09,-1.05191e+09,-392302,0.0284433,0.224663,0,0.226457,4662.67,-38296.2,0,38579,392302
step02_gravity_refstate-crust.xmf,358,1.62902e-07,3.70677e-07,0,-6.99404e-07,-1.43454e+08,-1.4344e+08,-1.43465e+08,-47979.1,0.0126878,0.180679,0,0.181124,17345.6,-5223.83,0,18115.1,47979.1
step02_gravity_refstate-crust.xmf,359,2.40092e-07,5.11778e-07,0,-9.1935e-07,-2.08491e+08,-2.08473e+08,-2.08508e+08,-63067.4,0.0112507,0.182675,0,0.183021,15888.5,-7592.1,0,17609.3,63067.4
step02_gravity_refstate-crust.xmf,360,2.28439e-07,-8.536e-08,0,-1.03041e-08,21756.4,229.743,6085.44,-706.861,0.0191291,0.180965,0,0.181973,17586.2,0,0,17586.2,706.861
step02_gravity_refstate-crust.xmf,361,3.08599e-07,6.21434e-07,0,-1.09012e-06,-2.70702e+08,-2.70681e+08,-2.70723e+08,-74782.5,0.0105657,0.184243,0,0.184545,14551.3,-9857.4,0,17575.8,74782.5
step02_gravity_refstate-crust.xmf,362,2.99386e-07,9.34611e-07,0,-1.44968e-06,-3.93766e+08,-3.93722e+08,-3.93786e+08,-99448.3,0.0114991,0.181317,0,0.181681,14307.5,-14338.1,0,20255.5,99448.3
step02_gravity_refstate-crust.xmf,363,3.58319e-07,1.13252e-06,0,-1.79859e-06,-5.08981e+08,-5.08928e+08,-5.09005e+08,-123383,0.0136956,0.178894,0,0.179417,13593.5,-18533.2,0,22983.9,123383
step02_gravity_refstate-crust.xmf,364,6.81874e-07,1.06199e-06,0,-2.5011e-06,-6.89095e+08,-6.89069e+08,-6.89142e+08,-171575,0.0186107,0.178973,0,0.179939,11326.2,-25091.6,0,27529.5,171575
step02_gravity_refstate-crust.xmf,365,3.71305e-07,1.30463e-06,0,-2.16214e-06,-6.04195e+08,-6.04131e+08,-6.04221e+08,-148323,0.0164663,0.175524,0,0.176295,13318.9,-21999.8,0,25717.4,148323
step02_gravity_refstate-crust.xmf,366,5.11254e-07,1.21004e-06,0,-2.32656e-06,-6.4724e+08,-6.47192e+08,-6.47275e+08,-159602,0.0175599,0.177033,0,0.177902,12316.2,-23567.4,0,26591.5,159602
step02_gravity_refstate-crust.xmf,367,2.06632e-06,-6.62997e-07,0,-4.55653e-06,-9.46026e+08,-9.46213e+08,-9.46168e+08,-312578,0.0276854,0.195519,0,0.197469,7312.91,-34448.4,0,35216,312578
step02_gravity_refstate-crust.xmf,368,1.67878e-06,-1.14306e-07,0,-4.22955e-06,-9.15405e+08,-9.15528e+08,-9.15521e+08,-290147,0.0268787,0.190182,0,0.192072,8038.58,-33332.9,0,34288.5,290147
step02_gravity_refstate-crust.xmf,369,8.78165e-07,9.48463e-07,0,-3.28247e-06,-8.08402e+08,-8.08397e+08,-8.08462e+08,-225178,0.0233338,0.179025,0,0.180539,10305.1,-29435.7,0,31187.4,225178
step02_gravity_refstate-crust.xmf,370,1.36251e-06,3.23272e-07,0,-3.90242e-06,-8.82464e+08,-8.82535e+08,-8.82558e+08,-267706,0.025848,0.185738,0,0.187528,8768.14,-32133,0,33307.8,267706
step02_gravity_refstate-crust.xmf,371,1.0994e-06,6.72577e-07,0,-3.58741e-06,-8.47067e+08,-8.47096e+08,-8.47142e+08,-246097,0.0246727,0.182007,0,0.183671,9526.1,-30843.8,0,32281.4,246097
step02_gravity_refstate-crust.xmf,372,8.82003e-07,8.88412e-07,0,-2.67693e-06,-7.2834e+08,-7.2834e+08,-7.28401e+08,-183637,0.0195514,0.181323,0,0.182374,10386.1,-26520.9,0,28482.1,183637
step02_gravity_refstate-crust.xmf,373,6.01338e-06,-6.29234e-06,0,-5.41183e-06,-1.08159e+09,-1.08244e+09,-1.082e+09,-371251,0.0250538,0.240633,0,0.241933,3454.51,-39391,0,39542.2,371251
step02_gravity_refstate-crust.xmf,374,3.26448e-07,9.5706e-08,0,-3.90608e-07,-7.14666e+07,-7.14824e+07,-7.1489e+07,-26795.7,0.0147841,0.183867,0,0.18446,16057.4,-2603.28,0,16267,26795.7
step02_gravity_refstate-crust.xmf,375,3.90395e-07,7.04076e-07,0,-1.22756e-06,-3.30766e+08,-3.30745e+08,-3.30793e+08,-84210.6,0.0103752,0.185655,0,0.185944,13242.8,-12044.6,0,17900.9,84210.6
step02_gravity_refstate-crust.xmf,376,4.26757e-07,9.07549e-07,0,-1.5727e-06,-4.503e+08,-4.50267e+08,-4.50329e+08,-107887,0.0120316,0.182935,0,0.18333,12903.9,-16396.7,0,20865.4,107887
step02_gravity_refstate-crust.xmf,377,4.91625e-07,1.07262e-06,0,-1.92516e-06,-5.55207e+08,-5.55167e+08,-5.55241e+08,-132066,0.0145289,0.180334,0,0.180918,12474.1,-20216.5,0,23755.2,132066
step02_gravity_refstate-crust.xmf,378,1.08856e-06,6.63293e-07,0,-2.86004e-06,-7.65564e+08,-7.65593e+08,-7.65639e+08,-196199,0.0204819,0.183682,0,0.18482,9588.25,-27876.6,0,29479.4,196199
step02_gravity_refstate-crust.xmf,379,2.79555e-06,-1.55545e-06,0,-4.12151e-06,-9.44017e+08,-9.44315e+08,-9.44209e+08,-282736,0.0243647,0.20421,0,0.205659,6004.56,-34376.8,0,34897.2,282736
step02_gravity_refstate-crust.xmf,380,3.34874e-06,-2.38843e-06,0,-4.32549e-06,-9.73386e+08,-9.7378e+08,-9.73616e+08,-296728,0.0243944,0.210693,0,0.212101,5323.16,-35446.9,0,35844.4,296728
step02_gravity_refstate-crust.xmf,381,5.61082e-06,-5.62482e-06,0,-4.76107e-06,-1.057e+09,-1.05777e+09,-1.05739e+09,-326609,0.0229344,0.235242,0,0.236358,3464.51,-38495.3,0,38650.9,326609
step02_gravity_refstate-crust.xmf,382,6.70777e-06,-7.15054e-06,0,-4.22734e-06,-1.07753e+09,-1.07848e+09,-1.07799e+09,-289995,0.0193555,0.245823,0,0.246583,2611.93,-39244.7,0,39331.5,289995
step02_gravity_refstate-crust.xmf,383,3.98484e-06,-3.29466e-06,0,-4.51371e-06,-1.0019e+09,-1.0024e+09,-1.00217e+09,-309640,0.0242193,0.217916,0,0.219258,4681.17,-36486.2,0,36785.3,309640
step02_gravity_refstate-crust.xmf,384,4.6837e-06,-4.30395e-06,0,-4.65535e-06,-1.02824e+09,-1.02885e+09,-1.02856e+09,-319357,0.0237628,0.225632,0,0.22688,4090.11,-37446.3,0,37669,319357
step02_gravity_refstate-crust.xmf,385,4.2963e-07,3.90831e-07,0,-8.55219e-07,-2.06014e+08,-2.06017e+08,-2.06044e+08,-58668,0.0104069,0.188044,0,0.188331,13294,-7502.5,0,15264.9,58668
step02_gravity_refstate-crust.xmf,386,3.85205e-07,2.54911e-07,0,-6.5833e-07,-1.39973e+08,-1.39982e+08,-1.4e+08,-45161.5,0.0120206,0.186255,0,0.186642,14606.5,-5097.83,0,15470.6,45161.5
step02_gravity_refstate-crust.xmf,387,5.85223e-07,-2.19762e-07,0,-1.13652e-08,55690.1,468.165,15543.8,-779.655,0.0179365,0.186393,0,0.187254,14606.1,0,0,14606.1,779.655
step02_gravity_refstate-crust.xmf,388,4.85242e-07,4.94232e-07,0,-9.98514e-07,-2.67913e+08,-2.67912e+08,-2.67946e+08,-68498,0.0095767,0.18947,0,0.189712,12062,-9756.37,0,15513.9,68498
step02_gravity_refstate-crust.xmf,389,4.98759e-07,7.19304e-07,0,-1.33319e-06,-3.88529e+08,-3.88514e+08,-3.88563e+08,-91456.7,0.0104675,0.187114,0,0.187407,11921.3,-14147.9,0,18500.8,91456.7
step02_gravity_refstate-crust.xmf,390,5.75257e-07,8.61093e-07,0,-1.6727e-06,-5.01076e+08,-5.01056e+08,-5.01115e+08,-114747,0.0125653,0.184658,0,0.185085,11607.8,-18245.8,0,21625.3,114747
step02_gravity_refstate-crust.xmf,391,1.0257e-06,6.14305e-07,0,-2.33075e-06,-6.86267e+08,-6.86295e+08,-6.86337e+08,-159890,0.0169972,0.185599,0,0.186376,9568.7,-24989.3,0,26758.7,159890
step02_gravity_refstate-crust.xmf,392,8.10986e-07,8.23183e-07,0,-2.20714e-06,-6.4596e+08,-6.45959e+08,-6.46016e+08,-151410,0.0163493,0.183268,0,0.183995,10553.1,-23521.4,0,25780.3,151410
step02_gravity_refstate-crust.xmf,393,6.43985e-07,9.51983e-07,0,-2.05805e-06,-6.00469e+08,-6.00448e+08,-6.00513e+08,-141182,0.0153915,0.181834,0,0.182484,11447.3,-21864.7,0,24680.1,141182
step02_gravity_refstate-crust.xmf,394,2.32655e-06,-9.58192e-07,0,-3.89443e-06,-9.13699e+08,-9.13925e+08,-9.13859e+08,-267158,0.0240971,0.19854,0,0.199997,6705.01,-33272.1,0,33940.9,267158
step02_gravity_refstate-crust.xmf,395,1.95419e-06,-4.50668e-07,0,-3.6407e-06,-8.81648e+08,-8.81813e+08,-8.81783e+08,-249752,0.0234676,0.193965,0,0.195379,7361.36,-32104.5,0,32937.7,249752
step02_gravity_refstate-crust.xmf,396,1.37901e-06,2.96641e-07,0,-3.06977e-06,-8.03737e+08,-8.03811e+08,-8.03831e+08,-210586,0.0212259,0.187266,0,0.188465,8651.88,-29266.9,0,30518.9,210586
step02_gravity_refstate-crust.xmf,397,1.62949e-06,-2.48841e-08,0,-3.39819e-06,-8.48226e+08,-8.4834e+08,-8.48338e+08,-233116,0.0227261,0.189994,0,0.191349,8049.29,-30887.1,0,31918.7,233116
step02_gravity_refstate-crust.xmf,398,1.28343e-06,3.58051e-07,0,-2.44815e-06,-7.25435e+08,-7.25498e+08,-7.25523e+08,-167943,0.0174917,0.188421,0,0.189231,8597.86,-26415.9,0,27779.9,167943
step02_gravity_refstate-crust.xmf,399,7.36363e-06,-7.96587e-06,0,-2.62873e-06,-1.0762e+09,-1.07725e+09,-1.0767e+09,-180331,0.0119462,0.250874,0,0.251158,1570.29,-39197.5,0,39228.9,180331
step02_gravity_refstate-crust.xmf,400,5.93252e-07,-1.27581e-08,0,-3.65365e-07,-7.08099e+07,-7.08515e+07,-7.08506e+07,-25064,0.0134881,0.189219,0,0.1897,13182.9,-2580.29,0,13433.1,25064
step02_gravity_refstate-crust.xmf,401,5.66595e-07,5.38866e-07,0,-1.09968e-06,-3.28148e+08,-3.2815e+08,-3.28187e+08,-75437.9,0.00920263,0.190756,0,0.190978,10837.5,-11949.7,0,16132.2,75437.9
step02_gravity_refstate-crust.xmf,402,6.3509e-07,6.64543e-07,0,-1.41594e-06,-4.44265e+08,-4.44263e+08,-4.44309e+08,-97133.7,0.0107185,0.188563,0,0.188867,10659.4,-16177.5,0,19373.6,97133.7
step02_gravity_refstate-crust.xmf,403,7.38563e-07,7.63266e-07,0,-1.77394e-06,-5.50446e+08,-5.50444e+08,-5.50496e+08,-121692,0.0131796,0.186173,0,0.186639,10506.5,-20043.7,0,22630.4,121692
step02_gravity_refstate-crust.xmf,404,2.92924e-06,-1.73171e-06,0,-3.39667e-06,-9.12018e+08,-9.12338e+08,-9.12219e+08,-233012,0.0205646,0.205737,0,0.206762,5399.64,-33212.1,0,33648.2,233012
step02_gravity_refstate-crust.xmf,405,3.46347e-06,-2.41336e-06,0,-3.48748e-06,-9.41993e+08,-9.42397e+08,-9.42231e+08,-239241,0.0201579,0.211618,0,0.212576,4701.99,-34304.5,0,34625.2,239241
step02_gravity_refstate-crust.xmf,406,1.35336e-06,2.20328e-07,0,-2.08159e-06,-6.85285e+08,-6.85362e+08,-6.85377e+08,-142797,0.014909,0.191407,0,0.191986,7844.51,-24954.3,0,26158.2,142797
step02_gravity_refstate-crust.xmf,407,1.41828e-06,2.13113e-07,0,-2.64176e-06,-7.60154e+08,-7.60237e+08,-7.60252e+08,-181225,0.0186102,0.189234,0,0.190147,8294.06,-27680.2,0,28896.1,181225
step02_gravity_refstate-crust.xmf,408,4.07695e-06,-3.31379e-06,0,-3.52846e-06,-9.71318e+08,-9.71825e+08,-9.71598e+08,-242053,0.0194878,0.218169,0,0.219038,4038.43,-35373.2,0,35603,242053
step02_gravity_refstate-crust.xmf,409,6.4169e-06,-6.61839e-06,0,-3.25394e-06,-1.05393e+09,-1.05483e+09,-1.05437e+09,-223220,0.0154799,0.241902,0,0.242397,2259.73,-38385.2,0,38451.7,223220
step02_gravity_refstate-crust.xmf,410,4.7252e-06,-4.23756e-06,0,-3.58409e-06,-1.00008e+09,-1.0007e+09,-1.00041e+09,-245868,0.0189085,0.225019,0,0.225812,3490.02,-36421.6,0,36588.4,245868
step02_gravity_refstate-crust.xmf,411,5.50019e-06,-5.33039e-06,0,-3.5651e-06,-1.02852e+09,-1.02926e+09,-1.0289e+09,-244566,0.0178497,0.23298,0,0.233663,2923.93,-37458.2,0,37572.2,244566
step02_gravity_refstate-crust.xmf,412,5.947e-07,2.94871e-07,0,-7.67569e-07,-2.09109e+08,-2.0913e+08,-2.0915e+08,-52655.2,0.00909599,0.19267,0,0.192884,10788.8,-7615.69,0,13206,52655.2
step02_gravity_refstate-crust.xmf,413,5.91565e-07,1.57785e-07,0,-6.00128e-07,-1.41339e+08,-1.41369e+08,-1.4138e+08,-41168.8,0.0106484,0.191369,0,0.191665,11859.4,-5148.23,0,12928.6,41168.8
step02_gravity_refstate-crust.xmf,414,9.14681e-07,-3.43489e-07,0,-1.20889e-08,87041,730.588,24293.9,-829.3,0.0157414,0.191313,0,0.191959,11656.5,0,0,11656.5,829.3
step02_gravity_refstate-crust.xmf,415,6.36782e-07,3.75224e-07,0,-8.72362e-07,-2.67763e+08,-2.67781e+08,-2.67807e+08,-59844.1,0.00826091,0.193795,0,0.193971,9719.34,-9751.33,0,13767.9,59844.1
step02_gravity_refstate-crust.xmf,416,6.80972e-07,5.25331e-07,0,-1.16107e-06,-3.84443e+08,-3.84454e+08,-3.8449e+08,-79649.2,0.00903191,0.192124,0,0.192336,9585.18,-13999.6,0,16966.6,79649.2
step02_gravity_refstate-crust.xmf,417,7.95559e-07,5.97154e-07,0,-1.48839e-06,-4.9726e+08,-4.97273e+08,-4.97314e+08,-102103,0.0110358,0.18999,0,0.190311,9509.58,-18107.4,0,20452.6,102103
step02_gravity_refstate-crust.xmf,418,1.11586e-06,4.31079e-07,0,-1.98725e-06,-6.43201e+08,-6.43248e+08,-6.43278e+08,-136326,0.0144841,0.189234,0,0.189788,8716.69,-23421.6,0,24991,136326
step02_gravity_refstate-crust.xmf,419,9.24996e-07,5.93752e-07,0,-1.86942e-06,-5.96708e+08,-5.9673e+08,-5.96771e+08,-128242,0.0137415,0.18784,0,0.188342,9498.13,-21728.4,0,23713.7,128242
step02_gravity_refstate-crust.xmf,420,2.47515e-06,-1.12958e-06,0,-3.2849e-06,-8.8175e+08,-8.81997e+08,-8.8192e+08,-225344,0.0207135,0.200594,0,0.201661,6111.87,-32109.3,0,32685.8,225344
step02_gravity_refstate-crust.xmf,421,2.12847e-06,-6.65349e-07,0,-3.06303e-06,-8.46674e+08,-8.46866e+08,-8.4682e+08,-210124,0.0200266,0.196861,0,0.197877,6657.66,-30831.6,0,31542.2,210124
step02_gravity_refstate-crust.xmf,422,3.45484e-06,-2.39524e-06,0,-2.73375e-06,-9.10193e+08,-9.10594e+08,-9.1043e+08,-187535,0.0162878,0.211684,0,0.21231,4090.03,-33146.8,0,33398.1,187535
step02_gravity_refstate-crust.xmf,423,1.83174e-06,-2.74338e-07,0,-2.92511e-06,-8.178e+08,-8.17945e+08,-8.17926e+08,-200662,0.0197423,0.19357,0,0.194574,7275.66,-29779.8,0,30655.7,200662
step02_gravity_refstate-crust.xmf,424,1.65424e-06,-1.06004e-07,0,-2.19858e-06,-7.30908e+08,-7.31029e+08,-7.31022e+08,-150823,0.0153529,0.194081,0,0.194687,6984.11,-26616,0,27517,150823
step02_gravity_refstate-crust.xmf,425,1.75911e-06,-2.01914e-07,0,-2.59387e-06,-7.81125e+08,-7.8126e+08,-7.81246e+08,-177940,0.017777,0.19372,0,0.194534,7163.29,-28444.4,0,29332.6,177940
step02_gravity_refstate-crust.xmf,426,7.69465e-06,-8.36756e-06,0,-9.04525e-07,-1.07523e+09,-1.07634e+09,-1.07576e+09,-62050.4,0.00414303,0.253356,0,0.25339,538.18,-39163.1,0,39166.8,62050.4
step02_gravity_refstate-crust.xmf,427,6.87758e-06,-7.17752e-06,0,-1.72631e-06,-1.05232e+09,-1.05328e+09,-1.05279e+09,-118425,0.00820028,0.245583,0,0.24572,1175.23,-38327.3,0,38345.4,118425
step02_gravity_refstate-crust.xmf,428,8.29012e-07,-1.02863e-07,0,-3.26794e-07,-7.22184e+07,-7.22823e+07,-7.22752e+07,-22418.1,0.0113945,0.193976,0,0.194311,10311.6,-2632.38,0,10642.3,22418.1
step02_gravity_refstate-crust.xmf,429,7.03107e-07,2.40415e-07,0,-6.89685e-07,-2.1732e+08,-2.17351e+08,-2.17368e+08,-47312.4,0.00776865,0.195786,0,0.19594,8829.36,-7914.96,0,11857.7,47312.4
step02_gravity_refstate-crust.xmf,430,7.213e-07,3.92956e-07,0,-9.23996e-07,-3.25706e+08,-3.25729e+08,-3.25756e+08,-63386.1,0.00766777,0.19506,0,0.195211,8483.85,-11861.2,0,14583,63386.1
step02_gravity_refstate-crust.xmf,431,8.27103e-07,4.44863e-07,0,-1.19564e-06,-4.39359e+08,-4.39385e+08,-4.39416e+08,-82021.1,0.00897075,0.193454,0,0.193662,8390.12,-15999.3,0,18065.8,82021.1
step02_gravity_refstate-crust.xmf,432,9.89775e-07,4.56688e-07,0,-1.54404e-06,-5.48278e+08,-5.48314e+08,-5.48346e+08,-105921,0.0113016,0.191622,0,0.191955,8401.43,-19965.3,0,21661,105921
step02_gravity_refstate-crust.xmf,433,2.96477e-06,-1.7488e-06,0,-2.74383e-06,-8.80268e+08,-8.80592e+08,-8.80472e+08,-188227,0.0170035,0.206629,0,0.207327,4776.04,-32056.3,0,32410.2,188227
step02_gravity_refstate-crust.xmf,434,4.02945e-06,-3.13459e-06,0,-2.66331e-06,-9.40283e+08,-9.40774e+08,-9.40559e+08,-182703,0.01512,0.217569,0,0.218094,3382.02,-34243.4,0,34410,182703
step02_gravity_refstate-crust.xmf,435,1.38539e-06,1.16013e-07,0,-1.73845e-06,-6.46676e+08,-6.46764e+08,-6.46772e+08,-119257,0.0125311,0.193881,0,0.194286,7063.65,-23548.7,0,24585.3,119257
step02_gravity_refstate-crust.xmf,436,1.63829e-06,-1.44836e-07,0,-1.72425e-06,-6.80381e+08,-6.80504e+08,-6.80494e+08,-118283,0.0121762,0.196332,0,0.196709,6130.15,-24776.4,0,25523.5,118283
step02_gravity_refstate-crust.xmf,437,4.69595e-06,-4.09067e-06,0,-2.45955e-06,-9.70272e+08,-9.70875e+08,-9.70595e+08,-168725,0.0133468,0.224299,0,0.224695,2652.2,-35336.4,0,35435.8,168725
step02_gravity_refstate-crust.xmf,438,6.11046e-06,-6.09205e-06,0,-2.36487e-06,-1.03055e+09,-1.03139e+09,-1.03097e+09,-162230,0.0116822,0.238266,0,0.238552,1841.14,-37533.5,0,37578.6,162230
step02_gravity_refstate-crust.xmf,439,5.2497e-06,-4.91027e-06,0,-2.60363e-06,-9.99403e+08,-1.0001e+09,-9.99763e+08,-178609,0.0135755,0.229882,0,0.230283,2427.36,-36397.9,0,36478.7,178609
step02_gravity_refstate-crust.xmf,440,7.72149e-07,2.46515e-07,0,-6.75904e-07,-2.58381e+08,-2.58417e+08,-2.58434e+08,-46367,0.0065583,0.197587,0,0.197696,7314.43,-9410.11,0,11918.5,46367
step02_gravity_refstate-crust.xmf,441,7.74803e-07,8.74482e-08,0,-5.1804e-07,-1.50722e+08,-1.50769e+08,-1.50775e+08,-35537.5,0.00844409,0.196123,0,0.196305,8873.59,-5490.46,0,10434.8,35537.5
step02_gravity_refstate-crust.xmf,442,1.19679e-06,-4.4978e-07,0,-1.21984e-08,113872,917.121,31772,-836.812,0.0126645,0.195458,0,0.195868,8728.93,0,0,8728.93,836.812
step02_gravity_refstate-crust.xmf,443,8.39449e-07,3.56709e-07,0,-9.32068e-07,-3.80455e+08,-3.80488e+08,-3.80512e+08,-63939.9,0.00719666,0.196315,0,0.196447,7235.39,-13854.8,0,15630.3,63939.9
step02_gravity_refstate-crust.xmf,444,9.98914e-07,3.56279e-07,0,-1.23934e-06,-4.95493e+08,-4.95537e+08,-4.95562e+08,-85018.8,0.00909364,0.194558,0,0.19477,7384.97,-18043.5,0,19496.3,85018.8
step02_gravity_refstate-crust.xmf,445,1.25629e-06,2.03459e-07,0,-1.56365e-06,-6.00513e+08,-6.00585e+08,-6.00599e+08,-107266,0.0113327,0.193882,0,0.194212,7176.45,-21867.7,0,23015.1,107266
step02_gravity_refstate-crust.xmf,446,2.17098e-06,-7.11983e-07,0,-2.52521e-06,-8.08726e+08,-8.08924e+08,-8.08875e+08,-173230,0.0168552,0.198482,0,0.199197,6050.04,-29450.2,0,30065.2,173230
step02_gravity_refstate-crust.xmf,447,2.62057e-06,-1.27618e-06,0,-2.49189e-06,-8.41315e+08,-8.41583e+08,-8.41495e+08,-170944,0.0160555,0.203261,0,0.203894,5094.54,-30637.5,0,31058.2,170944
step02_gravity_refstate-crust.xmf,448,3.39643e-06,-2.28875e-06,0,-2.09979e-06,-8.81129e+08,-8.81519e+08,-8.81362e+08,-144046,0.01282,0.211538,0,0.211926,3448.54,-32088.6,0,32273.4,144046
step02_gravity_refstate-crust.xmf,449,3.863e-06,-2.90384e-06,0,-1.93039e-06,-9.08248e+08,-9.08713e+08,-9.08513e+08,-132425,0.0113867,0.216124,0,0.216423,2772.78,-33076.8,0,33192.8,132425
step02_gravity_refstate-crust.xmf,450,1.57724e-06,-1.36607e-07,0,-1.38172e-06,-6.36498e+08,-6.36616e+08,-6.36607e+08,-94785.8,0.00985727,0.197672,0,0.197917,5451.86,-23178.5,0,23811.1,94785.8
step02_gravity_refstate-crust.xmf,451,1.97361e-06,-5.20418e-07,0,-1.67353e-06,-7.20229e+08,-7.204e+08,-7.20364e+08,-114804,0.0115506,0.199445,0,0.199779,5094.3,-26227.8,0,26718,114804
step02_gravity_refstate-crust.xmf,452,2.07205e-06,-6.05116e-07,0,-2.09965e-06,-7.65556e+08,-7.6574e+08,-7.65698e+08,-144036,0.0142454,0.19879,0,0.1993,5662.03,-27878.3,0,28447.4,144036
step02_gravity_refstate-crust.xmf,453,7.68091e-06,-8.33537e-06,0,8.59156e-07,-1.07456e+09,-1.07566e+09,-1.07509e+09,58938.1,-0.00378597,0.253211,-0,0.253239,-492.86,-39138.7,-0,39141.8,58938.1
step02_gravity_refstate-crust.xmf,454,6.36019e-06,-6.37566e-06,0,-9.51399e-07,-1.02744e+09,-1.02831e+09,-1.02788e+09,-65266,0.00475711,0.240306,0,0.240353,745.689,-37420.8,0,37428.3,65266
step02_gravity_refstate-crust.xmf,455,7.01911e-06,-7.33527e-06,0,-1.25625e-07,-1.05057e+09,-1.05155e+09,-1.05105e+09,-8617.89,0.000673634,0.246643,0,0.246644,96.3872,-38263.9,0,38264.1,8617.89
step02_gravity_refstate-crust.xmf,456,7.98008e-07,1.43132e-07,0,-5.4427e-07,-1.94447e+08,-1.94492e+08,-1.94502e+08,-37337,0.00679418,0.198,0,0.198116,7355.74,-7082.5,0,10211.2,37337
step02_gravity_refstate-crust.xmf,457,1.03347e-06,-1.85871e-07,0,-2.53663e-07,-7.27796e+07,-7.28633e+07,-7.28505e+07,-17401.3,0.00854571,0.198061,0,0.198245,7271.76,-2653.51,0,7740.77,17401.3
step02_gravity_refstate-crust.xmf,458,8.4919e-07,2.69174e-07,0,-6.96414e-07,-3.20888e+08,-3.20928e+08,-3.20946e+08,-47774,0.00576649,0.19856,0,0.198644,6100.58,-11686.1,0,13182.6,47774
step02_gravity_refstate-crust.xmf,459,9.94171e-07,2.56229e-07,0,-8.96497e-07,-4.34237e+08,-4.34287e+08,-4.34305e+08,-61499.7,0.00668564,0.197607,0,0.19772,5966.14,-15813.2,0,16901.3,61499.7
step02_gravity_refstate-crust.xmf,460,1.21336e-06,1.79322e-07,0,-1.21921e-06,-5.44453e+08,-5.44524e+08,-5.44536e+08,-83637.5,0.00882116,0.196268,0,0.196467,6229.35,-19826.5,0,20782.1,83637.5
step02_gravity_refstate-crust.xmf,461,2.99555e-06,-1.76432e-06,0,-2.2328e-06,-8.56807e+08,-8.57134e+08,-8.57013e+08,-153170,0.0140438,0.207519,0,0.207994,4136.99,-31202.3,0,31475.4,153170
step02_gravity_refstate-crust.xmf,462,4.4425e-06,-3.66411e-06,0,-1.69913e-06,-9.3946e+08,-9.40016e+08,-9.39765e+08,-116560,0.009519,0.221756,0,0.221961,2067.72,-34214.3,0,34276.7,116560
step02_gravity_refstate-crust.xmf,463,1.86713e-06,-4.39486e-07,0,-1.28583e-06,-6.75293e+08,-6.75451e+08,-6.75421e+08,-88208.1,0.00898077,0.200201,0,0.200402,4386.94,-24591.6,0,24979.8,88208.1
step02_gravity_refstate-crust.xmf,464,5.1502e-06,-4.67962e-06,0,-1.3696e-06,-9.74061e+08,-9.74736e+08,-9.74415e+08,-93954.6,0.00724168,0.228538,0,0.228653,1384.89,-35475.3,0,35502.3,93954.6
step02_gravity_refstate-crust.xmf,465,5.73951e-06,-5.50093e-06,0,-1.58293e-06,-1.0061e+09,-1.00687e+09,-1.00649e+09,-108589,0.0081822,0.23442,0,0.234562,1398.29,-36642.7,0,36669.4,108589
step02_gravity_refstate-crust.xmf,466,8.56999e-07,1.35596e-07,0,-4.72133e-07,-2.14258e+08,-2.14308e+08,-2.14317e+08,-32388.3,0.00533597,0.199801,0,0.199872,5718.82,-7803.96,0,9675.06,32388.3
step02_gravity_refstate-crust.xmf,467,1.41406e-06,-5.33179e-07,0,-1.07662e-08,134470,889.357,37465.5,-738.561,0.00887329,0.198603,0,0.198801,5815.3,0,0,5815.3,738.561
step02_gravity_refstate-crust.xmf,468,9.36768e-07,3.20487e-09,0,-3.49146e-07,-1.4807e+08,-1.48134e+08,-1.48134e+08,-23951.4,0.00576956,0.199978,0,0.200062,5710.57,-5394.43,0,7855.6,23951.4
step02_gravity_refstate-crust.xmf,469,8.75585e-07,1.76651e-07,0,-4.82974e-07,-2.63293e+08,-2.63341e+08,-2.63353e+08,-33132,0.00460617,0.200291,0,0.200343,4942.99,-9589.27,0,10788.3,33132
step02_gravity_refstate-crust.xmf,470,9.61894e-07,2.24765e-07,0,-6.53349e-07,-3.76114e+08,-3.76165e+08,-3.7618e+08,-44819.7,0.00501781,0.199505,0,0.199568,4861.97,-13697.1,0,14534.4,44819.7
step02_gravity_refstate-crust.xmf,471,1.15626e-06,1.65774e-07,0,-9.23935e-07,-4.89947e+08,-4.90015e+08,-4.90027e+08,-63382,0.00672497,0.198163,0,0.198277,5273.47,-17842,0,18605,63382
step02_gravity_refstate-crust.xmf,472,2.49917e-06,-1.13215e-06,0,-1.9722e-06,-7.99407e+08,-7.99656e+08,-7.99578e+08,-135293,0.0130305,0.203174,0,0.203592,4572.74,-29111.6,0,29468.5,135293
step02_gravity_refstate-crust.xmf,473,2.92282e-06,-1.66213e-06,0,-1.79159e-06,-8.29637e+08,-8.29951e+08,-8.29837e+08,-122903,0.0114823,0.207419,0,0.207737,3608.13,-30213,0,30427.7,122903
step02_gravity_refstate-crust.xmf,474,3.29196e-06,-2.13665e-06,0,-1.54391e-06,-8.52715e+08,-8.53087e+08,-8.52941e+08,-105912,0.00963912,0.21107,0,0.21129,2780.58,-31053.9,0,31178.2,105912
step02_gravity_refstate-crust.xmf,475,3.6873e-06,-2.65265e-06,0,-1.32377e-06,-8.79485e+08,-8.7992e+08,-8.79738e+08,-90810.6,0.00803403,0.214825,0,0.214975,2111.87,-32029.3,0,32098.9,90810.6
step02_gravity_refstate-crust.xmf,476,4.12153e-06,-3.21557e-06,0,-1.03248e-06,-9.06494e+08,-9.06997e+08,-9.06776e+08,-70827.8,0.00607812,0.218862,0,0.218946,1454.76,-33013.5,0,33045.5,70827.8
step02_gravity_refstate-crust.xmf,477,1.46996e-06,-7.51703e-08,0,-1.09808e-06,-5.87721e+08,-5.87827e+08,-5.87822e+08,-75328.4,0.00788358,0.198578,0,0.198735,4866.6,-21402.4,0,21948.7,75328.4
step02_gravity_refstate-crust.xmf,478,1.75152e-06,-3.57048e-07,0,-9.48706e-07,-6.31767e+08,-6.31912e+08,-6.31888e+08,-65081.3,0.00672804,0.200819,0,0.200932,3631.92,-23006.7,0,23291.6,65081.3
step02_gravity_refstate-crust.xmf,479,2.19269e-06,-8.03329e-07,0,-1.14237e-06,-7.14737e+08,-7.14942e+08,-7.14887e+08,-78366.5,0.00780723,0.202933,0,0.203084,3366,-26028.3,0,26245.1,78366.5
step02_gravity_refstate-crust.xmf,480,2.35158e-06,-9.64075e-07,0,-1.5372e-06,-7.57442e+08,-7.5767e+08,-7.57603e+08,-105452,0.0103227,0.203038,0,0.2033,4011.03,-27583.5,0,27873.6,105452
step02_gravity_refstate-crust.xmf,481,7.32759e-06,-7.88051e-06,0,2.50619e-06,-1.07381e+09,-1.07485e+09,-1.07431e+09,171925,-0.0113067,0.250462,-0,0.250717,-1497.99,-39110.5,-0,39139.2,171925
step02_gravity_refstate-crust.xmf,482,6.8403e-06,-7.09528e-06,0,1.49917e-06,-1.04933e+09,-1.05029e+09,-1.0498e+09,102843,-0.00701029,0.245195,-0,0.245296,-1013.89,-38218.6,-0,38232.1,102843
step02_gravity_refstate-crust.xmf,483,5.77132e-06,-5.49856e-06,0,-4.40318e-07,-9.98937e+08,-9.9971e+08,-9.99333e+08,-30205.8,0.00234966,0.234494,0,0.234506,408.076,-36382.1,0,36384.4,30205.8
step02_gravity_refstate-crust.xmf,484,6.32654e-06,-6.30725e-06,0,4.63732e-07,-1.0239e+09,-1.02477e+09,-1.02434e+09,31812,-0.00220222,0.239906,-0,0.239916,-348.749,-37292.1,-0,37293.7,31812
step02_gravity_refstate-crust.xmf,485,1.18697e-06,-2.58291e-07,0,-1.55469e-07,-6.98575e+07,-6.99567e+07,-6.99389e+07,-10665.2,0.00528481,0.200827,0,0.200897,4282.41,-2547.64,0,4982.92,10665.2
step02_gravity_refstate-crust.xmf,486,9.39067e-07,1.81792e-07,0,-4.40411e-07,-3.17642e+08,-3.17694e+08,-3.17706e+08,-30212.2,0.00363172,0.200984,0,0.201017,3729.67,-11568.2,0,12154.5,30212.2
step02_gravity_refstate-crust.xmf,487,1.11482e-06,1.26302e-07,0,-5.61115e-07,-4.32173e+08,-4.32241e+08,-4.3225e+08,-38492.5,0.00418284,0.200384,0,0.200427,3612.21,-15738.4,0,16147.6,38492.5
step02_gravity_refstate-crust.xmf,488,1.37364e-06,-2.14552e-08,0,-8.34509e-07,-5.40117e+08,-5.40213e+08,-5.40211e+08,-57247.3,0.0059877,0.199615,0,0.199705,4097.37,-19669,0,20091.3,57247.3
step02_gravity_refstate-crust.xmf,489,4.64191e-06,-3.92632e-06,0,-6.22936e-07,-9.37205e+08,-9.37793e+08,-9.37524e+08,-42733.4,0.0034767,0.223722,0,0.223749,748.022,-34132.6,0,34140.8,42733.4
step02_gravity_refstate-crust.xmf,490,2.02486e-06,-6.42739e-07,0,-7.97216e-07,-6.71657e+08,-6.7184e+08,-6.71795e+08,-54689,0.0055238,0.202824,0,0.202899,2646.65,-24459.5,0,24602.3,54689
step02_gravity_refstate-crust.xmf,491,9.3297e-07,7.59694e-08,0,-3.02927e-07,-2.0229e+08,-2.02349e+08,-2.02354e+08,-20780.8,0.00363568,0.201534,0,0.201567,3774.74,-7368.45,0,8279.06,20780.8
step02_gravity_refstate-crust.xmf,492,1.55034e-06,-5.85684e-07,0,-9.6002e-09,147382,850.609,41028.5,-658.574,0.00457145,0.200569,0,0.200621,2907.42,0,0,2907.42,658.574
step02_gravity_refstate-crust.xmf,493,9.41497e-07,1.22657e-07,0,-2.47178e-07,-2.58251e+08,-2.58307e+08,-2.58316e+08,-16956.4,0.00240257,0.20208,0,0.202095,2519.39,-9405.89,0,9737.46,16956.4
step02_gravity_refstate-crust.xmf,494,1.27967e-06,2.14496e-08,0,-5.77023e-07,-4.92132e+08,-4.92219e+08,-4.9222e+08,-39583.8,0.00417896,0.200617,0,0.20066,3159.69,-17921.8,0,18198.2,39583.8
step02_gravity_refstate-crust.xmf,495,1.03861e-06,1.40506e-07,0,-3.4274e-07,-3.72618e+08,-3.7268e+08,-3.72689e+08,-23512,0.00261777,0.201501,0,0.201518,2483.56,-13570,0,13795.3,23512
step02_gravity_refstate-crust.xmf,496,2.76269e-06,-1.46537e-06,0,-1.32538e-06,-7.93808e+08,-7.94098e+08,-7.93998e+08,-90921.4,0.00870415,0.206813,0,0.206996,2992.32,-28908.3,0,29062.8,90921.4
step02_gravity_refstate-crust.xmf,497,3.14971e-06,-1.94698e-06,0,-1.05068e-06,-8.24764e+08,-8.25114e+08,-8.2498e+08,-72076.6,0.00671539,0.210349,0,0.210457,2080.05,-30036.1,0,30108,72076.6
step02_gravity_refstate-crust.xmf,498,3.4685e-06,-2.36652e-06,0,-7.12607e-07,-8.48712e+08,-8.49112e+08,-8.4895e+08,-48884.8,0.00440239,0.213301,0,0.213347,1257.76,-30908.6,0,30934.2,48884.8
step02_gravity_refstate-crust.xmf,499,3.84031e-06,-2.85194e-06,0,-6.09575e-07,-8.79619e+08,-8.80078e+08,-8.79882e+08,-41816.9,0.00369274,0.216514,0,0.216545,956.769,-32034.5,0,32048.8,41816.9
step02_gravity_refstate-crust.xmf,500,4.17008e-06,-3.26248e-06,0,-9.62472e-08,-9.02392e+08,-9.02902e+08,-9.02678e+08,-6602.55,0.000632763,0.219487,0,0.219488,152.41,-32864.3,0,32864.7,6602.55
step02_gravity_refstate-crust.xmf,501,1.60513e-06,-2.41473e-07,0,-6.80605e-07,-5.84518e+08,-5.84645e+08,-5.84628e+08,-46689.5,0.00487092,0.201153,0,0.201212,2939.62,-21286.1,0,21488.1,46689.5
step02_gravity_refstate-crust.xmf,502,1.84966e-06,-4.81235e-07,0,-4.91975e-07,-6.27371e+08,-6.27531e+08,-6.27498e+08,-33749.5,0.00349403,0.202661,0,0.202691,1867.65,-22846.8,0,22923,33749.5
step02_gravity_refstate-crust.xmf,503,2.32385e-06,-9.74121e-07,0,-5.79938e-07,-7.1142e+08,-7.11646e+08,-7.1158e+08,-39783.8,0.00393487,0.20498,0,0.205018,1674.92,-25907.9,0,25961.9,39783.8
step02_gravity_refstate-crust.xmf,504,2.54798e-06,-1.21742e-06,0,-9.28354e-07,-7.53333e+08,-7.53591e+08,-7.53507e+08,-63685.1,0.00618389,0.205892,0,0.205985,2360.22,-27434.3,0,27535.6,63685.1
step02_gravity_refstate-crust.xmf,505,5.17366e-06,-4.68213e-06,0,2.19162e-10,-9.67072e+08,-9.67748e+08,-9.67427e+08,15.0345,-3.80672e-05,0.228737,-0,0.228737,-7.45109,-35220.9,-0,35220.9,15.0345
step02_gravity_refstate-crust.xmf,506,6.75894e-06,-7.15724e-06,0,3.97883e-06,-1.07485e+09,-1.07581e+09,-1.07532e+09,272948,-0.0181513,0.246054,-0,0.246723,-2461.49,-39147.3,-0,39224.6,272948
step02_gravity_refstate-crust.xmf,507,6.37554e-06,-6.49106e-06,0,2.92446e-06,-1.0477e+09,-1.04858e+09,-1.04814e+09,200618,-0.0138984,0.24131,-0,0.24171,-2065.91,-38158.3,-0,38214.2,200618
step02_gravity_refstate-crust.xmf,508,6.0381e-06,-5.92587e-06,0,1.86656e-06,-1.02145e+09,-1.02227e+09,-1.02186e+09,128046,-0.00919905,0.237383,-0,0.237561,-1488.84,-37202,-0,37231.8,128046
step02_gravity_refstate-crust.xmf,509,5.64254e-06,-5.31803e-06,0,8.73958e-07,-9.94613e+08,-9.95365e+08,-9.95e+08,59953.5,-0.00443976,0.233269,-0,0.233311,-784.708,-36224.5,-0,36233,59953.5
step02_gravity_refstate-crust.xmf,510,1.05212e-06,-7.50442e-08,0,-1.53256e-07,-1.35777e+08,-1.35855e+08,-1.35849e+08,-10513.4,0.00283419,0.202182,0,0.202201,2660.99,-4947.24,0,5617.48,10513.4
step02_gravity_refstate-crust.xmf,511,1.27062e-06,-2.97559e-07,0,-5.69391e-08,-6.66686e+07,-6.67761e+07,-6.67557e+07,-3906.02,0.00165527,0.202181,0,0.202188,1304.61,-2431.82,0,2759.66,3906.02
step02_gravity_refstate-crust.xmf,512,9.86741e-07,1.33906e-07,0,-1.60932e-07,-3.14439e+08,-3.14498e+08,-3.14507e+08,-11039.9,0.00131354,0.202279,0,0.202283,1329.86,-11451.7,0,11528.6,11039.9
step02_gravity_refstate-crust.xmf,513,1.21795e-06,4.13257e-08,0,-3.89649e-07,-4.59714e+08,-4.59795e+08,-4.59798e+08,-26730,0.00285424,0.201294,0,0.201315,2299.48,-16741.3,0,16898.5,26730
step02_gravity_refstate-crust.xmf,514,1.46701e-06,-1.39261e-07,0,-4.45117e-07,-5.37983e+08,-5.38094e+08,-5.38084e+08,-30535,0.00317797,0.201513,0,0.201538,2135.74,-19591.5,0,19707.6,30535
step02_gravity_refstate-crust.xmf,515,4.60112e-06,-3.87775e-06,0,4.74217e-07,-9.33755e+08,-9.34337e+08,-9.34071e+08,32531.3,-0.00268944,0.223366,-0,0.223382,-584.874,-34006.9,-0,34011.9,32531.3
step02_gravity_refstate-crust.xmf,516,2.09795e-06,-7.39767e-07,0,-2.7512e-07,-6.68267e+08,-6.68462e+08,-6.68411e+08,-18873.3,0.00188777,0.204121,0,0.20413,899.504,-24336.3,0,24352.9,18873.3
step02_gravity_refstate-crust.xmf,517,9.84187e-07,3.34945e-08,0,-9.32482e-08,-1.96079e+08,-1.96144e+08,-1.96147e+08,-6396.83,0.00119414,0.20273,0,0.202734,1212.63,-7142.49,0,7244.69,6396.83
step02_gravity_refstate-crust.xmf,518,1.59432e-06,-6.02652e-07,0,-7.87548e-09,151548,835.841,42177.8,-540.258,-5.54292e-07,0.201239,-0,0.201239,7.17046e-08,0,0,7.17046e-08,540.258
step02_gravity_refstate-crust.xmf,519,9.63105e-07,1.01603e-07,0,-5.63331e-09,-2.57354e+08,-2.57413e+08,-2.5742e+08,-386.445,9.30129e-05,0.20271,0,0.20271,95.7018,-9373.27,0,9373.76,386.445
step02_gravity_refstate-crust.xmf,520,1.17173e-06,5.5464e-08,0,-1.89722e-07,-4.28613e+08,-4.28689e+08,-4.28693e+08,-13015,0.00136938,0.201862,0,0.201867,1168.35,-15608.9,0,15652.6,13015
step02_gravity_refstate-crust.xmf,521,1.33786e-06,-5.3004e-08,0,-2.53201e-07,-4.93383e+08,-4.93478e+08,-4.93475e+08,-17369.6,0.0018335,0.201771,0,0.201779,1362.99,-17967.4,0,18019.1,17369.6
step02_gravity_refstate-crust.xmf,522,1.06276e-06,1.09118e-07,0,-1.446e-08,-3.68954e+08,-3.69019e+08,-3.69027e+08,-991.953,9.27045e-05,0.202223,0,0.202223,87.2103,-13436.6,0,13436.9,991.953
step02_gravity_refstate-crust.xmf,523,2.91604e-06,-1.6556e-06,0,-6.24635e-07,-7.90013e+08,-7.90327e+08,-7.90213e+08,-42850,0.00411489,0.208919,0,0.208959,1400.11,-28770.4,0,28804.5,42850
step02_gravity_refstate-crust.xmf,524,3.24694e-06,-2.06847e-06,0,-2.44126e-07,-8.21825e+08,-8.22189e+08,-8.22047e+08,-16747.1,0.00159197,0.211676,0,0.211682,491.364,-29929.3,0,29933.3,16747.1
step02_gravity_refstate-crust.xmf,525,3.68898e-06,-2.62592e-06,0,1.10064e-07,-8.62489e+08,-8.62922e+08,-8.62742e+08,7550.37,-0.000603424,0.215221,-0,0.215222,-164.289,-31410.6,-0,31411.1,7550.37
step02_gravity_refstate-crust.xmf,526,4.04625e-06,-3.13762e-06,0,8.13277e-07,-8.99636e+08,-9.00129e+08,-8.99913e+08,55790.8,-0.00485273,0.218444,-0,0.218498,-1183.55,-32763.7,-0,32785,55790.8
step02_gravity_refstate-crust.xmf,527,1.66756e-06,-3.18039e-07,0,-2.40249e-07,-5.81074e+08,-5.8121e+08,-5.81188e+08,-16481.1,0.0017425,0.202441,0,0.202448,1044.66,-21160.8,0,21186.6,16481.1
step02_gravity_refstate-crust.xmf,528,1.87147e-06,-5.10145e-07,0,3.50829e-09,-6.23013e+08,-6.23177e+08,-6.23142e+08,240.669,1.91723e-05,0.203271,0,0.203271,10.3369,-22688.2,0,22688.2,240.669
step02_gravity_refstate-crust.xmf,529,2.35418e-06,-1.01868e-06,0,2.1269e-09,-7.08326e+08,-7.08557e+08,-7.08487e+08,145.906,-3.20989e-05,0.205582,-0,0.205582,-13.7535,-25795.3,-0,25795.3,145.906
step02_gravity_refstate-crust.xmf,530,2.6322e-06,-1.32983e-06,0,-2.85323e-07,-7.49742e+08,-7.50013e+08,-7.49922e+08,-19573.2,0.0018833,0.207195,0,0.207203,715.925,-27303.7,0,27313.1,19573.2
step02_gravity_refstate-crust.xmf,531,4.37296e-06,-3.59404e-06,0,1.51152e-06,-9.31768e+08,-9.32315e+08,-9.32068e+08,103690,-0.00858819,0.221125,-0,0.221292,-1907.34,-33934.1,-0,33987.6,103690
step02_gravity_refstate-crust.xmf,532,4.98399e-06,-4.43759e-06,0,1.22595e-06,-9.6375e+08,-9.64396e+08,-9.64092e+08,84100.5,-0.00666495,0.226966,-0,0.227064,-1319.26,-35099.6,-0,35124.4,84100.5
step02_gravity_refstate-crust.xmf,533,5.87167e-06,-6.10543e-06,0,5.21737e-06,-1.07491e+09,-1.07573e+09,-1.07531e+09,357912,-0.0243858,0.239186,-0,0.240426,-3446.08,-39147.3,-0,39298.7,357912
step02_gravity_refstate-crust.xmf,534,5.59355e-06,-5.49752e-06,0,4.29e-06,-1.04672e+09,-1.04748e+09,-1.0471e+09,294294,-0.0208526,0.234716,-0,0.235641,-3237.4,-38120.9,-0,38258.1,294294
step02_gravity_refstate-crust.xmf,535,5.48615e-06,-5.21709e-06,0,3.17544e-06,-1.01972e+09,-1.02045e+09,-1.02009e+09,217835,-0.0159547,0.232549,-0,0.233096,-2674.8,-37137.9,-0,37234.1,217835
step02_gravity_refstate-crust.xmf,536,5.28651e-06,-4.85887e-06,0,2.15207e-06,-9.9243e+08,-9.93126e+08,-9.92792e+08,147632,-0.0111826,0.230056,-0,0.230327,-2029.55,-36144.3,-0,36201.2,147632
step02_gravity_refstate-crust.xmf,537,1.0659e-06,-6.9093e-08,0,3.61936e-08,-1.42036e+08,-1.42114e+08,-1.42109e+08,2482.88,-0.000463611,0.202813,-0,0.202813,-436.006,-5175.18,-0,5193.51,2482.88
step02_gravity_refstate-crust.xmf,538,1.25738e-06,-2.90027e-07,0,4.62427e-08,-6.93497e+07,-6.94559e+07,-6.9436e+07,3172.25,-0.00200553,0.202139,-0,0.202149,-1594.21,-2529.38,-0,2989.86,3172.25
step02_gravity_refstate-crust.xmf,539,9.90306e-07,1.28311e-07,0,1.17833e-07,-3.14766e+08,-3.14825e+08,-3.14834e+08,8083.32,-0.000999527,0.202357,-0,0.202359,-1011.37,-11463.6,-0,11508.1,8083.32
step02_gravity_refstate-crust.xmf,540,1.49128e-06,-1.7834e-07,0,-4.89236e-08,-5.34449e+08,-5.34563e+08,-5.34551e+08,-3356.16,0.000342512,0.202203,0,0.202203,230.324,-19462.9,0,19464.3,3356.16
step02_gravity_refstate-crust.xmf,541,2.08455e-06,-7.28761e-07,0,2.47853e-07,-6.65645e+08,-6.65838e+08,-6.65788e+08,17002.7,-0.00174148,0.204076,-0,0.204084,-835.421,-24240.8,-0,24255.2,17002.7
step02_gravity_refstate-crust.xmf,542,3.81627e-06,-2.84009e-06,0,1.69862e-06,-8.9839e+08,-8.98847e+08,-8.98652e+08,116525,-0.0100772,0.215793,-0,0.216028,-2516.91,-32717.8,-0,32814.5,116525
step02_gravity_refstate-crust.xmf,543,4.91993e-06,-4.86834e-06,0,6.35712e-06,-1.07888e+09,-1.07955e+09,-1.07922e+09,436098,-0.0301683,0.231142,-0,0.233103,-4441.3,-39290.2,-0,39540.4,436098
step02_gravity_refstate-crust.xmf,544,9.65915e-07,5.16388e-08,0,1.52665e-07,-2.07907e+08,-2.0797e+08,-2.07973e+08,10472.8,-0.00181197,0.202525,-0,0.202533,-1863.44,-7573.04,-0,7798.94,10472.8
step02_gravity_refstate-crust.xmf,545,1.54598e-06,-5.84953e-07,0,-3.96502e-09,146928,746.436,40874.2,-272.001,-0.00456972,0.200569,-0,0.200621,-2907.42,0,-0,2907.42,272.001
step02_gravity_refstate-crust.xmf,546,9.50107e-07,1.2145e-07,0,2.08201e-07,-2.70391e+08,-2.70448e+08,-2.70457e+08,14282.6,-0.00191796,0.202261,-0,0.20227,-2000.45,-9847.9,-0,10049,14282.6
step02_gravity_refstate-crust.xmf,547,1.31094e-06,-3.98383e-08,0,8.29668e-08,-4.79827e+08,-4.7992e+08,-4.79917e+08,5691.52,-0.000617161,0.201981,-0,0.201982,-471.398,-17473.8,-0,17480.2,5691.52
step02_gravity_refstate-crust.xmf,548,1.0348e-06,1.3261e-07,0,3.05322e-07,-3.67203e+08,-3.67265e+08,-3.67274e+08,20945.1,-0.00238058,0.201642,-0,0.201656,-2273.7,-13372.8,-0,13564.7,20945.1
step02_gravity_refstate-crust.xmf,549,1.15559e-06,6.50415e-08,0,1.91288e-07,-4.21947e+08,-4.22022e+08,-4.22027e+08,13122.4,-0.00143905,0.201855,-0,0.20186,-1244.57,-15366.2,-0,15416.5,13122.4
step02_gravity_refstate-crust.xmf,550,3.53066e-06,-2.45984e-06,0,1.04964e-06,-8.62156e+08,-8.62567e+08,-8.62398e+08,72005.4,-0.00647477,0.21379,-0,0.213888,-1786.53,-31398.1,-0,31448.9,72005.4
step02_gravity_refstate-crust.xmf,551,2.93287e-06,-1.67561e-06,0,9.79494e-08,-7.86098e+08,-7.86414e+08,-7.86299e+08,6719.33,-0.000589448,0.20932,-0,0.20932,-201.57,-28628,-0,28628.7,6719.33
step02_gravity_refstate-crust.xmf,552,3.2362e-06,-2.048e-06,0,5.39909e-07,-8.23108e+08,-8.2347e+08,-8.2333e+08,37037.7,-0.00337145,0.211457,-0,0.211484,-1038.24,-29976,-0,29994,37037.7
step02_gravity_refstate-crust.xmf,553,1.64724e-06,-2.98339e-07,0,2.14889e-07,-5.75714e+08,-5.75848e+08,-5.75827e+08,14741.4,-0.00148843,0.202428,-0,0.202434,-904.109,-20965.7,-0,20985.1,14741.4
step02_gravity_refstate-crust.xmf,554,1.7885e-06,-4.19517e-07,0,5.24263e-07,-6.16607e+08,-6.16758e+08,-6.16729e+08,35964.5,-0.00367887,0.202364,-0,0.202398,-2024.82,-22454.8,-0,22545.9,35964.5
step02_gravity_refstate-crust.xmf,555,2.28773e-06,-9.42081e-07,0,5.68576e-07,-7.05881e+08,-7.06102e+08,-7.06037e+08,39004.3,-0.00390287,0.204778,-0,0.204815,-1687.1,-25706.1,-0,25761.4,39004.3
step02_gravity_refstate-crust.xmf,556,2.6022e-06,-1.29879e-06,0,3.58404e-07,-7.46754e+08,-7.47021e+08,-7.46932e+08,24586.5,-0.00241306,0.206953,-0,0.206967,-926.075,-27194.8,-0,27210.6,24586.5
step02_gravity_refstate-crust.xmf,557,3.97199e-06,-3.09019e-06,0,2.43826e-06,-9.30284e+08,-9.30769e+08,-9.30557e+08,167265,-0.0140188,0.217049,-0,0.217502,-3221.61,-33879.2,-0,34032,167265
step02_gravity_refstate-crust.xmf,558,4.59594e-06,-3.94878e-06,0,2.32768e-06,-9.62044e+08,-9.6263e+08,-9.62359e+08,159679,-0.0127787,0.223267,-0,0.223633,-2606.88,-35036.7,-0,35133.5,159679
step02_gravity_refstate-crust.xmf,559,4.61601e-06,-4.26419e-06,0,5.54205e-06,-1.05125e+09,-1.05186e+09,-1.05157e+09,380185,-0.0274652,0.226409,-0,0.228068,-4453.99,-38283.9,-0,38542.1,380185
step02_gravity_refstate-crust.xmf,560,4.72167e-06,-4.23858e-06,0,4.28877e-06,-1.01887e+09,-1.01948e+09,-1.01919e+09,294210,-0.0220525,0.225595,-0,0.22667,-3880.84,-37105.5,-0,37307.9,294210
step02_gravity_refstate-crust.xmf,561,4.72294e-06,-4.14023e-06,0,3.25441e-06,-9.90941e+08,-9.91549e+08,-9.91265e+08,223253,-0.0172514,0.224826,-0,0.225487,-3256.63,-36088.9,-0,36235.5,223253
step02_gravity_refstate-crust.xmf,562,1.04024e-06,-6.44553e-08,0,1.99027e-07,-1.36702e+08,-1.36778e+08,-1.36774e+08,13653.3,-0.00335398,0.201927,-0,0.201955,-3165.98,-4980.89,-0,5901.92,13653.3
step02_gravity_refstate-crust.xmf,563,1.18386e-06,-2.61656e-07,0,1.41432e-07,-6.92508e+07,-6.935e+07,-6.9332e+07,9702.26,-0.00545299,0.200724,-0,0.200798,-4418.05,-2525.53,-0,5088.96,9702.26
step02_gravity_refstate-crust.xmf,564,9.49433e-07,1.60937e-07,0,3.76289e-07,-3.14163e+08,-3.14217e+08,-3.14228e+08,25813.4,-0.00316148,0.201362,-0,0.201387,-3240.99,-11441.5,-0,11891.7,25813.4
step02_gravity_refstate-crust.xmf,565,1.43914e-06,-1.29013e-07,0,3.52509e-07,-5.26534e+08,-5.26642e+08,-5.26633e+08,24182.1,-0.00254193,0.201692,-0,0.201708,-1751.35,-19174.6,-0,19254.4,24182.1
step02_gravity_refstate-crust.xmf,566,3.78026e-06,-3.34719e-06,0,6.92993e-06,-1.07493e+09,-1.07542e+09,-1.07519e+09,475394,-0.0339892,0.220467,-0,0.223071,-5419.8,-39143.9,-0,39517.3,475394
step02_gravity_refstate-crust.xmf,567,3.36212e-06,-2.21492e-06,0,1.82859e-06,-8.68085e+08,-8.68467e+08,-8.68315e+08,125442,-0.0112279,0.211446,-0,0.211744,-3115.98,-31613.7,-0,31766.9,125442
step02_gravity_refstate-crust.xmf,568,1.99987e-06,-6.24636e-07,0,7.30405e-07,-6.63957e+08,-6.64137e+08,-6.64094e+08,50105.8,-0.00510632,0.202821,-0,0.202885,-2493.42,-24179.2,-0,24307.4,50105.8
step02_gravity_refstate-crust.xmf,569,3.4307e-06,-2.3605e-06,0,2.47e-06,-8.97898e+08,-8.98295e+08,-8.98133e+08,169442,-0.0148356,0.211623,-0,0.212143,-3835.4,-32699.1,-0,32923.2,169442
step02_gravity_refstate-crust.xmf,570,9.0531e-07,1.43523e-07,0,3.89182e-07,-2.57766e+08,-2.57818e+08,-2.57828e+08,26697.9,-0.00375153,0.201153,-0,0.201188,-3982.16,-9388.12,-0,10197.8,26697.9
step02_gravity_refstate-crust.xmf,571,9.05643e-07,7.98063e-08,0,3.75332e-07,-1.9769e+08,-1.97747e+08,-1.97752e+08,25747.7,-0.00459324,0.200742,-0,0.200794,-4800.68,-7200.88,-0,8654.44,25747.7
step02_gravity_refstate-crust.xmf,572,1.40675e-06,-5.32879e-07,0,-1.97032e-10,133670,611.813,37167.3,-13.5164,-0.00887223,0.198603,-0,0.198801,-5815.3,0,-0,5815.3,13.5164
step02_gravity_refstate-crust.xmf,573,1.24981e-06,2.0819e-08,0,4.5453e-07,-4.73431e+08,-4.73516e+08,-4.73517e+08,31180.8,-0.00331915,0.201077,-0,0.201104,-2602.44,-17240.8,-0,17436.1,31180.8
step02_gravity_refstate-crust.xmf,574,9.58224e-07,2.04444e-07,0,5.98706e-07,-3.65032e+08,-3.65084e+08,-3.65098e+08,41071.3,-0.00467961,0.199876,-0,0.199931,-4591.19,-13293.6,-0,14064.1,41071.3
step02_gravity_refstate-crust.xmf,575,1.08783e-06,1.32909e-07,0,5.36983e-07,-4.18927e+08,-4.18993e+08,-4.19002e+08,36837.1,-0.00401406,0.200501,-0,0.200541,-3553.63,-15256.1,-0,15664.5,36837.1
step02_gravity_refstate-crust.xmf,576,3.06087e-06,-1.82426e-06,0,1.37561e-06,-8.2646e+08,-8.26795e+08,-8.2667e+08,94366.6,-0.00870443,0.209334,-0,0.209515,-2709.39,-30097.7,-0,30219.4,94366.6
step02_gravity_refstate-crust.xmf,577,2.83395e-06,-1.54842e-06,0,8.02477e-07,-7.8427e+08,-7.84571e+08,-7.84465e+08,55049.9,-0.00520325,0.208154,-0,0.208219,-1807.02,-28561.2,-0,28618.3,55049.9
step02_gravity_refstate-crust.xmf,578,1.55577e-06,-1.90494e-07,0,6.67434e-07,-5.72009e+08,-5.72129e+08,-5.72116e+08,45786,-0.00472397,0.201052,-0,0.201107,-2942.12,-20830.6,-0,21037.3,45786
step02_gravity_refstate-crust.xmf,579,1.67262e-06,-2.91796e-07,0,1.03264e-06,-6.22911e+08,-6.23046e+08,-6.23026e+08,70839.2,-0.00730526,0.200078,-0,0.200211,-4064.22,-22684,-0,23045.2,70839.2
step02_gravity_refstate-crust.xmf,580,2.13714e-06,-7.59716e-07,0,1.1006e-06,-7.04738e+08,-7.04937e+08,-7.04885e+08,75501.1,-0.00757975,0.202666,-0,0.202807,-3357.58,-25664.2,-0,25882.9,75501.1
step02_gravity_refstate-crust.xmf,581,2.46497e-06,-1.13374e-06,0,9.73312e-07,-7.44515e+08,-7.44762e+08,-7.44684e+08,66769.2,-0.00655429,0.205221,-0,0.205325,-2571.51,-27113,-0,27234.7,66769.2
step02_gravity_refstate-crust.xmf,582,2.94995e-06,-1.71069e-06,0,2.4269e-06,-8.63665e+08,-8.63985e+08,-8.63868e+08,166485,-0.0151931,0.206943,-0,0.2075,-4425.88,-31451.9,-0,31761.8,166485
step02_gravity_refstate-crust.xmf,583,3.4231e-06,-2.39248e-06,0,3.22216e-06,-9.28949e+08,-9.29348e+08,-9.29184e+08,221040,-0.0188786,0.211227,-0,0.212068,-4554.24,-33829.5,-0,34134.6,221040
step02_gravity_refstate-crust.xmf,584,4.03783e-06,-3.23886e-06,0,3.2563e-06,-9.6058e+08,-9.61079e+08,-9.60857e+08,223382,-0.0181849,0.217731,-0,0.218489,-3876.15,-34982.2,-0,35196.3,223382
step02_gravity_refstate-crust.xmf,585,3.42508e-06,-2.70115e-06,0,6.18183e-06,-1.04652e+09,-1.04694e+09,-1.04675e+09,424073,-0.0319295,0.214675,-0,0.217037,-5679.54,-38109.2,-0,38530.1,424073
step02_gravity_refstate-crust.xmf,586,3.84725e-06,-3.11911e-06,0,5.12163e-06,-1.01901e+09,-1.01948e+09,-1.01927e+09,351344,-0.0270359,0.217255,-0,0.21893,-5042.71,-37108.7,-0,37449.7,351344
step02_gravity_refstate-crust.xmf,587,4.03909e-06,-3.2674e-06,0,4.15117e-06,-9.91287e+08,-9.91788e+08,-9.91564e+08,284771,-0.0224624,0.218229,-0,0.219382,-4440.97,-36100.1,-0,36372.2,284771
step02_gravity_refstate-crust.xmf,588,9.50545e-07,-2.21636e-08,0,3.48748e-07,-1.35337e+08,-1.35403e+08,-1.35402e+08,23924.1,-0.00609764,0.199773,-0,0.199866,-5911.21,-4930.88,-0,7697.79,23924.1
step02_gravity_refstate-crust.xmf,589,1.04683e-06,-2.08572e-07,0,2.26356e-07,-6.86526e+07,-6.87387e+07,-6.87244e+07,15528,-0.00864927,0.198028,-0,0.198217,-7273.29,-2503.28,-0,7692.02,15528
step02_gravity_refstate-crust.xmf,590,8.67991e-07,2.28505e-07,0,6.17244e-07,-3.10677e+08,-3.10721e+08,-3.10737e+08,42342.9,-0.00523081,0.199323,-0,0.199391,-5531.36,-11314.4,-0,12594.1,42342.9
step02_gravity_refstate-crust.xmf,591,1.33365e-06,-1.29904e-08,0,7.47384e-07,-5.22324e+08,-5.22416e+08,-5.22415e+08,51270.6,-0.00539654,0.199919,-0,0.199992,-3838.28,-19021.1,-0,19404.5,51270.6
step02_gravity_refstate-crust.xmf,592,2.64998e-06,-1.85143e-06,0,7.3227e-06,-1.0748e+09,-1.07511e+09,-1.07498e+09,502338,-0.0371755,0.20929,-0,0.212566,-6416.17,-39137.1,-0,39659.6,502338
step02_gravity_refstate-crust.xmf,593,3.02649e-06,-1.80121e-06,0,1.87815e-06,-8.43664e+08,-8.43995e+08,-8.43871e+08,128841,-0.0119073,0.208347,-0,0.208687,-3591.1,-30723.9,-0,30933,128841
step02_gravity_refstate-crust.xmf,594,1.87304e-06,-4.71948e-07,0,1.2031e-06,-6.70314e+08,-6.70475e+08,-6.70442e+08,82532.6,-0.00839621,0.200585,-0,0.200761,-4135.5,-24410.3,-0,24758.1,82532.6
step02_gravity_refstate-crust.xmf,595,2.94187e-06,-1.73669e-06,0,3.11054e-06,-8.97468e+08,-8.97789e+08,-8.9767e+08,213383,-0.0190165,0.206034,-0,0.20691,-5155.21,-32682.4,-0,33086.5,213383
step02_gravity_refstate-crust.xmf,596,8.13628e-07,2.09629e-07,0,6.06897e-07,-2.55725e+08,-2.55766e+08,-2.55781e+08,41633.1,-0.00589171,0.198687,-0,0.198775,-6472.35,-9313.54,-0,11341.7,41633.1
step02_gravity_refstate-crust.xmf,597,7.96936e-07,1.41031e-07,0,5.4794e-07,-1.93526e+08,-1.93571e+08,-1.93581e+08,37588.7,-0.00688671,0.197865,-0,0.197985,-7464.58,-7048.95,-0,10266.8,37588.7
step02_gravity_refstate-crust.xmf,598,1.18711e-06,-4.50343e-07,0,2.75611e-09,112772,442.603,31336.2,189.069,-0.0126653,0.195458,-0,0.195868,-8728.93,0,-0,8728.93,189.069
step02_gravity_refstate-crust.xmf,599,1.13794e-06,1.41474e-07,0,8.05558e-07,-4.70064e+08,-4.70132e+08,-4.70142e+08,55261.3,-0.00590182,0.19892,-0,0.199007,-4793.27,-17118,-0,17776.4,55261.3
step02_gravity_refstate-crust.xmf,600,8.40404e-07,3.16171e-07,0,8.54018e-07,-3.62034e+08,-3.6207e+08,-3.62092e+08,58585.6,-0.00673458,0.197042,-0,0.197157,-6902.11,-13184.1,-0,14881.5,58585.6
step02_gravity_refstate-crust.xmf,601,9.70563e-07,2.53925e-07,0,8.45323e-07,-4.16277e+08,-4.16326e+08,-4.16344e+08,57989.2,-0.00635352,0.197941,-0,0.198043,-5850.64,-15159.3,-0,16249.1,57989.2
step02_gravity_refstate-crust.xmf,602,2.3783e-06,-1.3336e-06,0,6.58385e-06,-1.04729e+09,-1.04755e+09,-1.04746e+09,451652,-0.035161,0.203817,-0,0.206828,-6767.94,-38135.4,-0,38731.3,451652
step02_gravity_refstate-crust.xmf,603,2.70999e-06,-1.37792e-06,0,2.01808e-06,-8.21822e+08,-8.22102e+08,-8.22008e+08,138440,-0.0129937,0.205181,-0,0.205592,-4243.21,-29928.1,-0,30227.4,138440
step02_gravity_refstate-crust.xmf,604,2.61193e-06,-1.26587e-06,0,1.46358e-06,-7.83185e+08,-7.83451e+08,-7.83364e+08,100402,-0.00961697,0.205364,-0,0.205589,-3436.62,-28521.3,-0,28727.6,100402
step02_gravity_refstate-crust.xmf,605,1.39371e-06,1.60038e-09,0,1.07795e-06,-5.68837e+08,-5.68933e+08,-5.68933e+08,73947.7,-0.0077188,0.198324,-0,0.198474,-5006.48,-20714.7,-0,21311.1,73947.7
step02_gravity_refstate-crust.xmf,606,1.61739e-06,-1.7252e-07,0,1.53696e-06,-6.58681e+08,-6.58803e+08,-6.58792e+08,105436,-0.0108885,0.197183,-0,0.197484,-5730.58,-23986.2,-0,24661.3,105436
step02_gravity_refstate-crust.xmf,607,1.89371e-06,-4.64242e-07,0,1.56108e-06,-7.01285e+08,-7.01447e+08,-7.01415e+08,107090,-0.0108687,0.199261,-0,0.199557,-5031.71,-25537.9,-0,26028.9,107090
step02_gravity_refstate-crust.xmf,608,2.22423e-06,-8.38586e-07,0,1.52971e-06,-7.421e+08,-7.4231e+08,-7.42252e+08,104938,-0.0104006,0.202028,-0,0.202295,-4235.98,-27024.6,-0,27354.5,104938
step02_gravity_refstate-crust.xmf,609,2.58836e-06,-1.25417e-06,0,3.02296e-06,-8.72054e+08,-8.72318e+08,-8.72231e+08,207375,-0.0191161,0.202186,-0,0.203088,-5692.01,-31756.5,-0,32262.6,207375
step02_gravity_refstate-crust.xmf,610,2.79273e-06,-1.58773e-06,0,3.82791e-06,-9.2832e+08,-9.28621e+08,-9.28512e+08,262594,-0.0229293,0.204124,-0,0.205407,-5870.96,-33805.3,-0,34311.3,262594
step02_gravity_refstate-crust.xmf,611,3.3449e-06,-2.34705e-06,0,4.01003e-06,-9.59645e+08,-9.60035e+08,-9.59874e+08,275088,-0.0229053,0.210489,-0,0.211731,-5171.19,-34946.7,-0,35327.3,275088
step02_gravity_refstate-crust.xmf,612,2.95429e-06,-1.97181e-06,0,5.68357e-06,-1.02003e+09,-1.02036e+09,-1.02023e+09,389893,-0.0308548,0.208165,-0,0.210439,-6140.49,-37144,-0,37648.1,389893
step02_gravity_refstate-crust.xmf,613,3.25908e-06,-2.26969e-06,0,4.80926e-06,-9.91277e+08,-9.91657e+08,-9.91501e+08,329915,-0.0267264,0.210196,-0,0.211888,-5610.76,-36098.1,-0,36531.6,329915
step02_gravity_refstate-crust.xmf,614,8.09906e-07,4.3388e-08,0,4.73058e-07,-1.34254e+08,-1.34306e+08,-1.34309e+08,32451.8,-0.00853987,0.196455,-0,0.19664,-8666.07,-4890.99,-0,9951.01,32451.8
step02_gravity_refstate-crust.xmf,615,8.45045e-07,-1.25166e-07,0,2.99877e-07,-6.951e+07,-6.95765e+07,-6.95679e+07,20571.6,-0.011375,0.194163,-0,0.194496,-10179.9,-2533.81,-0,10490.5,20571.6
step02_gravity_refstate-crust.xmf,616,7.42805e-07,3.36543e-07,0,8.42222e-07,-3.09344e+08,-3.09371e+08,-3.09394e+08,57776.4,-0.00721438,0.196047,-0,0.19618,-7999.36,-11265.5,-0,13816.7,57776.4
step02_gravity_refstate-crust.xmf,617,1.16983e-06,1.73942e-07,0,1.10454e-06,-5.19142e+08,-5.19211e+08,-5.19223e+08,75771.2,-0.00803358,0.19687,-0,0.197033,-5983.82,-18904.9,-0,19829.3,75771.2
step02_gravity_refstate-crust.xmf,618,1.55796e-06,-3.84332e-07,0,7.44118e-06,-1.07462e+09,-1.07476e+09,-1.07473e+09,510465,-0.0392741,0.197359,-0,0.201229,-7425.02,-39128.4,-0,39826.7,510465
step02_gravity_refstate-crust.xmf,619,1.4074e-06,1.82311e-08,0,1.41807e-06,-6.10292e+08,-6.10387e+08,-6.10388e+08,97279.5,-0.0101905,0.196221,-0,0.196485,-6119.01,-22224,-0,23051,97279.5
step02_gravity_refstate-crust.xmf,620,2.53412e-06,-1.16549e-06,0,2.65788e-06,-8.45868e+08,-8.46121e+08,-8.46041e+08,182331,-0.017069,0.20226,-0,0.202979,-5405.96,-30803.1,-0,31273.9,182331
step02_gravity_refstate-crust.xmf,621,2.37486e-06,-1.01286e-06,0,3.57161e-06,-8.94866e+08,-8.95098e+08,-8.95029e+08,245012,-0.0223362,0.199258,-0,0.200506,-6463.3,-32586.5,-0,33221.3,245012
step02_gravity_refstate-crust.xmf,622,2.09237e-06,-8.42196e-07,0,5.97144e-06,-1.01974e+09,-1.01994e+09,-1.01988e+09,409641,-0.0334456,0.198636,-0,0.201432,-7179.76,-37131.7,-0,37819.5,409641
step02_gravity_refstate-crust.xmf,623,6.60448e-07,3.21327e-07,0,8.0363e-07,-2.47352e+08,-2.47375e+08,-2.47397e+08,55129,-0.00806838,0.194561,-0,0.194728,-9414.05,-9008.25,-0,13029.7,55129
step02_gravity_refstate-crust.xmf,624,6.80953e-07,2.05697e-07,0,6.56326e-07,-1.87733e+08,-1.87766e+08,-1.8778e+08,45024,-0.00855365,0.194755,-0,0.194943,-9650.02,-6837.69,-0,11827,45024
step02_gravity_refstate-crust.xmf,625,9.02996e-07,-3.43648e-07,0,5.69856e-09,85735.8,215.942,23790.2,390.921,-0.0157418,0.191312,-0,0.191959,-11656.5,0,-0,11656.5,390.921
step02_gravity_refstate-crust.xmf,626,9.76442e-07,3.19318e-07,0,1.11343e-06,-4.67196e+08,-4.67241e+08,-4.67263e+08,76381.5,-0.00822061,0.195566,-0,0.195739,-7026.16,-17013.2,-0,18406.9,76381.5
step02_gravity_refstate-crust.xmf,627,6.87947e-07,4.60281e-07,0,1.06496e-06,-3.58834e+08,-3.5885e+08,-3.58881e+08,73056.1,-0.00850504,0.193197,-0,0.193384,-9260.09,-13067.2,-0,16015.7,73056.1
step02_gravity_refstate-crust.xmf,628,8.14416e-07,4.15477e-07,0,1.10095e-06,-4.13289e+08,-4.13317e+08,-4.13345e+08,75524.9,-0.0083536,0.194346,-0,0.194526,-8134.87,-15050.1,-0,17108,75524.9
step02_gravity_refstate-crust.xmf,629,1.429e-06,-6.20631e-08,0,6.70142e-06,-1.04714e+09,-1.04724e+09,-1.04724e+09,459718,-0.0370954,0.192934,-0,0.196468,-7792.8,-38127.9,-0,38916.1,459718
step02_gravity_refstate-crust.xmf,630,2.26735e-06,-8.32744e-07,0,2.03039e-06,-7.8027e+08,-7.80483e+08,-7.80426e+08,139285,-0.0135781,0.200917,-0,0.201375,-5098.73,-28414.4,-0,28868.2,139285
step02_gravity_refstate-crust.xmf,631,1.17564e-06,2.6145e-07,0,1.42827e-06,-5.6677e+08,-5.66832e+08,-5.6685e+08,97979.5,-0.010358,0.194355,-0,0.194631,-7094.85,-20639,-0,21824.4,97979.5
step02_gravity_refstate-crust.xmf,632,1.35291e-06,1.50933e-07,0,1.84436e-06,-6.5459e+08,-6.54672e+08,-6.54682e+08,126523,-0.0132468,0.192926,-0,0.193381,-7401.48,-23836.7,-0,24959.4,126523
step02_gravity_refstate-crust.xmf,633,1.59975e-06,-1.01726e-07,0,1.93658e-06,-6.97912e+08,-6.98029e+08,-6.98022e+08,132850,-0.0136707,0.194853,-0,0.195332,-6697.3,-25414.5,-0,26282.1,132850
step02_gravity_refstate-crust.xmf,634,1.90188e-06,-4.37926e-07,0,2.00198e-06,-7.39742e+08,-7.39903e+08,-7.39872e+08,137336,-0.0138068,0.197508,-0,0.19799,-5923.85,-26938.1,-0,27581.7,137336
step02_gravity_refstate-crust.xmf,635,2.13897e-06,-6.4174e-07,0,3.17261e-06,-8.55412e+08,-8.55603e+08,-8.55559e+08,217641,-0.0205966,0.196857,-0,0.197931,-6703.05,-31149.8,-0,31862.8,217641
step02_gravity_refstate-crust.xmf,636,2.22365e-06,-7.58356e-07,0,2.57769e-06,-8.16388e+08,-8.16593e+08,-8.16541e+08,176830,-0.0170213,0.199012,-0,0.199739,-5965.67,-29729.3,-0,30321.9,176830
step02_gravity_refstate-crust.xmf,637,2.0832e-06,-6.65385e-07,0,4.22692e-06,-9.26103e+08,-9.26292e+08,-9.26246e+08,289967,-0.02611,0.195563,-0,0.197298,-7238.56,-33723.1,-0,34491.2,289967
step02_gravity_refstate-crust.xmf,638,2.52315e-06,-1.30288e-06,0,4.68027e-06,-9.64071e+08,-9.64334e+08,-9.64245e+08,321066,-0.0273407,0.201442,-0,0.203289,-6570.29,-35106.2,-0,35715.7,321066
step02_gravity_refstate-crust.xmf,639,2.57028e-06,-1.41141e-06,0,5.28737e-06,-9.96145e+08,-9.96419e+08,-9.96322e+08,362714,-0.0299682,0.202892,-0,0.205094,-6585.77,-36273.9,-0,36866.9,362714
step02_gravity_refstate-crust.xmf,640,6.02152e-07,1.56508e-07,0,6.04396e-07,-1.44742e+08,-1.44773e+08,-1.44784e+08,41461.6,-0.0104526,0.191728,-0,0.192013,-11643.2,-5272.17,-0,12781.2,41461.6
step02_gravity_refstate-crust.xmf,641,6.02148e-07,-2.82265e-08,0,3.51606e-07,-6.96041e+07,-6.96473e+07,-6.96454e+07,24120.1,-0.0134924,0.189345,-0,0.189825,-13111.6,-2536.4,-0,13354.7,24120.1
step02_gravity_refstate-crust.xmf,642,5.86969e-07,4.7179e-07,0,1.02153e-06,-3.07893e+08,-3.07901e+08,-3.07933e+08,70077.1,-0.00887499,0.19176,-0,0.191965,-10508.8,-11212.2,-0,15367.2,70077.1
step02_gravity_refstate-crust.xmf,643,9.66707e-07,4.11469e-07,0,1.40127e-06,-5.18083e+08,-5.18121e+08,-5.18149e+08,96127.4,-0.0102946,0.192738,-0,0.193012,-8119.5,-18865.9,-0,20538.9,96127.4
step02_gravity_refstate-crust.xmf,644,6.07793e-07,9.40107e-07,0,7.29167e-06,-1.07284e+09,-1.07282e+09,-1.07288e+09,500208,-0.0401641,0.185501,-0,0.189799,-8412.18,-39061.8,-0,39957.3,500208
step02_gravity_refstate-crust.xmf,645,1.13801e-06,3.52595e-07,0,1.75405e-06,-6.10064e+08,-6.10118e+08,-6.10142e+08,120328,-0.012768,0.191333,-0,0.191758,-8148.65,-22215.1,-0,23662.5,120328
step02_gravity_refstate-crust.xmf,646,1.77997e-06,-2.36779e-07,0,3.86008e-06,-8.91164e+08,-8.91302e+08,-8.91286e+08,264802,-0.0248588,0.191612,-0,0.193217,-7788.71,-32450.6,-0,33372.2,264802
step02_gravity_refstate-crust.xmf,647,1.88092e-06,-4.72373e-07,0,5.40768e-06,-9.90361e+08,-9.90522e+08,-9.9049e+08,370967,-0.0316211,0.194629,-0,0.197181,-7547.31,-36061.9,-0,36843.3,370967
step02_gravity_refstate-crust.xmf,648,1.25652e-06,2.89507e-07,0,6.03412e-06,-1.01779e+09,-1.01786e+09,-1.01788e+09,413940,-0.0350681,0.188336,-0,0.191573,-8252.71,-37059.3,-0,37967.1,413940
step02_gravity_refstate-crust.xmf,649,5.72279e-07,-2.19163e-07,0,7.79292e-09,54277.1,-15.8613,15018.7,534.594,-0.0179361,0.186393,-0,0.187254,-14606.1,0,-0,14606.1,534.594
step02_gravity_refstate-crust.xmf,650,5.56776e-07,3.19864e-07,0,7.98532e-07,-2.09367e+08,-2.09383e+08,-2.09405e+08,54779.3,-0.00944105,0.191599,-0,0.191831,-11391.8,-7624.96,-0,13708.2,54779.3
step02_gravity_refstate-crust.xmf,651,4.82724e-07,4.8105e-07,0,9.81394e-07,-2.61668e+08,-2.61668e+08,-2.61701e+08,67323.6,-0.00959335,0.189512,-0,0.189755,-12096.4,-9529,-0,15398.9,67323.6
step02_gravity_refstate-crust.xmf,652,7.79705e-07,5.382e-07,0,1.36307e-06,-4.6516e+08,-4.65177e+08,-4.65214e+08,93506.8,-0.0101616,0.191172,-0,0.191442,-9279.11,-16938.6,-0,19313.7,93506.8
step02_gravity_refstate-crust.xmf,653,5.17434e-07,6.24256e-07,0,1.22516e-06,-3.57986e+08,-3.57979e+08,-3.58022e+08,84045.8,-0.00990252,0.188572,-0,0.188831,-11596.5,-13035.9,-0,17447.5,84045.8
step02_gravity_refstate-crust.xmf,654,6.28718e-07,6.07212e-07,0,1.30259e-06,-4.10876e+08,-4.10878e+08,-4.10919e+08,89358,-0.0100001,0.189768,-0,0.190032,-10469.5,-14961.8,-0,18261.1,89358
step02_gravity_refstate-crust.xmf,655,5.23696e-07,1.19659e-06,0,6.56644e-06,-1.04521e+09,-1.04516e+09,-1.04524e+09,450458,-0.0380013,0.180994,-0,0.184941,-8900.31,-38055.8,-0,39082.8,450458
step02_gravity_refstate-crust.xmf,656,1.84962e-06,-3.02864e-07,0,2.48644e-06,-7.78394e+08,-7.78541e+08,-7.7852e+08,170569,-0.0169778,0.195136,-0,0.195873,-6787.03,-28345.2,-0,29146.4,170569
step02_gravity_refstate-crust.xmf,657,9.33053e-07,5.53138e-07,0,1.69061e-06,-5.65538e+08,-5.65564e+08,-5.65602e+08,115976,-0.0124315,0.189601,-0,0.190008,-9091.36,-20593.6,-0,22511.1,115976
step02_gravity_refstate-crust.xmf,658,1.05155e-06,5.26784e-07,0,2.09616e-06,-6.52243e+08,-6.52279e+08,-6.52315e+08,143797,-0.0153011,0.187639,-0,0.188262,-9177.62,-23750.6,-0,25462.2,143797
step02_gravity_refstate-crust.xmf,659,1.26302e-06,3.20805e-07,0,2.23608e-06,-6.95545e+08,-6.9561e+08,-6.95632e+08,153395,-0.0160602,0.189401,-0,0.19008,-8427.93,-25327.6,-0,26693,153395
step02_gravity_refstate-crust.xmf,660,1.52109e-06,4.28247e-08,0,2.37214e-06,-7.37547e+08,-7.37648e+08,-7.37651e+08,162729,-0.0166717,0.191802,-0,0.192526,-7647.86,-26857.3,-0,27925,162729
step02_gravity_refstate-crust.xmf,661,1.73003e-06,-1.24225e-07,0,2.99306e-06,-8.16666e+08,-8.16794e+08,-8.16785e+08,205324,-0.0202461,0.192144,-0,0.193207,-7590.36,-29738.4,-0,30691.8,205324
step02_gravity_refstate-crust.xmf,662,1.5053e-06,1.78825e-07,0,3.52554e-06,-8.5464e+08,-8.54731e+08,-8.54743e+08,241852,-0.023646,0.188104,-0,0.189585,-8400.14,-31120.4,-0,32234.2,241852
step02_gravity_refstate-crust.xmf,663,1.39003e-06,2.58195e-07,0,4.42641e-06,-9.23614e+08,-9.23692e+08,-9.23709e+08,303652,-0.0283009,0.186357,-0,0.188494,-8600.28,-33631.1,-0,34713.3,303652
step02_gravity_refstate-crust.xmf,664,1.65524e-06,-1.45072e-07,0,4.87759e-06,-9.57371e+08,-9.57495e+08,-9.57485e+08,334603,-0.0298125,0.190618,-0,0.192936,-7999.81,-34860.5,-0,35766.7,334603
step02_gravity_refstate-crust.xmf,665,3.21083e-07,8.50528e-08,0,3.80877e-07,-6.98937e+07,-6.99099e+07,-6.99157e+07,26128.2,-0.0148759,0.183727,-0,0.184328,-16132.4,-2545.98,-0,16332.1,26128.2
step02_gravity_refstate-crust.xmf,666,3.9556e-07,4.09338e-07,0,8.69279e-07,-2.05292e+08,-2.05291e+08,-2.05319e+08,59632.5,-0.010609,0.187118,-0,0.187418,-13765.9,-7476.1,-0,15665,59632.5
step02_gravity_refstate-crust.xmf,667,3.82809e-07,2.44931e-07,0,6.51121e-07,-1.37221e+08,-1.3723e+08,-1.37247e+08,44666.9,-0.0121094,0.186164,-0,0.186558,-14665.5,-4997.58,-0,15493.6,44666.9
step02_gravity_refstate-crust.xmf,668,4.36966e-07,6.12451e-07,0,1.14413e-06,-3.12173e+08,-3.12161e+08,-3.12203e+08,78487.6,-0.0099959,0.187374,-0,0.18764,-12653.2,-11367.7,-0,17009.7,78487.6
step02_gravity_refstate-crust.xmf,669,7.39297e-07,6.83181e-07,0,1.62405e-06,-5.18034e+08,-5.18037e+08,-5.18084e+08,111410,-0.0120976,0.187745,-0,0.188134,-10233.5,-18863.6,-0,21460.6,111410
step02_gravity_refstate-crust.xmf,670,-2.92869e-07,2.22901e-06,0,6.96438e-06,-1.07204e+09,-1.07186e+09,-1.07202e+09,477756,-0.0402629,0.172664,-0,0.177297,-9492.52,-39030.8,-0,40168.6,477756
step02_gravity_refstate-crust.xmf,671,8.6867e-07,6.88424e-07,0,1.97227e-06,-6.09377e+08,-6.0939e+08,-6.09437e+08,135297,-0.0145802,0.186132,-0,0.186703,-9976.66,-22189.6,-0,24329.2,135297
step02_gravity_refstate-crust.xmf,672,1.16701e-06,5.81598e-07,0,4.03269e-06,-8.89437e+08,-8.89477e+08,-8.89517e+08,276643,-0.0268428,0.18288,-0,0.184839,-9209.97,-32386.5,-0,33670.6,276643
step02_gravity_refstate-crust.xmf,673,1.09092e-06,6.05015e-07,0,5.441e-06,-9.86984e+08,-9.87018e+08,-9.87059e+08,373253,-0.0331366,0.184236,-0,0.187193,-8751.06,-35937.5,-0,36987.6,373253
step02_gravity_refstate-crust.xmf,674,4.36466e-07,1.4284e-06,0,5.92195e-06,-1.01635e+09,-1.01629e+09,-1.01638e+09,406246,-0.0359452,0.176939,-0,0.180553,-9428.38,-37005.3,-0,38187.6,406246
step02_gravity_refstate-crust.xmf,675,2.14972e-07,-8.42293e-08,0,9.54739e-09,20307.8,-217.386,5560.74,654.951,-0.0191287,0.180966,-0,0.181974,-17586.2,0,-0,17586.2,654.951
step02_gravity_refstate-crust.xmf,676,2.96322e-07,6.52806e-07,0,1.12592e-06,-2.81092e+08,-2.81068e+08,-2.81113e+08,77238.1,-0.0106093,0.183746,-0,0.184052,-14667.1,-10235.7,-0,17885.6,77238.1
step02_gravity_refstate-crust.xmf,677,5.35648e-07,8.2508e-07,0,1.58054e-06,-4.69429e+08,-4.69409e+08,-4.69465e+08,108425,-0.0119242,0.185099,-0,0.185483,-11812.8,-17093.5,-0,20778.1,108425
step02_gravity_refstate-crust.xmf,678,3.35506e-07,7.8521e-07,0,1.31347e-06,-3.52253e+08,-3.52222e+08,-3.52276e+08,90104.2,-0.0108293,0.183531,-0,0.18385,-13923.7,-12826.7,-0,18931.3,90104.2
step02_gravity_refstate-crust.xmf,679,4.26326e-07,8.17006e-07,0,1.4396e-06,-4.08989e+08,-4.08962e+08,-4.09018e+08,98756.8,-0.0112071,0.184458,-0,0.184799,-12817.5,-14892.6,-0,19648.9,98756.8
step02_gravity_refstate-crust.xmf,680,-2.89047e-07,2.35991e-06,0,6.27601e-06,-1.04464e+09,-1.04446e+09,-1.04462e+09,430534,-0.0380905,0.16875,-0,0.172996,-10045.1,-38033.8,-0,39337.9,430534
step02_gravity_refstate-crust.xmf,681,1.3933e-06,2.82437e-07,0,2.81386e-06,-7.77175e+08,-7.77251e+08,-7.7727e+08,193031,-0.0196707,0.188301,-0,0.189325,-8482.35,-28299.9,-0,29543.8,193031
step02_gravity_refstate-crust.xmf,682,6.92209e-07,8.49608e-07,0,1.88076e-06,-5.68277e+08,-5.68266e+08,-5.68324e+08,129020,-0.0140341,0.184369,-0,0.184903,-10961.4,-20692.8,-0,23416.8,129020
step02_gravity_refstate-crust.xmf,683,7.45453e-07,9.15374e-07,0,2.26204e-06,-6.50266e+08,-6.50255e+08,-6.50317e+08,155176,-0.0168091,0.181804,-0,0.182579,-10939.2,-23678,-0,26082.8,155176
step02_gravity_refstate-crust.xmf,684,9.07978e-07,7.71923e-07,0,2.43707e-06,-6.9298e+08,-6.9299e+08,-6.93043e+08,167183,-0.0178629,0.183183,-0,0.184052,-10184.2,-25233.5,-0,27211.2,167183
step02_gravity_refstate-crust.xmf,685,1.11657e-06,5.59548e-07,0,2.63361e-06,-7.36392e+08,-7.3643e+08,-7.36468e+08,180666,-0.0189098,0.185193,-0,0.186156,-9384.03,-26814.5,-0,28409.1,180666
step02_gravity_refstate-crust.xmf,686,1.2144e-06,5.46438e-07,0,3.25914e-06,-8.17719e+08,-8.17764e+08,-8.17802e+08,223577,-0.0226808,0.184351,-0,0.185741,-9206.62,-29775.6,-0,31166.5,223577
step02_gravity_refstate-crust.xmf,687,9.67196e-07,8.84643e-07,0,3.67356e-06,-8.53901e+08,-8.53907e+08,-8.53968e+08,252006,-0.0254119,0.179894,-0,0.18168,-9863.8,-31092.4,-0,32619.5,252006
step02_gravity_refstate-crust.xmf,688,7.37151e-07,1.14825e-06,0,4.46924e-06,-9.22141e+08,-9.22113e+08,-9.22191e+08,306590,-0.0296686,0.176655,-0,0.179129,-9980.64,-33576.2,-0,35028.2,306590
step02_gravity_refstate-crust.xmf,689,9.07175e-07,8.74379e-07,0,4.928e-06,-9.54915e+08,-9.54917e+08,-9.54977e+08,338061,-0.0313511,0.180198,-0,0.182905,-9343.11,-34769.7,-0,36003.1,338061
step02_gravity_refstate-crust.xmf,690,3.26744e-08,2.03514e-07,0,3.90113e-07,-7.09142e+07,-7.09024e+07,-7.09164e+07,26761.7,-0.0153626,0.177827,-0,0.17849,-19130.5,-2582.15,-0,19304,26761.7
step02_gravity_refstate-crust.xmf,691,1.36358e-07,3.76023e-07,0,6.94398e-07,-1.41697e+08,-1.4168e+08,-1.41706e+08,47635.7,-0.0127847,0.179981,-0,0.180434,-17694.5,-5159.75,-0,18431.5,47635.7
step02_gravity_refstate-crust.xmf,692,2.03421e-07,5.43767e-07,0,9.39819e-07,-2.12582e+08,-2.12558e+08,-2.12596e+08,64471.6,-0.0113133,0.18158,-0,0.181932,-16364.4,-7740.92,-0,18102.9,64471.6
step02_gravity_refstate-crust.xmf,693,-1.33177e-07,5.12035e-08,0,7.85567e-09,-12622.4,26.0804,-3486.48,538.899,-0.0192495,0.17532,-0,0.176374,-20604.8,0,-0,20604.8,538.899
step02_gravity_refstate-crust.xmf,694,-4.96035e-07,1.85139e-07,0,1.064e-08,-47251.1,-522.508,-13223,729.906,-0.0182807,0.169761,-0,0.170743,-23670.5,0,-0,23670.5,729.906
step02_gravity_refstate-crust.xmf,695,-2.40485e-07,3.20902e-07,0,3.68189e-07,-7.13222e+07,-7.12836e+07,-7.13057e+07,25257.7,-0.0150204,0.171931,-0,0.172586,-22138.6,-2596.08,-0,22290.3,25257.7
step02_gravity_refstate-crust.xmf,696,5.3003e-07,9.4221e-07,0,1.77637e-06,-5.21217e+08,-5.21189e+08,-5.21254e+08,121859,-0.013377,0.182588,-0,0.183077,-12126.4,-18979,-0,22522.3,121859
step02_gravity_refstate-crust.xmf,697,-1.0596e-06,3.37222e-06,0,6.49208e-06,-1.07215e+09,-1.07184e+09,-1.07207e+09,445357,-0.0395203,0.159808,-0,0.164622,-10600.8,-39033.5,-0,40447.4,445357
step02_gravity_refstate-crust.xmf,698,6.32984e-07,9.95546e-07,0,2.09972e-06,-6.09876e+08,-6.09851e+08,-6.0992e+08,144041,-0.0157715,0.181193,-0,0.181878,-11541.8,-22207.3,-0,25027.5,144041
step02_gravity_refstate-crust.xmf,699,6.08855e-07,1.34255e-06,0,4.05425e-06,-8.87351e+08,-8.873e+08,-8.87392e+08,278122,-0.0279529,0.174012,-0,0.176243,-10605.8,-32309.4,-0,34005.6,278122
step02_gravity_refstate-crust.xmf,700,3.35464e-07,1.65239e-06,0,5.34013e-06,-9.85977e+08,-9.85887e+08,-9.86e+08,366333,-0.033972,0.17308,-0,0.176383,-10028.4,-35899.4,-0,37273.8,366333
step02_gravity_refstate-crust.xmf,701,-3.07027e-07,2.49236e-06,0,5.65845e-06,-1.01623e+09,-1.01603e+09,-1.0162e+09,388170,-0.036015,0.165053,-0,0.168936,-10659.3,-36999.3,-0,38504.1,388170
step02_gravity_refstate-crust.xmf,702,1.53087e-07,9.34517e-07,0,1.34073e-06,-3.4442e+08,-3.44366e+08,-3.44431e+08,91974.2,-0.0113286,0.178161,-0,0.178521,-16291.5,-12541,-0,20559.4,91974.2
step02_gravity_refstate-crust.xmf,703,3.00856e-07,1.06394e-06,0,1.64559e-06,-4.58053e+08,-4.58001e+08,-4.58074e+08,112887,-0.0126636,0.179303,-0,0.17975,-14182.2,-16678.7,-0,21893.2,112887
step02_gravity_refstate-crust.xmf,704,2.20254e-07,1.02199e-06,0,1.50287e-06,-4.04327e+08,-4.04272e+08,-4.04342e+08,103097,-0.0119021,0.178686,-0,0.179082,-15207.9,-14722.4,-0,21166.7,103097
step02_gravity_refstate-crust.xmf,705,-5.16006e-07,4.19468e-07,0,3.31545e-07,-7.01794e+07,-7.01153e+07,-7.01441e+07,22744,-0.0138981,0.166302,-0,0.166881,-25202.3,-2553.51,-0,25331.3,22744
step02_gravity_refstate-crust.xmf,706,-8.11733e-07,3.05003e-07,0,1.02746e-08,-77237.1,-629.008,-21552.2,704.841,-0.016255,0.164597,-0,0.165398,-26791.5,0,-0,26791.5,704.841
step02_gravity_refstate-crust.xmf,707,3.59928e-07,1.10376e-06,0,1.7771e-06,-5.03027e+08,-5.02976e+08,-5.03052e+08,121909,-0.0135313,0.179212,-0,0.179722,-13567.5,-18316.4,-0,22794,121909
step02_gravity_refstate-crust.xmf,708,-9.87703e-07,3.40592e-06,0,5.83576e-06,-1.04467e+09,-1.04437e+09,-1.0446e+09,400333,-0.0373236,0.156222,-0,0.160618,-11247.1,-38033.4,-0,39661.6,400333
step02_gravity_refstate-crust.xmf,709,8.71193e-07,9.39611e-07,0,3.06982e-06,-7.81354e+08,-7.8135e+08,-7.81414e+08,210590,-0.02203,0.17959,-0,0.180936,-10381.7,-28451,-0,30285.9,210590
step02_gravity_refstate-crust.xmf,710,4.46377e-07,1.18894e-06,0,2.0613e-06,-5.84984e+08,-5.84933e+08,-5.85014e+08,141405,-0.0156213,0.178071,-0,0.178755,-12811.1,-21300.6,-0,24856.4,141405
step02_gravity_refstate-crust.xmf,711,4.20764e-07,1.31117e-06,0,2.30587e-06,-6.38783e+08,-6.38722e+08,-6.38811e+08,158183,-0.0175187,0.175318,-0,0.176191,-12900.7,-23259.3,-0,26597.4,158183
step02_gravity_refstate-crust.xmf,712,5.55892e-07,1.22511e-06,0,2.54075e-06,-6.90148e+08,-6.90102e+08,-6.90186e+08,174296,-0.0190498,0.176435,-0,0.177461,-11965.1,-25129.7,-0,27832.8,174296
step02_gravity_refstate-crust.xmf,713,7.00084e-07,1.10193e-06,0,2.7707e-06,-7.33993e+08,-7.33965e+08,-7.34041e+08,190070,-0.0204255,0.177812,-0,0.178981,-11171.7,-26726.3,-0,28967.2,190070
step02_gravity_refstate-crust.xmf,714,8.05679e-07,1.06918e-06,0,3.39599e-06,-8.20955e+08,-8.20937e+08,-8.2101e+08,232965,-0.0241668,0.177474,-0,0.179112,-10512.6,-29892.6,-0,31687.3,232965
step02_gravity_refstate-crust.xmf,715,5.07988e-07,1.49956e-06,0,3.67672e-06,-8.51085e+08,-8.51017e+08,-8.51119e+08,252223,-0.0262531,0.172114,-0,0.174105,-11220,-30989,-0,32957.6,252223
step02_gravity_refstate-crust.xmf,716,1.6328e-07,1.95288e-06,0,4.37097e-06,-9.20743e+08,-9.2062e+08,-9.20754e+08,299849,-0.0301974,0.166946,-0,0.169655,-11349.1,-33524.3,-0,35393.2,299849
step02_gravity_refstate-crust.xmf,717,2.37234e-07,1.81171e-06,0,4.83075e-06,-9.53987e+08,-9.53879e+08,-9.54003e+08,331390,-0.0320557,0.169617,-0,0.172619,-10687.1,-34734.6,-0,36341.6,331390
step02_gravity_refstate-crust.xmf,718,-9.992e-08,4.91114e-07,0,6.85248e-07,-1.43019e+08,-1.42978e+08,-1.43012e+08,47008,-0.0128035,0.173823,-0,0.174293,-20653,-5207.09,-0,21299.3,47008
step02_gravity_refstate-crust.xmf,719,3.1911e-09,6.63085e-07,0,9.43841e-07,-2.12245e+08,-2.122e+08,-2.12245e+08,64747.5,-0.0115996,0.175699,-0,0.176081,-19075.8,-7728.03,-0,20581.7,64747.5
step02_gravity_refstate-crust.xmf,720,8.81705e-08,8.08984e-07,0,1.15453e-06,-2.79257e+08,-2.79208e+08,-2.79263e+08,79201.1,-0.0111605,0.177313,-0,0.177664,-17541.6,-10168.2,-0,20275.6,79201.1
step02_gravity_refstate-crust.xmf,721,-3.18225e-07,5.95173e-07,0,6.2267e-07,-1.41268e+08,-1.41206e+08,-1.41247e+08,42715.1,-0.0122222,0.167932,-0,0.168377,-23607,-5142.65,-0,24160.7,42715.1
step02_gravity_refstate-crust.xmf,722,-7.53725e-07,5.1096e-07,0,2.76468e-07,-6.96419e+07,-6.95552e+07,-6.95902e+07,18965.7,-0.0119276,0.161215,-0,0.161655,-28340.2,-2533.13,-0,28453.2,18965.7
step02_gravity_refstate-crust.xmf,723,-1.07875e-06,4.06453e-07,0,9.58752e-09,-102597,-711.574,-28594.3,657.704,-0.0132561,0.160127,-0,0.160675,-29976.3,0,-0,29976.3,657.704
step02_gravity_refstate-crust.xmf,724,3.02662e-07,1.2629e-06,0,1.9432e-06,-5.44844e+08,-5.44779e+08,-5.44865e+08,133303,-0.0148293,0.176084,-0,0.176708,-14014.4,-19838.8,-0,24289.5,133303
step02_gravity_refstate-crust.xmf,725,1.7798e-07,1.31836e-06,0,1.82147e-06,-5.04688e+08,-5.0461e+08,-5.047e+08,124953,-0.0140322,0.174231,-0,0.174795,-15267.3,-18376.4,-0,23891.1,124953
step02_gravity_refstate-crust.xmf,726,-1.6744e-06,4.35405e-06,0,5.88005e-06,-1.07203e+09,-1.07162e+09,-1.07191e+09,403372,-0.0379087,0.146869,-0,0.151682,-11775,-39028.3,-0,40765.9,403372
step02_gravity_refstate-crust.xmf,727,1.16349e-07,2.03202e-06,0,3.96624e-06,-8.85839e+08,-8.85707e+08,-8.85847e+08,272084,-0.0283689,0.165144,-0,0.167563,-11990.3,-32253.5,-0,34410.1,272084
step02_gravity_refstate-crust.xmf,728,-3.29552e-07,2.60481e-06,0,5.0977e-06,-9.86054e+08,-9.85852e+08,-9.86031e+08,349702,-0.0339798,0.161713,-0,0.165244,-11334,-35901,-0,37647.6,349702
step02_gravity_refstate-crust.xmf,729,-9.37952e-07,3.43946e-06,0,5.25627e-06,-1.01663e+09,-1.01633e+09,-1.01657e+09,360580,-0.0352385,0.152971,-0,0.156977,-11942,-37013,-0,38891.8,360580
step02_gravity_refstate-crust.xmf,730,-3.18196e-08,1.0969e-06,0,1.33247e-06,-3.42846e+08,-3.42768e+08,-3.42844e+08,91407.7,-0.0114665,0.172137,-0,0.172519,-18794.6,-12483.2,-0,22562.5,91407.7
step02_gravity_refstate-crust.xmf,731,2.12749e-08,1.22482e-06,0,1.51428e-06,-4.03461e+08,-4.03378e+08,-4.03462e+08,103880,-0.0121802,0.172499,-0,0.172929,-17621.7,-14690.4,-0,22941.9,103880
step02_gravity_refstate-crust.xmf,732,9.20379e-08,1.29665e-06,0,1.678e-06,-4.5768e+08,-4.57597e+08,-4.57686e+08,115111,-0.0130944,0.17324,-0,0.173734,-16408.1,-16664.7,-0,23386.7,115111
step02_gravity_refstate-crust.xmf,733,-5.33936e-07,6.75492e-07,0,5.39526e-07,-1.38723e+08,-1.3864e+08,-1.38686e+08,37011.5,-0.0109712,0.162394,-0,0.162764,-26666.1,-5049.23,-0,27139.9,37011.5
step02_gravity_refstate-crust.xmf,734,-9.44279e-07,5.90168e-07,0,2.14515e-07,-7.07561e+07,-7.06509e+07,-7.06913e+07,14715.7,-0.00922297,0.157034,-0,0.157305,-31493.3,-2573.04,-0,31598.2,14715.7
step02_gravity_refstate-crust.xmf,735,-1.28134e-06,4.81442e-07,0,1.11974e-08,-121921,-994.176,-34021.1,768.142,-0.00941344,0.156638,-0,0.15692,-33233.5,0,-0,33233.5,768.142
step02_gravity_refstate-crust.xmf,736,-1.54763e-06,4.30243e-06,0,5.28603e-06,-1.04537e+09,-1.04497e+09,-1.04526e+09,362621,-0.0357722,0.14375,-0,0.148134,-12495.3,-38058,-0,40056.8,362621
step02_gravity_refstate-crust.xmf,737,4.60521e-07,1.51453e-06,0,3.33487e-06,-8.09603e+08,-8.09531e+08,-8.09635e+08,228772,-0.0243527,0.171518,-0,0.173239,-11738.1,-29478.6,-0,31729.7,228772
step02_gravity_refstate-crust.xmf,738,1.69237e-07,1.55849e-06,0,2.16878e-06,-6.00423e+08,-6.00328e+08,-6.00435e+08,148778,-0.016737,0.170733,-0,0.171552,-14783.3,-21862.1,-0,26391.2,148778
step02_gravity_refstate-crust.xmf,739,2.26453e-07,1.65938e-06,0,2.55901e-06,-6.87836e+08,-6.87738e+08,-6.87852e+08,175548,-0.0196653,0.169328,-0,0.170466,-13774.3,-25044.8,-0,28582.8,175548
step02_gravity_refstate-crust.xmf,740,3.13336e-07,1.61542e-06,0,2.79943e-06,-7.31298e+08,-7.31209e+08,-7.3132e+08,192041,-0.0212195,0.170092,-0,0.17141,-12973,-26627.4,-0,29619.6,192041
step02_gravity_refstate-crust.xmf,741,4.17681e-07,1.5332e-06,0,3.07052e-06,-7.73642e+08,-7.73566e+08,-7.73671e+08,210638,-0.0228145,0.171317,-0,0.172829,-12176.6,-28169.3,-0,30688.4,210638
step02_gravity_refstate-crust.xmf,742,8.87196e-08,2.07988e-06,0,3.5993e-06,-8.48862e+08,-8.48725e+08,-8.48868e+08,246912,-0.0265534,0.164112,-0,0.166247,-12609.6,-30907.3,-0,33380.6,246912
step02_gravity_refstate-crust.xmf,743,-3.27955e-07,2.66729e-06,0,4.16279e-06,-9.19349e+08,-9.19143e+08,-9.19326e+08,285567,-0.0300072,0.157262,-0,0.160099,-12737,-33472.6,-0,35814.1,285567
step02_gravity_refstate-crust.xmf,744,-3.38542e-07,2.64759e-06,0,4.60191e-06,-9.5336e+08,-9.53155e+08,-9.53337e+08,315691,-0.0319487,0.159017,-0,0.162194,-12047.6,-34710.8,-0,36742.1,315691
step02_gravity_refstate-crust.xmf,745,-2.16861e-07,8.25931e-07,0,9.17962e-07,-2.21054e+08,-2.20982e+08,-2.21039e+08,62972.2,-0.0111664,0.168642,-0,0.169012,-22235.5,-8048.08,-0,23647.2,62972.2
step02_gravity_refstate-crust.xmf,746,-8.38127e-08,9.43403e-07,0,1.14075e-06,-2.81195e+08,-2.81124e+08,-2.81189e+08,78255.2,-0.0111669,0.171669,-0,0.172032,-19972.4,-10238.3,-0,22443.7,78255.2
step02_gravity_refstate-crust.xmf,747,-3.9822e-07,8.71462e-07,0,7.79037e-07,-2.04692e+08,-2.04605e+08,-2.04665e+08,53442,-0.0104537,0.163229,-0,0.163563,-25174.7,-7451.77,-0,26254.4,53442
step02_gravity_refstate-crust.xmf,748,-7.22408e-07,7.44227e-07,0,4.21305e-07,-1.34984e+08,-1.34883e+08,-1.34934e+08,28901.6,-0.00902161,0.157485,-0,0.157743,-29896.5,-4912.45,-0,30297.4,28901.6
step02_gravity_refstate-crust.xmf,749,-1.02693e-06,6.7516e-07,0,1.57512e-07,-8.48075e+07,-8.46908e+07,-8.47371e+07,10805.3,-0.00562114,0.153572,-0,0.153675,-34828.9,-3084.39,-0,34965.2,10805.3
step02_gravity_refstate-crust.xmf,750,-1.41502e-06,5.35075e-07,0,2.09528e-09,-134496,-719.742,-37425.9,143.736,-0.0049252,0.154388,-0,0.154467,-36571.8,0,-0,36571.8,143.736
step02_gravity_refstate-crust.xmf,751,6.11453e-08,1.57912e-06,0,1.98713e-06,-5.53217e+08,-5.53113e+08,-5.53221e+08,136317,-0.0154388,0.16935,-0,0.170053,-16025.1,-20143.1,-0,25740,136317
step02_gravity_refstate-crust.xmf,752,-3.90176e-08,1.59318e-06,0,1.83236e-06,-5.11186e+08,-5.11074e+08,-5.11183e+08,125700,-0.0143431,0.167632,-0,0.168245,-17377.8,-18612.5,-0,25464,125700
step02_gravity_refstate-crust.xmf,753,-2.12085e-06,5.13897e-06,0,5.21876e-06,-1.07284e+09,-1.07234e+09,-1.07269e+09,358007,-0.0356998,0.134604,-0,0.139257,-12950.9,-39057.1,-0,41148.3,358007
step02_gravity_refstate-crust.xmf,754,1.35874e-07,1.71399e-06,0,2.37077e-06,-6.50018e+08,-6.49909e+08,-6.50027e+08,162635,-0.0184152,0.168147,-0,0.169152,-14678.8,-23667.7,-0,27850.1,162635
step02_gravity_refstate-crust.xmf,755,-3.14168e-07,2.65494e-06,0,3.78836e-06,-8.847e+08,-8.84496e+08,-8.84679e+08,259882,-0.0281726,0.15618,-0,0.1587,-13408.3,-32211.2,-0,34890.5,259882
step02_gravity_refstate-crust.xmf,756,-8.83772e-07,3.44131e-06,0,4.72705e-06,-9.86126e+08,-9.85829e+08,-9.86065e+08,324275,-0.0331588,0.150256,-0,0.153872,-12691.1,-35902.6,-0,38079.7,324275
step02_gravity_refstate-crust.xmf,757,-1.44737e-06,4.26086e-06,0,4.74993e-06,-1.01808e+09,-1.01769e+09,-1.01798e+09,325846,-0.0336926,0.140782,-0,0.144758,-13286,-37064.9,-0,39374.1,325846
step02_gravity_refstate-crust.xmf,758,-2.01686e-07,1.25343e-06,0,1.28075e-06,-3.4442e+08,-3.4432e+08,-3.44406e+08,87859.8,-0.0111895,0.166128,-0,0.166504,-21264.5,-12540.1,-0,24686.6,87859.8
step02_gravity_refstate-crust.xmf,759,-1.65891e-07,1.42419e-06,0,1.47668e-06,-4.06239e+08,-4.0613e+08,-4.06228e+08,101300,-0.0120419,0.166019,-0,0.166455,-20075.8,-14791.1,-0,24936.2,101300
step02_gravity_refstate-crust.xmf,760,-1.21264e-07,1.55475e-06,0,1.66783e-06,-4.64362e+08,-4.64247e+08,-4.64354e+08,114413,-0.0131993,0.166269,-0,0.166792,-18791.5,-16907.5,-0,25278.1,114413
step02_gravity_refstate-crust.xmf,761,-5.84106e-07,9.4391e-07,0,6.32557e-07,-1.99578e+08,-1.99473e+08,-1.99538e+08,43393.4,-0.00888722,0.157597,-0,0.157847,-28481.2,-7264.93,-0,29393.2,43393.4
step02_gravity_refstate-crust.xmf,762,-8.35242e-07,7.97716e-07,0,3.08992e-07,-1.34765e+08,-1.34653e+08,-1.34708e+08,21196.9,-0.00690761,0.154197,-0,0.154351,-32606.6,-4904.11,-0,32973.3,21196.9
step02_gravity_refstate-crust.xmf,763,-1.16921e-06,6.57314e-07,0,5.50429e-08,-6.35196e+07,-6.33943e+07,-6.34394e+07,3775.94,-0.00271851,0.152585,-0,0.152609,-37694.2,-2308.78,-0,37764.8,3775.94
step02_gravity_refstate-crust.xmf,764,-1.42855e-06,5.38206e-07,0,-6.3129e-09,-135867,-947.346,-37868.3,-433.065,-5.62855e-19,0.153595,-0,0.153595,-40000,0,-0,40000,433.065
step02_gravity_refstate-crust.xmf,765,-1.96525e-06,5.0529e-06,0,4.6483e-06,-1.04661e+09,-1.04613e+09,-1.04648e+09,318873,-0.0334634,0.131235,-0,0.135434,-13827.4,-38102.9,-0,40534.3,318873
step02_gravity_refstate-crust.xmf,766,6.76411e-08,2.0626e-06,0,3.31122e-06,-8.13051e+08,-8.12914e+08,-8.13055e+08,227150,-0.0249015,0.163632,-0,0.165516,-13179.6,-29603.4,-0,32404.7,227150
step02_gravity_refstate-crust.xmf,767,-7.72212e-08,1.97042e-06,0,2.28602e-06,-6.38302e+08,-6.38162e+08,-6.38297e+08,156821,-0.0180585,0.162943,-0,0.163941,-16294.1,-23240.8,-0,28383.6,156821
step02_gravity_refstate-crust.xmf,768,-7.06479e-08,2.05923e-06,0,2.49714e-06,-6.84746e+08,-6.84599e+08,-6.84741e+08,171304,-0.0196923,0.162024,-0,0.163216,-15641.6,-24931.8,-0,29432.2,171304
step02_gravity_refstate-crust.xmf,769,-3.61582e-08,2.09364e-06,0,2.73927e-06,-7.29451e+08,-7.29305e+08,-7.29448e+08,187914,-0.0213987,0.162077,-0,0.163484,-14819.1,-26559.5,-0,30414,187914
step02_gravity_refstate-crust.xmf,770,1.11084e-08,2.09264e-06,0,3.00951e-06,-7.72166e+08,-7.72023e+08,-7.72167e+08,206452,-0.0231367,0.162641,-0,0.164278,-13986.9,-28114.8,-0,31401.8,206452
step02_gravity_refstate-crust.xmf,771,-2.99224e-07,2.63946e-06,0,3.45372e-06,-8.49102e+08,-8.48901e+08,-8.49082e+08,236925,-0.0264128,0.155631,-0,0.157857,-14069.4,-30915.3,-0,33966.2,236925
step02_gravity_refstate-crust.xmf,772,-7.32345e-07,3.28317e-06,0,3.8722e-06,-9.17971e+08,-9.17696e+08,-9.17921e+08,265633,-0.029193,0.147714,-0,0.150571,-14158.8,-33421.8,-0,36297.2,265633
step02_gravity_refstate-crust.xmf,773,-8.13458e-07,3.37217e-06,0,4.27742e-06,-9.53318e+08,-9.53031e+08,-9.53262e+08,293431,-0.0311473,0.148517,-0,0.151748,-13433.7,-34708.4,-0,37217.5,293431
step02_gravity_refstate-crust.xmf,774,-2.43338e-07,1.10173e-06,0,1.10417e-06,-2.91407e+08,-2.91315e+08,-2.91391e+08,75745.8,-0.0107605,0.16579,-0,0.166138,-22410.9,-10609.7,-0,24795.5,75745.8
step02_gravity_refstate-crust.xmf,775,-3.79634e-07,1.14084e-06,0,9.66764e-07,-2.75189e+08,-2.75085e+08,-2.75163e+08,66320,-0.0100043,0.161195,-0,0.161505,-24895,-10018.8,-0,26835.3,66320
step02_gravity_refstate-crust.xmf,776,-5.07998e-07,1.21398e-06,0,8.33401e-07,-2.71884e+08,-2.71765e+08,-2.71849e+08,57171.3,-0.0088604,0.156465,-0,0.156716,-27463.5,-9898.02,-0,29192.7,57171.3
step02_gravity_refstate-crust.xmf,777,-7.14186e-07,9.98573e-07,0,4.79672e-07,-1.96818e+08,-1.967e+08,-1.96769e+08,32905.5,-0.00696053,0.153433,-0,0.153591,-31494.1,-7164,-0,32298.7,32905.5
step02_gravity_refstate-crust.xmf,778,-8.26085e-07,1.00028e-06,0,2.97392e-07,-1.85468e+08,-1.85343e+08,-1.85411e+08,20401.1,-0.00463945,0.150651,-0,0.150723,-34642.3,-6750.35,-0,35293.9,20401.1
step02_gravity_refstate-crust.xmf,779,-9.57462e-07,8.53114e-07,0,1.15759e-07,-1.37121e+08,-1.36996e+08,-1.37055e+08,7941.08,-0.00247926,0.15065,-0,0.15067,-37444.6,-4989.46,-0,37775.5,7941.08
step02_gravity_refstate-crust.xmf,780,-1.08831e-06,7.21141e-07,0,-2.91574e-09,-9.05768e+07,-9.04527e+07,-9.05022e+07,-200.02,-5.01074e-19,0.151517,-0,0.151517,-40000,-3294.25,-0,40135.4,200.02
step02_gravity_refstate-crust.xmf,781,-7.51677e-08,1.86928e-06,0,2.10512e-06,-5.94087e+08,-5.93954e+08,-5.94082e+08,144411,-0.0166353,0.164189,-0,0.16503,-16816.9,-21630.9,-0,27399,144411
step02_gravity_refstate-crust.xmf,782,-1.80147e-07,1.91931e-06,0,1.97386e-06,-5.65785e+08,-5.65641e+08,-5.65773e+08,135407,-0.0156624,0.161698,-0,0.162455,-18167.3,-20600.2,-0,27466.7,135407
step02_gravity_refstate-crust.xmf,783,-2.51508e-07,1.8891e-06,0,1.79075e-06,-5.23405e+08,-5.23258e+08,-5.23388e+08,122846,-0.014308,0.160232,-0,0.16087,-19603.8,-19057,-0,27340.1,122846
step02_gravity_refstate-crust.xmf,784,-2.40509e-06,5.70703e-06,0,4.62793e-06,-1.0755e+09,-1.07494e+09,-1.07533e+09,317476,-0.0333919,0.124196,-0,0.128607,-13983.2,-39153.7,-0,41575.7,317476
step02_gravity_refstate-crust.xmf,785,-6.94094e-07,3.23311e-06,0,3.53085e-06,-8.85022e+08,-8.84753e+08,-8.84975e+08,242216,-0.0274201,0.146736,-0,0.149276,-14929.5,-32222.3,-0,35512.9,242216
step02_gravity_refstate-crust.xmf,786,-1.34055e-06,4.17955e-06,0,4.27347e-06,-9.88581e+08,-9.88202e+08,-9.88489e+08,293160,-0.0316685,0.138556,-0,0.142129,-14109.5,-35991.3,-0,38658.2,293160
step02_gravity_refstate-crust.xmf,787,-1.86012e-06,4.99518e-06,0,4.18618e-06,-1.0245e+09,-1.02402e+09,-1.02437e+09,287172,-0.0315408,0.128162,-0,0.131986,-14669.8,-37298,-0,40079.2,287172
step02_gravity_refstate-crust.xmf,788,-3.51378e-07,1.37574e-06,0,1.17627e-06,-3.42214e+08,-3.42095e+08,-3.42189e+08,80692.1,-0.0104835,0.160502,-0,0.160844,-23765.3,-12459.3,-0,26833.3,80692.1
step02_gravity_refstate-crust.xmf,789,-3.3564e-07,1.60054e-06,0,1.37352e-06,-4.06573e+08,-4.0644e+08,-4.0655e+08,94223.8,-0.0114069,0.159637,-0,0.160044,-22625.5,-14802.8,-0,27037.7,94223.8
step02_gravity_refstate-crust.xmf,790,-3.44106e-07,1.87248e-06,0,1.59455e-06,-4.81106e+08,-4.80954e+08,-4.81082e+08,109386,-0.01288,0.15772,-0,0.158245,-21526.5,-17516.6,-0,27752.9,109386
step02_gravity_refstate-crust.xmf,791,-6.29689e-07,1.24975e-06,0,6.67509e-07,-2.642e+08,-2.64071e+08,-2.64157e+08,45791.1,-0.00732136,0.152391,-0,0.152567,-30208,-9617.86,-0,31702.1,45791.1
step02_gravity_refstate-crust.xmf,792,-2.40843e-06,5.85711e-06,0,4.05773e-06,-1.06373e+09,-1.06316e+09,-1.06356e+09,278360,-0.0308909,0.117434,-0,0.121429,-15039.1,-38725.3,-0,41543,278360
step02_gravity_refstate-crust.xmf,793,-3.26186e-07,2.62675e-06,0,3.14668e-06,-8.11636e+08,-8.11433e+08,-8.11613e+08,215862,-0.0246118,0.154394,-0,0.156343,-14954.1,-29551.2,-0,33119.4,215862
step02_gravity_refstate-crust.xmf,794,-3.08657e-07,2.24207e-06,0,2.13013e-06,-6.24071e+08,-6.23896e+08,-6.2405e+08,146127,-0.0172001,0.156261,-0,0.157205,-18472.7,-22722.2,-0,29283.7,146127
step02_gravity_refstate-crust.xmf,795,-3.24505e-07,2.39864e-06,0,2.35711e-06,-6.78256e+08,-6.7807e+08,-6.78234e+08,161698,-0.019083,0.154828,-0,0.156,-17608.4,-24695,-0,30329.8,161698
step02_gravity_refstate-crust.xmf,796,-3.29918e-07,2.50626e-06,0,2.59815e-06,-7.26372e+08,-7.26177e+08,-7.26349e+08,178233,-0.020941,0.154193,-0,0.155608,-16700.2,-26446.8,-0,31278.3,178233
step02_gravity_refstate-crust.xmf,797,-3.38326e-07,2.59446e-06,0,2.85835e-06,-7.71147e+08,-7.70946e+08,-7.71124e+08,196083,-0.0227896,0.153809,-0,0.155488,-15853.8,-28077,-0,32243.8,196083
step02_gravity_refstate-crust.xmf,798,-6.75309e-07,3.20914e-06,0,3.19448e-06,-8.496e+08,-8.49333e+08,-8.49554e+08,219141,-0.0255659,0.145612,-0,0.14784,-15846.9,-30932.8,-0,34755.7,219141
step02_gravity_refstate-crust.xmf,799,-1.06318e-06,3.82785e-06,0,3.51711e-06,-9.18272e+08,-9.17937e+08,-9.18199e+08,241274,-0.0278571,0.137975,-0,0.140759,-15658.7,-33432.2,-0,36917.6,241274
step02_gravity_refstate-crust.xmf,800,-1.19393e-06,4.00057e-06,0,3.87179e-06,-9.54116e+08,-9.5376e+08,-9.54034e+08,265605,-0.0297118,0.137938,-0,0.141102,-14890.6,-34736.9,-0,37794,265605
step02_gravity_refstate-crust.xmf,801,-4.74524e-07,1.46285e-06,0,1.02496e-06,-3.36493e+08,-3.3636e+08,-3.3646e+08,70311.9,-0.00939928,0.155459,-0,0.155743,-26316.8,-12250.7,-0,29028.5,70311.9
step02_gravity_refstate-crust.xmf,802,-5.83881e-07,1.53367e-06,0,8.51412e-07,-3.32868e+08,-3.32722e+08,-3.32828e+08,58406.9,-0.00797075,0.150833,-0,0.151043,-28969,-12118.4,-0,31401.6,58406.9
step02_gravity_refstate-crust.xmf,803,-7.18704e-07,1.29436e-06,0,4.84621e-07,-2.62217e+08,-2.62079e+08,-2.62168e+08,33245,-0.0054077,0.148915,-0,0.149013,-33053.4,-9545.36,-0,34404.1,33245
step02_gravity_refstate-crust.xmf,804,-8.28726e-07,1.16155e-06,0,1.5886e-07,-2.20613e+08,-2.20476e+08,-2.20556e+08,10897.8,-0.00209538,0.147564,-0,0.147579,-37502.1,-8030.08,-0,38352.2,10897.8
step02_gravity_refstate-crust.xmf,805,-8.95195e-07,1.00092e-06,0,-1.74343e-09,-1.77745e+08,-1.77615e+08,-1.77684e+08,-119.6,-4.16027e-19,0.148783,-0,0.148783,-40000,-6468.93,-0,40519.7,119.6
step02_gravity_refstate-crust.xmf,806,-4.02035e-07,2.12153e-06,0,1.71558e-06,-5.34444e+08,-5.34271e+08,-5.34416e+08,117689,-0.0139644,0.15426,-0,0.154891,-21376.6,-19458.6,-0,28906.7,117689
step02_gravity_refstate-crust.xmf,807,-4.05959e-07,2.26415e-06,0,1.89606e-06,-5.81872e+08,-5.81689e+08,-5.81844e+08,130069,-0.0154175,0.153429,-0,0.154202,-20388,-21185.5,-0,29402.3,130069
step02_gravity_refstate-crust.xmf,808,-9.95527e-07,3.72923e-06,0,3.20055e-06,-8.85817e+08,-8.85493e+08,-8.85749e+08,219558,-0.0260885,0.13721,-0,0.139668,-16536.4,-32250.8,-0,36243.2,219558
step02_gravity_refstate-crust.xmf,809,-1.7072e-06,4.86585e-06,0,3.70348e-06,-9.93978e+08,-9.93527e+08,-9.9386e+08,254059,-0.0292934,0.125609,-0,0.128979,-15731,-36187.4,-0,39458.7,254059
step02_gravity_refstate-crust.xmf,810,-2.13132e-06,5.56159e-06,0,3.63226e-06,-1.03446e+09,-1.03393e+09,-1.03431e+09,249173,-0.0290169,0.116381,-0,0.119943,-15947.5,-37660.4,-0,40897.8,249173
step02_gravity_refstate-crust.xmf,811,-4.71578e-07,1.71972e-06,0,1.22134e-06,-4.02178e+08,-4.02027e+08,-4.02145e+08,83784.2,-0.0103338,0.15403,-0,0.154376,-25170.5,-14642.4,-0,29119.6,83784.2
step02_gravity_refstate-crust.xmf,812,-4.83712e-07,1.98224e-06,0,1.40997e-06,-4.67201e+08,-4.67031e+08,-4.67167e+08,96724.1,-0.0115966,0.152137,-0,0.152579,-24087.4,-17010,-0,29488,96724.1
step02_gravity_refstate-crust.xmf,813,-6.79529e-07,1.59257e-06,0,6.60238e-07,-3.31724e+08,-3.31568e+08,-3.31678e+08,45292.4,-0.00623049,0.14684,-0,0.146972,-31708.5,-12076.5,-0,33930.3,45292.4
step02_gravity_refstate-crust.xmf,814,-7.69778e-07,1.32477e-06,0,3.13135e-07,-2.61462e+08,-2.61318e+08,-2.61409e+08,21481.1,-0.0035843,0.146793,-0,0.146837,-35504,-9517.71,-0,36757.6,21481.1
step02_gravity_refstate-crust.xmf,815,-5.12529e-07,2.22927e-06,0,1.58161e-06,-5.26904e+08,-5.26716e+08,-5.26869e+08,108499,-0.01299,0.149851,-0,0.150413,-23185.1,-19183.8,-0,30092.7,108499
step02_gravity_refstate-crust.xmf,816,-6.58229e-07,3.13625e-06,0,2.90354e-06,-8.1234e+08,-8.1208e+08,-8.12295e+08,199183,-0.0237101,0.144792,-0,0.146721,-16832.6,-29576.2,-0,34030.7,199183
step02_gravity_refstate-crust.xmf,817,-5.31283e-07,2.69292e-06,0,2.18749e-06,-6.76114e+08,-6.75893e+08,-6.76078e+08,150062,-0.0181917,0.147764,-0,0.148879,-19547.7,-24616.6,-0,31433.9,150062
step02_gravity_refstate-crust.xmf,818,-5.66054e-07,2.85278e-06,0,2.40593e-06,-7.24014e+08,-7.2378e+08,-7.23976e+08,165047,-0.0200121,0.146514,-0,0.147874,-18609.4,-26360.6,-0,32267.5,165047
step02_gravity_refstate-crust.xmf,819,-6.10083e-07,3.00267e-06,0,2.63906e-06,-7.69039e+08,-7.68791e+08,-7.68997e+08,181039,-0.0218302,0.145439,-0,0.147068,-17728.4,-27999.8,-0,33140.4,181039
step02_gravity_refstate-crust.xmf,820,-9.90162e-07,3.73424e-06,0,2.86368e-06,-8.54436e+08,-8.54112e+08,-8.54368e+08,196448,-0.0240868,0.134771,-0,0.136906,-17784,-31108.4,-0,35832.9,196448
step02_gravity_refstate-crust.xmf,821,-1.29024e-06,4.24758e-06,0,3.13151e-06,-9.18374e+08,-9.17994e+08,-9.18285e+08,214822,-0.0260891,0.128892,-0,0.131506,-17163.7,-33435.7,-0,37583.7,214822
step02_gravity_refstate-crust.xmf,822,-1.44928e-06,4.48159e-06,0,3.40479e-06,-9.52972e+08,-9.52566e+08,-9.52873e+08,233568,-0.0276737,0.127954,-0,0.130913,-16415,-34695,-0,38382.2,233568
step02_gravity_refstate-crust.xmf,823,-2.51973e-06,6.26659e-06,0,3.33e-06,-1.06748e+09,-1.06688e+09,-1.06731e+09,228438,-0.0273897,0.105672,-0,0.109164,-16436.3,-38862.2,-0,42195,228438
step02_gravity_refstate-crust.xmf,824,-5.76756e-07,1.81184e-06,0,1.03527e-06,-3.98048e+08,-3.97884e+08,-3.98008e+08,71019.6,-0.00894394,0.149033,-0,0.149301,-27746.7,-14491.8,-0,31303.2,71019.6
step02_gravity_refstate-crust.xmf,825,-6.62871e-07,1.8776e-06,0,8.31719e-07,-3.94856e+08,-3.94682e+08,-3.94811e+08,57055.9,-0.0072946,0.144765,-0,0.144949,-30355.6,-14375.4,-0,33587.4,57055.9
step02_gravity_refstate-crust.xmf,826,-7.4634e-07,1.66387e-06,0,4.30035e-07,-3.36616e+08,-3.36451e+08,-3.36565e+08,29500.4,-0.00405775,0.14328,-0,0.143337,-34757,-12254.4,-0,36854.1,29500.4
step02_gravity_refstate-crust.xmf,827,-7.81828e-07,1.52532e-06,0,1.89876e-07,-3.024e+08,-3.02241e+08,-3.02346e+08,13025.5,-0.00192046,0.143541,-0,0.143554,-37565.3,-11008.4,-0,39145,13025.5
step02_gravity_refstate-crust.xmf,828,-8.0707e-07,1.34499e-06,0,-1.53454e-09,-2.61842e+08,-2.61695e+08,-2.61787e+08,-105.269,-3.75654e-19,0.145192,-0,0.145192,-40000,-9531.44,-0,41119.9,105.269
step02_gravity_refstate-crust.xmf,829,-5.19891e-07,2.37966e-06,0,1.74097e-06,-5.70267e+08,-5.70068e+08,-5.70231e+08,119430,-0.0143404,0.149056,-0,0.149744,-22163.4,-20762.7,-0,30369.5,119430
step02_gravity_refstate-crust.xmf,830,-5.14989e-07,2.57002e-06,0,2.0037e-06,-6.34838e+08,-6.34627e+08,-6.34803e+08,137454,-0.0166555,0.148469,-0,0.149401,-20480.4,-23113.8,-0,30882,137454
step02_gravity_refstate-crust.xmf,831,-1.18656e-06,4.09091e-06,0,2.91525e-06,-8.90134e+08,-8.89772e+08,-8.90053e+08,199986,-0.0247622,0.129415,-0,0.131763,-17838.9,-32407.8,-0,36993.1,199986
step02_gravity_refstate-crust.xmf,832,-2.27142e-06,5.91713e-06,0,3.17129e-06,-1.04182e+09,-1.04126e+09,-1.04167e+09,217550,-0.0266942,0.10762,-0,0.110882,-16960.5,-37928.6,-0,41548,217550
step02_gravity_refstate-crust.xmf,833,-2.01572e-06,5.4534e-06,0,3.29276e-06,-1.01551e+09,-1.01499e+09,-1.01537e+09,225883,-0.0273506,0.11415,-0,0.11738,-16800.1,-36970.8,-0,40609,225883
step02_gravity_refstate-crust.xmf,834,-5.97396e-07,2.09189e-06,0,1.21832e-06,-4.62303e+08,-4.62118e+08,-4.62262e+08,83576.7,-0.0101825,0.14679,-0,0.147143,-26589.5,-16831.4,-0,31469,83576.7
step02_gravity_refstate-crust.xmf,835,-6.30204e-07,2.37032e-06,0,1.3911e-06,-5.24213e+08,-5.24007e+08,-5.24169e+08,95429.7,-0.0116184,0.144193,-0,0.144661,-25510.1,-19085.6,-0,31859.5,95429.7
step02_gravity_refstate-crust.xmf,836,-7.35798e-07,1.95512e-06,0,6.27941e-07,-3.99207e+08,-3.99022e+08,-3.99156e+08,43076.8,-0.0055184,0.141,-0,0.141108,-32912,-14533.6,-0,35978.1,43076.8
step02_gravity_refstate-crust.xmf,837,-6.74998e-07,2.64591e-06,0,1.56462e-06,-5.84191e+08,-5.83964e+08,-5.84145e+08,107333,-0.0132338,0.141403,-0,0.142021,-24446.5,-21269.4,-0,32404.1,107333
step02_gravity_refstate-crust.xmf,838,-6.34911e-07,2.69816e-06,0,1.80728e-06,-6.21574e+08,-6.21345e+08,-6.21531e+08,123979,-0.0152362,0.14351,-0,0.144316,-22432.9,-22630.6,-0,31865.1,123979
step02_gravity_refstate-crust.xmf,839,-8.9548e-07,3.5291e-06,0,2.59945e-06,-8.10993e+08,-8.10689e+08,-8.10931e+08,178322,-0.0221866,0.135865,-0,0.137665,-18746.9,-29526.8,-0,34975.4,178322
step02_gravity_refstate-crust.xmf,840,-6.89506e-07,2.93178e-06,0,1.98385e-06,-6.74213e+08,-6.73965e+08,-6.74166e+08,136092,-0.0169338,0.141004,-0,0.142017,-21531.4,-24547.2,-0,32652.2,136092
step02_gravity_refstate-crust.xmf,841,-7.47252e-07,3.13637e-06,0,2.17466e-06,-7.22189e+08,-7.21922e+08,-7.22137e+08,149182,-0.0186722,0.139079,-0,0.140327,-20578.6,-26293.8,-0,33389.3,149182
step02_gravity_refstate-crust.xmf,842,-8.16786e-07,3.3377e-06,0,2.38093e-06,-7.68299e+08,-7.68014e+08,-7.68243e+08,163332,-0.0204427,0.137301,-0,0.138815,-19646,-27972.6,-0,34182.3,163332
step02_gravity_refstate-crust.xmf,843,-1.26506e-06,4.26211e-06,0,2.62596e-06,-8.83527e+08,-8.83148e+08,-8.8344e+08,180141,-0.0231004,0.123882,-0,0.126017,-19113.6,-32167.2,-0,37417.3,180141
step02_gravity_refstate-crust.xmf,844,-1.41518e-06,4.5299e-06,0,2.75285e-06,-9.16716e+08,-9.16308e+08,-9.16619e+08,188846,-0.0240884,0.121064,-0,0.123437,-18626.9,-33375.3,-0,38221.3,188846
step02_gravity_refstate-crust.xmf,845,-1.59052e-06,4.81179e-06,0,2.94321e-06,-9.51429e+08,-9.5099e+08,-9.5132e+08,201904,-0.0253348,0.118944,-0,0.121612,-17943.5,-34638.7,-0,39010.4,201904
step02_gravity_refstate-crust.xmf,846,-1.81006e-06,5.14531e-06,0,3.15785e-06,-9.87316e+08,-9.86839e+08,-9.87192e+08,216629,-0.0265896,0.116662,-0,0.119654,-17246.7,-35944.9,-0,39868.3,216629
step02_gravity_refstate-crust.xmf,847,-2.46936e-06,6.41164e-06,0,2.7633e-06,-1.06612e+09,-1.06551e+09,-1.06595e+09,189562,-0.0243708,0.097471,-0,0.100471,-17663.5,-38813,-0,42643.3,189562
step02_gravity_refstate-crust.xmf,848,-2.14314e-06,5.80295e-06,0,2.82309e-06,-1.02598e+09,-1.02544e+09,-1.02583e+09,193664,-0.0248349,0.104593,-0,0.107501,-17943,-37352.2,-0,41438.3,193664
step02_gravity_refstate-crust.xmf,849,-6.80835e-07,2.17979e-06,0,1.00543e-06,-4.59537e+08,-4.59341e+08,-4.59491e+08,68972.7,-0.00854314,0.142068,-0,0.142325,-29105,-16730.5,-0,33571,68972.7
step02_gravity_refstate-crust.xmf,850,-7.46036e-07,2.25022e-06,0,7.87197e-07,-4.59538e+08,-4.59333e+08,-4.59487e+08,54001.7,-0.00676457,0.138089,-0,0.138255,-31585.4,-16730.4,-0,35742.8,54001.7
step02_gravity_refstate-crust.xmf,851,-7.85784e-07,2.11289e-06,0,4.27049e-07,-4.22498e+08,-4.22299e+08,-4.22444e+08,29295.6,-0.00373028,0.136891,-0,0.136942,-35349.8,-15381.6,-0,38551.3,29295.6
step02_gravity_refstate-crust.xmf,852,-7.87078e-07,1.9132e-06,0,2.15126e-07,-3.80951e+08,-3.80766e+08,-3.80897e+08,14757.6,-0.00193055,0.138623,-0,0.138637,-37563.3,-13868.7,-0,40041.8,14757.6
step02_gravity_refstate-crust.xmf,853,-7.8765e-07,1.72865e-06,0,-1.21817e-09,-3.43063e+08,-3.4289e+08,-3.43009e+08,-83.5663,-3.73841e-19,0.140648,-0,0.140648,-40000,-12489,-0,41904.4,83.5663
step02_gravity_refstate-crust.xmf,854,-1.14655e-06,4.02235e-06,0,2.47101e-06,-8.48098e+08,-8.47743e+08,-8.48019e+08,169511,-0.0218505,0.126128,-0,0.128007,-19767,-30877.4,-0,36662.7,169511
step02_gravity_refstate-crust.xmf,855,-7.20042e-07,2.48141e-06,0,1.17583e-06,-5.22637e+08,-5.22417e+08,-5.22588e+08,80662.1,-0.00997345,0.13899,-0,0.139348,-27917.5,-19028.1,-0,33785.4,80662.1
step02_gravity_refstate-crust.xmf,856,-7.7024e-07,2.77198e-06,0,1.31983e-06,-5.81022e+08,-5.80779e+08,-5.80969e+08,90540.1,-0.0113736,0.135497,-0,0.135973,-26953.3,-21153.9,-0,34263.2,90540.1
step02_gravity_refstate-crust.xmf,857,-7.9197e-07,2.32594e-06,0,5.94544e-07,-4.65681e+08,-4.65467e+08,-4.65627e+08,40785.7,-0.00515016,0.134915,-0,0.135013,-33720.9,-16954,-0,37743.1,40785.7
step02_gravity_refstate-crust.xmf,858,-7.63688e-07,2.94074e-06,0,1.61669e-06,-6.33744e+08,-6.3349e+08,-6.33692e+08,110905,-0.0140346,0.136317,-0,0.137037,-24465.1,-23073.5,-0,33629.3,110905
step02_gravity_refstate-crust.xmf,859,-8.03817e-07,3.11164e-06,0,1.75741e-06,-6.71567e+08,-6.71299e+08,-6.71512e+08,120559,-0.0153805,0.134837,-0,0.135712,-23544.4,-24450.6,-0,33943.7,120559
step02_gravity_refstate-crust.xmf,860,-1.06261e-06,3.84055e-06,0,2.27639e-06,-8.12665e+08,-8.12328e+08,-8.12592e+08,156160,-0.0202981,0.127116,-0,0.128726,-20709.4,-29587.5,-0,36115.1,156160
step02_gravity_refstate-crust.xmf,861,-8.7454e-07,3.35437e-06,0,1.91653e-06,-7.20224e+08,-7.19934e+08,-7.20164e+08,131474,-0.0169833,0.132098,-0,0.133185,-22613.3,-26222.1,-0,34626,131474
step02_gravity_refstate-crust.xmf,862,-9.64444e-07,3.60877e-06,0,2.08987e-06,-7.68913e+08,-7.68599e+08,-7.68847e+08,143365,-0.018657,0.129299,-0,0.130638,-21663.6,-27994.7,-0,35398,143365
step02_gravity_refstate-crust.xmf,863,-1.32772e-06,4.41896e-06,0,2.31972e-06,-8.79892e+08,-8.79498e+08,-8.79801e+08,159133,-0.021229,0.117784,-0,0.119682,-20534.8,-32034.8,-0,38051.4,159133
step02_gravity_refstate-crust.xmf,864,-1.46755e-06,4.70897e-06,0,2.3851e-06,-9.1321e+08,-9.12787e+08,-9.1311e+08,163618,-0.0219214,0.114174,-0,0.116259,-20119.5,-33247.7,-0,38861.3,163618
step02_gravity_refstate-crust.xmf,865,-1.64788e-06,5.03269e-06,0,2.50437e-06,-9.50108e+08,-9.4965e+08,-9.49995e+08,171800,-0.0228495,0.11082,-0,0.113151,-19478.4,-34590.8,-0,39698,171800
step02_gravity_refstate-crust.xmf,866,-1.86672e-06,5.39436e-06,0,2.65435e-06,-9.87357e+08,-9.86859e+08,-9.87229e+08,182089,-0.0238572,0.107782,-0,0.110391,-18733.2,-35946.5,-0,40535,182089
step02_gravity_refstate-crust.xmf,867,-2.34101e-06,6.43188e-06,0,2.24935e-06,-1.06251e+09,-1.0619e+09,-1.06234e+09,154305,-0.0213457,0.0902641,-0,0.0927537,-18980.3,-38682,-0,43087.7,154305
step02_gravity_refstate-crust.xmf,868,-8.0319e-07,2.96166e-06,0,1.45862e-06,-6.21793e+08,-6.21535e+08,-6.21738e+08,100061,-0.0127271,0.133761,-0,0.134366,-25908,-22638.3,-0,34405.2,100061
step02_gravity_refstate-crust.xmf,869,-7.82013e-07,2.55821e-06,0,9.36114e-07,-5.20517e+08,-5.20288e+08,-5.20463e+08,64217.5,-0.00805824,0.134516,-0,0.134757,-30437,-18950.7,-0,35854.4,64217.5
step02_gravity_refstate-crust.xmf,870,-8.24539e-07,2.60328e-06,0,6.89605e-07,-5.18118e+08,-5.17882e+08,-5.18061e+08,47306.9,-0.00599866,0.131071,-0,0.131209,-32975.4,-18863.3,-0,37989.5,47306.9
step02_gravity_refstate-crust.xmf,871,-8.44639e-07,2.57615e-06,0,4.48597e-07,-5.07012e+08,-5.06777e+08,-5.06954e+08,30773.8,-0.00390891,0.12962,-0,0.129679,-35424.9,-18458.8,-0,39945.6,30773.8
step02_gravity_refstate-crust.xmf,872,-8.26635e-07,2.33826e-06,0,2.19769e-07,-4.60681e+08,-4.60464e+08,-4.60624e+08,15076.1,-0.00190715,0.132397,-0,0.132411,-37700.5,-16771.8,-0,41262.8,15076.1
step02_gravity_refstate-crust.xmf,873,-8.10247e-07,2.13385e-06,0,-9.41647e-10,-4.21598e+08,-4.21396e+08,-4.21542e+08,-64.597,-3.67291e-19,0.135126,-0,0.135126,-40000,-15348.7,-0,42843.7,64.597
step02_gravity_refstate-crust.xmf,874,-1.26867e-06,4.31785e-06,0,2.12133e-06,-8.57243e+08,-8.5686e+08,-8.57156e+08,145523,-0.0197411,0.116883,-0,0.118538,-21588.2,-31210.3,-0,37949.1,145523
step02_gravity_refstate-crust.xmf,875,-2.07369e-06,5.91382e-06,0,2.26362e-06,-1.02402e+09,-1.02347e+09,-1.02388e+09,155285,-0.0215233,0.0958149,-0,0.0982026,-19537.3,-37281.2,-0,42090.3,155285
step02_gravity_refstate-crust.xmf,876,-8.7561e-07,3.22928e-06,0,1.50845e-06,-6.66725e+08,-6.66443e+08,-6.66665e+08,103480,-0.0135039,0.129261,-0,0.129964,-25692.2,-24274.2,-0,35345.8,103480
step02_gravity_refstate-crust.xmf,877,-8.32367e-07,2.87221e-06,0,1.08743e-06,-5.8161e+08,-5.81356e+08,-5.81553e+08,74598,-0.00953598,0.130591,-0,0.130939,-29253.9,-21175.2,-0,36113.4,74598
step02_gravity_refstate-crust.xmf,878,-8.90597e-07,3.19093e-06,0,1.26971e-06,-6.43714e+08,-6.43434e+08,-6.43653e+08,87102,-0.0114228,0.126869,-0,0.127382,-27756.1,-23436.4,-0,36327.2,87102
step02_gravity_refstate-crust.xmf,879,-9.5079e-07,3.50167e-06,0,1.64555e-06,-7.16959e+08,-7.16654e+08,-7.16894e+08,112885,-0.0150183,0.125862,-0,0.126755,-24714.1,-26103.2,-0,35946.7,112885
step02_gravity_refstate-crust.xmf,880,-1.18057e-06,4.15335e-06,0,1.91979e-06,-8.23824e+08,-8.23458e+08,-8.23743e+08,131698,-0.0181015,0.117448,-0,0.118835,-22771.8,-29993.8,-0,37658.8,131698
step02_gravity_refstate-crust.xmf,881,-1.04812e-06,3.8e-06,0,1.7815e-06,-7.68555e+08,-7.68222e+08,-7.68483e+08,122211,-0.0165447,0.122,-0,0.123117,-23758.2,-27981.6,-0,36707.2,122211
step02_gravity_refstate-crust.xmf,882,-1.4491e-06,4.76839e-06,0,2.02411e-06,-9.03615e+08,-9.03188e+08,-9.03515e+08,138854,-0.0195025,0.108381,-0,0.110121,-21792.6,-32898.5,-0,39461.8,138854
step02_gravity_refstate-crust.xmf,883,-1.63334e-06,5.15694e-06,0,2.08495e-06,-9.48105e+08,-9.47639e+08,-9.47993e+08,143027,-0.0202078,0.103379,-0,0.105335,-21098.2,-34518.1,-0,40455.3,143027
step02_gravity_refstate-crust.xmf,884,-1.83586e-06,5.52945e-06,0,2.17191e-06,-9.86653e+08,-9.86148e+08,-9.86527e+08,148993,-0.0209207,0.0995442,-0,0.101719,-20325.2,-35921.2,-0,41272.9,148993
step02_gravity_refstate-crust.xmf,885,-2.16791e-06,6.40791e-06,0,1.74712e-06,-1.06149e+09,-1.06091e+09,-1.06135e+09,119852,-0.0180949,0.0827564,-0,0.0847115,-20442.6,-38645.9,-0,43719.7,119852
step02_gravity_refstate-crust.xmf,886,-8.69985e-07,2.92922e-06,0,8.37488e-07,-5.79805e+08,-5.79545e+08,-5.79746e+08,57451.7,-0.00744137,0.126604,-0,0.126823,-31697.9,-21109.4,-0,38083.6,57451.7
step02_gravity_refstate-crust.xmf,887,-8.90708e-07,2.94819e-06,0,5.88203e-07,-5.75781e+08,-5.75517e+08,-5.75719e+08,40350.8,-0.00526588,0.123898,-0,0.12401,-34147.8,-20962.8,-0,40068.9,40350.8
step02_gravity_refstate-crust.xmf,888,-8.76705e-07,2.74621e-06,0,2.12858e-07,-5.344e+08,-5.34152e+08,-5.3434e+08,14602,-0.00187816,0.125511,-0,0.125525,-37859.3,-19456.1,-0,42566,14602
step02_gravity_refstate-crust.xmf,889,-8.54342e-07,2.54711e-06,0,-5.83609e-10,-4.97635e+08,-4.97402e+08,-4.97576e+08,-40.0355,-3.61401e-19,0.128646,-0,0.128646,-40000,-18117.4,-0,43911.7,40.0355
step02_gravity_refstate-crust.xmf,890,-1.32963e-06,4.5405e-06,0,1.87172e-06,-8.71257e+08,-8.70854e+08,-8.71166e+08,128400,-0.0182221,0.109924,-0,0.111424,-22781.5,-31720.6,-0,39053.7,128400
step02_gravity_refstate-crust.xmf,891,-1.94227e-06,5.94422e-06,0,1.76442e-06,-1.02403e+09,-1.02349e+09,-1.02389e+09,121039,-0.018237,0.0877105,-0,0.0895864,-21173.3,-37282.1,-0,42875,121039
step02_gravity_refstate-crust.xmf,892,-9.82268e-07,3.56531e-06,0,1.37647e-06,-7.09457e+08,-7.09145e+08,-7.0939e+08,94426.1,-0.012837,0.120858,-0,0.121537,-26892.5,-25830,-0,37288,94426.1
step02_gravity_refstate-crust.xmf,893,-9.25645e-07,3.26663e-06,0,9.79027e-07,-6.42275e+08,-6.41987e+08,-6.42211e+08,67161.3,-0.00899855,0.12167,-0,0.122002,-30412.1,-23384,-0,38362.8,67161.3
step02_gravity_refstate-crust.xmf,894,-8.98522e-07,2.94683e-06,0,3.79298e-07,-5.71921e+08,-5.71657e+08,-5.71859e+08,26019.8,-0.00340323,0.1225,-0,0.122547,-36220.6,-20822.3,-0,41779.2,26019.8
step02_gravity_refstate-crust.xmf,895,-1.07415e-06,3.89593e-06,0,1.48917e-06,-7.6512e+08,-7.64779e+08,-7.65046e+08,102157,-0.0142983,0.116096,-0,0.116973,-25849.3,-27856.6,-0,38002.3,102157
step02_gravity_refstate-crust.xmf,896,-1.17932e-06,4.22169e-06,0,1.57936e-06,-8.16282e+08,-8.15912e+08,-8.16201e+08,108344,-0.0155155,0.111262,-0,0.112339,-24936.9,-29719.3,-0,38795.5,108344
step02_gravity_refstate-crust.xmf,897,-1.29761e-06,4.55776e-06,0,1.62553e-06,-8.64282e+08,-8.6388e+08,-8.64193e+08,111511,-0.0163389,0.105905,-0,0.107158,-24228.7,-31466.9,-0,39713.9,111511
step02_gravity_refstate-crust.xmf,898,-1.42679e-06,4.88526e-06,0,1.66165e-06,-9.07318e+08,-9.06885e+08,-9.0722e+08,113989,-0.0169827,0.100984,-0,0.102402,-23526,-33033.6,-0,40554.8,113989
step02_gravity_refstate-crust.xmf,899,-1.56998e-06,5.2088e-06,0,1.70782e-06,-9.46458e+08,-9.45993e+08,-9.46351e+08,117156,-0.0175895,0.0967438,-0,0.0983298,-22748.1,-34458.5,-0,41290,117156
step02_gravity_refstate-crust.xmf,900,-1.74297e-06,5.57297e-06,0,1.74251e-06,-9.85929e+08,-9.85427e+08,-9.85809e+08,119536,-0.0180298,0.0922716,-0,0.0940166,-21950,-35895.3,-0,42074.6,119536
step02_gravity_refstate-crust.xmf,901,-1.94408e-06,6.31593e-06,0,1.29438e-06,-1.06145e+09,-1.06089e+09,-1.06132e+09,88794.2,-0.0148524,0.0756699,-0,0.0771138,-22019.8,-38645.2,-0,44478.4,88794.2
step02_gravity_refstate-crust.xmf,902,-9.91299e-07,3.6042e-06,0,1.10657e-06,-7.03143e+08,-7.02828e+08,-7.03075e+08,75910.5,-0.0105522,0.116465,-0,0.116942,-29165,-25600.2,-0,38806.8,75910.5
step02_gravity_refstate-crust.xmf,903,-9.40235e-07,3.30279e-06,0,7.16749e-07,-6.40819e+08,-6.40528e+08,-6.40754e+08,49169,-0.00667356,0.117987,-0,0.118176,-32899,-23331,-0,40332.1,49169
step02_gravity_refstate-crust.xmf,904,-9.43657e-07,3.32606e-06,0,4.36566e-07,-6.40147e+08,-6.39854e+08,-6.40082e+08,29948.4,-0.00411273,0.11516,-0,0.115234,-35622.9,-23306.5,-0,42569.8,29948.4
step02_gravity_refstate-crust.xmf,905,-9.24115e-07,3.14759e-06,0,2.0668e-07,-6.06321e+08,-6.06041e+08,-6.06257e+08,14178.2,-0.00190309,0.117764,-0,0.11778,-37937.1,-22074.8,-0,43892.1,14178.2
step02_gravity_refstate-crust.xmf,906,-9.02951e-07,2.95672e-06,0,-2.68784e-10,-5.71358e+08,-5.71093e+08,-5.71296e+08,-18.4386,-3.66953e-19,0.121259,-0,0.121259,-40000,-20801.8,-0,45085.6,18.4386
step02_gravity_refstate-crust.xmf,907,-1.76588e-06,5.89498e-06,0,1.34963e-06,-1.02393e+09,-1.0234e+09,-1.02381e+09,92584.6,-0.0152136,0.0808665,-0,0.0822852,-22805.4,-37279.1,-0,43701.5,92584.6
step02_gravity_refstate-crust.xmf,908,-1.07127e-06,3.93698e-06,0,1.21436e-06,-7.61147e+08,-7.60803e+08,-7.61073e+08,83305.3,-0.0119701,0.111074,-0,0.111717,-28007.1,-27712.1,-0,39400,83305.3
step02_gravity_refstate-crust.xmf,909,-9.89175e-07,3.6414e-06,0,8.41811e-07,-7.02074e+08,-7.01756e+08,-7.02006e+08,57748.2,-0.00820529,0.112255,-0,0.112554,-31530.4,-25561.3,-0,40590,57748.2
step02_gravity_refstate-crust.xmf,910,-1.15425e-06,4.26296e-06,0,1.28672e-06,-8.13386e+08,-8.13014e+08,-8.13307e+08,88269.3,-0.013133,0.10585,-0,0.106662,-26978.7,-29614.1,-0,40060.5,88269.3
step02_gravity_refstate-crust.xmf,911,-1.24786e-06,4.57846e-06,0,1.33054e-06,-8.61008e+08,-8.60609e+08,-8.60923e+08,91274.7,-0.0139715,0.100609,-0,0.101575,-26103.2,-31347.9,-0,40793,91274.7
step02_gravity_refstate-crust.xmf,912,-1.35008e-06,4.89197e-06,0,1.35032e-06,-9.04963e+08,-9.04535e+08,-9.04871e+08,92631.7,-0.0145413,0.095431,-0,0.0965325,-25305,-32948.2,-0,41544.3,92631.7
step02_gravity_refstate-crust.xmf,913,-1.46879e-06,5.21327e-06,0,1.36211e-06,-9.46348e+08,-9.45889e+08,-9.46247e+08,93440.9,-0.0149645,0.0905022,-0,0.091731,-24476.9,-34454.9,-0,42264.1,93440.9
step02_gravity_refstate-crust.xmf,914,-1.60644e-06,5.55316e-06,0,1.36073e-06,-9.85957e+08,-9.85466e+08,-9.85847e+08,93346,-0.0151954,0.0856567,-0,0.0869941,-23641.2,-35896.8,-0,42982.4,93346
step02_gravity_refstate-crust.xmf,915,-1.6988e-06,6.17382e-06,0,9.27955e-07,-1.06156e+09,-1.06102e+09,-1.06144e+09,63657.7,-0.0119496,0.0696546,-0,0.0706722,-23609.2,-38649.8,-0,45290.2,63657.7
step02_gravity_refstate-crust.xmf,916,-1.04375e-06,3.95263e-06,0,9.43717e-07,-7.57369e+08,-7.57027e+08,-7.57298e+08,64739,-0.00957462,0.10682,-0,0.107249,-30270.2,-27574.7,-0,40946.9,64739
step02_gravity_refstate-crust.xmf,917,-9.81799e-07,3.65825e-06,0,5.81825e-07,-7.01629e+08,-7.01311e+08,-7.01562e+08,39913.2,-0.00574452,0.108891,-0,0.109042,-34033,-25545.2,-0,42553.5,39913.2
step02_gravity_refstate-crust.xmf,918,-9.5606e-07,3.53508e-06,0,2.02306e-07,-6.76987e+08,-6.76679e+08,-6.76921e+08,13878.2,-0.00198034,0.109174,-0,0.109192,-37919.2,-24648,-0,45226,13878.2
step02_gravity_refstate-crust.xmf,919,-9.41223e-07,3.35223e-06,0,2.1882e-10,-6.42946e+08,-6.42652e+08,-6.42882e+08,15.011,-3.83386e-19,0.113036,-0,0.113036,-40000,-23408.5,-0,46346.1,15.011
step02_gravity_refstate-crust.xmf,920,-1.56684e-06,5.79979e-06,0,1.00767e-06,-1.02442e+09,-1.02392e+09,-1.02432e+09,69126.3,-0.0124582,0.0749516,-0,0.07598,-24445.5,-37297.8,-0,44594.9,69126.3
step02_gravity_refstate-crust.xmf,921,-1.11305e-06,4.26257e-06,0,1.02429e-06,-8.10569e+08,-8.102e+08,-8.10493e+08,70266.1,-0.0107594,0.101264,-0,0.101834,-29084.4,-29511.7,-0,41434.8,70266.1
step02_gravity_refstate-crust.xmf,922,-1.01092e-06,3.9722e-06,0,6.76645e-07,-7.58573e+08,-7.58231e+08,-7.58503e+08,46417.9,-0.00707564,0.102667,-0,0.102911,-32701.6,-27618.7,-0,42804,46417.9
step02_gravity_refstate-crust.xmf,923,-9.71313e-07,3.69184e-06,0,3.6699e-07,-7.067e+08,-7.0638e+08,-7.06633e+08,25175.5,-0.00367585,0.106241,-0,0.106305,-36166.3,-25729.9,-0,44385,25175.5
step02_gravity_refstate-crust.xmf,924,-1.1762e-06,4.57476e-06,0,1.05193e-06,-8.59817e+08,-8.59423e+08,-8.59737e+08,72162.7,-0.0115528,0.0955631,-0,0.0962588,-28106.7,-31304.8,-0,42071.1,72162.7
step02_gravity_refstate-crust.xmf,925,-1.25099e-06,4.87792e-06,0,1.05563e-06,-9.05399e+08,-9.04979e+08,-9.05313e+08,72416,-0.0120423,0.0899289,-0,0.0907316,-27221,-32964.4,-0,42750.9,72416
step02_gravity_refstate-crust.xmf,926,-1.33993e-06,5.16508e-06,0,1.06067e-06,-9.44997e+08,-9.44551e+08,-9.44905e+08,72762.2,-0.0124378,0.0851791,-0,0.0860824,-26300.1,-34406.2,-0,43306.8,72762.2
step02_gravity_refstate-crust.xmf,927,-1.44281e-06,5.49535e-06,0,1.02695e-06,-9.88267e+08,-9.87791e+08,-9.88168e+08,70449.1,-0.0124522,0.0794389,-0,0.080409,-25389.2,-35981.5,-0,44037.3,70449.1
step02_gravity_refstate-crust.xmf,928,-1.44721e-06,5.9969e-06,0,6.403e-07,-1.06118e+09,-1.06067e+09,-1.06108e+09,43924.6,-0.00941984,0.0646632,-0,0.0653457,-25230.4,-38636.8,-0,46145.2,43924.6
step02_gravity_refstate-crust.xmf,929,-1.06108e-06,4.24833e-06,0,7.92005e-07,-8.0871e+08,-8.08345e+08,-8.08637e+08,54331.5,-0.00855259,0.0976045,-0,0.0979785,-31132.5,-29444.2,-0,42850.8,54331.5
step02_gravity_refstate-crust.xmf,930,-9.82902e-07,3.96357e-06,0,4.17749e-07,-7.5838e+08,-7.5804e+08,-7.58312e+08,28657.6,-0.0044158,0.0996658,-0,0.0997636,-35381.8,-27611.7,-0,44880.7,28657.6
step02_gravity_refstate-crust.xmf,931,-9.56003e-07,3.92872e-06,0,1.96927e-07,-7.52292e+08,-7.51957e+08,-7.52226e+08,13509.2,-0.00210319,0.0989952,-0,0.0990175,-37787.6,-27390.1,-0,46670.3,13509.2
step02_gravity_refstate-crust.xmf,932,-9.56731e-07,3.72414e-06,0,8.69051e-10,-7.12578e+08,-7.12257e+08,-7.12512e+08,59.6169,-4.09815e-19,0.104066,-0,0.104066,-40000,-25944,-0,47676.9,59.6169
step02_gravity_refstate-crust.xmf,933,-1.37487e-06,5.6984e-06,0,7.42916e-07,-1.02564e+09,-1.02515e+09,-1.02554e+09,50964,-0.0101237,0.0700899,-0,0.0708173,-25997.5,-37342.6,-0,45501,50964
step02_gravity_refstate-crust.xmf,934,-1.10119e-06,4.53696e-06,0,8.14209e-07,-8.58509e+08,-8.58122e+08,-8.58433e+08,55854.8,-0.00923417,0.0913966,-0,0.0918619,-30161.6,-31257.4,-0,43436.8,55854.8
step02_gravity_refstate-crust.xmf,935,-9.78123e-07,4.26741e-06,0,4.80494e-07,-8.1679e+08,-8.1643e+08,-8.16723e+08,32961.9,-0.00550133,0.0921932,-0,0.0923572,-34092.7,-29738.7,-0,45240.5,32961.9
step02_gravity_refstate-crust.xmf,936,-1.02197e-06,4.49478e-06,0,6.06042e-07,-8.57181e+08,-8.56802e+08,-8.57111e+08,41574.5,-0.00708789,0.0881735,-0,0.0884579,-32211.8,-31209.3,-0,44851.1,41574.5
step02_gravity_refstate-crust.xmf,937,-1.13412e-06,4.8363e-06,0,7.96286e-07,-9.07054e+08,-9.06645e+08,-9.06977e+08,54625.2,-0.00962495,0.084988,-0,0.0855312,-29224.3,-33025.1,-0,44099,54625.2
step02_gravity_refstate-crust.xmf,938,-1.18113e-06,5.14038e-06,0,7.53335e-07,-9.54548e+08,-9.54114e+08,-9.54467e+08,51678.8,-0.00969339,0.0784063,-0,0.0790033,-28286.6,-34754.5,-0,44810.7,51678.8
step02_gravity_refstate-crust.xmf,939,-1.2353e-06,5.48162e-06,0,6.62572e-07,-1.00498e+09,-1.00452e+09,-1.00489e+09,45452.4,-0.0092965,0.0709958,-0,0.0716019,-27286.8,-36590.8,-0,45644.8,45452.4
step02_gravity_refstate-crust.xmf,940,-1.20789e-06,5.79517e-06,0,4.32167e-07,-1.05805e+09,-1.05756e+09,-1.05796e+09,29646.6,-0.00739002,0.0610585,-0,0.0615041,-26890.3,-38523.3,-0,46980.1,29646.6
step02_gravity_refstate-crust.xmf,941,-9.54127e-07,4.48103e-06,0,4.50916e-07,-8.61536e+08,-8.61163e+08,-8.6147e+08,30932.8,-0.00545166,0.0853546,-0,0.0855286,-33835.4,-31368.2,-0,46138.9,30932.8
step02_gravity_refstate-crust.xmf,942,-9.44462e-07,4.23448e-06,0,2.78368e-07,-8.14812e+08,-8.14457e+08,-8.14748e+08,19096.1,-0.00319237,0.0903803,-0,0.0904366,-36518.5,-29666.8,-0,47050.2,19096.1
step02_gravity_refstate-crust.xmf,943,-9.38587e-07,4.06276e-06,0,5.89664e-10,-7.80417e+08,-7.80074e+08,-7.80353e+08,40.4509,-2.66832e-19,0.0944493,-0,0.0944493,-40000,-28414.4,-0,49065,40.4509
step02_gravity_refstate-crust.xmf,944,-1.02867e-06,4.76009e-06,0,5.91061e-07,-9.06534e+08,-9.06137e+08,-9.06464e+08,40546.8,-0.00741524,0.0812862,-0,0.0816238,-31286.1,-33006.5,-0,45478,40546.8
step02_gravity_refstate-crust.xmf,945,-9.06035e-07,4.49902e-06,0,3.11015e-07,-8.71763e+08,-8.71392e+08,-8.71701e+08,21335.6,-0.00390118,0.0821301,-0,0.0822227,-35423.6,-31740.7,-0,47563.7,21335.6
step02_gravity_refstate-crust.xmf,946,-9.29737e-07,4.6855e-06,0,4.17295e-07,-9.04423e+08,-9.04038e+08,-9.04359e+08,28626.4,-0.00543444,0.0787463,-0,0.0789336,-33364.2,-32929.9,-0,46878,28626.4
step02_gravity_refstate-crust.xmf,947,-9.18151e-07,4.21586e-06,0,1.18957e-07,-8.13521e+08,-8.13169e+08,-8.13458e+08,8160.43,-0.00135733,0.0896668,-0,0.089677,-38508,-29619.9,-0,48581.9,8160.43
step02_gravity_refstate-crust.xmf,948,-1.0185e-06,5.03879e-06,0,5.3185e-07,-9.55828e+08,-9.55412e+08,-9.55758e+08,36484.9,-0.00739641,0.0740825,-0,0.0744508,-30344.9,-34801.6,-0,46173.2,36484.9
step02_gravity_refstate-crust.xmf,949,-1.01562e-06,5.31602e-06,0,4.40282e-07,-1.00428e+09,-1.00384e+09,-1.00421e+09,30203.4,-0.006935,0.0666544,-0,0.0670142,-29406.3,-36565.8,-0,46923.2,30203.4
step02_gravity_refstate-crust.xmf,950,-9.92607e-07,5.59066e-06,0,2.9012e-07,-1.05279e+09,-1.05234e+09,-1.05272e+09,19902.2,-0.00579701,0.0585948,-0,0.0588809,-28575.1,-38332.6,-0,47811.4,19902.2
step02_gravity_refstate-crust.xmf,951,-8.40949e-07,4.48573e-06,0,1.29939e-07,-8.75606e+08,-8.7524e+08,-8.75548e+08,8913.84,-0.00172452,0.0800222,-0,0.0800407,-37919.5,-31880.8,-0,49540.6,8913.84
step02_gravity_refstate-crust.xmf,952,-8.70953e-07,4.35693e-06,0,2.5625e-09,-8.46623e+08,-8.46264e+08,-8.46563e+08,175.788,-3.4209e-19,0.0842972,-0,0.0842972,-40000,-30825.4,-0,50499.5,175.788
step02_gravity_refstate-crust.xmf,953,-8.91396e-07,4.92075e-06,0,3.74751e-07,-9.5407e+08,-9.53672e+08,-9.54009e+08,25707.9,-0.00544553,0.0712129,-0,0.0714208,-32443.5,-34737.9,-0,47532.1,25707.9
step02_gravity_refstate-crust.xmf,954,-7.747e-07,4.81177e-06,0,2.33975e-07,-9.48011e+08,-9.47628e+08,-9.47958e+08,16050.7,-0.00362285,0.0697444,-0,0.0698384,-34788.5,-34517.6,-0,49007.2,16050.7
step02_gravity_refstate-crust.xmf,955,-8.31133e-07,5.16975e-06,0,2.84501e-07,-1.00446e+09,-1.00405e+09,-1.0044e+09,19516.8,-0.00506061,0.0633391,-0,0.0635409,-31428.9,-36572.9,-0,48221.9,19516.8
step02_gravity_refstate-crust.xmf,956,-7.70702e-07,5.39952e-06,0,1.57947e-07,-1.05232e+09,-1.05189e+09,-1.05226e+09,10835.1,-0.00411949,0.0554735,-0,0.0556262,-30499.8,-38315.9,-0,48972.9,10835.1
step02_gravity_refstate-crust.xmf,957,-7.64883e-07,4.6719e-06,0,1.6703e-07,-9.23223e+08,-9.2285e+08,-9.23171e+08,11458.3,-0.00245743,0.0726703,-0,0.0727118,-36667.4,-33615,-0,49744,11458.3
step02_gravity_refstate-crust.xmf,958,-7.54181e-07,4.60359e-06,0,2.03682e-09,-9.11367e+08,-9.10999e+08,-9.11315e+08,139.726,-2.21136e-19,0.0737346,-0,0.0737346,-40000,-33183.3,-0,51972.4,139.726
step02_gravity_refstate-crust.xmf,959,-6.99151e-07,5.03201e-06,0,1.88249e-07,-1.0022e+09,-1.00181e+09,-1.00215e+09,12913.9,-0.00356115,0.0612738,-0,0.0613772,-33485.9,-36491.1,-0,49526.8,12913.9
step02_gravity_refstate-crust.xmf,960,-6.82719e-07,4.71368e-06,0,6.68745e-08,-9.43487e+08,-9.43117e+08,-9.4344e+08,4587.59,-0.00108918,0.0685066,-0,0.0685152,-38380.5,-34353.1,-0,51509.2,4587.59
step02_gravity_refstate-crust.xmf,961,-6.16808e-07,4.8353e-06,0,1.00296e-07,-9.76887e+08,-9.76513e+08,-9.76845e+08,6880.27,-0.00185221,0.0633016,-0,0.0633287,-36816.5,-35569.5,-0,51192.3,6880.27
step02_gravity_refstate-crust.xmf,962,-5.8246e-07,5.23095e-06,0,7.21648e-08,-1.05202e+09,-1.05162e+09,-1.05198e+09,4950.5,-0.00279302,0.0530307,-0,0.0531042,-32475.8,-38305.7,-0,50219.5,4950.5
step02_gravity_refstate-crust.xmf,963,-5.8898e-07,4.94964e-06,0,1.14233e-07,-1.00351e+09,-1.00313e+09,-1.00347e+09,7836.36,-0.00237354,0.0594633,-0,0.0595107,-35318.6,-36539.1,-0,50818.3,7836.36
step02_gravity_refstate-crust.xmf,964,-5.74364e-07,4.78977e-06,0,3.09699e-09,-9.74817e+08,-9.74449e+08,-9.74778e+08,212.454,-1.6034e-19,0.0628802,-0,0.0628802,-40000,-35494.3,-0,53477.5,212.454
step02_gravity_refstate-crust.xmf,965,-4.57797e-07,5.08651e-06,0,3.52484e-08,-1.04947e+09,-1.04909e+09,-1.04943e+09,2418.04,-0.00182475,0.0516538,-0,0.051686,-34511.4,-38212.9,-0,51490.4,2418.04
step02_gravity_refstate-crust.xmf,966,-4.8117e-07,4.86776e-06,0,2.87036e-08,-1.00446e+09,-1.00409e+09,-1.00442e+09,1969.07,-0.000761717,0.0578659,-0,0.057871,-38382.2,-36573.9,-0,53017.4,1969.07
step02_gravity_refstate-crust.xmf,967,-3.73001e-07,4.97891e-06,0,1.63791e-08,-1.04108e+09,-1.04072e+09,-1.04106e+09,1123.6,-0.00111705,0.0519011,-0,0.0519131,-36659.9,-37907.9,-0,52734.8,1123.6
step02_gravity_refstate-crust.xmf,968,-3.30379e-07,4.91333e-06,0,1.92192e-09,-1.03714e+09,-1.03678e+09,-1.03712e+09,131.843,-9.3967e-20,0.0518626,-0,0.0518626,-40000,-37764.5,-0,55010.5,131.843
step02_gravity_refstate-crust.xmf,969,-2.77737e-07,4.95104e-06,0,-1.70197e-09,-1.05394e+09,-1.05358e+09,-1.05392e+09,-116.755,-0.000424076,0.0490228,-0,0.0490247,-38363.5,-38376.4,-0,54263.3,116.755
