Block Name,Point ID,cauchy_strain_0,cauchy_strain_1,cauchy_strain_2,cauchy_strain_3,cauchy_stress_0,cauchy_stress_1,cauchy_stress_2,cauchy_stress_3,displacement_0,displacement_1,displacement_2,displacement_Magnitude,Points_0,Points_1,Points_2,Points_Magnitude,stress_xy
step02_gravity_refstate-mantle.xmf,0,9.13451e-07,3.00797e-06,0,-2.2326e-08,-1.09827e+09,-1.09799e+09,-1.0984e+09,-2983.87,0.00205855,0.044123,0,0.044171,-37792.8,-40000,-0,55030,2983.87
step02_gravity_refstate-mantle.xmf,1,9.3455e-07,2.98863e-06,0,6.2369e-09,-1.09827e+09,-1.098e+09,-1.09839e+09,833.562,-6.82825e-20,0.0435824,-0,0.0435824,-40000,-40000,-0,56568.5,833.562
step02_gravity_refstate-mantle.xmf,2,1.3434e-06,2.8956e-06,0,-5.25211e-08,-1.14991e+09,-1.1497e+09,-1.15009e+09,-7019.44,0.00216861,0.0391544,0,0.0392144,-38398.1,-41597.6,-0,56610.7,7019.44
step02_gravity_refstate-mantle.xmf,3,1.52118e-06,2.83729e-06,0,3.0188e-09,-1.16909e+09,-1.16892e+09,-1.1693e+09,403.463,-6.48272e-20,0.0371997,-0,0.0371997,-40000,-42191.3,-0,58138.7,403.463
step02_gravity_refstate-mantle.xmf,4,1.32683e-06,2.93098e-06,0,-1.11198e-07,-1.15299e+09,-1.15277e+09,-1.15316e+09,-14861.6,0.00428584,0.0396225,0,0.0398536,-36858.6,-41692.7,-0,55649.2,14861.6
step02_gravity_refstate-mantle.xmf,5,1.7804e-06,2.76934e-06,0,-9.21785e-08,-1.20008e+09,-1.19995e+09,-1.20032e+09,-12319.7,0.00317225,0.0348124,0,0.0349566,-38228.4,-43150,-0,57648.4,12319.7
step02_gravity_refstate-mantle.xmf,6,7.96019e-07,3.09417e-06,0,-4.5302e-08,-1.09829e+09,-1.09798e+09,-1.0984e+09,-6054.61,0.00387345,0.04567,0,0.045834,-35691.6,-40000,-0,53608.7,6054.61
step02_gravity_refstate-mantle.xmf,7,2.15902e-06,2.63117e-06,0,3.05916e-09,-1.23991e+09,-1.23985e+09,-1.2402e+09,408.856,-9.83334e-20,0.0312054,-0,0.0312054,-40000,-44382.5,-0,59747.9,408.856
step02_gravity_refstate-mantle.xmf,8,4.30865e-07,3.38943e-06,0,-4.92109e-08,-1.09835e+09,-1.09795e+09,-1.0984e+09,-6577.04,0.00638999,0.0515042,0,0.0518991,-31786.7,-40000,-0,51092,6577.04
step02_gravity_refstate-mantle.xmf,9,6.3627e-07,3.22325e-06,0,-5.49492e-08,-1.09832e+09,-1.09797e+09,-1.0984e+09,-7343.96,0.00534018,0.0481436,0,0.0484389,-33691.1,-40000,-0,52298.1,7343.96
step02_gravity_refstate-mantle.xmf,10,1.00453e-06,3.19894e-06,0,-2.28344e-07,-1.14947e+09,-1.14918e+09,-1.1496e+09,-30518.1,0.00913675,0.0447161,0,0.04564,-32639,-41582.6,-0,52862.2,30518.1
step02_gravity_refstate-mantle.xmf,11,1.24657e-06,3.02918e-06,0,-1.92519e-07,-1.15843e+09,-1.15819e+09,-1.1586e+09,-25730.2,0.00730975,0.0410408,0,0.0416867,-34677.9,-41860.5,-0,54358.6,25730.2
step02_gravity_refstate-mantle.xmf,12,1.84055e-06,2.78807e-06,0,-2.01535e-07,-1.21192e+09,-1.2118e+09,-1.21217e+09,-26935.1,0.00680198,0.0347178,0,0.0353778,-36383.6,-43516.3,-0,56722.4,26935.1
step02_gravity_refstate-mantle.xmf,13,2.4273e-06,2.55035e-06,0,-1.47057e-07,-1.27075e+09,-1.27074e+09,-1.27108e+09,-19654.2,0.00522932,0.0291149,0,0.0295808,-37851.9,-45336.8,-0,59060.9,19654.2
step02_gravity_refstate-mantle.xmf,14,1.93562e-07,3.58639e-06,0,-2.79878e-08,-1.09838e+09,-1.09793e+09,-1.09841e+09,-3740.57,0.00697478,0.0557374,0,0.0561721,-29973.6,-40000,-0,49984.2,3740.57
step02_gravity_refstate-mantle.xmf,15,7.92481e-07,3.37488e-06,0,-2.40647e-07,-1.1453e+09,-1.14495e+09,-1.1454e+09,-32162.4,0.0104187,0.0484883,0,0.049595,-30884.3,-41452.7,-0,51693,32162.4
step02_gravity_refstate-mantle.xmf,16,2.80779e-06,2.40162e-06,0,1.31884e-09,-1.31073e+09,-1.31078e+09,-1.3111e+09,176.263,-1.06462e-19,0.0256917,-0,0.0256917,-40000,-46573.9,-0,61393.2,176.263
step02_gravity_refstate-mantle.xmf,17,6.20848e-07,3.55728e-06,0,-2.74503e-07,-1.14903e+09,-1.14863e+09,-1.14911e+09,-36687.3,0.011904,0.0520324,0,0.0533768,-29262.3,-41567.2,-0,50834.2,36687.3
step02_gravity_refstate-mantle.xmf,18,1.27828e-06,3.18431e-06,0,-3.45538e-07,-1.18393e+09,-1.18368e+09,-1.1841e+09,-46181.2,0.0126454,0.042907,0,0.0447317,-31717.4,-42648.8,-0,53150,46181.2
step02_gravity_refstate-mantle.xmf,19,1.08001e-06,3.36831e-06,0,-3.83354e-07,-1.1816e+09,-1.18129e+09,-1.18174e+09,-51235.3,0.0144281,0.046597,0,0.0487796,-30038.2,-42576,-0,52105.7,51235.3
step02_gravity_refstate-mantle.xmf,20,1.67344e-06,2.99991e-06,0,-3.82491e-07,-1.21437e+09,-1.2142e+09,-1.2146e+09,-51119.9,0.0133494,0.0383163,0,0.0405752,-32746.4,-43591.4,-0,54521,51119.9
step02_gravity_refstate-mantle.xmf,21,1.88716e-06,2.83609e-06,0,-3.05142e-07,-1.22472e+09,-1.22459e+09,-1.22497e+09,-40782.2,0.0105863,0.0350654,0,0.0366286,-34638.8,-43912,-0,55929.6,40782.2
step02_gravity_refstate-mantle.xmf,22,3.111e-06,2.30405e-06,0,-1.35507e-07,-1.34558e+09,-1.34569e+09,-1.34599e+09,-18110.5,0.00572164,0.0233933,0,0.0240828,-38162.8,-47652.1,-0,61050.2,18110.5
step02_gravity_refstate-mantle.xmf,23,2.35666e-06,2.63575e-06,0,-2.92478e-07,-1.26885e+09,-1.26882e+09,-1.26917e+09,-39089.6,0.0104269,0.0304469,0,0.0321828,-35654.9,-45278,-0,57631.3,39089.6
step02_gravity_refstate-mantle.xmf,24,-1.14964e-07,3.82174e-06,0,9.80667e-09,-1.09843e+09,-1.0979e+09,-1.09841e+09,1310.66,0.00706555,0.0608462,0,0.0612551,-28247.5,-40000,-0,48968.6,1310.66
step02_gravity_refstate-mantle.xmf,25,1.5348e-06,3.18171e-06,0,-4.64129e-07,-1.21608e+09,-1.21586e+09,-1.21629e+09,-62030.9,0.0167428,0.0416377,0,0.0448778,-30717.4,-43643.7,-0,53369.8,62030.9
step02_gravity_refstate-mantle.xmf,26,3.43199e-06,2.1728e-06,0,1.49166e-09,-1.38164e+09,-1.38181e+09,-1.3821e+09,199.361,-1.19815e-19,0.0206727,-0,0.0206727,-40000,-48768,-0,63073.9,199.361
step02_gravity_refstate-mantle.xmf,27,2.83023e-06,2.44179e-06,0,-2.49629e-07,-1.31708e+09,-1.31713e+09,-1.31746e+09,-33362.9,0.00979457,0.0260909,0,0.0278688,-36565.6,-46770.4,-0,59367.6,33362.9
step02_gravity_refstate-mantle.xmf,28,-7.67801e-07,4.32414e-06,0,1.61648e-07,-1.09853e+09,-1.09785e+09,-1.09843e+09,21604.2,0.00574797,0.0737441,0,0.0739677,-25039.7,-40000,-0,47191,21604.2
step02_gravity_refstate-mantle.xmf,29,-4.22704e-07,4.06033e-06,0,7.67222e-08,-1.09848e+09,-1.09788e+09,-1.09842e+09,10253.9,0.00665747,0.0668418,0,0.0671725,-26604.2,-40000,-0,48039.4,10253.9
step02_gravity_refstate-mantle.xmf,30,-6.73711e-08,4.09715e-06,0,-1.67746e-07,-1.13948e+09,-1.13893e+09,-1.13947e+09,-22419.3,0.0117984,0.0652559,0,0.066314,-25733.8,-41269.2,-0,48635.1,22419.3
step02_gravity_refstate-mantle.xmf,31,-1.13583e-06,4.59835e-06,0,2.72432e-07,-1.09858e+09,-1.09782e+09,-1.09843e+09,36410.6,0.0043516,0.0815745,0,0.0816905,-23550.3,-40000,-0,46417.8,36410.6
step02_gravity_refstate-mantle.xmf,32,-3.82019e-07,4.36326e-06,0,-9.83991e-08,-1.13869e+09,-1.13806e+09,-1.13864e+09,-13151,0.0113377,0.072481,0,0.0733624,-24203.1,-41243.4,-0,47820.6,13151
step02_gravity_refstate-mantle.xmf,33,-1.52215e-06,4.87955e-06,0,4.11231e-07,-1.09865e+09,-1.09779e+09,-1.09844e+09,54961,0.00248851,0.0903566,0,0.0903909,-22132.3,-40000,-0,45714.8,54961
step02_gravity_refstate-mantle.xmf,34,-6.87336e-07,4.63115e-06,0,-8.58513e-09,-1.13914e+09,-1.13843e+09,-1.13905e+09,-1147.4,0.0106506,0.0803527,0,0.0810555,-22768,-41255.9,-0,47121.4,1147.4
step02_gravity_refstate-mantle.xmf,35,9.83671e-08,3.91397e-06,0,-1.7077e-07,-1.13432e+09,-1.13381e+09,-1.13433e+09,-22823.4,0.0110975,0.0610346,0,0.0620353,-26961.7,-41110.3,-0,49162.9,22823.4
step02_gravity_refstate-mantle.xmf,36,1.24604e-06,3.41691e-06,0,-4.90226e-07,-1.20601e+09,-1.20572e+09,-1.20618e+09,-65518.7,0.0182246,0.0467548,0,0.0501812,-28928.9,-43331.4,-0,52100.8,65518.7
step02_gravity_refstate-mantle.xmf,37,5.69823e-07,3.70575e-06,0,-3.31349e-07,-1.16171e+09,-1.16129e+09,-1.16178e+09,-44284.8,0.0141276,0.0547304,0,0.0565244,-27858.2,-41959,-0,50365,44284.8
step02_gravity_refstate-mantle.xmf,38,2.29795e-06,2.74323e-06,0,-4.07702e-07,-1.27003e+09,-1.26997e+09,-1.27033e+09,-54489.3,0.0149598,0.0321091,0,0.035423,-33731.5,-45314,-0,56490.5,54489.3
step02_gravity_refstate-mantle.xmf,39,3.70852e-06,2.08846e-06,0,-1.31955e-07,-1.41608e+09,-1.4163e+09,-1.41658e+09,-17635.7,0.00686658,0.0186057,0,0.0198324,-38148.3,-49833.4,-0,62758.7,17635.7
step02_gravity_refstate-mantle.xmf,40,3.37188e-06,2.25211e-06,0,-2.63e-07,-1.37755e+09,-1.3777e+09,-1.378e+09,-35150,0.0121314,0.0217729,0,0.0249245,-36417,-48641.2,-0,60763.2,35150
step02_gravity_refstate-mantle.xmf,41,2.94109e-06,2.47126e-06,0,-3.78518e-07,-1.33308e+09,-1.33314e+09,-1.33347e+09,-50588.9,0.0157104,0.0260712,0,0.0304389,-34735.2,-47265.2,-0,58656.1,50588.9
step02_gravity_refstate-mantle.xmf,42,3.9959e-06,1.97178e-06,0,1.3498e-09,-1.45286e+09,-1.45313e+09,-1.45339e+09,180.401,-1.31632e-19,0.0161074,-0,0.0161074,-40000,-50971,-0,64792.3,180.401
step02_gravity_refstate-mantle.xmf,43,-1.92184e-06,5.16316e-06,0,5.8026e-07,-1.09871e+09,-1.09776e+09,-1.09845e+09,77551.8,0.000183867,0.100113,0,0.100113,-20782.4,-40000,-0,45076.7,77551.8
step02_gravity_refstate-mantle.xmf,44,-1.04829e-06,4.91e-06,0,1.30088e-07,-1.13682e+09,-1.13602e+09,-1.13668e+09,17386.3,0.0090234,0.0894767,0,0.0899305,-21415.7,-41182.5,-0,46417.9,17386.3
step02_gravity_refstate-mantle.xmf,45,2.18271e-06,2.9035e-06,0,-5.12067e-07,-1.26835e+09,-1.26825e+09,-1.26864e+09,-68437.7,0.0192377,0.0348558,0,0.0398122,-31766.8,-45261.8,-0,55297,68437.7
step02_gravity_refstate-mantle.xmf,46,2.06825e-06,3.11292e-06,0,-6.04252e-07,-1.26964e+09,-1.2695e+09,-1.26992e+09,-80758.2,0.0237929,0.0385672,0,0.0453159,-29670.7,-45301.5,-0,54153.3,80758.2
step02_gravity_refstate-mantle.xmf,47,4.2302e-06,1.91093e-06,0,-1.17108e-07,-1.48675e+09,-1.48706e+09,-1.48732e+09,-15651.4,0.00798522,0.0142416,0,0.0163275,-38110.8,-52019.4,-0,64486.1,15651.4
step02_gravity_refstate-mantle.xmf,48,4.47068e-06,1.81804e-06,0,1.30236e-09,-1.52458e+09,-1.52494e+09,-1.52518e+09,174.061,-1.40473e-19,0.0119044,-0,0.0119044,-40000,-53189.4,-0,66551.6,174.061
step02_gravity_refstate-mantle.xmf,49,-2.33127e-06,5.44476e-06,0,7.81806e-07,-1.09877e+09,-1.09773e+09,-1.09846e+09,104488,-0.00253171,0.110866,-0,0.110895,-19497.2,-40000,-0,44498.8,104488
step02_gravity_refstate-mantle.xmf,50,-1.43609e-06,5.18937e-06,0,3.1276e-07,-1.1333e+09,-1.13242e+09,-1.13311e+09,41800.3,0.00666584,0.0996808,0,0.0999034,-20138.8,-41072,-0,45743.6,41800.3
step02_gravity_refstate-mantle.xmf,51,-2.75072e-06,5.72195e-06,0,1.01567e-06,-1.09884e+09,-1.09771e+09,-1.09847e+09,135744,-0.00562711,0.122636,-0,0.122765,-18273.7,-40000,-0,43976.5,135744
step02_gravity_refstate-mantle.xmf,52,-1.78362e-06,5.45975e-06,0,5.09035e-07,-1.13227e+09,-1.13131e+09,-1.13203e+09,68032.5,0.00442905,0.110579,0,0.110667,-18910.3,-41038.5,-0,45185.8,68032.5
step02_gravity_refstate-mantle.xmf,53,5.0433e-07,3.88875e-06,0,-3.69231e-07,-1.17351e+09,-1.17305e+09,-1.17357e+09,-49347.8,0.0164461,0.0585221,0,0.060789,-26364.6,-42323.5,-0,49863.5,49347.8
step02_gravity_refstate-mantle.xmf,54,3.27127e-07,4.11481e-06,0,-3.55907e-07,-1.17759e+09,-1.17708e+09,-1.17763e+09,-47567,0.0176671,0.0641001,0,0.0664902,-24887.3,-42449,-0,49206.7,47567
step02_gravity_refstate-mantle.xmf,55,9.04871e-08,4.37828e-06,0,-2.97926e-07,-1.1787e+09,-1.17812e+09,-1.17871e+09,-39817.8,0.0181673,0.0713943,0,0.0736695,-23372.9,-42482.3,-0,48487.5,39817.8
step02_gravity_refstate-mantle.xmf,56,-1.41959e-07,4.64058e-06,0,-2.06933e-07,-1.17982e+09,-1.17918e+09,-1.1798e+09,-27656.6,0.0183457,0.0793687,0,0.0814614,-21977.4,-42516.1,-0,47860.5,27656.6
step02_gravity_refstate-mantle.xmf,57,1.11103e-06,3.63844e-06,0,-5.26633e-07,-1.21151e+09,-1.21118e+09,-1.21166e+09,-70384.5,0.0209898,0.0513449,0,0.0554696,-27147.5,-43500.9,-0,51276.8,70384.5
step02_gravity_refstate-mantle.xmf,58,1.7284e-06,3.38194e-06,0,-6.20635e-07,-1.25363e+09,-1.25341e+09,-1.25386e+09,-82947.8,0.0252832,0.0444133,0,0.0511055,-27928.9,-44805.4,-0,52797.2,82947.8
step02_gravity_refstate-mantle.xmf,59,2.77374e-06,2.64077e-06,0,-4.95471e-07,-1.32121e+09,-1.32123e+09,-1.32158e+09,-66219.7,0.0206218,0.0289368,0,0.035533,-32777.1,-46898.1,-0,57216.8,66219.7
step02_gravity_refstate-mantle.xmf,60,3.94752e-06,2.05772e-06,0,-2.5039e-07,-1.44828e+09,-1.44853e+09,-1.4488e+09,-33464.6,0.0148058,0.0171286,0,0.0226406,-36254.7,-50829.4,-0,62434.3,33464.6
step02_gravity_refstate-mantle.xmf,61,3.5909e-06,2.25016e-06,0,-3.77013e-07,-1.40593e+09,-1.40611e+09,-1.40641e+09,-50387.8,0.0194006,0.0208203,0,0.0284582,-34635.1,-49519.5,-0,60429.9,50387.8
step02_gravity_refstate-mantle.xmf,62,4.65781e-06,1.78638e-06,0,-9.03376e-08,-1.55911e+09,-1.5595e+09,-1.55973e+09,-12073.6,0.00890966,0.0101093,0,0.0134751,-38084.7,-54257.2,-0,66289.4,12073.6
step02_gravity_refstate-mantle.xmf,63,-3.18065e-06,5.99205e-06,0,1.2855e-06,-1.09891e+09,-1.09769e+09,-1.09849e+09,171808,-0.00906814,0.135444,-0,0.135747,-17108.9,-40000,-0,43505.3,171808
step02_gravity_refstate-mantle.xmf,64,-2.10616e-06,5.72324e-06,0,7.27203e-07,-1.13262e+09,-1.13158e+09,-1.13234e+09,97190.7,0.00219859,0.122413,0,0.122433,-17723.3,-41047.9,-0,44710.6,97190.7
step02_gravity_refstate-mantle.xmf,65,-3.60607e-06,6.24354e-06,0,1.59494e-06,-1.09898e+09,-1.09767e+09,-1.0985e+09,213163,-0.0128222,0.14931,-0,0.149859,-15999.9,-40000,-0,43081.3,213163
step02_gravity_refstate-mantle.xmf,66,-2.36798e-06,5.99109e-06,0,9.81365e-07,-1.13583e+09,-1.13472e+09,-1.13552e+09,131159,0.000355528,0.136161,0,0.136161,-16478.2,-41145.9,-0,44322.9,131159
step02_gravity_refstate-mantle.xmf,67,-5.60204e-07,4.92989e-06,0,-3.90825e-08,-1.17065e+09,-1.16992e+09,-1.17058e+09,-5223.38,0.0158935,0.0893747,0,0.0907768,-20712.3,-42230.8,-0,47036.6,5223.38
step02_gravity_refstate-mantle.xmf,68,2.23567e-06,3.18816e-06,0,-6.55761e-07,-1.2921e+09,-1.29197e+09,-1.2924e+09,-87642.5,0.028897,0.0391893,0,0.0486913,-28432.3,-45996.6,-0,54074.8,87642.5
step02_gravity_refstate-mantle.xmf,69,2.72207e-06,2.7979e-06,0,-5.91609e-07,-1.32312e+09,-1.32311e+09,-1.32349e+09,-79068.5,0.0258212,0.0313344,0,0.0406027,-30932.8,-46957.2,-0,56230.1,79068.5
step02_gravity_refstate-mantle.xmf,70,3.26552e-06,2.43512e-06,0,-4.66612e-07,-1.37151e+09,-1.37162e+09,-1.37194e+09,-62362.7,0.0220174,0.0243577,0,0.0328339,-33360.6,-48454.4,-0,58828.2,62362.7
step02_gravity_refstate-mantle.xmf,71,4.42049e-06,1.91001e-06,0,-2.12735e-07,-1.51718e+09,-1.51752e+09,-1.51777e+09,-28432,0.0167537,0.0129168,0,0.0211549,-36209,-52960.7,-0,64155.4,28432
step02_gravity_refstate-mantle.xmf,72,4.83197e-06,1.7281e-06,0,1.38272e-09,-1.59703e+09,-1.59744e+09,-1.59767e+09,184.8,-1.38371e-19,0.0079336,-0,0.0079336,-40000,-55429.4,-0,68355.1,184.8
step02_gravity_refstate-mantle.xmf,73,-5.78043e-06,7.21181e-06,0,3.92615e-06,-1.09937e+09,-1.09764e+09,-1.0986e+09,524730,-0.0351135,0.235318,-0,0.237923,-11203.7,-40000,-0,41539.4,524730
step02_gravity_refstate-mantle.xmf,74,-5.3585e-06,7.08396e-06,0,3.33559e-06,-1.09929e+09,-1.09763e+09,-1.09858e+09,445801,-0.0302958,0.215797,-0,0.217913,-12071.1,-40000,-0,41781.7,445801
step02_gravity_refstate-mantle.xmf,75,-4.47996e-06,7.0635e-06,0,3.24282e-06,-1.12176e+09,-1.12022e+09,-1.12116e+09,433403,-0.0219439,0.221356,-0,0.222441,-11591,-40699.8,-0,42318.1,433403
step02_gravity_refstate-mantle.xmf,76,-6.17972e-06,7.28585e-06,0,4.5998e-06,-1.09945e+09,-1.09765e+09,-1.09863e+09,614764,-0.0400389,0.256075,-0,0.259186,-10377.9,-40000,-0,41324.3,614764
step02_gravity_refstate-mantle.xmf,77,-4.80229e-06,7.18487e-06,0,3.88316e-06,-1.12151e+09,-1.1199e+09,-1.12086e+09,518984,-0.0260886,0.241945,-0,0.243348,-10730.8,-40690.1,-0,42081.3,518984
step02_gravity_refstate-mantle.xmf,78,-6.53137e-06,7.28368e-06,0,5.37391e-06,-1.09953e+09,-1.09768e+09,-1.09866e+09,718224,-0.045028,0.278117,-0,0.281738,-9591.69,-40000,-0,41133.9,718224
step02_gravity_refstate-mantle.xmf,79,-5.16882e-06,7.24305e-06,0,4.6116e-06,-1.11916e+09,-1.1175e+09,-1.11847e+09,616341,-0.031224,0.262734,-0,0.264583,-9970.29,-40615.2,-0,41821.1,616341
step02_gravity_refstate-mantle.xmf,80,-6.81987e-06,7.1821e-06,0,6.26016e-06,-1.0996e+09,-1.09773e+09,-1.09869e+09,836670,-0.0500267,0.301503,-0,0.305625,-8843.14,-40000,-0,40965.9,836670
step02_gravity_refstate-mantle.xmf,81,-5.43994e-06,7.22806e-06,0,5.41667e-06,-1.11763e+09,-1.11594e+09,-1.11691e+09,723938,-0.0359325,0.283998,-0,0.286262,-9262.34,-40566.4,-0,41610.3,723938
step02_gravity_refstate-mantle.xmf,82,-7.00236e-06,6.94024e-06,0,7.27402e-06,-1.09966e+09,-1.0978e+09,-1.09873e+09,972172,-0.0549646,0.326298,-0,0.330895,-8130.43,-40000,-0,40817.9,972172
step02_gravity_refstate-mantle.xmf,83,-5.62466e-06,7.11302e-06,0,6.41204e-06,-1.11678e+09,-1.11508e+09,-1.11603e+09,856969,-0.040586,0.308236,-0,0.310897,-8530.33,-40538.4,-0,41426.2,856969
step02_gravity_refstate-mantle.xmf,84,-4.93186e-06,6.9174e-06,0,2.81433e-06,-1.09921e+09,-1.09763e+09,-1.09856e+09,376135,-0.0256238,0.197469,-0,0.199125,-12982.1,-40000,-0,42054,376135
step02_gravity_refstate-mantle.xmf,85,-4.16839e-06,6.91301e-06,0,2.70157e-06,-1.12187e+09,-1.12039e+09,-1.12131e+09,361065,-0.0180415,0.202493,-0,0.203295,-12475.7,-40704.9,-0,42573.8,361065
step02_gravity_refstate-mantle.xmf,86,-8.86368e-07,5.18695e-06,0,1.41135e-07,-1.16558e+09,-1.16477e+09,-1.16546e+09,18862.7,0.0138386,0.0992182,0,0.100179,-19568.1,-42072.6,-0,46400.6,18862.7
step02_gravity_refstate-mantle.xmf,87,-2.9725e-06,6.27803e-06,0,1.41148e-06,-1.12802e+09,-1.12678e+09,-1.12762e+09,188645,-0.00540731,0.153065,-0,0.15316,-15315.5,-40901.3,-0,43674.7,188645
step02_gravity_refstate-mantle.xmf,88,-1.11906e-06,5.43273e-06,0,3.23798e-07,-1.16569e+09,-1.16482e+09,-1.16555e+09,43275.6,0.0127049,0.10956,0,0.110294,-18423.1,-42075.3,-0,45931.9,43275.6
step02_gravity_refstate-mantle.xmf,89,-4.06086e-06,6.49562e-06,0,1.95131e-06,-1.09906e+09,-1.09765e+09,-1.09852e+09,260793,-0.0168543,0.164253,-0,0.165116,-14944.2,-40000,-0,42700.4,260793
step02_gravity_refstate-mantle.xmf,90,-4.4986e-06,6.71921e-06,0,2.35471e-06,-1.09914e+09,-1.09764e+09,-1.09854e+09,314708,-0.0211324,0.180298,-0,0.181532,-13939,-40000,-0,42359.1,314708
step02_gravity_refstate-mantle.xmf,91,-3.79234e-06,6.73566e-06,0,2.2156e-06,-1.12414e+09,-1.12274e+09,-1.12364e+09,296115,-0.01358,0.185462,-0,0.185959,-13344.2,-40777.2,-0,42905.1,296115
step02_gravity_refstate-mantle.xmf,92,-3.37109e-06,6.52506e-06,0,1.78833e-06,-1.12673e+09,-1.12541e+09,-1.12628e+09,239010,-0.00916159,0.16889,-0,0.169139,-14285.7,-40859.4,-0,43284.8,239010
step02_gravity_refstate-mantle.xmf,93,9.87114e-07,3.86164e-06,0,-5.27189e-07,-1.21591e+09,-1.21552e+09,-1.21604e+09,-70458.8,0.0232338,0.0563635,0,0.0609644,-25601.9,-43636.3,-0,50592.3,70458.8
step02_gravity_refstate-mantle.xmf,94,8.15142e-07,4.11089e-06,0,-4.91787e-07,-1.2174e+09,-1.21696e+09,-1.21751e+09,-65727.3,0.0248334,0.0627106,0,0.0674486,-24086.1,-43681.9,-0,49882.3,65727.3
step02_gravity_refstate-mantle.xmf,95,6.35757e-07,4.37563e-06,0,-4.16374e-07,-1.21829e+09,-1.21779e+09,-1.21838e+09,-55648.4,0.02605,0.0701613,0,0.0748412,-22619.2,-43709,-0,49214.9,55648.4
step02_gravity_refstate-mantle.xmf,96,3.89539e-07,4.67915e-06,0,-2.80625e-07,-1.2155e+09,-1.21493e+09,-1.21555e+09,-37505.5,0.0262037,0.0798603,0,0.0840494,-21112.6,-43621.9,-0,48462.5,37505.5
step02_gravity_refstate-mantle.xmf,97,1.59429e-06,3.60045e-06,0,-6.38735e-07,-1.25446e+09,-1.25419e+09,-1.25468e+09,-85367,0.0279619,0.0490572,0,0.0564666,-26382.5,-44830.7,-0,52017.6,85367
step02_gravity_refstate-mantle.xmf,98,2.06748e-06,3.38444e-06,0,-6.75038e-07,-1.28651e+09,-1.28634e+09,-1.28679e+09,-90218.9,0.0309212,0.0431177,0,0.053059,-27170.3,-45823.4,-0,53272.9,90218.9
step02_gravity_refstate-mantle.xmf,99,2.68926e-06,2.97986e-06,0,-6.59078e-07,-1.32786e+09,-1.32782e+09,-1.32822e+09,-88085.8,0.0310569,0.0341484,0,0.0461589,-29156.9,-47103.6,-0,55397.5,88085.8
step02_gravity_refstate-mantle.xmf,100,3.25747e-06,2.55223e-06,0,-5.45669e-07,-1.37343e+09,-1.37353e+09,-1.37387e+09,-72928.7,0.0270841,0.0258754,0,0.0374578,-31843,-48514.2,-0,58031.1,72928.7
step02_gravity_refstate-mantle.xmf,101,3.71638e-06,2.32367e-06,0,-4.73429e-07,-1.42389e+09,-1.42407e+09,-1.42438e+09,-63273.7,0.0269758,0.0210134,0,0.0341944,-32812.4,-50075.2,-0,59868,63273.7
step02_gravity_refstate-mantle.xmf,102,4.14958e-06,2.09017e-06,0,-3.58105e-07,-1.47764e+09,-1.47792e+09,-1.47819e+09,-47860.8,0.0241811,0.0162868,0,0.0291545,-34187.8,-51737.9,-0,62013.1,47860.8
step02_gravity_refstate-mantle.xmf,103,4.96238e-06,1.73003e-06,0,-5.35817e-08,-1.63141e+09,-1.63184e+09,-1.63207e+09,-7161.19,0.00920258,0.00617171,0,0.0110805,-38140.5,-56492.3,-0,68162.2,7161.19
step02_gravity_refstate-mantle.xmf,104,4.82299e-06,1.82263e-06,0,-1.55758e-07,-1.59179e+09,-1.59219e+09,-1.59243e+09,-20817.1,0.0192585,0.00867034,0,0.0211203,-35990.9,-55267.7,-0,65953.6,20817.1
step02_gravity_refstate-mantle.xmf,105,5.05534e-06,1.71797e-06,0,8.31563e-10,-1.6704e+09,-1.67085e+09,-1.67108e+09,111.138,-1.18689e-19,0.00403128,-0,0.00403128,-40000,-57697.5,-0,70206.8,111.138
step02_gravity_refstate-mantle.xmf,106,-6.34547e-06,4.7025e-06,0,1.12214e-05,-1.0997e+09,-1.09823e+09,-1.09886e+09,1.49974e+06,-0.0683234,0.409815,-0,0.415472,-6190.26,-40000,-0,40476.2,1.49974e+06
step02_gravity_refstate-mantle.xmf,107,-6.80902e-06,5.81462e-06,0,9.7761e-06,-1.09971e+09,-1.09803e+09,-1.0988e+09,1.30658e+06,-0.064257,0.380391,-0,0.38578,-6805.63,-40000,-0,40574.8,1.30658e+06
step02_gravity_refstate-mantle.xmf,108,-5.14086e-06,5.66212e-06,0,1.07635e-05,-1.11547e+09,-1.11403e+09,-1.11478e+09,1.43854e+06,-0.0529214,0.391888,-0,0.395446,-6500.25,-40497.5,-0,41015.9,1.43854e+06
step02_gravity_refstate-mantle.xmf,109,-7.01836e-06,6.50489e-06,0,8.43782e-06,-1.0997e+09,-1.09789e+09,-1.09876e+09,1.12771e+06,-0.0597502,0.352572,-0,0.357599,-7451.82,-40000,-0,40688.2,1.12771e+06
step02_gravity_refstate-mantle.xmf,110,-5.5611e-06,6.86834e-06,0,7.57949e-06,-1.11771e+09,-1.11605e+09,-1.11697e+09,1.013e+06,-0.0438631,0.333593,-0,0.336464,-7833.29,-40567,-0,41316.4,1.013e+06
step02_gravity_refstate-mantle.xmf,111,-5.24984e-06,6.46991e-06,0,8.99285e-06,-1.11949e+09,-1.11792e+09,-1.11879e+09,1.20189e+06,-0.0460983,0.360242,-0,0.363179,-7173.49,-40622.9,-0,41251.5,1.20189e+06
step02_gravity_refstate-mantle.xmf,112,-4.41311e-06,4.41986e-06,0,1.27509e-05,-1.11519e+09,-1.11401e+09,-1.1146e+09,1.70416e+06,-0.0560753,0.423459,-0,0.427156,-5886.47,-40490.4,-0,40916.1,1.70416e+06
step02_gravity_refstate-mantle.xmf,113,-5.04409e-06,3.1324e-06,0,1.30057e-05,-1.09955e+09,-1.09846e+09,-1.09888e+09,1.73821e+06,-0.0717225,0.440889,-0,0.446684,-5604.1,-40000,-0,40390.7,1.73821e+06
step02_gravity_refstate-mantle.xmf,114,-3.23552e-06,6.89019e-06,0,2.73613e-06,-1.14461e+09,-1.14326e+09,-1.14418e+09,365684,-0.00902673,0.207477,-0,0.207673,-11997.7,-41413.6,-0,43116.4,365684
step02_gravity_refstate-mantle.xmf,115,-2.08439e-06,6.09707e-06,0,1.07318e-06,-1.15287e+09,-1.15178e+09,-1.15259e+09,143430,0.0042384,0.143509,0,0.143572,-15660.3,-41674.4,-0,44519.6,143430
step02_gravity_refstate-mantle.xmf,116,-1.2988e-06,5.6738e-06,0,5.40659e-07,-1.16779e+09,-1.16686e+09,-1.16762e+09,72259,0.0119141,0.121003,0,0.121588,-17280.2,-42139.6,-0,45545,72259
step02_gravity_refstate-mantle.xmf,117,-2.30075e-06,6.31426e-06,0,1.41241e-06,-1.15426e+09,-1.15311e+09,-1.15395e+09,188768,0.00231031,0.159121,0,0.159137,-14557,-41716.4,-0,44183.3,188768
step02_gravity_refstate-mantle.xmf,118,-1.83589e-07,4.96557e-06,0,-8.58048e-08,-1.19493e+09,-1.19425e+09,-1.19491e+09,-11467.8,0.0214458,0.0904872,0,0.0929938,-20073.6,-42983.5,-0,47439.8,11467.8
step02_gravity_refstate-mantle.xmf,119,2.61793e-06,3.2163e-06,0,-6.93282e-07,-1.32975e+09,-1.32967e+09,-1.3301e+09,-92657.1,0.0360483,0.0382046,0,0.0525269,-27347.9,-47162.2,-0,54517.7,92657.1
step02_gravity_refstate-mantle.xmf,120,3.22422e-06,2.72342e-06,0,-6.18806e-07,-1.3755e+09,-1.37557e+09,-1.37593e+09,-82703.4,0.0328496,0.0281885,0,0.0432861,-30108.5,-48578.2,-0,57152.1,82703.4
step02_gravity_refstate-mantle.xmf,121,4.5269e-06,1.96656e-06,0,-2.76654e-07,-1.53632e+09,-1.53667e+09,-1.53693e+09,-36974.8,0.0246983,0.0124045,0,0.0276384,-34548.1,-53552.9,-0,63729.8,36974.8
step02_gravity_refstate-mantle.xmf,122,5.09184e-06,1.74231e-06,0,-2.83449e-08,-1.69158e+09,-1.69203e+09,-1.69226e+09,-3788.3,0.00839781,0.00292533,0,0.00889274,-38350,-58351.8,-0,69825.9,3788.3
step02_gravity_refstate-mantle.xmf,123,5.1303e-06,1.7841e-06,0,9.70711e-09,-1.74492e+09,-1.74537e+09,-1.74561e+09,1297.35,7.24322e-19,-3.85709e-20,0,7.25349e-19,-40000,-60000,-0,72111,1297.35
step02_gravity_refstate-mantle.xmf,124,-3.22632e-06,7.03123e-06,0,3.40741e-06,-1.14804e+09,-1.14667e+09,-1.14761e+09,455400,-0.0104892,0.229089,-0,0.229329,-11012,-41519.8,-0,42955.4,455400
step02_gravity_refstate-mantle.xmf,125,-3.88221e-06,7.17045e-06,0,4.17239e-06,-1.13967e+09,-1.13819e+09,-1.13915e+09,557640,-0.018128,0.251852,-0,0.252504,-10196.9,-41257.2,-0,42498.7,557640
step02_gravity_refstate-mantle.xmf,126,-4.28319e-06,7.21489e-06,0,4.81755e-06,-1.13447e+09,-1.13294e+09,-1.1339e+09,643865,-0.0236619,0.269665,-0,0.270701,-9609.37,-41094.3,-0,42202.8,643865
step02_gravity_refstate-mantle.xmf,127,-4.25625e-06,7.21941e-06,0,5.55139e-06,-1.13541e+09,-1.13388e+09,-1.13484e+09,741943,-0.0255253,0.287162,-0,0.288294,-9035.11,-41123.3,-0,42104.2,741943
step02_gravity_refstate-mantle.xmf,128,-4.27292e-06,7.14748e-06,0,6.49057e-06,-1.13585e+09,-1.13432e+09,-1.13528e+09,867465,-0.0279798,0.308783,-0,0.310048,-8393.17,-41136.7,-0,41984.2,867465
step02_gravity_refstate-mantle.xmf,129,-3.7021e-06,5.82064e-06,0,1.22099e-05,-1.13028e+09,-1.12901e+09,-1.12978e+09,1.63185e+06,-0.0414601,0.404359,-0,0.406479,-6199.22,-40965,-0,41431.4,1.63185e+06
step02_gravity_refstate-mantle.xmf,130,-3.05411e-06,7.88578e-07,0,1.49413e-05,-1.09932e+09,-1.0988e+09,-1.09891e+09,1.99691e+06,-0.0741415,0.473623,-0,0.479391,-5045.52,-40000,-0,40317,1.99691e+06
step02_gravity_refstate-mantle.xmf,131,-2.94932e-06,2.88816e-06,0,1.53959e-05,-1.11512e+09,-1.11434e+09,-1.11473e+09,2.05766e+06,-0.0581239,0.456446,-0,0.460132,-5311.57,-40494.3,-0,40841.2,2.05766e+06
step02_gravity_refstate-mantle.xmf,132,-9.5108e-08,-2.75583e-06,0,1.70629e-05,-1.09897e+09,-1.09932e+09,-1.09896e+09,2.28046e+06,-0.0751179,0.507996,-0,0.513519,-4512.49,-40000,-0,40253.7,2.28046e+06
step02_gravity_refstate-mantle.xmf,133,-1.07479e-06,5.14448e-07,0,1.8244e-05,-1.11349e+09,-1.11328e+09,-1.11335e+09,2.43831e+06,-0.0606071,0.490737,-0,0.494466,-4775.68,-40450.3,-0,40731.3,2.43831e+06
step02_gravity_refstate-mantle.xmf,134,-3.16069e-06,6.7465e-06,0,2.30151e-06,-1.14214e+09,-1.14082e+09,-1.14172e+09,307597,-0.00762159,0.191955,-0,0.192106,-12792,-41337.4,-0,43271.5,307597
step02_gravity_refstate-mantle.xmf,135,-2.82238e-07,5.16706e-06,0,5.5327e-08,-1.19689e+09,-1.19616e+09,-1.19685e+09,7394.45,0.0217084,0.0982694,0,0.100639,-19093,-43043.8,-0,47088.3,7394.45
step02_gravity_refstate-mantle.xmf,136,-1.39472e-06,5.88585e-06,0,7.78468e-07,-1.17157e+09,-1.1706e+09,-1.17138e+09,104042,0.0117204,0.132362,0,0.132879,-16252.5,-42256.1,-0,45273.8,104042
step02_gravity_refstate-mantle.xmf,137,-3.99583e-07,5.40366e-06,0,2.58961e-07,-1.19902e+09,-1.19824e+09,-1.19896e+09,34610.1,0.0218938,0.108463,0,0.11065,-17963.5,-43109.3,-0,46702.3,34610.1
step02_gravity_refstate-mantle.xmf,138,-2.48325e-06,6.55905e-06,0,1.88442e-06,-1.15498e+09,-1.15378e+09,-1.15465e+09,251853,-0.000101433,0.177429,-0,0.177429,-13436.3,-41738.2,-0,43847.6,251853
step02_gravity_refstate-mantle.xmf,139,-1.44221e-06,6.1071e-06,0,1.10116e-06,-1.17602e+09,-1.17502e+09,-1.17583e+09,147171,0.0116964,0.146179,0,0.146646,-15148.6,-42393.9,-0,45019.2,147171
step02_gravity_refstate-mantle.xmf,140,4.11486e-07,4.89353e-06,0,-1.57573e-07,-1.22605e+09,-1.22546e+09,-1.22611e+09,-21059.7,0.0291894,0.0872132,0,0.0919682,-19881.9,-43948.6,-0,48236.6,21059.7
step02_gravity_refstate-mantle.xmf,141,1.50177e-06,3.83726e-06,0,-6.13814e-07,-1.25759e+09,-1.25728e+09,-1.25779e+09,-82036.3,0.0307832,0.0543366,0,0.0624505,-24865.2,-44927.5,-0,51349.3,82036.3
step02_gravity_refstate-mantle.xmf,142,1.36001e-06,4.1028e-06,0,-5.50587e-07,-1.25797e+09,-1.25761e+09,-1.25816e+09,-73585.9,0.0329756,0.0610129,0,0.069354,-23365.9,-44938.9,-0,50650.5,73585.9
step02_gravity_refstate-mantle.xmf,143,1.22365e-06,4.37758e-06,0,-4.41667e-07,-1.25803e+09,-1.25761e+09,-1.25819e+09,-59028.8,0.0347959,0.0686211,0,0.076939,-21948.3,-44940.4,-0,50013.7,59028.8
step02_gravity_refstate-mantle.xmf,144,2.1738e-06,3.53597e-06,0,-6.86632e-07,-1.30261e+09,-1.30243e+09,-1.3029e+09,-91768.4,0.0361594,0.0458392,0,0.0583844,-25759.8,-46321.8,-0,53002.7,91768.4
step02_gravity_refstate-mantle.xmf,145,3.18146e-06,2.93759e-06,0,-6.61316e-07,-1.37748e+09,-1.37751e+09,-1.37791e+09,-88384.8,0.0385677,0.0312246,0,0.049623,-28376.1,-48639.7,-0,56311.9,88384.8
step02_gravity_refstate-mantle.xmf,146,3.71479e-06,2.48855e-06,0,-5.46766e-07,-1.42584e+09,-1.42601e+09,-1.42634e+09,-73075.2,0.0337548,0.022816,0,0.0407426,-31018.8,-50136,-0,58955.8,73075.2
step02_gravity_refstate-mantle.xmf,147,4.13079e-06,2.26807e-06,0,-4.58492e-07,-1.4779e+09,-1.47815e+09,-1.47845e+09,-61277.4,0.0332474,0.0179179,0,0.0377682,-32000.6,-51746.2,-0,60841.7,61277.4
step02_gravity_refstate-mantle.xmf,148,4.49238e-06,2.09763e-06,0,-3.52897e-07,-1.53157e+09,-1.53189e+09,-1.53217e+09,-47164.7,0.0320226,0.0135997,0,0.0347908,-32886.5,-53406.2,-0,62719.6,47164.7
step02_gravity_refstate-mantle.xmf,149,4.78237e-06,1.95882e-06,0,-2.42364e-07,-1.58655e+09,-1.58692e+09,-1.58719e+09,-32391.9,0.0293021,0.00963921,0,0.0308469,-33871.7,-55106,-0,64683.5,32391.9
step02_gravity_refstate-mantle.xmf,150,5.06767e-06,1.79341e-06,0,-7.19723e-08,-1.67591e+09,-1.67635e+09,-1.67659e+09,-9619.09,0.0183925,0.00390642,0,0.0188028,-36367.9,-57868,-0,68347.1,9619.09
step02_gravity_refstate-mantle.xmf,151,5.13439e-06,1.81595e-06,0,1.12224e-08,-1.74492e+09,-1.74536e+09,-1.7456e+09,1499.87,0.0120159,-5.39395e-20,0,0.0120159,-37657.4,-60000,-0,70838.4,1499.87
step02_gravity_refstate-mantle.xmf,152,-4.27097e-06,6.37953e-06,0,1.02253e-05,-1.12931e+09,-1.12788e+09,-1.12874e+09,1.36661e+06,-0.0400569,0.376661,-0,0.378785,-6764.57,-40932.6,-0,41487.8,1.36661e+06
step02_gravity_refstate-mantle.xmf,153,-4.03121e-06,7.07568e-06,0,7.69555e-06,-1.13768e+09,-1.1362e+09,-1.13715e+09,1.02851e+06,-0.0291773,0.331177,-0,0.33246,-7783.07,-41194.8,-0,41923.6,1.02851e+06
step02_gravity_refstate-mantle.xmf,154,-2.85372e-06,4.83423e-06,0,1.48413e-05,-1.13151e+09,-1.13048e+09,-1.13112e+09,1.98354e+06,-0.0422931,0.437441,-0,0.439481,-5596.23,-41006,-0,41386.1,1.98354e+06
step02_gravity_refstate-mantle.xmf,155,1.14207e-06,-2.58106e-06,0,2.06639e-05,-1.11014e+09,-1.11064e+09,-1.11029e+09,2.76173e+06,-0.0636093,0.520025,-0,0.523901,-4354.02,-40353.8,-0,40588,2.76173e+06
step02_gravity_refstate-mantle.xmf,156,5.29783e-06,-8.36757e-06,0,2.07687e-05,-1.09827e+09,-1.10009e+09,-1.09897e+09,2.77574e+06,-0.0735306,0.543828,-0,0.548777,-4000,-40000,-0,40199.5,2.77574e+06
step02_gravity_refstate-mantle.xmf,157,-2.25232e-06,6.70912e-06,0,2.33839e-06,-1.16421e+09,-1.16301e+09,-1.16391e+09,312525,0.00179173,0.19302,0,0.193028,-12499.7,-42025.1,-0,43844.6,312525
step02_gravity_refstate-mantle.xmf,158,-2.09099e-06,6.86981e-06,0,2.92272e-06,-1.16957e+09,-1.16838e+09,-1.16929e+09,390622,0.00243361,0.210732,0,0.210746,-11601.4,-42192.3,-0,43758.2,390622
step02_gravity_refstate-mantle.xmf,159,-4.8678e-07,5.64097e-06,0,5.1772e-07,-1.20129e+09,-1.20047e+09,-1.20122e+09,69193.2,0.0220699,0.119913,0,0.121927,-16851.8,-43179.5,-0,46351.4,69193.2
step02_gravity_refstate-mantle.xmf,160,-1.47383e-06,6.31582e-06,0,1.49864e-06,-1.18055e+09,-1.17951e+09,-1.18035e+09,200293,0.0118301,0.161981,0,0.162413,-14047.1,-42534,-0,44793.5,200293
step02_gravity_refstate-mantle.xmf,161,1.11096e-06,4.65786e-06,0,-2.82121e-07,-1.25871e+09,-1.25823e+09,-1.25886e+09,-37705.5,0.0364948,0.0771009,0,0.0853019,-20601.2,-44961.3,-0,49456.3,37705.5
step02_gravity_refstate-mantle.xmf,162,2.73344e-06,3.39546e-06,0,-6.79675e-07,-1.34788e+09,-1.34779e+09,-1.34825e+09,-90838.5,0.042314,0.040536,0,0.0585973,-25891.4,-47723.6,-0,54294.6,90838.5
step02_gravity_refstate-mantle.xmf,163,3.15449e-06,3.18215e-06,0,-6.589e-07,-1.38153e+09,-1.38152e+09,-1.38195e+09,-88062,0.0442381,0.0347167,0,0.056234,-26724.4,-48765.1,-0,55607.8,88062
step02_gravity_refstate-mantle.xmf,164,3.66384e-06,2.70155e-06,0,-5.98391e-07,-1.42509e+09,-1.42522e+09,-1.42558e+09,-79975,0.0401368,0.0254066,0,0.0475022,-29265.8,-50112.9,-0,58032.6,79975
step02_gravity_refstate-mantle.xmf,165,4.96857e-06,1.88392e-06,0,-1.51765e-07,-1.63599e+09,-1.6364e+09,-1.63665e+09,-20283.4,0.0263669,0.00644382,0,0.0271429,-34689.5,-56634.3,-0,66413.9,20283.4
step02_gravity_refstate-mantle.xmf,166,-2.67495e-06,7.10239e-06,0,4.03208e-06,-1.15993e+09,-1.15863e+09,-1.15957e+09,538887,-0.00597601,0.244855,-0,0.244927,-10288.5,-41891.1,-0,43136.1,538887
step02_gravity_refstate-mantle.xmf,167,-2.99822e-06,7.22269e-06,0,4.82783e-06,-1.15453e+09,-1.15316e+09,-1.15413e+09,645239,-0.0112744,0.266229,-0,0.266467,-9572.18,-41722.3,-0,42806.3,645239
step02_gravity_refstate-mantle.xmf,168,-3.09218e-06,7.30993e-06,0,5.82725e-06,-1.15323e+09,-1.15184e+09,-1.15282e+09,778812,-0.0143397,0.289374,-0,0.289729,-8843.27,-41681.9,-0,42609.7,778812
step02_gravity_refstate-mantle.xmf,169,-1.83149e-06,7.03468e-06,0,3.65483e-06,-1.17521e+09,-1.17402e+09,-1.17496e+09,488468,0.00370006,0.229799,0,0.229829,-10740.3,-42368.4,-0,43708.5,488468
step02_gravity_refstate-mantle.xmf,170,-2.9871e-06,7.31188e-06,0,6.94281e-06,-1.15403e+09,-1.15265e+09,-1.15363e+09,927906,-0.0157962,0.312386,-0,0.312785,-8179.33,-41707.3,-0,42501.8,927906
step02_gravity_refstate-mantle.xmf,171,-3.61169e-06,6.94422e-06,0,9.27224e-06,-1.14088e+09,-1.13947e+09,-1.1404e+09,1.23923e+06,-0.0291342,0.356812,-0,0.358,-7148.71,-41296,-0,41910.2,1.23923e+06
step02_gravity_refstate-mantle.xmf,172,-3.04936e-06,6.81811e-06,0,1.12985e-05,-1.14464e+09,-1.14332e+09,-1.14423e+09,1.51004e+06,-0.0280941,0.384491,-0,0.385516,-6535.21,-41415.5,-0,41928,1.51004e+06
step02_gravity_refstate-mantle.xmf,173,-2.4751e-06,6.57368e-06,0,1.38924e-05,-1.14672e+09,-1.14551e+09,-1.14639e+09,1.85672e+06,-0.0279452,0.415512,-0,0.416451,-5932.13,-41483.1,-0,41905.1,1.85672e+06
step02_gravity_refstate-mantle.xmf,174,-1.39422e-06,3.31429e-06,0,1.86391e-05,-1.13174e+09,-1.13111e+09,-1.13155e+09,2.49112e+06,-0.0432951,0.477145,-0,0.479106,-4961.42,-41019.1,-0,41318,2.49112e+06
step02_gravity_refstate-mantle.xmf,175,4.55878e-07,2.41268e-08,0,2.19322e-05,-1.12358e+09,-1.12364e+09,-1.12364e+09,2.93123e+06,-0.05099,0.515508,-0,0.518024,-4423.11,-40771.2,-0,41010.4,2.93123e+06
step02_gravity_refstate-mantle.xmf,176,3.2513e-06,-5.092e-06,0,2.44458e-05,-1.1147e+09,-1.11581e+09,-1.11513e+09,3.26719e+06,-0.058319,0.547194,-0,0.550293,-4000,-40502.2,-0,40699.2,3.26719e+06
step02_gravity_refstate-mantle.xmf,177,3.64131e-07,5.15791e-06,0,6.42595e-08,-1.22929e+09,-1.22865e+09,-1.22934e+09,8588.28,0.0304986,0.0969566,0,0.10164,-18654.8,-44048.9,-0,47836.2,8588.28
step02_gravity_refstate-mantle.xmf,178,-5.29925e-07,5.87722e-06,0,8.42728e-07,-1.20388e+09,-1.20303e+09,-1.20381e+09,112631,0.0223553,0.132666,0,0.134536,-15763,-43260,-0,46042.4,112631
step02_gravity_refstate-mantle.xmf,179,3.11287e-07,5.41587e-06,0,3.32693e-07,-1.23154e+09,-1.23085e+09,-1.23158e+09,44464.4,0.0315088,0.1078,0,0.112311,-17490.2,-44118.6,-0,47459.1,44464.4
step02_gravity_refstate-mantle.xmf,180,-5.13117e-07,6.11551e-06,0,1.25704e-06,-1.20697e+09,-1.20609e+09,-1.20691e+09,168003,0.0228845,0.147057,0,0.148827,-14681.1,-43356.2,-0,45774.4,168003
step02_gravity_refstate-mantle.xmf,181,1.02078e-06,4.92261e-06,0,-8.70121e-08,-1.2605e+09,-1.25998e+09,-1.26064e+09,-11629.2,0.0382504,0.0861639,0,0.0942725,-19349.7,-45016.8,-0,48999.2,11629.2
step02_gravity_refstate-mantle.xmf,182,2.02126e-06,3.84437e-06,0,-6.20771e-07,-1.29931e+09,-1.29907e+09,-1.29958e+09,-82966,0.039084,0.0525113,0,0.0654599,-24110.7,-46219.7,-0,52130.5,82966
step02_gravity_refstate-mantle.xmf,183,1.90185e-06,4.13174e-06,0,-5.17619e-07,-1.29833e+09,-1.29803e+09,-1.29858e+09,-69179.7,0.0417333,0.0594057,0,0.0725996,-22659.7,-46189.2,-0,51448.1,69179.7
step02_gravity_refstate-mantle.xmf,184,1.77689e-06,4.4329e-06,0,-3.65188e-07,-1.29709e+09,-1.29674e+09,-1.29733e+09,-48807.4,0.0439709,0.067145,0,0.0802614,-21302.6,-46151,-0,50830.3,48807.4
step02_gravity_refstate-mantle.xmf,185,2.59589e-06,3.64625e-06,0,-6.39755e-07,-1.34267e+09,-1.34253e+09,-1.34302e+09,-85503.3,0.045101,0.0456792,0,0.0641926,-24558.7,-47562.4,-0,53528.6,85503.3
step02_gravity_refstate-mantle.xmf,186,3.09724e-06,3.44684e-06,0,-6.22816e-07,-1.38403e+09,-1.38399e+09,-1.38445e+09,-83239.4,0.0493017,0.0388716,0,0.0627826,-25204.6,-48842.8,-0,54962.6,83239.4
step02_gravity_refstate-mantle.xmf,187,3.60771e-06,2.95573e-06,0,-6.11946e-07,-1.42482e+09,-1.42491e+09,-1.42531e+09,-81786.5,0.0462443,0.0285964,0,0.0543718,-27573.1,-50105,-0,57190.8,81786.5
step02_gravity_refstate-mantle.xmf,188,4.1072e-06,2.48489e-06,0,-5.09468e-07,-1.4763e+09,-1.47652e+09,-1.47685e+09,-68090.4,0.0408379,0.0200444,0,0.0454919,-30129.2,-51697.3,-0,59836.2,68090.4
step02_gravity_refstate-mantle.xmf,189,4.47087e-06,2.29486e-06,0,-4.14559e-07,-1.5309e+09,-1.53119e+09,-1.5315e+09,-55405.8,0.0405427,0.0150927,0,0.0432609,-30978.4,-53385.8,-0,61722.8,55405.8
step02_gravity_refstate-mantle.xmf,190,4.76422e-06,2.13477e-06,0,-2.97986e-07,-1.58464e+09,-1.58499e+09,-1.58528e+09,-39825.9,0.0382923,0.0106744,0,0.0397522,-31975.8,-55047.4,-0,63660.6,39825.9
step02_gravity_refstate-mantle.xmf,191,4.97051e-06,2.01623e-06,0,-1.86722e-07,-1.6374e+09,-1.6378e+09,-1.63807e+09,-24955.3,0.0347593,0.00682374,0,0.0354227,-33006.2,-56678.3,-0,65588.4,24955.3
step02_gravity_refstate-mantle.xmf,192,5.092e-06,1.93178e-06,0,-8.84162e-08,-1.68831e+09,-1.68874e+09,-1.689e+09,-11816.8,0.0294547,0.00344225,0,0.0296551,-34210.5,-58251.5,-0,67554.4,11816.8
step02_gravity_refstate-mantle.xmf,193,5.13588e-06,1.91477e-06,0,6.12273e-09,-1.74491e+09,-1.74534e+09,-1.7456e+09,818.303,0.0235148,-5.10122e-20,0,0.0235148,-35418.4,-60000,-0,69674,818.303
step02_gravity_refstate-mantle.xmf,194,-1.61586e-06,7.19257e-06,0,4.4943e-06,-1.17933e+09,-1.17815e+09,-1.17912e+09,600663,0.00464744,0.250213,0,0.250256,-9933.3,-42497.7,-0,43643.1,600663
step02_gravity_refstate-mantle.xmf,195,-2.08173e-06,7.47769e-06,0,6.4996e-06,-1.16868e+09,-1.1674e+09,-1.1684e+09,868671,-0.00474194,0.297645,-0,0.297683,-8495.09,-42166.2,-0,43013.4,868671
step02_gravity_refstate-mantle.xmf,196,-2.64443e-06,7.42078e-06,0,8.42147e-06,-1.15668e+09,-1.15533e+09,-1.15633e+09,1.12553e+06,-0.015606,0.336393,-0,0.336755,-7545.58,-41791.7,-0,42467.4,1.12553e+06
step02_gravity_refstate-mantle.xmf,197,-1.83559e-06,6.07511e-06,0,1.70207e-05,-1.14815e+09,-1.1471e+09,-1.14791e+09,2.27482e+06,-0.0278721,0.449226,-0,0.450089,-5353.93,-41530.3,-0,41874,2.27482e+06
step02_gravity_refstate-mantle.xmf,198,-1.34374e-06,6.52795e-06,0,2.01094e-06,-1.18513e+09,-1.18408e+09,-1.18495e+09,268763,0.0123718,0.1781,0,0.178529,-13056.8,-42676.9,-0,44629.6,268763
step02_gravity_refstate-mantle.xmf,199,-9.12193e-07,6.93884e-06,0,3.33664e-06,-1.19525e+09,-1.1942e+09,-1.19513e+09,445942,0.0150669,0.213302,0,0.213833,-11244.4,-42993.4,-0,44439.5,445942
step02_gravity_refstate-mantle.xmf,200,-1.15715e-06,6.72485e-06,0,2.60892e-06,-1.19035e+09,-1.1893e+09,-1.1902e+09,348682,0.0135785,0.195128,0,0.1956,-12124.2,-42840,-0,44522.6,348682
step02_gravity_refstate-mantle.xmf,201,2.84335e-07,5.67854e-06,0,6.72609e-07,-1.23334e+09,-1.23262e+09,-1.23338e+09,89894.1,0.0323796,0.11998,0,0.124272,-16360.2,-44174.9,-0,47107.1,89894.1
step02_gravity_refstate-mantle.xmf,202,-5.00211e-07,6.3397e-06,0,1.73858e-06,-1.20967e+09,-1.20876e+09,-1.20961e+09,232362,0.0234123,0.162945,0,0.164618,-13640,-43440.2,-0,45531.4,232362
step02_gravity_refstate-mantle.xmf,203,1.65926e-06,4.73573e-06,0,-1.55808e-07,-1.29425e+09,-1.29384e+09,-1.29448e+09,-20823.7,0.045571,0.0761614,0,0.088754,-19999.6,-46063.3,-0,50217.6,20823.7
step02_gravity_refstate-mantle.xmf,204,3.54773e-06,3.24584e-06,0,-5.79685e-07,-1.42497e+09,-1.42501e+09,-1.42544e+09,-77474.9,0.0519536,0.0323652,0,0.0612101,-25976.3,-50109.9,-0,56442.6,77474.9
step02_gravity_refstate-mantle.xmf,205,4.01664e-06,2.75374e-06,0,-5.38812e-07,-1.47111e+09,-1.47128e+09,-1.47165e+09,-72012.2,0.0475462,0.0230011,0,0.0528176,-28373.4,-51537,-0,58831.2,72012.2
step02_gravity_refstate-mantle.xmf,206,-1.52162e-06,7.43059e-06,0,5.66623e-06,-1.1782e+09,-1.177e+09,-1.17799e+09,757292,0.00262256,0.275798,0,0.275811,-9083.76,-42463.9,-0,43424.6,757292
step02_gravity_refstate-mantle.xmf,207,-6.38651e-07,7.19204e-06,0,4.23193e-06,-1.19928e+09,-1.19823e+09,-1.19919e+09,565597,0.0165193,0.233359,0,0.233943,-10391,-43120.3,-0,44354.7,565597
step02_gravity_refstate-mantle.xmf,208,-1.77917e-06,7.6467e-06,0,7.64209e-06,-1.17201e+09,-1.17076e+09,-1.17178e+09,1.02137e+06,-0.0034497,0.317114,-0,0.317132,-7940.46,-42271.7,-0,43011.1,1.02137e+06
step02_gravity_refstate-mantle.xmf,209,-2.27782e-06,7.54741e-06,0,1.03365e-05,-1.15948e+09,-1.15817e+09,-1.15918e+09,1.38147e+06,-0.0150141,0.363991,-0,0.3643,-6895.09,-41881,-0,42444.8,1.38147e+06
step02_gravity_refstate-mantle.xmf,210,-1.92996e-06,7.71169e-06,0,1.27264e-05,-1.16159e+09,-1.16031e+09,-1.16134e+09,1.70089e+06,-0.0145748,0.393858,-0,0.394128,-6273.39,-41949,-0,42415.5,1.70089e+06
step02_gravity_refstate-mantle.xmf,211,-1.58578e-06,7.90788e-06,0,1.57235e-05,-1.16336e+09,-1.16209e+09,-1.16315e+09,2.10145e+06,-0.0140997,0.426371,-0,0.426605,-5675.45,-42006.3,-0,42387.9,2.10145e+06
step02_gravity_refstate-mantle.xmf,212,9.00806e-08,2.9348e-06,0,2.35076e-05,-1.13987e+09,-1.13949e+09,-1.13988e+09,3.1418e+06,-0.0360677,0.513798,-0,0.515062,-4435.76,-41279.2,-0,41516.9,3.1418e+06
step02_gravity_refstate-mantle.xmf,213,-9.90665e-07,5.72034e-06,0,2.08458e-05,-1.15052e+09,-1.14963e+09,-1.15039e+09,2.78604e+06,-0.0264022,0.483351,-0,0.484071,-4831.77,-41608.2,-0,41887.9,2.78604e+06
step02_gravity_refstate-mantle.xmf,214,2.04207e-06,-1.10883e-06,0,2.70939e-05,-1.13079e+09,-1.13121e+09,-1.13106e+09,3.6211e+06,-0.0436689,0.548741,-0,0.550476,-4000,-41001.3,-0,41196,3.6211e+06
step02_gravity_refstate-mantle.xmf,215,9.9274e-07,5.21653e-06,0,2.02621e-07,-1.26188e+09,-1.26132e+09,-1.26202e+09,27080.3,0.0398232,0.0964142,0,0.104315,-18140.3,-45060.1,-0,48574.5,27080.3
step02_gravity_refstate-mantle.xmf,216,2.93209e-07,5.94501e-06,0,1.09266e-06,-1.23498e+09,-1.23423e+09,-1.23502e+09,146034,0.0332174,0.133457,0,0.137529,-15271.6,-44226.3,-0,46788.8,146034
step02_gravity_refstate-mantle.xmf,217,9.84927e-07,5.51057e-06,0,5.55858e-07,-1.2638e+09,-1.26319e+09,-1.26393e+09,74290.4,0.0414999,0.107793,0,0.115506,-16971.3,-45119.9,-0,48206.1,74290.4
step02_gravity_refstate-mantle.xmf,218,3.50284e-07,6.22111e-06,0,1.6107e-06,-1.23677e+09,-1.23598e+09,-1.23682e+09,215270,0.0341772,0.148357,0,0.152243,-14216.4,-44282.6,-0,46508.6,215270
step02_gravity_refstate-mantle.xmf,219,1.56383e-06,5.02981e-06,0,9.55585e-08,-1.29327e+09,-1.2928e+09,-1.29347e+09,12771.4,0.0472866,0.0857466,0,0.0979209,-18782.6,-46032.8,-0,49717.3,12771.4
step02_gravity_refstate-mantle.xmf,220,2.08786e-06,4.56996e-06,0,-2.19507e-07,-1.32067e+09,-1.32034e+09,-1.32095e+09,-29337.2,0.0503319,0.0682661,0,0.0848149,-20599,-46881.7,-0,51207.6,29337.2
step02_gravity_refstate-mantle.xmf,221,2.5181e-06,3.97574e-06,0,-5.12778e-07,-1.34209e+09,-1.34189e+09,-1.34242e+09,-68532.8,0.0489186,0.0521465,0,0.0715002,-23022.5,-47544.6,-0,52825.4,68532.8
step02_gravity_refstate-mantle.xmf,222,2.4116e-06,4.32545e-06,0,-3.30467e-07,-1.33991e+09,-1.33965e+09,-1.34023e+09,-44166.9,0.0521562,0.0599835,0,0.0794877,-21534.4,-47477.6,-0,52133,44166.9
step02_gravity_refstate-mantle.xmf,223,3.0145e-06,3.77002e-06,0,-5.23359e-07,-1.38352e+09,-1.38342e+09,-1.38392e+09,-69947,0.0538552,0.044317,0,0.0697451,-23690.6,-48827.3,-0,54271,69947
step02_gravity_refstate-mantle.xmf,224,3.45994e-06,3.57174e-06,0,-5.05899e-07,-1.42475e+09,-1.42473e+09,-1.42521e+09,-67613.4,0.0573061,0.036923,0,0.0681711,-24438,-50103.3,-0,55745.4,67613.4
step02_gravity_refstate-mantle.xmf,225,3.93084e-06,3.04139e-06,0,-5.30888e-07,-1.46662e+09,-1.46674e+09,-1.46714e+09,-70953.1,0.0534315,0.0263868,0,0.0595919,-26785.1,-51398.4,-0,57958.9,70953.1
step02_gravity_refstate-mantle.xmf,226,4.42752e-06,2.59758e-06,0,-4.40623e-07,-1.52996e+09,-1.5302e+09,-1.53055e+09,-58889.3,0.0498145,0.0173856,0,0.0527612,-28882,-53357.1,-0,60672.5,58889.3
step02_gravity_refstate-mantle.xmf,227,4.74357e-06,2.38537e-06,0,-3.28166e-07,-1.58552e+09,-1.58584e+09,-1.58616e+09,-43859.3,0.0475887,0.0119338,0,0.0490622,-30027.9,-55075.2,-0,62729.2,43859.3
step02_gravity_refstate-mantle.xmf,228,4.95877e-06,2.23162e-06,0,-2.14384e-07,-1.63821e+09,-1.63857e+09,-1.63887e+09,-28652.5,0.0442638,0.00750682,0,0.0448959,-31095.8,-56703.6,-0,64670.3,28652.5
step02_gravity_refstate-mantle.xmf,229,5.08973e-06,2.12661e-06,0,-1.0511e-07,-1.69065e+09,-1.69105e+09,-1.69133e+09,-14048,0.0398731,0.00362784,0,0.0400378,-32168.9,-58324.3,-0,66607.5,14048
step02_gravity_refstate-mantle.xmf,230,5.13743e-06,2.0763e-06,0,6.11357e-09,-1.7449e+09,-1.7453e+09,-1.74558e+09,817.078,0.0345112,-5.62343e-20,0,0.0345112,-33277.3,-60000,-0,68610.3,817.078
step02_gravity_refstate-mantle.xmf,231,-9.95339e-07,7.77967e-06,0,7.0363e-06,-1.18656e+09,-1.18539e+09,-1.18643e+09,940401,0.00716822,0.298604,0,0.29869,-8346.17,-42726.6,-0,43534.2,940401
step02_gravity_refstate-mantle.xmf,232,-4.76075e-07,7.46001e-06,0,5.23538e-06,-1.20115e+09,-1.20009e+09,-1.20109e+09,699709,0.0171289,0.25533,0,0.255904,-9579.09,-43180.1,-0,44229.8,699709
step02_gravity_refstate-mantle.xmf,233,-1.41197e-06,8.03671e-06,0,9.47907e-06,-1.17524e+09,-1.17398e+09,-1.17505e+09,1.26688e+06,-0.0021245,0.343734,-0,0.34374,-7263.47,-42374.9,-0,42992.9,1.26688e+06
step02_gravity_refstate-mantle.xmf,234,-1.26532e-06,7.9279e-06,0,1.90859e-05,-1.16428e+09,-1.16305e+09,-1.16411e+09,2.55083e+06,-0.0140311,0.459391,-0,0.459605,-5139.83,-42036.9,-0,42349.9,2.55083e+06
step02_gravity_refstate-mantle.xmf,235,-2.93894e-07,6.59839e-06,0,2.38104e-06,-1.21356e+09,-1.21264e+09,-1.21352e+09,318226,0.0246866,0.179494,0,0.181183,-12670.4,-43562.4,-0,45367.7,318226
step02_gravity_refstate-mantle.xmf,236,1.47939e-07,7.17306e-06,0,4.00988e-06,-1.22012e+09,-1.21918e+09,-1.22014e+09,535921,0.0275771,0.216733,0,0.21848,-10867.8,-43769.4,-0,45098.4,535921
step02_gravity_refstate-mantle.xmf,237,-9.22373e-08,6.8658e-06,0,3.1262e-06,-1.21699e+09,-1.21606e+09,-1.21697e+09,417817,0.0260469,0.197538,0,0.199248,-11741.5,-43670.2,-0,45221.1,417817
step02_gravity_refstate-mantle.xmf,238,9.94917e-07,5.81275e-06,0,9.8678e-07,-1.26487e+09,-1.26423e+09,-1.265e+09,131883,0.0429029,0.120391,0,0.127807,-15860.5,-45154,-0,47858.5,131883
step02_gravity_refstate-mantle.xmf,239,4.09397e-07,6.49136e-06,0,2.20425e-06,-1.23867e+09,-1.23785e+09,-1.23872e+09,294598,0.0352926,0.164535,0,0.168278,-13209.4,-44342.2,-0,46267.9,294598
step02_gravity_refstate-mantle.xmf,240,2.07526e-06,4.88261e-06,0,4.08023e-08,-1.32358e+09,-1.3232e+09,-1.32385e+09,5453.23,0.0533932,0.0759642,0,0.0928514,-19429.5,-46972.2,-0,50832,5453.23
step02_gravity_refstate-mantle.xmf,241,3.8656e-06,3.37e-06,0,-4.6673e-07,-1.46661e+09,-1.46667e+09,-1.46712e+09,-62378.5,0.0593281,0.0299719,0,0.0664691,-25267.8,-51398.5,-0,57273.6,62378.5
step02_gravity_refstate-mantle.xmf,242,4.21973e-06,2.87873e-06,0,-4.78758e-07,-1.50471e+09,-1.50489e+09,-1.50527e+09,-63986,0.0540766,0.021596,0,0.0582294,-27467.9,-52576.5,-0,59319.3,63986
step02_gravity_refstate-mantle.xmf,243,-1.40647e-07,7.88565e-06,0,6.56386e-06,-1.20356e+09,-1.20248e+09,-1.20354e+09,877261,0.0183558,0.278821,0,0.279425,-8802.3,-43257.6,-0,44144.1,877261
step02_gravity_refstate-mantle.xmf,244,3.96726e-07,7.54395e-06,0,5.0579e-06,-1.22241e+09,-1.22145e+09,-1.22246e+09,675988,0.0289707,0.237656,0,0.239415,-10029.1,-43842.7,-0,44975.2,675988
step02_gravity_refstate-mantle.xmf,245,-6.52518e-07,8.23958e-06,0,8.63595e-06,-1.19051e+09,-1.18932e+09,-1.19042e+09,1.15419e+06,0.00935709,0.323224,0,0.323359,-7665.01,-42852.1,-0,43532.2,1.15419e+06
step02_gravity_refstate-mantle.xmf,246,-1.18806e-06,8.49745e-06,0,1.16507e-05,-1.17734e+09,-1.17605e+09,-1.17718e+09,1.55712e+06,-0.00132296,0.372442,-0,0.372444,-6620.75,-42442.4,-0,42955.7,1.55712e+06
step02_gravity_refstate-mantle.xmf,247,-1.0593e-06,9.10028e-06,0,1.43048e-05,-1.17897e+09,-1.17762e+09,-1.17883e+09,1.91184e+06,-0.000673156,0.403146,-0,0.403146,-6012.46,-42495.3,-0,42918.5,1.91184e+06
step02_gravity_refstate-mantle.xmf,248,-1.04734e-06,9.81627e-06,0,1.75534e-05,-1.17994e+09,-1.17848e+09,-1.1798e+09,2.34601e+06,-0.000460227,0.436176,-0,0.436176,-5435.49,-42526.9,-0,42872.9,2.34601e+06
step02_gravity_refstate-mantle.xmf,249,-2.83255e-07,6.0103e-06,0,2.50413e-05,-1.15571e+09,-1.15487e+09,-1.15568e+09,3.34676e+06,-0.0220137,0.514467,-0,0.514938,-4398.27,-41774.1,-0,42005,3.34676e+06
step02_gravity_refstate-mantle.xmf,250,9.40932e-07,3.00469e-06,0,2.88022e-05,-1.14688e+09,-1.1466e+09,-1.147e+09,3.84942e+06,-0.0295076,0.548266,-0,0.549059,-4000,-41501.5,-0,41693.8,3.84942e+06
step02_gravity_refstate-mantle.xmf,251,-9.07573e-07,7.81439e-06,0,2.2456e-05,-1.16332e+09,-1.16216e+09,-1.1632e+09,3.00125e+06,-0.0152507,0.488713,-0,0.488951,-4718.6,-42009.6,-0,42273.7,3.00125e+06
step02_gravity_refstate-mantle.xmf,252,1.56985e-06,5.37077e-06,0,4.70328e-07,-1.29459e+09,-1.29408e+09,-1.2948e+09,62859.3,0.0494973,0.0963163,0,0.10829,-17585.8,-46074.5,-0,49316.5,62859.3
step02_gravity_refstate-mantle.xmf,253,1.02458e-06,6.13226e-06,0,1.51274e-06,-1.26536e+09,-1.26468e+09,-1.2655e+09,202177,0.0441215,0.134485,0,0.141538,-14784.7,-45170,-0,47528.1,202177
step02_gravity_refstate-mantle.xmf,254,1.57439e-06,5.7165e-06,0,9.11106e-07,-1.29561e+09,-1.29505e+09,-1.29582e+09,121769,0.0515472,0.108001,0,0.119672,-16446.9,-46107,-0,48952.6,121769
step02_gravity_refstate-mantle.xmf,255,1.0826e-06,6.47109e-06,0,2.14195e-06,-1.26539e+09,-1.26467e+09,-1.26553e+09,286272,0.0451977,0.150104,0,0.156761,-13747.4,-45172.1,-0,47217.7,286272
step02_gravity_refstate-mantle.xmf,256,2.02947e-06,5.2276e-06,0,3.70771e-07,-1.32522e+09,-1.32479e+09,-1.32549e+09,49553.6,0.0562466,0.0854107,0,0.102268,-18224.4,-47023.4,-0,50431.4,49553.6
step02_gravity_refstate-mantle.xmf,257,2.48507e-06,4.71541e-06,0,-3.24454e-08,-1.35231e+09,-1.35201e+09,-1.35264e+09,-4336.33,0.0580869,0.066885,0,0.0885872,-20113,-47862,-0,51916.3,4336.33
step02_gravity_refstate-mantle.xmf,258,2.95442e-06,4.14555e-06,0,-3.38384e-07,-1.38353e+09,-1.38337e+09,-1.38392e+09,-45225,0.0582165,0.0506741,0,0.0771818,-22225.6,-48828.1,-0,53648.5,45225
step02_gravity_refstate-mantle.xmf,259,3.37671e-06,3.95389e-06,0,-3.56922e-07,-1.42483e+09,-1.42475e+09,-1.42528e+09,-47702.6,0.0624032,0.0423038,0,0.0753908,-22950.6,-50106.2,-0,55112.2,47702.6
step02_gravity_refstate-mantle.xmf,260,3.76473e-06,3.76216e-06,0,-3.53145e-07,-1.46685e+09,-1.46686e+09,-1.46736e+09,-47197.8,0.0651884,0.0344198,0,0.0737174,-23736.9,-51406.5,-0,56622.1,47197.8
step02_gravity_refstate-mantle.xmf,261,4.19465e-06,3.16391e-06,0,-4.28614e-07,-1.50749e+09,-1.50763e+09,-1.50805e+09,-57284.2,0.0600079,0.0238624,0,0.0645783,-26113.6,-52663.2,-0,58782,57284.2
step02_gravity_refstate-mantle.xmf,262,4.46514e-06,2.92263e-06,0,-3.90427e-07,-1.54675e+09,-1.54695e+09,-1.54734e+09,-52180.6,0.0587016,0.0183432,0,0.0615008,-27139.8,-53876.8,-0,60326.4,52180.6
step02_gravity_refstate-mantle.xmf,263,4.713e-06,2.71586e-06,0,-3.17732e-07,-1.59008e+09,-1.59035e+09,-1.59071e+09,-42464.9,0.0567403,0.0132899,0,0.0582759,-28139,-55216.7,-0,61973.2,42464.9
step02_gravity_refstate-mantle.xmf,264,4.92721e-06,2.53176e-06,0,-2.20193e-07,-1.64023e+09,-1.64055e+09,-1.64089e+09,-29428.7,0.0538035,0.00836578,0,0.05445,-29178,-56766.7,-0,63826.4,29428.7
step02_gravity_refstate-mantle.xmf,265,5.06613e-06,2.3941e-06,0,-1.13061e-07,-1.69176e+09,-1.69212e+09,-1.69244e+09,-15110.6,0.0498704,0.00399556,0,0.0500302,-30203.1,-58358.9,-0,65711.4,15110.6
step02_gravity_refstate-mantle.xmf,266,5.12327e-06,2.30983e-06,0,5.21173e-09,-1.74488e+09,-1.74526e+09,-1.74556e+09,696.548,0.0450198,-6.39186e-20,0,0.0450198,-31228.8,-60000,-0,67640.5,696.548
step02_gravity_refstate-mantle.xmf,267,7.91715e-08,8.38297e-06,0,8.01675e-06,-1.20651e+09,-1.2054e+09,-1.20652e+09,1.07144e+06,0.0202051,0.303181,0,0.303853,-8079.5,-43351.5,-0,44097.9,1.07144e+06
step02_gravity_refstate-mantle.xmf,268,5.60484e-07,7.96359e-06,0,6.21965e-06,-1.22385e+09,-1.22286e+09,-1.22392e+09,831257,0.0301393,0.260019,0,0.26176,-9237.86,-43889.3,-0,44851,831257
step02_gravity_refstate-mantle.xmf,269,-3.93042e-07,8.94788e-06,0,1.06769e-05,-1.19318e+09,-1.19193e+09,-1.19312e+09,1.42696e+06,0.0109595,0.350735,0,0.350906,-6994.51,-42938,-0,43504,1.42696e+06
step02_gravity_refstate-mantle.xmf,270,-1.05229e-06,1.04104e-05,0,2.16336e-05,-1.17956e+09,-1.17803e+09,-1.17942e+09,2.89134e+06,-0.00135539,0.47405,-0,0.474052,-4858.97,-42516.7,-0,42793.4,2.89134e+06
step02_gravity_refstate-mantle.xmf,271,-8.21053e-07,9.30632e-06,0,2.57574e-05,-1.17124e+09,-1.16989e+09,-1.17113e+09,3.44248e+06,-0.00873796,0.510938,-0,0.511013,-4395.92,-42258.6,-0,42486.6,3.44248e+06
step02_gravity_refstate-mantle.xmf,272,6.13037e-07,6.83022e-06,0,2.98519e-06,-1.24062e+09,-1.23979e+09,-1.2407e+09,398971,0.0366024,0.18199,0,0.185635,-12250.7,-44404.9,-0,46063.8,398971
step02_gravity_refstate-mantle.xmf,273,1.01552e-06,7.6294e-06,0,4.91314e-06,-1.24416e+09,-1.24327e+09,-1.24429e+09,656641,0.0395999,0.220922,0,0.224443,-10472.9,-44518.8,-0,45734.1,656641
step02_gravity_refstate-mantle.xmf,274,8.06332e-07,7.19566e-06,0,3.87243e-06,-1.2426e+09,-1.24174e+09,-1.24271e+09,517550,0.0381006,0.200709,0,0.204293,-11340.9,-44468.2,-0,45891.6,517550
step02_gravity_refstate-mantle.xmf,275,1.59039e-06,6.08539e-06,0,1.44994e-06,-1.29568e+09,-1.29508e+09,-1.29589e+09,193785,0.0532874,0.121246,0,0.132439,-15340.6,-46110.2,-0,48595.1,193785
step02_gravity_refstate-mantle.xmf,276,1.1413e-06,6.81687e-06,0,2.85784e-06,-1.26587e+09,-1.26511e+09,-1.26602e+09,381950,0.0464755,0.166989,0,0.173336,-12756.7,-45188.4,-0,46954.5,381950
step02_gravity_refstate-mantle.xmf,277,2.46141e-06,5.12185e-06,0,3.16805e-07,-1.35577e+09,-1.35541e+09,-1.3561e+09,42341,0.0619046,0.0753083,0,0.097486,-18858.4,-47969.8,-0,51543.6,42341
step02_gravity_refstate-mantle.xmf,278,2.88585e-06,4.54592e-06,0,-9.17512e-08,-1.38489e+09,-1.38467e+09,-1.38528e+09,-12262.6,0.0624617,0.0577039,0,0.0850365,-20845.6,-48870.7,-0,53130.8,12262.6
step02_gravity_refstate-mantle.xmf,279,4.1144e-06,3.56534e-06,0,-3.29836e-07,-1.50897e+09,-1.50904e+09,-1.50952e+09,-44082.5,0.0665466,0.0272315,0,0.0719028,-24569.3,-52709.2,-0,58154.2,44082.5
step02_gravity_refstate-mantle.xmf,280,8.58453e-07,8.59751e-06,0,7.70462e-06,-1.22549e+09,-1.22445e+09,-1.2256e+09,1.02972e+06,0.0316377,0.283863,0,0.285621,-8482.58,-43943.6,-0,44754.8,1.02972e+06
step02_gravity_refstate-mantle.xmf,281,1.22585e-06,8.15765e-06,0,6.10761e-06,-1.24552e+09,-1.2446e+09,-1.24569e+09,816283,0.0411655,0.242214,0,0.245687,-9659.56,-44563.9,-0,45598.8,816283
step02_gravity_refstate-mantle.xmf,282,3.15739e-07,9.171e-06,0,9.88903e-06,-1.20957e+09,-1.20839e+09,-1.20961e+09,1.32167e+06,0.0224131,0.330117,0,0.330877,-7365.93,-43449.8,-0,44069.7,1.32167e+06
step02_gravity_refstate-mantle.xmf,283,-3.39321e-07,9.83798e-06,0,1.30781e-05,-1.19502e+09,-1.19366e+09,-1.19498e+09,1.74789e+06,0.0121194,0.380557,0,0.38075,-6352.9,-42997.6,-0,43464.4,1.74789e+06
step02_gravity_refstate-mantle.xmf,284,-4.85443e-07,1.09884e-05,0,1.59515e-05,-1.19633e+09,-1.1948e+09,-1.19627e+09,2.13192e+06,0.0128993,0.412102,0,0.412304,-5752.65,-43040.1,-0,43422.8,2.13192e+06
step02_gravity_refstate-mantle.xmf,285,-8.562e-07,1.23967e-05,0,1.94733e-05,-1.19704e+09,-1.19527e+09,-1.19693e+09,2.60261e+06,0.0130905,0.446106,0,0.446298,-5182.23,-43063.2,-0,43373.9,2.60261e+06
step02_gravity_refstate-mantle.xmf,286,-1.40713e-07,7.1873e-06,0,2.98611e-05,-1.16292e+09,-1.16194e+09,-1.1629e+09,3.99093e+06,-0.0158805,0.545721,-0,0.545952,-4000,-42000.5,-0,42190.6,3.99093e+06
step02_gravity_refstate-mantle.xmf,287,2.04347e-06,5.6419e-06,0,8.39703e-07,-1.32668e+09,-1.3262e+09,-1.32695e+09,112226,0.0590212,0.0962376,0,0.112895,-17039.4,-47069.8,-0,50059,112226
step02_gravity_refstate-mantle.xmf,288,1.57166e-06,6.48073e-06,0,2.06978e-06,-1.29348e+09,-1.29283e+09,-1.2937e+09,276626,0.0542379,0.136177,0,0.146581,-14285.5,-46043.4,-0,48208.6,276626
step02_gravity_refstate-mantle.xmf,289,2.03489e-06,6.07765e-06,0,1.387e-06,-1.32722e+09,-1.32668e+09,-1.32749e+09,185372,0.0614612,0.10845,0,0.124655,-15900.6,-47087.5,-0,49699.7,185372
step02_gravity_refstate-mantle.xmf,290,1.61434e-06,6.89131e-06,0,2.80823e-06,-1.29151e+09,-1.2908e+09,-1.29172e+09,375320,0.0552002,0.15283,0,0.162493,-13252.3,-45983.6,-0,47855.1,375320
step02_gravity_refstate-mantle.xmf,291,2.40001e-06,5.54651e-06,0,7.28032e-07,-1.35744e+09,-1.35701e+09,-1.35776e+09,97301.5,0.0651798,0.0849787,0,0.107097,-17661.9,-48022,-0,51166.9,97301.5
step02_gravity_refstate-mantle.xmf,292,2.8215e-06,4.99215e-06,0,2.37155e-07,-1.38711e+09,-1.38682e+09,-1.38749e+09,31695.8,0.0666162,0.0655542,0,0.0934616,-19528.6,-48940,-0,52692.4,31695.8
step02_gravity_refstate-mantle.xmf,293,3.29741e-06,4.39844e-06,0,-1.16744e-07,-1.42435e+09,-1.4242e+09,-1.42479e+09,-15602.8,0.0670789,0.0486583,0,0.0828686,-21523.3,-50091.9,-0,54520.2,15602.8
step02_gravity_refstate-mantle.xmf,294,3.65189e-06,4.23268e-06,0,-1.57478e-07,-1.46719e+09,-1.46711e+09,-1.46768e+09,-21047,0.0707816,0.0397596,0,0.0811841,-22240.4,-51417.2,-0,56021.1,21047
step02_gravity_refstate-mantle.xmf,295,3.98196e-06,4.03893e-06,0,-1.83071e-07,-1.50964e+09,-1.50964e+09,-1.51018e+09,-24467.5,0.0727457,0.031424,0,0.0792427,-23053.1,-52730.4,-0,57549.4,24467.5
step02_gravity_refstate-mantle.xmf,296,4.40696e-06,3.34802e-06,0,-3.0649e-07,-1.55115e+09,-1.55129e+09,-1.55174e+09,-40962.4,0.0665296,0.0207781,0,0.0696988,-25446.6,-54013.7,-0,59707.7,40962.4
step02_gravity_refstate-mantle.xmf,297,4.65061e-06,3.12588e-06,0,-2.69245e-07,-1.59547e+09,-1.59568e+09,-1.5961e+09,-35984.5,0.0653173,0.0148633,0,0.0669871,-26369.3,-55383.8,-0,61340.9,35984.5
step02_gravity_refstate-mantle.xmf,298,4.86155e-06,2.92216e-06,0,-1.99527e-07,-1.64292e+09,-1.64318e+09,-1.64357e+09,-26666.7,0.0629502,0.00941969,0,0.0636511,-27328,-56850.2,-0,63077.5,26666.7
step02_gravity_refstate-mantle.xmf,299,5.01137e-06,2.75094e-06,0,-1.07638e-07,-1.6935e+09,-1.6938e+09,-1.69417e+09,-14385.8,0.0595024,0.00443406,0,0.0596673,-28297,-58413.2,-0,64906.2,14385.8
step02_gravity_refstate-mantle.xmf,300,5.08263e-06,2.62507e-06,0,4.1127e-09,-1.74486e+09,-1.74519e+09,-1.74554e+09,549.663,0.0550277,-7.30191e-20,0,0.0550277,-29267.4,-60000,-0,66757.6,549.663
step02_gravity_refstate-mantle.xmf,301,9.66678e-07,9.3692e-06,0,9.33805e-06,-1.22736e+09,-1.22623e+09,-1.22749e+09,1.24803e+06,0.0334168,0.309338,0,0.311137,-7759.42,-44004,-0,44682.9,1.24803e+06
step02_gravity_refstate-mantle.xmf,302,1.33142e-06,8.78573e-06,0,7.44185e-06,-1.24623e+09,-1.24523e+09,-1.24641e+09,994603,0.0425347,0.265401,0,0.268788,-8874.42,-44587.9,-0,45462.5,994603
step02_gravity_refstate-mantle.xmf,303,4.19051e-07,1.02459e-05,0,1.2088e-05,-1.21142e+09,-1.21011e+09,-1.21148e+09,1.61556e+06,0.0239626,0.358394,0,0.359194,-6705.25,-43510.5,-0,44024.1,1.61556e+06
step02_gravity_refstate-mantle.xmf,304,-1.28174e-06,1.31773e-05,0,2.28636e-05,-1.19433e+09,-1.1924e+09,-1.19416e+09,3.05571e+06,0.0104832,0.476941,0,0.477056,-4740.49,-42978.7,-0,43239.3,3.05571e+06
step02_gravity_refstate-mantle.xmf,305,-1.36511e-06,1.26436e-05,0,2.6031e-05,-1.187e+09,-1.18513e+09,-1.18682e+09,3.47904e+06,0.0041903,0.505248,0,0.505266,-4399.66,-42750.3,-0,42976.1,3.47904e+06
step02_gravity_refstate-mantle.xmf,306,-1.21357e-06,1.14021e-05,0,3.04128e-05,-1.17899e+09,-1.1773e+09,-1.17883e+09,4.06467e+06,-0.00275903,0.541073,-0,0.54108,-4000,-42500.6,-0,42688.4,4.06467e+06
step02_gravity_refstate-mantle.xmf,307,1.32558e-06,7.26598e-06,0,3.77851e-06,-1.2666e+09,-1.2658e+09,-1.26677e+09,504998,0.0479271,0.185066,0,0.191171,-11817.5,-45213.2,-0,46732,504998
step02_gravity_refstate-mantle.xmf,308,1.62455e-06,8.35538e-06,0,5.98519e-06,-1.26776e+09,-1.26686e+09,-1.26798e+09,799921,0.0509471,0.225156,0,0.230848,-10078.3,-45253.8,-0,46362.5,799921
step02_gravity_refstate-mantle.xmf,309,1.47334e-06,7.75567e-06,0,4.79982e-06,-1.26701e+09,-1.26617e+09,-1.26721e+09,641496,0.0493284,0.204512,0,0.210377,-10925.2,-45228.2,-0,46529,641496
step02_gravity_refstate-mantle.xmf,310,2.00406e-06,6.60039e-06,0,2.11746e-06,-1.32672e+09,-1.32611e+09,-1.32699e+09,282999,0.0638125,0.124153,0,0.139592,-14658.5,-47073.3,-0,49302.8,282999
step02_gravity_refstate-mantle.xmf,311,1.67258e-06,7.36452e-06,0,3.68113e-06,-1.2924e+09,-1.29164e+09,-1.29262e+09,491983,0.057116,0.170075,0,0.17941,-12277.1,-46012.7,-0,47622.4,491983
step02_gravity_refstate-mantle.xmf,312,2.74409e-06,5.48598e-06,0,6.54902e-07,-1.38852e+09,-1.38816e+09,-1.38889e+09,87527.6,0.0703722,0.0744978,0,0.10248,-18273.6,-48984.4,-0,52281.9,87527.6
step02_gravity_refstate-mantle.xmf,313,3.15459e-06,4.87732e-06,0,1.75333e-07,-1.42123e+09,-1.421e+09,-1.42165e+09,23433.2,0.0708859,0.0562556,0,0.0904959,-20178.8,-49995.9,-0,53914.5,23433.2
step02_gravity_refstate-mantle.xmf,314,4.28033e-06,3.84037e-06,0,-1.85801e-07,-1.55212e+09,-1.55218e+09,-1.55269e+09,-24832.3,0.073434,0.0239978,0,0.0772558,-23871.2,-54044,-0,59081.2,24832.3
step02_gravity_refstate-mantle.xmf,315,1.56156e-06,9.67595e-06,0,9.08143e-06,-1.24763e+09,-1.24654e+09,-1.24783e+09,1.21373e+06,0.0443455,0.289303,0,0.292682,-8142.38,-44634.9,-0,45371.5,1.21373e+06
step02_gravity_refstate-mantle.xmf,316,1.74716e-06,9.0843e-06,0,7.31044e-06,-1.26861e+09,-1.26763e+09,-1.26884e+09,977040,0.0526367,0.246509,0,0.252066,-9292.8,-45282.8,-0,46226.5,977040
step02_gravity_refstate-mantle.xmf,317,1.00959e-06,1.04359e-05,0,1.12902e-05,-1.22833e+09,-1.22707e+09,-1.22846e+09,1.50894e+06,0.0347456,0.336832,0,0.338619,-7067.76,-44037.1,-0,44600.6,1.50894e+06
step02_gravity_refstate-mantle.xmf,318,2.45713e-07,1.1616e-05,0,1.46057e-05,-1.21279e+09,-1.21127e+09,-1.21283e+09,1.95205e+06,0.0251466,0.388462,0,0.389275,-6081.04,-43555.1,-0,43977.5,1.95205e+06
step02_gravity_refstate-mantle.xmf,319,-2.514e-07,1.34503e-05,0,1.76608e-05,-1.21382e+09,-1.21199e+09,-1.21379e+09,2.36037e+06,0.0258986,0.420992,0,0.421787,-5481.66,-43588.2,-0,43931.5,2.36037e+06
step02_gravity_refstate-mantle.xmf,320,-1.19467e-06,1.57146e-05,0,2.17202e-05,-1.21288e+09,-1.21062e+09,-1.21272e+09,2.90291e+06,0.0247759,0.459464,0,0.460131,-4871.7,-43558.5,-0,43830.1,2.90291e+06
step02_gravity_refstate-mantle.xmf,321,-1.97429e-06,1.61191e-05,0,2.59623e-05,-1.20347e+09,-1.20105e+09,-1.2032e+09,3.46986e+06,0.0169931,0.497969,0,0.498258,-4398.23,-43263.7,-0,43486.7,3.46986e+06
step02_gravity_refstate-mantle.xmf,322,2.38097e-06,6.05336e-06,0,1.28206e-06,-1.35857e+09,-1.35808e+09,-1.35889e+09,171348,0.0682058,0.0959131,0,0.117692,-16505.4,-48058.2,-0,50813.6,171348
step02_gravity_refstate-mantle.xmf,323,1.83854e-06,6.90934e-06,0,2.65252e-06,-1.3123e+09,-1.31163e+09,-1.31255e+09,354509,0.0612397,0.140556,0,0.153318,-13736.9,-46627.6,-0,48609,354509
step02_gravity_refstate-mantle.xmf,324,2.32777e-06,6.59529e-06,0,1.92026e-06,-1.35897e+09,-1.3584e+09,-1.35929e+09,256642,0.0708991,0.108175,0,0.129339,-15394.1,-48071.7,-0,50476.4,256642
step02_gravity_refstate-mantle.xmf,325,1.97779e-06,7.54445e-06,0,3.58742e-06,-1.31969e+09,-1.31894e+09,-1.31995e+09,479458,0.0653777,0.154398,0,0.167669,-12791.4,-46858.1,-0,48572.7,479458
step02_gravity_refstate-mantle.xmf,326,2.63853e-06,6.01277e-06,0,1.14267e-06,-1.38987e+09,-1.38942e+09,-1.39022e+09,152718,0.0738209,0.0843094,0,0.112061,-17094,-49026.7,-0,51921.3,152718
step02_gravity_refstate-mantle.xmf,327,3.02543e-06,5.3764e-06,0,5.35798e-07,-1.41965e+09,-1.41933e+09,-1.42005e+09,71609.4,0.0744369,0.0643717,0,0.0984102,-18935.7,-49947.4,-0,53416.4,71609.4
step02_gravity_refstate-mantle.xmf,328,3.49428e-06,4.8534e-06,0,1.68485e-07,-1.46683e+09,-1.46664e+09,-1.46729e+09,22518,0.0764765,0.046943,0,0.0897346,-20631.7,-51406.5,-0,55392.2,22518
step02_gravity_refstate-mantle.xmf,329,3.81742e-06,4.62619e-06,0,5.54137e-08,-1.51065e+09,-1.51054e+09,-1.51116e+09,7406.04,0.078732,0.036497,0,0.0867799,-21546.9,-52761.8,-0,56991.9,7406.04
step02_gravity_refstate-mantle.xmf,330,4.09199e-06,4.41169e-06,0,-1.89224e-08,-1.55188e+09,-1.55184e+09,-1.55243e+09,-2528.97,0.0797424,0.0279927,0,0.0845129,-22357.4,-54036.8,-0,58479.3,2528.97
step02_gravity_refstate-mantle.xmf,331,4.53891e-06,3.62738e-06,0,-1.78075e-07,-1.59736e+09,-1.59748e+09,-1.59796e+09,-23799.7,0.0730753,0.0171092,0,0.0750515,-24703.2,-55442.5,-0,60697,23799.7
step02_gravity_refstate-mantle.xmf,332,4.74543e-06,3.40848e-06,0,-1.52149e-07,-1.6449e+09,-1.64508e+09,-1.64554e+09,-20334.7,0.0714827,0.0107902,0,0.0722925,-25567.6,-56912,-0,62391.3,20334.7
step02_gravity_refstate-mantle.xmf,333,4.90889e-06,3.20484e-06,0,-9.02508e-08,-1.69415e+09,-1.69438e+09,-1.69481e+09,-12062,0.0685606,0.00509363,0,0.0687496,-26473.2,-58433.9,-0,64151,12062
step02_gravity_refstate-mantle.xmf,334,5.00163e-06,3.03508e-06,0,3.08554e-09,-1.74485e+09,-1.74511e+09,-1.74551e+09,412.383,0.0645025,-8.5417e-20,0,0.0645025,-27388.2,-60000,-0,65955.4,412.383
step02_gravity_refstate-mantle.xmf,335,1.49468e-06,1.07452e-05,0,1.08262e-05,-1.24822e+09,-1.24698e+09,-1.24842e+09,1.44692e+06,0.045744,0.315135,0,0.318438,-7438.28,-44655.5,-0,45270.8,1.44692e+06
step02_gravity_refstate-mantle.xmf,336,1.74749e-06,9.97344e-06,0,8.78961e-06,-1.26908e+09,-1.26798e+09,-1.26931e+09,1.17473e+06,0.054196,0.269786,0,0.275176,-8527.28,-45299.6,-0,46095.2,1.17473e+06
step02_gravity_refstate-mantle.xmf,337,9.50534e-07,1.19393e-05,0,1.36006e-05,-1.22982e+09,-1.22835e+09,-1.22995e+09,1.81773e+06,0.0363555,0.365391,0,0.367195,-6419.48,-44086.6,-0,44551.5,1.81773e+06
step02_gravity_refstate-mantle.xmf,338,-2.24555e-06,1.5592e-05,0,3.05252e-05,-1.19503e+09,-1.19265e+09,-1.19473e+09,4.07969e+06,0.0097402,0.53433,0,0.534419,-4000,-43000,-0,43185.6,4.07969e+06
step02_gravity_refstate-mantle.xmf,339,-2.50997e-06,1.97224e-05,0,2.57828e-05,-1.22048e+09,-1.21751e+09,-1.22014e+09,3.44587e+06,0.0292667,0.490136,0,0.491009,-4375.76,-43794.8,-0,44012.9,3.44587e+06
step02_gravity_refstate-mantle.xmf,340,1.79233e-06,7.93731e-06,0,4.71618e-06,-1.29106e+09,-1.29024e+09,-1.2913e+09,630317,0.0582123,0.18888,0,0.197647,-11362.2,-45973.8,-0,47357,630317
step02_gravity_refstate-mantle.xmf,341,1.90001e-06,9.37975e-06,0,7.1289e-06,-1.29125e+09,-1.29026e+09,-1.29151e+09,952777,0.0613287,0.228613,0,0.236696,-9702.34,-45984.1,-0,46996.5,952777
step02_gravity_refstate-mantle.xmf,342,1.86687e-06,8.60247e-06,0,5.86598e-06,-1.29136e+09,-1.29046e+09,-1.29161e+09,783989,0.0598743,0.208293,0,0.216727,-10503.7,-45985.1,-0,47169.5,783989
step02_gravity_refstate-mantle.xmf,343,2.09228e-06,7.32513e-06,0,3.04028e-06,-1.33824e+09,-1.33754e+09,-1.33852e+09,406333,0.0692662,0.136725,0,0.153269,-13613.8,-47431.4,-0,49346.5,406333
step02_gravity_refstate-mantle.xmf,344,2.24904e-06,7.21088e-06,0,2.65804e-06,-1.3612e+09,-1.36054e+09,-1.3615e+09,355247,0.0738692,0.121116,0,0.141865,-14337.8,-48141.5,-0,50231.2,355247
step02_gravity_refstate-mantle.xmf,345,1.93675e-06,8.18059e-06,0,4.65159e-06,-1.31673e+09,-1.31589e+09,-1.31698e+09,621684,0.0664944,0.174778,0,0.186999,-11733.3,-46768.1,-0,48217.4,621684
step02_gravity_refstate-mantle.xmf,346,2.89684e-06,5.96303e-06,0,1.00421e-06,-1.42114e+09,-1.42073e+09,-1.42153e+09,134213,0.0782721,0.0730539,0,0.107067,-17728.8,-49994.3,-0,53044.7,134213
step02_gravity_refstate-mantle.xmf,347,3.24103e-06,5.28114e-06,0,4.30323e-07,-1.44788e+09,-1.44761e+09,-1.44832e+09,57512.6,0.0774513,0.0561074,0,0.0956387,-19496.4,-50820.8,-0,54432.2,57512.6
step02_gravity_refstate-mantle.xmf,348,4.34907e-06,4.20863e-06,0,-5.30425e-08,-1.59592e+09,-1.59594e+09,-1.59651e+09,-7089.13,0.0799065,0.0201623,0,0.0824109,-23142.1,-55398.5,-0,60037.9,7089.13
step02_gravity_refstate-mantle.xmf,349,1.76432e-06,1.14033e-05,0,1.07363e-05,-1.27233e+09,-1.27104e+09,-1.27257e+09,1.43491e+06,0.0570438,0.294843,0,0.300311,-7758.16,-45403.9,-0,46061.9,1.43491e+06
step02_gravity_refstate-mantle.xmf,350,1.87339e-06,1.03311e-05,0,8.5468e-06,-1.29121e+09,-1.29008e+09,-1.29146e+09,1.14228e+06,0.0627458,0.250122,0,0.257873,-8937.29,-45984.9,-0,46845.4,1.14228e+06
step02_gravity_refstate-mantle.xmf,351,1.35888e-06,1.21399e-05,0,1.28487e-05,-1.24761e+09,-1.24617e+09,-1.24779e+09,1.71723e+06,0.0464266,0.343161,0,0.346287,-6761.87,-44639.4,-0,45148.6,1.71723e+06
step02_gravity_refstate-mantle.xmf,352,5.2706e-07,1.38531e-05,0,1.61907e-05,-1.2306e+09,-1.22882e+09,-1.23067e+09,2.16389e+06,0.0373168,0.395981,0,0.397735,-5802.07,-44112.9,-0,44492.8,2.16389e+06
step02_gravity_refstate-mantle.xmf,353,-3.17774e-07,1.63765e-05,0,1.92025e-05,-1.23125e+09,-1.22902e+09,-1.23121e+09,2.56641e+06,0.0377906,0.427981,0,0.429646,-5224.34,-44133.7,-0,44441.8,2.56641e+06
step02_gravity_refstate-mantle.xmf,354,-1.66011e-06,1.97603e-05,0,2.26711e-05,-1.23337e+09,-1.2305e+09,-1.23315e+09,3.02999e+06,0.0386061,0.459515,0,0.461134,-4699.71,-44198.7,-0,44447.9,3.02999e+06
step02_gravity_refstate-mantle.xmf,355,-3.24422e-06,1.97465e-05,0,3.02481e-05,-1.21107e+09,-1.208e+09,-1.21064e+09,4.04266e+06,0.021521,0.525498,0,0.525939,-4000,-43499.4,-0,43682.9,4.04266e+06
step02_gravity_refstate-mantle.xmf,356,2.55053e-06,6.62444e-06,0,1.76394e-06,-1.39005e+09,-1.3895e+09,-1.39039e+09,235750,0.0767668,0.0953344,0,0.1224,-15970.7,-49033.1,-0,51568.4,235750
step02_gravity_refstate-mantle.xmf,357,2.41647e-06,7.28254e-06,0,2.46173e-06,-1.38965e+09,-1.389e+09,-1.38998e+09,329010,0.0793221,0.107519,0,0.133613,-14899.9,-49021.7,-0,51236.1,329010
step02_gravity_refstate-mantle.xmf,358,2.04517e-06,8.50976e-06,0,4.61194e-06,-1.34205e+09,-1.34119e+09,-1.34232e+09,616386,0.073505,0.161303,0,0.177262,-12094.3,-47551.9,-0,49065.8,616386
step02_gravity_refstate-mantle.xmf,359,2.71852e-06,6.616e-06,0,1.56227e-06,-1.42158e+09,-1.42106e+09,-1.42194e+09,208797,0.0816697,0.0831576,0,0.116555,-16545.9,-50008.2,-0,52674.3,208797
step02_gravity_refstate-mantle.xmf,360,3.12015e-06,5.82369e-06,0,8.07413e-07,-1.45133e+09,-1.45097e+09,-1.45174e+09,107911,0.0813777,0.0623125,0,0.102495,-18435.4,-50927.8,-0,54161.8,107911
step02_gravity_refstate-mantle.xmf,361,3.36455e-06,5.54938e-06,0,5.57837e-07,-1.48039e+09,-1.48009e+09,-1.48084e+09,74554.9,0.0829501,0.0517952,0,0.0977929,-19300.7,-51826.4,-0,55303.6,74554.9
step02_gravity_refstate-mantle.xmf,362,3.61347e-06,5.32324e-06,0,3.75529e-07,-1.51488e+09,-1.51465e+09,-1.51536e+09,50189.5,0.0845496,0.0418323,0,0.0943323,-20113.1,-52893,-0,56588,50189.5
step02_gravity_refstate-mantle.xmf,363,3.86001e-06,5.10136e-06,0,2.28133e-07,-1.55313e+09,-1.55296e+09,-1.55364e+09,30490,0.0856677,0.0324889,0,0.0916214,-20896.1,-54075.5,-0,57972.5,30490
step02_gravity_refstate-mantle.xmf,364,4.09291e-06,4.87778e-06,0,1.14322e-07,-1.59365e+09,-1.59355e+09,-1.5942e+09,15279.1,0.0860544,0.0239342,0,0.0893208,-21646.8,-55328.2,-0,59412.1,15279.1
step02_gravity_refstate-mantle.xmf,365,4.5731e-06,4.00824e-06,0,-6.44272e-08,-1.646e+09,-1.64607e+09,-1.64661e+09,-8610.69,0.0793288,0.0125499,0,0.0803153,-23891.8,-56946.2,-0,61755.1,8610.69
step02_gravity_refstate-mantle.xmf,366,4.74073e-06,3.78153e-06,0,-5.68452e-08,-1.69426e+09,-1.69439e+09,-1.6949e+09,-7597.36,0.0771412,0.00599299,0,0.0773737,-24695.3,-58437.7,-0,63441.5,7597.36
step02_gravity_refstate-mantle.xmf,367,4.86462e-06,3.55473e-06,0,1.85213e-09,-1.74483e+09,-1.74501e+09,-1.74548e+09,247.537,0.0733921,-1.02719e-19,0,0.0733921,-25586.2,-60000,-0,65227.7,247.537
step02_gravity_refstate-mantle.xmf,368,1.54995e-06,1.24582e-05,0,1.23602e-05,-1.26659e+09,-1.26513e+09,-1.26679e+09,1.65194e+06,0.055524,0.321822,0,0.326577,-7099.83,-45227.6,-0,45781.5,1.65194e+06
step02_gravity_refstate-mantle.xmf,369,1.7024e-06,1.1598e-05,0,1.0167e-05,-1.29279e+09,-1.29147e+09,-1.29302e+09,1.35882e+06,0.0646893,0.272589,0,0.28016,-8195.89,-46036,-0,46759.9,1.35882e+06
step02_gravity_refstate-mantle.xmf,370,1.10584e-06,1.40203e-05,0,1.51512e-05,-1.24812e+09,-1.24639e+09,-1.24826e+09,2.02495e+06,0.0474978,0.371298,0,0.374324,-6140.32,-44658.1,-0,45078.2,2.02495e+06
step02_gravity_refstate-mantle.xmf,371,-3.29223e-06,2.33479e-05,0,2.61458e-05,-1.23505e+09,-1.23149e+09,-1.23461e+09,3.49439e+06,0.0386019,0.487009,0,0.488536,-4284.95,-44249,-0,44456,3.49439e+06
step02_gravity_refstate-mantle.xmf,372,-4.17606e-06,2.38292e-05,0,2.95954e-05,-1.22712e+09,-1.22338e+09,-1.22657e+09,3.95542e+06,0.0324349,0.514591,0,0.515613,-4000,-43999.5,-0,44180.9,3.95542e+06
step02_gravity_refstate-mantle.xmf,373,1.81115e-06,1.06403e-05,0,8.21905e-06,-1.31299e+09,-1.31181e+09,-1.31323e+09,1.09848e+06,0.0698369,0.231694,0,0.241991,-9337.79,-46658.2,-0,47583.4,1.09848e+06
step02_gravity_refstate-mantle.xmf,374,1.9788e-06,8.94318e-06,0,5.79895e-06,-1.31648e+09,-1.31555e+09,-1.31675e+09,775029,0.0680943,0.192876,0,0.204544,-10874.9,-46762.8,-0,48010.6,775029
step02_gravity_refstate-mantle.xmf,375,1.91645e-06,9.74629e-06,0,6.96637e-06,-1.31509e+09,-1.31404e+09,-1.31534e+09,931055,0.0691514,0.211719,0,0.222726,-10085.7,-46721.4,-0,47797.6,931055
step02_gravity_refstate-mantle.xmf,376,2.09825e-06,7.98039e-06,0,3.82501e-06,-1.34606e+09,-1.34528e+09,-1.34634e+09,511213,0.0730439,0.146829,0,0.163995,-12863.6,-47674.8,-0,49379.8,511213
step02_gravity_refstate-mantle.xmf,377,2.1655e-06,7.94947e-06,0,3.52041e-06,-1.36481e+09,-1.36404e+09,-1.3651e+09,470502,0.0769561,0.134352,0,0.154831,-13356.8,-48254.5,-0,50068.9,470502
step02_gravity_refstate-mantle.xmf,378,2.23651e-06,8.00741e-06,0,3.23724e-06,-1.3898e+09,-1.38903e+09,-1.3901e+09,432657,0.081713,0.120553,0,0.145637,-13883.8,-49026.9,-0,50954.9,432657
step02_gravity_refstate-mantle.xmf,379,1.91526e-06,9.30038e-06,0,5.68113e-06,-1.34149e+09,-1.3405e+09,-1.34175e+09,759283,0.0751235,0.178925,0,0.194056,-11196.4,-47535.8,-0,48836.6,759283
step02_gravity_refstate-mantle.xmf,380,2.90966e-06,6.56015e-06,0,1.34179e-06,-1.45333e+09,-1.45284e+09,-1.45372e+09,179330,0.0854367,0.0710803,0,0.111139,-17195.1,-50990.1,-0,53811.3,179330
step02_gravity_refstate-mantle.xmf,381,4.30787e-06,4.66605e-06,0,4.68041e-08,-1.6362e+09,-1.63616e+09,-1.63678e+09,6255.37,0.085635,0.0161083,0,0.0871369,-22366.7,-56643.6,-0,60899.6,6255.37
step02_gravity_refstate-mantle.xmf,382,1.44146e-06,1.31663e-05,0,1.23564e-05,-1.28387e+09,-1.2823e+09,-1.28406e+09,1.65143e+06,0.0627346,0.308833,0,0.31514,-7257.58,-45762.6,-0,46334.5,1.65143e+06
step02_gravity_refstate-mantle.xmf,383,1.60643e-06,1.18237e-05,0,9.68076e-06,-1.31233e+09,-1.31096e+09,-1.31254e+09,1.29383e+06,0.070884,0.253057,0,0.262797,-8594.94,-46639.4,-0,47424.7,1.29383e+06
step02_gravity_refstate-mantle.xmf,384,1.22402e-06,1.42074e-05,0,1.43905e-05,-1.26604e+09,-1.2643e+09,-1.2662e+09,1.92329e+06,0.0561813,0.348528,0,0.353027,-6465.27,-45212.9,-0,45672.8,1.92329e+06
step02_gravity_refstate-mantle.xmf,385,4.5767e-07,1.65044e-05,0,1.77018e-05,-1.24877e+09,-1.24663e+09,-1.24883e+09,2.36585e+06,0.0483116,0.401304,0,0.404202,-5539.17,-44680.4,-0,45022.4,2.36585e+06
step02_gravity_refstate-mantle.xmf,386,-7.51394e-07,1.98867e-05,0,2.05808e-05,-1.24936e+09,-1.24661e+09,-1.24926e+09,2.75062e+06,0.0485174,0.432878,0,0.435588,-4967.49,-44699.3,-0,44974.5,2.75062e+06
step02_gravity_refstate-mantle.xmf,387,-2.87985e-06,2.46973e-05,0,2.39898e-05,-1.25049e+09,-1.2468e+09,-1.2501e+09,3.20623e+06,0.0480815,0.46581,0,0.468285,-4423.68,-44732,-0,44950.2,3.20623e+06
step02_gravity_refstate-mantle.xmf,388,-5.04554e-06,2.78389e-05,0,2.84614e-05,-1.24313e+09,-1.23874e+09,-1.24246e+09,3.80387e+06,0.0422158,0.50169,0,0.503463,-4000,-44498.5,-0,44677.9,3.80387e+06
step02_gravity_refstate-mantle.xmf,389,2.53932e-06,7.35585e-06,0,2.24428e-06,-1.42084e+09,-1.42019e+09,-1.42118e+09,299949,0.0844413,0.0943704,0,0.126634,-15434.7,-49986,-0,52314.7,299949
step02_gravity_refstate-mantle.xmf,390,2.30588e-06,8.11443e-06,0,2.99016e-06,-1.41694e+09,-1.41617e+09,-1.41725e+09,399634,0.0862314,0.107357,0,0.1377,-14379.2,-49866.1,-0,51897.9,399634
step02_gravity_refstate-mantle.xmf,391,2.05457e-06,8.72727e-06,0,4.44446e-06,-1.36554e+09,-1.36465e+09,-1.36582e+09,594002,0.0790276,0.148542,0,0.168256,-12461.6,-48278.3,-0,49860.6,594002
step02_gravity_refstate-mantle.xmf,392,1.87941e-06,9.59309e-06,0,5.47196e-06,-1.36487e+09,-1.36383e+09,-1.36512e+09,731327,0.0805907,0.164586,0,0.183258,-11576.1,-48258.3,-0,49627.3,731327
step02_gravity_refstate-mantle.xmf,393,2.63532e-06,7.37396e-06,0,1.95494e-06,-1.45418e+09,-1.45355e+09,-1.45453e+09,261278,0.0888596,0.0810501,0,0.120271,-16009.7,-51016.7,-0,53469.8,261278
step02_gravity_refstate-mantle.xmf,394,3.11069e-06,6.38477e-06,0,1.0609e-06,-1.48535e+09,-1.48491e+09,-1.48576e+09,141789,0.0880402,0.0592107,0,0.106099,-17942.7,-51980,-0,54989.6,141789
step02_gravity_refstate-mantle.xmf,395,3.33162e-06,6.14437e-06,0,7.80152e-07,-1.51861e+09,-1.51824e+09,-1.51906e+09,104267,0.0897925,0.0480294,0,0.101831,-18729.3,-53008.4,-0,56219.9,104267
step02_gravity_refstate-mantle.xmf,396,3.55665e-06,5.91001e-06,0,5.46711e-07,-1.55474e+09,-1.55443e+09,-1.55522e+09,73067.9,0.0910323,0.0376292,0,0.098503,-19490.8,-54125.5,-0,57527.9,73067.9
step02_gravity_refstate-mantle.xmf,397,3.77702e-06,5.66999e-06,0,3.53052e-07,-1.5926e+09,-1.59235e+09,-1.59311e+09,47185.4,0.0915974,0.0281667,0,0.0958303,-20218.6,-55295.7,-0,58876.2,47185.4
step02_gravity_refstate-mantle.xmf,398,3.99374e-06,5.40248e-06,0,1.98073e-07,-1.63095e+09,-1.63076e+09,-1.63149e+09,26472.4,0.0912662,0.0196715,0,0.0933622,-20943.2,-56481.2,-0,60239,26472.4
step02_gravity_refstate-mantle.xmf,399,4.45997e-06,4.57405e-06,0,1.14544e-08,-1.69077e+09,-1.69075e+09,-1.69136e+09,1530.87,0.0856697,0.0077334,0,0.086018,-22824.2,-58329.9,-0,62636.4,1530.87
step02_gravity_refstate-mantle.xmf,400,4.65649e-06,4.19747e-06,0,8.32003e-10,-1.74482e+09,-1.74489e+09,-1.74545e+09,111.197,0.081624,-1.44024e-19,0,0.081624,-23856.4,-60000,-0,64568.8,111.197
step02_gravity_refstate-mantle.xmf,401,1.41252e-06,1.31253e-05,0,1.1695e-05,-1.29831e+09,-1.29675e+09,-1.2985e+09,1.56304e+06,0.0676065,0.289637,0,0.297423,-7626.02,-46208.4,-0,46833.5,1.56304e+06
step02_gravity_refstate-mantle.xmf,402,1.13451e-06,1.45236e-05,0,1.3836e-05,-1.28332e+09,-1.28153e+09,-1.28347e+09,1.84919e+06,0.0631773,0.328383,0,0.334405,-6761.14,-45747.1,-0,46244,1.84919e+06
step02_gravity_refstate-mantle.xmf,403,1.23238e-06,1.32866e-05,0,1.1213e-05,-1.31345e+09,-1.31184e+09,-1.31361e+09,1.49861e+06,0.072213,0.273897,0,0.283257,-7910.82,-46675.2,-0,47340.8,1.49861e+06
step02_gravity_refstate-mantle.xmf,404,7.07255e-07,1.65617e-05,0,1.67191e-05,-1.26606e+09,-1.26394e+09,-1.26616e+09,2.23451e+06,0.0567975,0.376517,0,0.380777,-5854.04,-45216.3,-0,45593.7,2.23451e+06
step02_gravity_refstate-mantle.xmf,405,1.4223e-06,1.20602e-05,0,9.20346e-06,-1.33196e+09,-1.33053e+09,-1.33215e+09,1.23004e+06,0.0762405,0.235139,0,0.24719,-8967.81,-47245,-0,48088.6,1.23004e+06
step02_gravity_refstate-mantle.xmf,406,1.66208e-06,1.09921e-05,0,7.88907e-06,-1.33555e+09,-1.3343e+09,-1.33577e+09,1.05437e+06,0.0761007,0.214235,0,0.22735,-9719.21,-47354.9,-0,48342,1.05437e+06
step02_gravity_refstate-mantle.xmf,407,1.77939e-06,1.03262e-05,0,6.91126e-06,-1.34268e+09,-1.34154e+09,-1.34292e+09,923689,0.0769787,0.196358,0,0.210908,-10372.7,-47574.2,-0,48691.9,923689
step02_gravity_refstate-mantle.xmf,408,2.03632e-06,8.83785e-06,0,4.1234e-06,-1.38988e+09,-1.38897e+09,-1.39015e+09,551092,0.0837853,0.134449,0,0.158418,-12924.2,-49030.2,-0,50704.9,551092
step02_gravity_refstate-mantle.xmf,409,2.03553e-06,8.92587e-06,0,3.76832e-06,-1.41555e+09,-1.41462e+09,-1.41582e+09,503637,0.0880261,0.120097,0,0.148902,-13425.1,-49823.2,-0,51600.2,503637
step02_gravity_refstate-mantle.xmf,410,1.59412e-06,1.06451e-05,0,6.63396e-06,-1.36486e+09,-1.36365e+09,-1.36507e+09,886629,0.0821301,0.1823,0,0.199946,-10686.8,-48258.9,-0,49428,886629
step02_gravity_refstate-mantle.xmf,411,2.78818e-06,7.2788e-06,0,1.6217e-06,-1.48781e+09,-1.48721e+09,-1.48818e+09,216741,0.0920459,0.0675823,0,0.114192,-16700.2,-52056.2,-0,54669.5,216741
step02_gravity_refstate-mantle.xmf,412,4.15984e-06,5.19235e-06,0,1.03199e-07,-1.66599e+09,-1.66585e+09,-1.66655e+09,13792.5,0.090479,0.0128814,0,0.0913913,-21531.1,-57564.1,-0,61459.1,13792.5
step02_gravity_refstate-mantle.xmf,413,9.59844e-07,1.47259e-05,0,1.32674e-05,-1.29884e+09,-1.297e+09,-1.29897e+09,1.77319e+06,0.0684867,0.310421,0,0.317886,-7042.73,-46225.9,-0,46759.3,1.77319e+06
step02_gravity_refstate-mantle.xmf,414,1.02339e-06,1.3471e-05,0,1.06355e-05,-1.33149e+09,-1.32982e+09,-1.33162e+09,1.42143e+06,0.0769746,0.255485,0,0.266829,-8262.84,-47231.5,-0,47948.8,1.42143e+06
step02_gravity_refstate-mantle.xmf,415,5.24233e-07,1.6677e-05,0,1.58159e-05,-1.2835e+09,-1.28134e+09,-1.28357e+09,2.11379e+06,0.0637539,0.353041,0,0.358752,-6170.93,-45754.1,-0,46168.4,2.11379e+06
step02_gravity_refstate-mantle.xmf,416,-2.23782e-07,1.96978e-05,0,1.92357e-05,-1.26694e+09,-1.26428e+09,-1.26691e+09,2.57086e+06,0.0572893,0.405695,0,0.40972,-5262,-45245.3,-0,45550.2,2.57086e+06
step02_gravity_refstate-mantle.xmf,417,-1.56805e-06,2.36653e-05,0,2.18325e-05,-1.2664e+09,-1.26303e+09,-1.26619e+09,2.91792e+06,0.0564804,0.435844,0,0.439488,-4716.44,-45229.7,-0,45475,2.91792e+06
step02_gravity_refstate-mantle.xmf,418,-5.94053e-06,3.16236e-05,0,2.69883e-05,-1.25921e+09,-1.25419e+09,-1.25841e+09,3.60698e+06,0.0505476,0.486811,0,0.489429,-4000,-44998.7,-0,45176.1,3.60698e+06
step02_gravity_refstate-mantle.xmf,419,2.31329e-06,8.34354e-06,0,2.74595e-06,-1.45266e+09,-1.45185e+09,-1.45297e+09,366996,0.0915862,0.093403,0,0.130813,-14802.7,-50969.9,-0,53075.9,366996
step02_gravity_refstate-mantle.xmf,420,2.03729e-06,8.9889e-06,0,3.42873e-06,-1.43966e+09,-1.43873e+09,-1.43993e+09,458249,0.0914246,0.107426,0,0.141063,-13885.1,-50568.1,-0,52439.8,458249
step02_gravity_refstate-mantle.xmf,421,1.78986e-06,9.80909e-06,0,5.15386e-06,-1.38902e+09,-1.38795e+09,-1.38926e+09,688813,0.0854047,0.150049,0,0.172652,-11979.9,-49004.5,-0,50447.6,688813
step02_gravity_refstate-mantle.xmf,422,1.45241e-06,1.08988e-05,0,6.23407e-06,-1.38888e+09,-1.38761e+09,-1.38907e+09,833183,0.0867944,0.16604,0,0.187357,-11099.1,-49000.6,-0,50241.9,833183
step02_gravity_refstate-mantle.xmf,423,2.38496e-06,8.29512e-06,0,2.26507e-06,-1.49006e+09,-1.48927e+09,-1.49038e+09,302727,0.0954452,0.0769227,0,0.122584,-15503.6,-52125.7,-0,54382.4,302727
step02_gravity_refstate-mantle.xmf,424,2.96014e-06,7.09858e-06,0,1.27729e-06,-1.52116e+09,-1.5206e+09,-1.52155e+09,170710,0.0942613,0.0552383,0,0.109254,-17404,-53087,-0,55867.1,170710
step02_gravity_refstate-mantle.xmf,425,3.16932e-06,6.84357e-06,0,9.38432e-07,-1.55608e+09,-1.55559e+09,-1.5565e+09,125421,0.0956897,0.0435347,0,0.105127,-18143.5,-54166.5,-0,57124.4,125421
step02_gravity_refstate-mantle.xmf,426,3.37938e-06,6.58896e-06,0,6.52575e-07,-1.59267e+09,-1.59224e+09,-1.59312e+09,87216.6,0.0965039,0.0328536,0,0.101943,-18848.6,-55297.4,-0,58421.6,87216.6
step02_gravity_refstate-mantle.xmf,427,3.60945e-06,6.27882e-06,0,4.03842e-07,-1.63032e+09,-1.62997e+09,-1.63081e+09,53973.5,0.0964204,0.0230376,0,0.0991344,-19578.3,-56461.5,-0,59759.6,53973.5
step02_gravity_refstate-mantle.xmf,428,3.8481e-06,5.92018e-06,0,2.09823e-07,-1.66731e+09,-1.66703e+09,-1.66783e+09,28042.9,0.0953236,0.0144648,0,0.0964148,-20333.4,-57604.7,-0,61088,28042.9
step02_gravity_refstate-mantle.xmf,429,4.1139e-06,5.45644e-06,0,7.13931e-08,-1.70331e+09,-1.70314e+09,-1.70386e+09,9541.69,0.0927634,0.00706387,0,0.093032,-21234.1,-58717.4,-0,62438.9,9541.69
step02_gravity_refstate-mantle.xmf,430,4.35602e-06,4.9828e-06,0,-1.28703e-09,-1.74482e+09,-1.74474e+09,-1.74541e+09,-172.012,0.0891071,-1.32293e-19,0,0.0891071,-22194.3,-60000,-0,63973.3,172.012
step02_gravity_refstate-mantle.xmf,431,7.10119e-07,1.50708e-05,0,1.28299e-05,-1.31475e+09,-1.31283e+09,-1.31484e+09,1.71471e+06,0.0732154,0.29466,0,0.30362,-7276.25,-46716.3,-0,47279.6,1.71471e+06
step02_gravity_refstate-mantle.xmf,432,3.34367e-07,1.66989e-05,0,1.49444e-05,-1.2994e+09,-1.29722e+09,-1.29945e+09,1.99732e+06,0.0690367,0.33159,0,0.3387,-6488.13,-46244.1,-0,46697,1.99732e+06
step02_gravity_refstate-mantle.xmf,433,3.96225e-07,1.52929e-05,0,1.22297e-05,-1.33154e+09,-1.32955e+09,-1.33159e+09,1.6345e+06,0.0774988,0.277772,0,0.288381,-7544.64,-47233.6,-0,47832.4,1.6345e+06
step02_gravity_refstate-mantle.xmf,434,8.05679e-07,1.35782e-05,0,1.00097e-05,-1.34954e+09,-1.34783e+09,-1.34965e+09,1.33779e+06,0.0810953,0.237613,0,0.25107,-8624.14,-47787.9,-0,48559.8,1.33779e+06
step02_gravity_refstate-mantle.xmf,435,-4.85262e-07,1.95641e-05,0,1.80544e-05,-1.28385e+09,-1.28117e+09,-1.28379e+09,2.41297e+06,0.0639038,0.379691,0,0.385031,-5579.21,-45765.6,-0,46104.4,2.41297e+06
step02_gravity_refstate-mantle.xmf,436,-3.80085e-06,2.84862e-05,0,2.40364e-05,-1.26685e+09,-1.26253e+09,-1.26634e+09,3.21247e+06,0.0554273,0.460062,0,0.463389,-4300.15,-45241,-0,45444.9,3.21247e+06
step02_gravity_refstate-mantle.xmf,437,1.19987e-06,1.23201e-05,0,8.8012e-06,-1.34989e+09,-1.3484e+09,-1.35005e+09,1.17628e+06,0.0805274,0.22045,0,0.234698,-9267.96,-47798.1,-0,48688.3,1.17628e+06
step02_gravity_refstate-mantle.xmf,438,1.27795e-06,1.18675e-05,0,7.96829e-06,-1.36239e+09,-1.36097e+09,-1.36256e+09,1.06496e+06,0.0828069,0.202497,0,0.218774,-9812.58,-48183.7,-0,49172.7,1.06496e+06
step02_gravity_refstate-mantle.xmf,439,1.7077e-06,9.91372e-06,0,4.67885e-06,-1.41567e+09,-1.41457e+09,-1.4159e+09,625329,0.0898106,0.133703,0,0.161067,-12485.2,-49827.4,-0,51367.8,625329
step02_gravity_refstate-mantle.xmf,440,1.68609e-06,9.92178e-06,0,4.16375e-06,-1.44185e+09,-1.44075e+09,-1.44208e+09,556485,0.09337,0.117762,0,0.150286,-13034,-50636,-0,52286.7,556485
step02_gravity_refstate-mantle.xmf,441,1.0159e-06,1.21261e-05,0,7.39691e-06,-1.38762e+09,-1.38614e+09,-1.38776e+09,988597,0.0876034,0.183675,0,0.203496,-10239.7,-48962,-0,50021.3,988597
step02_gravity_refstate-mantle.xmf,442,2.50995e-06,8.14363e-06,0,1.8314e-06,-1.52311e+09,-1.52236e+09,-1.52344e+09,244767,0.0978586,0.0631346,0,0.116457,-16171.7,-53147,-0,55552.9,244767
step02_gravity_refstate-mantle.xmf,443,2.11451e-07,1.65772e-05,0,1.41899e-05,-1.31198e+09,-1.30979e+09,-1.31201e+09,1.89648e+06,0.0726625,0.314181,0,0.322474,-6771.99,-46631.4,-0,47120.6,1.89648e+06
step02_gravity_refstate-mantle.xmf,444,1.24853e-07,1.53829e-05,0,1.14813e-05,-1.34988e+09,-1.34784e+09,-1.3499e+09,1.53447e+06,0.081516,0.258384,0,0.270938,-7890.38,-47798.5,-0,48445.4,1.53447e+06
step02_gravity_refstate-mantle.xmf,445,-6.68325e-07,1.93184e-05,0,1.67894e-05,-1.30046e+09,-1.29779e+09,-1.30037e+09,2.2439e+06,0.0692548,0.354597,0,0.361297,-5917.06,-46276.6,-0,46653.4,2.2439e+06
step02_gravity_refstate-mantle.xmf,446,-2.16185e-06,2.41403e-05,0,2.08556e-05,-1.28525e+09,-1.28174e+09,-1.28496e+09,2.78736e+06,0.0634825,0.40994,0,0.414826,-4941.25,-45809.3,-0,46075,2.78736e+06
step02_gravity_refstate-mantle.xmf,447,-2.76462e-06,2.81111e-05,0,2.36227e-05,-1.27971e+09,-1.27558e+09,-1.27934e+09,3.15717e+06,0.0602885,0.442369,0,0.446459,-4407.33,-45644.2,-0,45856.5,3.15717e+06
step02_gravity_refstate-mantle.xmf,448,-6.53731e-06,3.51561e-05,0,2.42741e-05,-1.2752e+09,-1.26963e+09,-1.27433e+09,3.24423e+06,0.0568284,0.470102,0,0.473525,-4000,-45497.8,-0,45673.3,3.24423e+06
step02_gravity_refstate-mantle.xmf,449,1.80098e-06,9.64016e-06,0,3.51064e-06,-1.46697e+09,-1.46592e+09,-1.46721e+09,469196,0.0958969,0.101092,0,0.139341,-13757,-51411.8,-0,53220.6,469196
step02_gravity_refstate-mantle.xmf,450,1.28911e-06,1.11038e-05,0,5.74622e-06,-1.41505e+09,-1.41374e+09,-1.41522e+09,767982,0.0911234,0.149327,0,0.174934,-11532,-49808.4,-0,51126,767982
step02_gravity_refstate-mantle.xmf,451,8.15147e-07,1.23342e-05,0,6.84611e-06,-1.41189e+09,-1.41035e+09,-1.412e+09,914983,0.0915159,0.166403,0,0.189909,-10645.8,-49710.7,-0,50837.9,914983
step02_gravity_refstate-mantle.xmf,452,1.84901e-06,9.54003e-06,0,2.97723e-06,-1.4965e+09,-1.49547e+09,-1.49675e+09,397907,0.0986923,0.0858888,0,0.130832,-14356,-52324.2,-0,54257.9,397907
step02_gravity_refstate-mantle.xmf,453,1.95939e-06,9.34595e-06,0,2.44832e-06,-1.52614e+09,-1.52515e+09,-1.5264e+09,327217,0.100847,0.0715565,0,0.123654,-14981.2,-53239.9,-0,55307.5,327217
step02_gravity_refstate-mantle.xmf,454,2.67804e-06,7.92159e-06,0,1.40743e-06,-1.55742e+09,-1.55672e+09,-1.55778e+09,188103,0.0995963,0.0501695,0,0.111519,-16851.5,-54207.5,-0,56766.4,188103
step02_gravity_refstate-mantle.xmf,455,2.89047e-06,7.63409e-06,0,1.00946e-06,-1.59307e+09,-1.59244e+09,-1.59346e+09,134915,0.10063,0.0380766,0,0.107593,-17541.4,-55309.3,-0,58024.3,134915
step02_gravity_refstate-mantle.xmf,456,3.12536e-06,7.29754e-06,0,6.59406e-07,-1.63009e+09,-1.62954e+09,-1.63051e+09,88129.6,0.10089,0.0268792,0,0.104409,-18246.9,-56453.7,-0,59329.3,88129.6
step02_gravity_refstate-mantle.xmf,457,3.38357e-06,6.90456e-06,0,3.68654e-07,-1.66763e+09,-1.66716e+09,-1.66809e+09,49270.6,0.100261,0.016814,0,0.101661,-18971.1,-57614,-0,60657.1,49270.6
step02_gravity_refstate-mantle.xmf,458,3.65953e-06,6.45113e-06,0,1.46213e-07,-1.70567e+09,-1.7053e+09,-1.70616e+09,19541.3,0.0986042,0.00787432,0,0.0989181,-19742.8,-58789.8,-0,62016.3,19541.3
step02_gravity_refstate-mantle.xmf,459,3.94124e-06,5.93577e-06,0,-3.31992e-09,-1.74483e+09,-1.74457e+09,-1.74536e+09,-443.708,0.0957368,-1.43002e-19,0,0.0957368,-20595.2,-60000,-0,63436.3,443.708
step02_gravity_refstate-mantle.xmf,460,6.19869e-07,1.3598e-05,0,9.32712e-06,-1.36795e+09,-1.36622e+09,-1.36804e+09,1.24657e+06,0.0847557,0.219577,0,0.235367,-9016.96,-48355.6,-0,49189.1,1.24657e+06
step02_gravity_refstate-mantle.xmf,461,-5.12045e-07,1.77625e-05,0,1.41162e-05,-1.33021e+09,-1.32777e+09,-1.33014e+09,1.88663e+06,0.0771387,0.304171,0,0.3138,-6782.16,-47192.7,-0,47677.6,1.88663e+06
step02_gravity_refstate-mantle.xmf,462,-8.10557e-07,1.89491e-05,0,1.55679e-05,-1.31675e+09,-1.31411e+09,-1.31665e+09,2.08065e+06,0.0737342,0.330641,0,0.338763,-6270.67,-46778.1,-0,47196.6,2.08065e+06
step02_gravity_refstate-mantle.xmf,463,-8.02227e-07,1.76352e-05,0,1.30598e-05,-1.34967e+09,-1.3472e+09,-1.34956e+09,1.74544e+06,0.0812262,0.281166,0,0.292663,-7152.83,-47791.6,-0,48323.9,1.74544e+06
step02_gravity_refstate-mantle.xmf,464,-1.04706e-07,1.53713e-05,0,1.06783e-05,-1.36876e+09,-1.36669e+09,-1.36874e+09,1.42715e+06,0.0851069,0.23884,0,0.253551,-8264.45,-48380.1,-0,49080.9,1.42715e+06
step02_gravity_refstate-mantle.xmf,465,-2.30787e-06,2.27396e-05,0,1.8652e-05,-1.30079e+09,-1.29744e+09,-1.30048e+09,2.49284e+06,0.0684778,0.380312,0,0.386428,-5328.16,-46284.8,-0,46590.4,2.49284e+06
step02_gravity_refstate-mantle.xmf,466,1.1637e-06,1.11896e-05,0,5.1399e-06,-1.44281e+09,-1.44147e+09,-1.44297e+09,686947,0.0949429,0.13173,0,0.162379,-12032.5,-50665.4,-0,52074.6,686947
step02_gravity_refstate-mantle.xmf,467,1.16316e-06,1.10695e-05,0,4.44466e-06,-1.47054e+09,-1.46921e+09,-1.47069e+09,594028,0.0980276,0.113682,0,0.15011,-12640,-51521.6,-0,53049.4,594028
step02_gravity_refstate-mantle.xmf,468,4.43434e-07,1.36175e-05,0,8.63207e-06,-1.38793e+09,-1.38617e+09,-1.38799e+09,1.15368e+06,0.0882538,0.201417,0,0.219903,-9424.48,-48971.6,-0,49870.2,1.15368e+06
step02_gravity_refstate-mantle.xmf,469,2.50019e-07,1.36747e-05,0,7.94865e-06,-1.40937e+09,-1.40757e+09,-1.4094e+09,1.06234e+06,0.0915526,0.183617,0,0.205176,-9827.45,-49632.5,-0,50596.1,1.06234e+06
step02_gravity_refstate-mantle.xmf,470,2.08832e-06,9.12883e-06,0,1.93252e-06,-1.55873e+09,-1.55779e+09,-1.55901e+09,258281,0.102666,0.0575014,0,0.117672,-15617,-54247.1,-0,56450.4,258281
step02_gravity_refstate-mantle.xmf,471,-1.04243e-06,1.74474e-05,0,1.2045e-05,-1.36881e+09,-1.36634e+09,-1.36867e+09,1.60981e+06,0.084701,0.259408,0,0.272886,-7529.07,-48380.7,-0,48963,1.60981e+06
step02_gravity_refstate-mantle.xmf,472,-2.25292e-06,2.20425e-05,0,1.71576e-05,-1.31824e+09,-1.31499e+09,-1.31793e+09,2.29311e+06,0.0731359,0.353297,0,0.360788,-5677.74,-46822.2,-0,47165.2,2.29311e+06
step02_gravity_refstate-mantle.xmf,473,-5.86346e-06,3.01436e-05,0,2.2232e-05,-1.29402e+09,-1.28921e+09,-1.29324e+09,2.97131e+06,0.0638025,0.425876,0,0.430629,-4487.34,-46070.8,-0,46288.8,2.97131e+06
step02_gravity_refstate-mantle.xmf,474,-4.66303e-06,2.71752e-05,0,1.98836e-05,-1.30539e+09,-1.30113e+09,-1.30476e+09,2.65744e+06,0.0676643,0.40066,0,0.406334,-4807.95,-46422.3,-0,46670.6,2.65744e+06
step02_gravity_refstate-mantle.xmf,475,-1.07197e-05,3.38061e-05,0,2.27191e-05,-1.29248e+09,-1.28653e+09,-1.29104e+09,3.03641e+06,0.0595898,0.451935,0,0.455846,-4000,-46000,-0,46173.6,3.03641e+06
step02_gravity_refstate-mantle.xmf,476,1.21101e-06,1.08891e-05,0,3.76993e-06,-1.49868e+09,-1.49738e+09,-1.49884e+09,503851,0.100631,0.0967905,0,0.139624,-13250.2,-52390.6,-0,54040.2,503851
step02_gravity_refstate-mantle.xmf,477,8.00811e-08,1.37241e-05,0,7.33447e-06,-1.42897e+09,-1.42714e+09,-1.42898e+09,980252,0.0942168,0.168349,0,0.19292,-10180.5,-50237,-0,51258.1,980252
step02_gravity_refstate-mantle.xmf,478,4.72967e-07,1.28035e-05,0,6.34173e-06,-1.44207e+09,-1.44042e+09,-1.44213e+09,847572,0.0957164,0.149257,0,0.177311,-10949.6,-50642,-0,51812.2,847572
step02_gravity_refstate-mantle.xmf,479,1.28067e-06,1.07096e-05,0,3.12822e-06,-1.52869e+09,-1.52743e+09,-1.52886e+09,418086,0.102944,0.0807793,0,0.130854,-13838.9,-53317.7,-0,55084.4,418086
step02_gravity_refstate-mantle.xmf,480,1.395e-06,1.0486e-05,0,2.51153e-06,-1.56005e+09,-1.55883e+09,-1.56024e+09,335666,0.104853,0.0655665,0,0.123666,-14425.5,-54286.6,-0,56170.5,335666
step02_gravity_refstate-mantle.xmf,481,2.26977e-06,8.85137e-06,0,1.43745e-06,-1.59328e+09,-1.5924e+09,-1.59358e+09,192115,0.103961,0.0441202,0,0.112936,-16258.9,-55314.8,-0,57654.8,192115
step02_gravity_refstate-mantle.xmf,482,2.52157e-06,8.48297e-06,0,9.71612e-07,-1.62969e+09,-1.6289e+09,-1.63003e+09,129856,0.10457,0.0313958,0,0.109181,-16935.2,-56440.3,-0,58926.3,129856
step02_gravity_refstate-mantle.xmf,483,2.80122e-06,8.04989e-06,0,5.72536e-07,-1.66675e+09,-1.66605e+09,-1.66713e+09,76519.4,0.104368,0.0198469,0,0.106238,-17631.7,-57585.8,-0,60224.6,76519.4
step02_gravity_refstate-mantle.xmf,484,3.08455e-06,7.60207e-06,0,2.42449e-07,-1.70602e+09,-1.70542e+09,-1.70644e+09,32403.3,0.103443,0.00920037,0,0.103852,-18309.4,-58799.7,-0,61584.4,32403.3
step02_gravity_refstate-mantle.xmf,485,3.3974e-06,7.06641e-06,0,-4.77983e-09,-1.74486e+09,-1.74437e+09,-1.74531e+09,-638.824,0.101389,-1.6061e-19,0,0.101389,-19054.5,-60000,-0,62952.9,638.824
step02_gravity_refstate-mantle.xmf,486,-3.26e-07,1.53639e-05,0,9.88286e-06,-1.38865e+09,-1.38655e+09,-1.38861e+09,1.32084e+06,0.0884164,0.219623,0,0.236752,-8643.82,-48993.1,-0,49749.8,1.32084e+06
step02_gravity_refstate-mantle.xmf,487,-2.28249e-06,2.13404e-05,0,1.57899e-05,-1.33542e+09,-1.33227e+09,-1.33512e+09,2.11031e+06,0.0770777,0.328064,0,0.336997,-6033.9,-47351.1,-0,47734,2.11031e+06
step02_gravity_refstate-mantle.xmf,488,-2.1438e-06,2.04331e-05,0,1.45097e-05,-1.3514e+09,-1.34838e+09,-1.35111e+09,1.93922e+06,0.0804492,0.303302,0,0.31379,-6446.33,-47843.1,-0,48275.5,1.93922e+06
step02_gravity_refstate-mantle.xmf,489,-2.24194e-06,1.99508e-05,0,1.33643e-05,-1.36951e+09,-1.36655e+09,-1.36921e+09,1.78615e+06,0.0836264,0.280201,0,0.292414,-6816.79,-48400.9,-0,48878.6,1.78615e+06
step02_gravity_refstate-mantle.xmf,490,-1.2516e-06,1.73133e-05,0,1.10993e-05,-1.38875e+09,-1.38627e+09,-1.38858e+09,1.48342e+06,0.0878514,0.23841,0,0.254081,-7903.4,-48995,-0,49628.3,1.48342e+06
step02_gravity_refstate-mantle.xmf,491,-4.27449e-06,2.57152e-05,0,1.83234e-05,-1.31981e+09,-1.3158e+09,-1.31923e+09,2.44892e+06,0.0715095,0.376284,0,0.383019,-5096.68,-46866.6,-0,47142.9,2.44892e+06
step02_gravity_refstate-mantle.xmf,492,-7.30605e-06,3.14475e-05,0,2.00011e-05,-1.3069e+09,-1.30172e+09,-1.30592e+09,2.67315e+06,0.0646195,0.424431,0,0.429322,-4265.77,-46462.2,-0,46657.6,2.67315e+06
step02_gravity_refstate-mantle.xmf,493,4.29567e-07,1.24328e-05,0,4.61525e-06,-1.50075e+09,-1.49915e+09,-1.50081e+09,616828,0.10172,0.108622,0,0.148814,-12173.4,-52453.4,-0,53847.4,616828
step02_gravity_refstate-mantle.xmf,494,4.16137e-07,1.26246e-05,0,5.40579e-06,-1.47272e+09,-1.47109e+09,-1.47278e+09,722484,0.0991017,0.127107,0,0.161175,-11599.1,-51587.9,-0,52875.9,722484
step02_gravity_refstate-mantle.xmf,495,-5.53563e-07,1.54089e-05,0,9.10312e-06,-1.4103e+09,-1.40816e+09,-1.41022e+09,1.21663e+06,0.0915533,0.200629,0,0.220531,-9016.28,-49660.3,-0,50472.2,1.21663e+06
step02_gravity_refstate-mantle.xmf,496,-6.87926e-07,1.53197e-05,0,8.28658e-06,-1.43172e+09,-1.42958e+09,-1.43163e+09,1.1075e+06,0.0943152,0.181709,0,0.204728,-9431.27,-50320.9,-0,51197.1,1.1075e+06
step02_gravity_refstate-mantle.xmf,497,1.54669e-06,1.02036e-05,0,1.91135e-06,-1.59348e+09,-1.59233e+09,-1.59369e+09,255451,0.106332,0.0508018,0,0.117844,-15032.1,-55319.7,-0,57325.7,255451
step02_gravity_refstate-mantle.xmf,498,-2.40367e-06,1.95696e-05,0,1.22694e-05,-1.38855e+09,-1.38561e+09,-1.38823e+09,1.6398e+06,0.0865145,0.258101,0,0.272215,-7178.78,-48986.9,-0,49510.1,1.6398e+06
step02_gravity_refstate-mantle.xmf,499,-4.02204e-06,2.46755e-05,0,1.70105e-05,-1.33632e+09,-1.33249e+09,-1.33579e+09,2.27345e+06,0.0752601,0.350541,0,0.358529,-5419.94,-47375.8,-0,47684.8,2.27345e+06
step02_gravity_refstate-mantle.xmf,500,-6.52532e-06,2.98243e-05,0,1.90421e-05,-1.32132e+09,-1.31646e+09,-1.32044e+09,2.54498e+06,0.0687409,0.398404,0,0.404291,-4545.15,-46908.7,-0,47128.3,2.54498e+06
step02_gravity_refstate-mantle.xmf,501,4.85368e-07,1.22164e-05,0,3.86116e-06,-1.52987e+09,-1.5283e+09,-1.52994e+09,516045,0.104014,0.0911518,0,0.138303,-12738.1,-53352.8,-0,54852.3,516045
step02_gravity_refstate-mantle.xmf,502,-6.287e-07,1.48425e-05,0,7.33876e-06,-1.45134e+09,-1.44928e+09,-1.45126e+09,980825,0.0967095,0.162117,0,0.188771,-9983.75,-50926.3,-0,51895.7,980825
step02_gravity_refstate-mantle.xmf,503,5.70913e-07,1.19931e-05,0,3.13662e-06,-1.56085e+09,-1.55933e+09,-1.56093e+09,419209,0.106029,0.0744199,0,0.129539,-13285.4,-54309.8,-0,55911.1,419209
step02_gravity_refstate-mantle.xmf,504,7.20418e-07,1.17017e-05,0,2.43483e-06,-1.59313e+09,-1.59166e+09,-1.59323e+09,325415,0.107665,0.0583753,0,0.122472,-13843.6,-55307.1,-0,57013.3,325415
step02_gravity_refstate-mantle.xmf,505,1.76229e-06,9.85919e-06,0,1.3319e-06,-1.62984e+09,-1.62876e+09,-1.63008e+09,178008,0.107344,0.03642,0,0.113354,-15647.8,-56443.4,-0,58572.2,178008
step02_gravity_refstate-mantle.xmf,506,2.05208e-06,9.43056e-06,0,8.05392e-07,-1.66763e+09,-1.66664e+09,-1.6679e+09,107641,0.107691,0.0229889,0,0.110117,-16273.9,-57611.4,-0,59865.8,107641
step02_gravity_refstate-mantle.xmf,507,2.3578e-06,8.95558e-06,0,3.49108e-07,-1.7072e+09,-1.70632e+09,-1.70751e+09,46658.4,0.107302,0.0105174,0,0.107816,-16898.9,-58834.5,-0,61213.4,46658.4
step02_gravity_refstate-mantle.xmf,508,2.70861e-06,8.38594e-06,0,-5.79574e-09,-1.7449e+09,-1.74414e+09,-1.74526e+09,-774.601,0.10593,-1.78342e-19,0,0.10593,-17567.7,-60000,-0,62519,774.601
step02_gravity_refstate-mantle.xmf,509,-1.47847e-06,1.7257e-05,0,1.01996e-05,-1.41032e+09,-1.40782e+09,-1.41013e+09,1.36317e+06,0.0907913,0.217808,0,0.235973,-8268.56,-49659.7,-0,50343.4,1.36317e+06
step02_gravity_refstate-mantle.xmf,510,-3.87999e-06,2.36956e-05,0,1.57109e-05,-1.35316e+09,-1.34947e+09,-1.35264e+09,2.09976e+06,0.0786066,0.325428,0,0.334787,-5766.2,-47894.3,-0,48240.2,2.09976e+06
step02_gravity_refstate-mantle.xmf,511,-3.77158e-06,2.28276e-05,0,1.44911e-05,-1.37026e+09,-1.3667e+09,-1.36975e+09,1.93674e+06,0.0816189,0.30122,0,0.312082,-6127.4,-48421,-0,48807.1,1.93674e+06
step02_gravity_refstate-mantle.xmf,512,-3.78652e-06,2.21939e-05,0,1.33199e-05,-1.38888e+09,-1.38541e+09,-1.38837e+09,1.7802e+06,0.0843763,0.277738,0,0.290272,-6478.2,-48994.4,-0,49420.9,1.7802e+06
step02_gravity_refstate-mantle.xmf,513,-2.53174e-06,1.93075e-05,0,1.1282e-05,-1.40851e+09,-1.40559e+09,-1.40817e+09,1.50784e+06,0.089153,0.236764,0,0.252993,-7534.35,-49602,-0,50170.9,1.50784e+06
step02_gravity_refstate-mantle.xmf,514,-1.0136e-05,3.69668e-05,0,2.09319e-05,-1.30671e+09,-1.30041e+09,-1.30535e+09,2.79755e+06,0.0601138,0.448802,0,0.45281,-3748.01,-46451.5,-0,46602.5,2.79755e+06
step02_gravity_refstate-mantle.xmf,515,-6.10089e-06,2.83098e-05,0,1.77524e-05,-1.33699e+09,-1.33239e+09,-1.33617e+09,2.37261e+06,0.0723604,0.372695,0,0.379654,-4833.68,-47391.7,-0,47637.6,2.37261e+06
step02_gravity_refstate-mantle.xmf,516,-8.91391e-06,3.42811e-05,0,1.94594e-05,-1.32168e+09,-1.31591e+09,-1.32049e+09,2.60075e+06,0.0645653,0.42123,0,0.42615,-4000.58,-46915.3,-0,47085.6,2.60075e+06
step02_gravity_refstate-mantle.xmf,517,-1.23872e-05,4.17258e-05,0,2.07422e-05,-1.29218e+09,-1.28495e+09,-1.29053e+09,2.77219e+06,0.0537431,0.478841,0,0.481848,-3497.18,-46000,-0,46132.7,2.77219e+06
step02_gravity_refstate-mantle.xmf,518,-5.15024e-07,1.44322e-05,0,6.39525e-06,-1.47514e+09,-1.47314e+09,-1.47507e+09,854725,0.0992806,0.141402,0,0.172775,-10578.8,-51661,-0,52733,854725
step02_gravity_refstate-mantle.xmf,519,-4.36666e-07,1.38806e-05,0,4.62457e-06,-1.53041e+09,-1.5285e+09,-1.53035e+09,618074,0.104074,0.102467,0,0.146051,-11676.4,-53367.5,-0,54629.9,618074
step02_gravity_refstate-mantle.xmf,520,-4.93984e-07,1.41545e-05,0,5.48395e-06,-1.50231e+09,-1.50035e+09,-1.50224e+09,732929,0.101813,0.121321,0,0.158381,-11136.4,-52499.8,-0,53667.9,732929
step02_gravity_refstate-mantle.xmf,521,-1.9275e-06,1.76049e-05,0,9.37354e-06,-1.43562e+09,-1.43301e+09,-1.43537e+09,1.25277e+06,0.0934879,0.198568,0,0.219475,-8520.5,-50439.1,-0,51153.7,1.25277e+06
step02_gravity_refstate-mantle.xmf,522,-1.76412e-06,1.69887e-05,0,8.34513e-06,-1.45569e+09,-1.45318e+09,-1.45545e+09,1.11533e+06,0.0959828,0.177051,0,0.201395,-9059.39,-51058.4,-0,51855.9,1.11533e+06
step02_gravity_refstate-mantle.xmf,523,9.05852e-07,1.1357e-05,0,1.74517e-06,-1.62822e+09,-1.62682e+09,-1.62834e+09,233243,0.108934,0.0425619,0,0.116953,-14416.4,-56391.4,-0,58205,233243
step02_gravity_refstate-mantle.xmf,524,-3.82437e-06,2.16344e-05,0,1.22507e-05,-1.40671e+09,-1.40331e+09,-1.4062e+09,1.63731e+06,0.0867459,0.2565,0,0.270771,-6812.92,-49543.7,-0,50009.9,1.63731e+06
step02_gravity_refstate-mantle.xmf,525,-5.79303e-06,2.71279e-05,0,1.65523e-05,-1.3537e+09,-1.3493e+09,-1.35292e+09,2.21221e+06,0.0756232,0.347035,0,0.355179,-5141.58,-47906.9,-0,48182,2.21221e+06
step02_gravity_refstate-mantle.xmf,526,-8.33567e-06,3.23986e-05,0,1.82012e-05,-1.33719e+09,-1.33175e+09,-1.33608e+09,2.43259e+06,0.068285,0.3946,0,0.400465,-4267.07,-47393.5,-0,47585.2,2.43259e+06
step02_gravity_refstate-mantle.xmf,527,-1.35384e-05,4.3365e-05,0,1.89923e-05,-1.30643e+09,-1.29882e+09,-1.30462e+09,2.53833e+06,0.0537719,0.47367,0,0.476712,-3218.79,-46436.5,-0,46547.9,2.53833e+06
step02_gravity_refstate-mantle.xmf,528,-1.40466e-05,4.67831e-05,0,1.74462e-05,-1.29212e+09,-1.28399e+09,-1.29025e+09,2.33168e+06,0.0471712,0.503166,0,0.505372,-2997.53,-46000,-0,46097.6,2.33168e+06
step02_gravity_refstate-mantle.xmf,529,-1.48772e-05,5.02628e-05,0,1.44065e-05,-1.29201e+09,-1.28331e+09,-1.29003e+09,1.92542e+06,0.0399848,0.523851,0,0.525375,-2497.35,-46000,-0,46067.7,1.92542e+06
step02_gravity_refstate-mantle.xmf,530,-1.52783e-05,4.77943e-05,0,1.57972e-05,-1.30528e+09,-1.29685e+09,-1.30323e+09,2.1113e+06,0.0459793,0.49682,0,0.498943,-2693.41,-46400.6,-0,46478.7,2.1113e+06
step02_gravity_refstate-mantle.xmf,531,-3.64129e-07,1.36291e-05,0,3.79757e-06,-1.56053e+09,-1.55866e+09,-1.56048e+09,507545,0.106117,0.0843227,0,0.13554,-12191.7,-54297.6,-0,55649.5,507545
step02_gravity_refstate-mantle.xmf,532,-1.67601e-06,1.64417e-05,0,7.29961e-06,-1.47823e+09,-1.47581e+09,-1.478e+09,975592,0.0984634,0.15562,0,0.184154,-9610.52,-51753.9,-0,52638.6,975592
step02_gravity_refstate-mantle.xmf,533,-2.44802e-07,1.33485e-05,0,2.99272e-06,-1.5924e+09,-1.59059e+09,-1.59237e+09,399976,0.107896,0.0667486,0,0.126874,-12700.4,-55282.3,-0,56722.4,399976
step02_gravity_refstate-mantle.xmf,534,-5.04217e-08,1.29874e-05,0,2.19735e-06,-1.62632e+09,-1.62458e+09,-1.62631e+09,293676,0.109376,0.0494886,0,0.120051,-13229.9,-56330.4,-0,57863.2,293676
step02_gravity_refstate-mantle.xmf,535,1.15025e-06,1.09751e-05,0,1.08582e-06,-1.66676e+09,-1.66545e+09,-1.66692e+09,145120,0.109761,0.0270427,0,0.113044,-14970.1,-57582.6,-0,59496.7,145120
step02_gravity_refstate-mantle.xmf,536,1.48136e-06,1.0488e-05,0,4.78961e-07,-1.70718e+09,-1.70598e+09,-1.70738e+09,64013.1,0.109921,0.0123428,0,0.110612,-15534,-58832,-0,60848.3,64013.1
step02_gravity_refstate-mantle.xmf,537,1.86004e-06,9.90504e-06,0,-7.0413e-09,-1.74496e+09,-1.74388e+09,-1.74521e+09,-941.069,0.109218,-2.02719e-19,0,0.109218,-16130.3,-60000,-0,62130.4,941.069
step02_gravity_refstate-mantle.xmf,538,-3.32638e-06,2.01475e-05,0,1.04876e-05,-1.4351e+09,-1.43196e+09,-1.43465e+09,1.40167e+06,0.0910444,0.219009,0,0.23718,-7602.48,-50420,-0,50989.9,1.40167e+06
step02_gravity_refstate-mantle.xmf,539,-5.57922e-06,2.60186e-05,0,1.53115e-05,-1.37105e+09,-1.36683e+09,-1.37031e+09,2.04638e+06,0.0785906,0.321781,0,0.331239,-5469.56,-48441.6,-0,48749.4,2.04638e+06
step02_gravity_refstate-mantle.xmf,540,-5.42979e-06,2.50851e-05,0,1.41327e-05,-1.38879e+09,-1.38471e+09,-1.38806e+09,1.88884e+06,0.0812407,0.297656,0,0.308544,-5800.07,-48988.1,-0,49330.2,1.88884e+06
step02_gravity_refstate-mantle.xmf,541,-5.3215e-06,2.43045e-05,0,1.30373e-05,-1.4065e+09,-1.40254e+09,-1.40579e+09,1.74244e+06,0.0835926,0.275068,0,0.28749,-6124.19,-49534,-0,49911.2,1.74244e+06
step02_gravity_refstate-mantle.xmf,542,-3.79366e-06,2.12259e-05,0,1.13977e-05,-1.42274e+09,-1.4194e+09,-1.42223e+09,1.5233e+06,0.0887261,0.238186,0,0.254175,-7119.01,-50037.9,-0,50541.8,1.5233e+06
step02_gravity_refstate-mantle.xmf,543,-1.19692e-05,3.96368e-05,0,1.8898e-05,-1.32145e+09,-1.31455e+09,-1.31985e+09,2.52572e+06,0.058895,0.444288,0,0.448174,-3460.56,-46901.4,-0,47028.9,2.52572e+06
step02_gravity_refstate-mantle.xmf,544,-7.94775e-06,3.07298e-05,0,1.69095e-05,-1.35365e+09,-1.34848e+09,-1.35259e+09,2.25996e+06,0.0715279,0.368348,0,0.375229,-4545.47,-47900.3,-0,48115.5,2.25996e+06
step02_gravity_refstate-mantle.xmf,545,-1.08872e-05,3.68411e-05,0,1.79943e-05,-1.33691e+09,-1.33053e+09,-1.33545e+09,2.40493e+06,0.0629417,0.416244,0,0.420976,-3713.55,-47379.2,-0,47524.5,2.40493e+06
step02_gravity_refstate-mantle.xmf,546,-1.60382e-05,5.06375e-05,0,1.30798e-05,-1.30259e+09,-1.29367e+09,-1.30044e+09,1.74811e+06,0.0385636,0.516268,0,0.517707,-2252.36,-46319.7,-0,46374.5,1.74811e+06
step02_gravity_refstate-mantle.xmf,547,-1.55598e-05,5.26961e-05,0,1.13813e-05,-1.29196e+09,-1.28284e+09,-1.28988e+09,1.52111e+06,0.0323756,0.540725,0,0.541693,-1997.54,-46000,-0,46043.4,1.52111e+06
step02_gravity_refstate-mantle.xmf,548,-1.59039e-06,1.60855e-05,0,6.32714e-06,-1.50418e+09,-1.50181e+09,-1.50396e+09,845622,0.100883,0.13448,0,0.168114,-10132,-52555.1,-0,53522.8,845622
step02_gravity_refstate-mantle.xmf,549,-1.40864e-06,1.53899e-05,0,4.45915e-06,-1.55991e+09,-1.55767e+09,-1.55972e+09,595965,0.105157,0.0948824,0,0.141636,-11147.8,-54276.2,-0,55409.2,595965
step02_gravity_refstate-mantle.xmf,550,-1.5143e-06,1.57331e-05,0,5.37055e-06,-1.53151e+09,-1.5292e+09,-1.5313e+09,717773,0.103127,0.114175,0,0.153854,-10647.4,-53398.9,-0,54450,717773
step02_gravity_refstate-mantle.xmf,551,-3.16076e-06,1.94043e-05,0,9.27744e-06,-1.4582e+09,-1.45518e+09,-1.45778e+09,1.23993e+06,0.0938354,0.193738,0,0.215266,-8131.44,-51132.8,-0,51775.3,1.23993e+06
step02_gravity_refstate-mantle.xmf,552,-2.99426e-06,1.87566e-05,0,8.175e-06,-1.48109e+09,-1.47818e+09,-1.48069e+09,1.09259e+06,0.0963753,0.170611,0,0.19595,-8648.19,-51839.3,-0,52555.7,1.09259e+06
step02_gravity_refstate-mantle.xmf,553,2.37437e-07,1.25045e-05,0,1.46168e-06,-1.66033e+09,-1.65869e+09,-1.66036e+09,195354,0.110406,0.0334105,0,0.115351,-13802.1,-57381.8,-0,59018.3,195354
step02_gravity_refstate-mantle.xmf,554,-5.26585e-06,2.36193e-05,0,1.20034e-05,-1.42376e+09,-1.4199e+09,-1.42305e+09,1.60425e+06,0.0856679,0.254331,0,0.268371,-6434.63,-50065.7,-0,50477.5,1.60425e+06
step02_gravity_refstate-mantle.xmf,555,-7.59833e-06,2.94623e-05,0,1.57757e-05,-1.3711e+09,-1.36615e+09,-1.37008e+09,2.10842e+06,0.074408,0.342396,0,0.350388,-4834.96,-48438.4,-0,48679.1,2.10842e+06
step02_gravity_refstate-mantle.xmf,556,-1.02263e-05,3.47516e-05,0,1.69102e-05,-1.35327e+09,-1.34726e+09,-1.3519e+09,2.26005e+06,0.066279,0.389099,0,0.394704,-3968.48,-47883.6,-0,48047.8,2.26005e+06
step02_gravity_refstate-mantle.xmf,557,-1.48143e-05,4.48942e-05,0,1.6632e-05,-1.32054e+09,-1.31256e+09,-1.31856e+09,2.22287e+06,0.0511384,0.467937,0,0.470723,-2889.28,-46867.7,-0,46956.7,2.22287e+06
step02_gravity_refstate-mantle.xmf,558,-1.66687e-05,4.91794e-05,0,1.32115e-05,-1.31799e+09,-1.30919e+09,-1.31577e+09,1.76571e+06,0.0410089,0.492541,0,0.494246,-2264.64,-46787.7,-0,46842.5,1.76571e+06
step02_gravity_refstate-mantle.xmf,559,-1.68832e-05,5.24109e-05,0,1.04176e-05,-1.30534e+09,-1.29608e+09,-1.30308e+09,1.39231e+06,0.0316038,0.524917,0,0.525868,-1802.53,-46403.7,-0,46438.7,1.39231e+06
step02_gravity_refstate-mantle.xmf,560,-1.60175e-05,5.44205e-05,0,8.44057e-06,-1.29192e+09,-1.2825e+09,-1.28978e+09,1.12808e+06,0.0244897,0.553783,0,0.554325,-1498.34,-46000,-0,46024.4,1.12808e+06
step02_gravity_refstate-mantle.xmf,561,-1.31395e-06,1.51112e-05,0,3.58346e-06,-1.59034e+09,-1.58814e+09,-1.59016e+09,478930,0.106954,0.0763353,0,0.131401,-11601.8,-55216,-0,56421.7,478930
step02_gravity_refstate-mantle.xmf,562,-2.89131e-06,1.81955e-05,0,7.08353e-06,-1.50576e+09,-1.50294e+09,-1.50538e+09,946714,0.0987775,0.148223,0,0.178121,-9155.64,-52600.8,-0,53391.6,946714
step02_gravity_refstate-mantle.xmf,563,-1.18113e-06,1.4818e-05,0,2.71787e-06,-1.623e+09,-1.62086e+09,-1.62284e+09,363244,0.108538,0.0580059,0,0.123066,-12042.6,-56224.9,-0,57500.1,363244
step02_gravity_refstate-mantle.xmf,564,-8.88527e-07,1.43347e-05,0,1.8899e-06,-1.65545e+09,-1.65341e+09,-1.65533e+09,252585,0.109891,0.0405916,0,0.117148,-12558.6,-57228,-0,58589.7,252585
step02_gravity_refstate-mantle.xmf,565,3.1063e-07,1.24525e-05,0,7.24844e-07,-1.70272e+09,-1.7011e+09,-1.70276e+09,96875.4,0.111202,0.0163976,0,0.112405,-14035.4,-58691.5,-0,60346.4,96875.4
step02_gravity_refstate-mantle.xmf,566,8.4493e-07,1.16244e-05,0,-1.11783e-08,-1.74503e+09,-1.74359e+09,-1.74515e+09,-1493.98,0.111107,-2.83458e-19,0,0.111107,-14737.8,-60000,-0,61783.5,1493.98
step02_gravity_refstate-mantle.xmf,567,-4.96179e-06,2.28183e-05,0,1.11303e-05,-1.43916e+09,-1.43545e+09,-1.4385e+09,1.48756e+06,0.0878857,0.234449,0,0.25038,-6807.19,-50541.5,-0,50997.9,1.48756e+06
step02_gravity_refstate-mantle.xmf,568,-7.31356e-06,2.8239e-05,0,1.45936e-05,-1.38911e+09,-1.38436e+09,-1.38813e+09,1.95043e+06,0.0770679,0.316882,0,0.326119,-5144.17,-48993.4,-0,49262.8,1.95043e+06
step02_gravity_refstate-mantle.xmf,569,-7.05928e-06,2.71708e-05,0,1.34824e-05,-1.40703e+09,-1.40246e+09,-1.40609e+09,1.80193e+06,0.0794822,0.292724,0,0.303322,-5459.04,-49546,-0,49845.8,1.80193e+06
step02_gravity_refstate-mantle.xmf,570,-6.83809e-06,2.62733e-05,0,1.24853e-05,-1.42407e+09,-1.41964e+09,-1.42315e+09,1.66865e+06,0.0816138,0.27085,0,0.282879,-5762.74,-50071.4,-0,50402,1.66865e+06
step02_gravity_refstate-mantle.xmf,571,-1.36516e-05,4.15544e-05,0,1.66848e-05,-1.3364e+09,-1.32902e+09,-1.33457e+09,2.22993e+06,0.0559425,0.437756,0,0.441316,-3145.59,-47356.9,-0,47461.3,2.22993e+06
step02_gravity_refstate-mantle.xmf,572,-9.78572e-06,3.29573e-05,0,1.57105e-05,-1.37057e+09,-1.36485e+09,-1.36926e+09,2.09971e+06,0.0691516,0.362476,0,0.369013,-4229.87,-48416.2,-0,48600.6,2.09971e+06
step02_gravity_refstate-mantle.xmf,573,-1.26795e-05,3.88371e-05,0,1.61084e-05,-1.35267e+09,-1.34579e+09,-1.35098e+09,2.15289e+06,0.0597536,0.409118,0,0.413458,-3399.8,-47859.1,-0,47979.7,2.15289e+06
step02_gravity_refstate-mantle.xmf,574,-1.7308e-05,5.41714e-05,0,7.20977e-06,-1.3041e+09,-1.29454e+09,-1.30178e+09,963585,0.0221717,0.538659,0,0.539115,-1260.22,-46366.9,-0,46384.1,963585
step02_gravity_refstate-mantle.xmf,575,6.31665e-06,-8.16408e-06,0,-2.0187e-05,-1.09803e+09,-1.09996e+09,-1.09887e+09,-2.698e+06,0.0735229,0.543834,0,0.548781,4000,-40000,0,40199.5,2.698e+06
step02_gravity_refstate-mantle.xmf,576,3.25139e-06,-5.07427e-06,0,-2.44332e-05,-1.11469e+09,-1.11581e+09,-1.11513e+09,-3.2655e+06,0.0583189,0.547195,0,0.550294,4000,-40502.2,0,40699.2,3.2655e+06
step02_gravity_refstate-mantle.xmf,577,1.15814e-06,-2.66356e-06,0,-2.07324e-05,-1.10998e+09,-1.11049e+09,-1.11013e+09,-2.77088e+06,0.0637627,0.520367,0,0.524259,4349.11,-40348.6,0,40582.3,2.77088e+06
step02_gravity_refstate-mantle.xmf,578,-2.56287e-07,-2.54106e-06,0,-1.71636e-05,-1.09899e+09,-1.09929e+09,-1.09895e+09,-2.29391e+06,0.0751184,0.507995,0,0.513519,4512.49,-40000,0,40253.7,2.29391e+06
step02_gravity_refstate-mantle.xmf,579,-4.73671e-06,2.20106e-05,0,1.00397e-05,-1.45954e+09,-1.45597e+09,-1.45891e+09,1.3418e+06,0.0903519,0.211009,0,0.229539,-7239.94,-51170.4,-0,51680,1.3418e+06
step02_gravity_refstate-mantle.xmf,580,-2.73505e-06,1.77481e-05,0,6.07443e-06,-1.53223e+09,-1.52949e+09,-1.53186e+09,811848,0.101032,0.126526,0,0.161915,-9649.84,-53418.1,-0,54282.7,811848
step02_gravity_refstate-mantle.xmf,581,-2.46456e-06,1.6958e-05,0,4.16033e-06,-1.58804e+09,-1.58544e+09,-1.58771e+09,556028,0.104926,0.0865065,0,0.135989,-10565.2,-55141.9,-0,56144.9,556028
step02_gravity_refstate-mantle.xmf,582,-2.59654e-06,1.73216e-05,0,5.09507e-06,-1.55952e+09,-1.55686e+09,-1.55917e+09,680956,0.103094,0.106011,0,0.147874,-10126,-54261,-0,55197.7,680956
step02_gravity_refstate-mantle.xmf,583,-4.52219e-06,2.12494e-05,0,8.90163e-06,-1.48263e+09,-1.47918e+09,-1.48202e+09,1.1897e+06,0.0928912,0.186509,0,0.208361,-7711.05,-51883,-0,52452.9,1.1897e+06
step02_gravity_refstate-mantle.xmf,584,-4.29502e-06,2.05282e-05,0,7.77243e-06,-1.50711e+09,-1.50379e+09,-1.50653e+09,1.03879e+06,0.0954033,0.162349,0,0.188306,-8204.05,-52638.8,-0,53274.3,1.03879e+06
step02_gravity_refstate-mantle.xmf,585,-4.64793e-07,1.36653e-05,0,1.22241e-06,-1.68273e+09,-1.68085e+09,-1.68267e+09,163375,0.11082,0.026643,0,0.113977,-13133.5,-58072,-0,59538.6,163375
step02_gravity_refstate-mantle.xmf,586,-6.62323e-06,2.53595e-05,0,1.14662e-05,-1.44151e+09,-1.43724e+09,-1.44063e+09,1.53245e+06,0.0837458,0.249234,0,0.262928,-6088.22,-50609.4,-0,50974.3,1.53245e+06
step02_gravity_refstate-mantle.xmf,587,-9.36707e-06,3.15877e-05,0,1.46574e-05,-1.3889e+09,-1.38343e+09,-1.38765e+09,1.95896e+06,0.0717228,0.335994,0,0.343564,-4502.9,-48981.9,-0,49188.5,1.95896e+06
step02_gravity_refstate-mantle.xmf,588,-1.19333e-05,3.66477e-05,0,1.52938e-05,-1.36922e+09,-1.36273e+09,-1.36763e+09,2.04402e+06,0.0629023,0.381971,0,0.387115,-3653.27,-48369.8,-0,48507.5,2.04402e+06
step02_gravity_refstate-mantle.xmf,589,-1.6026e-05,4.58345e-05,0,1.42211e-05,-1.33547e+09,-1.3272e+09,-1.33332e+09,1.90065e+06,0.0470912,0.458507,0,0.460919,-2552.67,-47323.2,-0,47392,1.90065e+06
step02_gravity_refstate-mantle.xmf,590,-1.63939e-05,5.55578e-05,0,5.56754e-06,-1.2919e+09,-1.28229e+09,-1.28971e+09,744101,0.0164269,0.563074,0,0.563313,-999.46,-46000,-0,46010.9,744101
step02_gravity_refstate-mantle.xmf,591,-1.6554e-05,5.62076e-05,0,2.77104e-06,-1.29188e+09,-1.28216e+09,-1.28967e+09,370350,0.0082442,0.568641,0,0.568701,-500.036,-46000,-0,46002.7,370350
step02_gravity_refstate-mantle.xmf,592,-1.77804e-05,5.50574e-05,0,4.3325e-06,-1.30515e+09,-1.29541e+09,-1.30277e+09,579038,0.0135514,0.544074,0,0.544242,-762.442,-46398.6,-0,46404.9,579038
step02_gravity_refstate-mantle.xmf,593,-1.79267e-05,5.15842e-05,0,9.57661e-06,-1.32134e+09,-1.31205e+09,-1.31894e+09,1.27991e+06,0.03071,0.503288,0,0.504224,-1650.6,-46888.8,-0,46917.9,1.27991e+06
step02_gravity_refstate-mantle.xmf,594,3.28153e-07,-5.22932e-08,0,-2.20483e-05,-1.12326e+09,-1.12331e+09,-1.12331e+09,-2.94675e+06,0.0513183,0.515656,0,0.518203,4421.11,-40760.1,0,40999.2,2.94675e+06
step02_gravity_refstate-mantle.xmf,595,-1.19173e-06,4.09437e-07,0,-1.82115e-05,-1.11281e+09,-1.1126e+09,-1.11265e+09,-2.43397e+06,0.061293,0.491286,0,0.495094,4767.65,-40428.3,0,40708.5,2.43397e+06
step02_gravity_refstate-mantle.xmf,596,2.14022e-06,-9.10109e-07,0,-2.69551e-05,-1.13075e+09,-1.13116e+09,-1.13103e+09,-3.60255e+06,0.0436678,0.548741,0,0.550476,4000,-41001.3,0,41196,3.60255e+06
step02_gravity_refstate-mantle.xmf,597,-2.33695e-06,1.66423e-05,0,3.25342e-06,-1.61818e+09,-1.61564e+09,-1.61787e+09,434820,0.106525,0.0676412,0,0.126186,-10963.2,-56073,-0,57134.7,434820
step02_gravity_refstate-mantle.xmf,598,-4.11072e-06,1.98755e-05,0,6.66634e-06,-1.53255e+09,-1.52934e+09,-1.532e+09,890956,0.0977561,0.139334,0,0.170206,-8687.61,-53424.2,-0,54126,890956
step02_gravity_refstate-mantle.xmf,599,-2.37433e-06,1.6656e-05,0,2.28379e-06,-1.65521e+09,-1.65266e+09,-1.65489e+09,305229,0.107669,0.0471841,0,0.117554,-11196.7,-57216.6,-0,58301.8,305229
step02_gravity_refstate-mantle.xmf,600,-1.68571e-06,1.55774e-05,0,1.44902e-06,-1.68293e+09,-1.68062e+09,-1.6827e+09,193661,0.109545,0.0302976,0,0.113657,-11945.2,-58074.7,-0,59290.5,193661
step02_gravity_refstate-mantle.xmf,601,-9.97374e-07,1.45267e-05,0,7.05547e-07,-1.71192e+09,-1.70985e+09,-1.71179e+09,94296.3,0.110833,0.0149921,0,0.111843,-12683.7,-58972.3,-0,60320.8,94296.3
step02_gravity_refstate-mantle.xmf,602,-3.33231e-07,1.35277e-05,0,-6.88061e-09,-1.74513e+09,-1.74328e+09,-1.74509e+09,-919.593,0.111448,-2.61302e-19,0,0.111448,-13386.3,-60000,-0,61475.1,919.593
step02_gravity_refstate-mantle.xmf,603,-6.43361e-06,2.46889e-05,0,1.05144e-05,-1.46064e+09,-1.45648e+09,-1.45978e+09,1.40526e+06,0.0857213,0.227491,0,0.243106,-6409.34,-51199.9,-0,51599.5,1.40526e+06
step02_gravity_refstate-mantle.xmf,604,-8.95114e-06,3.01805e-05,0,1.35555e-05,-1.40776e+09,-1.40253e+09,-1.40656e+09,1.8117e+06,0.0742989,0.309541,0,0.318333,-4811.89,-49563.6,-0,49796.7,1.8117e+06
step02_gravity_refstate-mantle.xmf,605,-8.60756e-06,2.90148e-05,0,1.25347e-05,-1.42597e+09,-1.42094e+09,-1.42482e+09,1.67526e+06,0.0765612,0.285377,0,0.295468,-5111.21,-50125.5,-0,50385.4,1.67526e+06
step02_gravity_refstate-mantle.xmf,606,-8.32523e-06,2.80448e-05,0,1.15881e-05,-1.4437e+09,-1.43884e+09,-1.44259e+09,1.54874e+06,0.0785547,0.263168,0,0.274642,-5396.54,-50672.5,-0,50959.1,1.54874e+06
step02_gravity_refstate-mantle.xmf,607,-1.50339e-05,4.27785e-05,0,1.44419e-05,-1.35187e+09,-1.34414e+09,-1.34986e+09,1.93016e+06,0.0518095,0.428072,0,0.431196,-2827.09,-47828.7,-0,47912.2,1.93016e+06
step02_gravity_refstate-mantle.xmf,608,-1.15547e-05,3.4984e-05,0,1.41891e-05,-1.38763e+09,-1.38141e+09,-1.38608e+09,1.89637e+06,0.0651149,0.355517,0,0.361431,-3867.55,-48936.6,-0,49089.2,1.89637e+06
step02_gravity_refstate-mantle.xmf,609,-1.40971e-05,4.01528e-05,0,1.41446e-05,-1.36835e+09,-1.3611e+09,-1.36647e+09,1.89042e+06,0.0556194,0.3995,0,0.403353,-3092.77,-48337.4,-0,48436.3,1.89042e+06
step02_gravity_refstate-mantle.xmf,610,-1.76981e-05,4.90785e-05,0,1.10228e-05,-1.33524e+09,-1.32632e+09,-1.33287e+09,1.4732e+06,0.0367739,0.475356,0,0.476776,-1941.69,-47313.3,-0,47353.2,1.4732e+06
step02_gravity_refstate-mantle.xmf,611,-1.65207e-05,5.64402e-05,0,4.72375e-08,-1.29186e+09,-1.28211e+09,-1.28965e+09,6313.29,1.26388e-06,0.570497,0,0.570497,4.01542e-10,-46000,0,46000,6313.29
step02_gravity_refstate-mantle.xmf,612,-1.79239e-05,5.54856e-05,0,1.43148e-06,-1.30549e+09,-1.29568e+09,-1.3031e+09,191317,0.00451825,0.547136,0,0.547155,-253.157,-46409.4,-0,46410.1,191317
step02_gravity_refstate-mantle.xmf,613,-1.84955e-05,5.33978e-05,0,6.03213e-06,-1.31971e+09,-1.31011e+09,-1.31724e+09,806194,0.0195212,0.516712,0,0.51708,-1042.14,-46839.5,-0,46851.1,806194
step02_gravity_refstate-mantle.xmf,614,9.51274e-07,2.98864e-06,0,-2.8798e-05,-1.14688e+09,-1.1466e+09,-1.147e+09,-3.84885e+06,0.0295076,0.548266,0,0.549059,4000,-41501.5,0,41693.8,3.84885e+06
step02_gravity_refstate-mantle.xmf,615,2.01805e-08,3.00228e-06,0,-2.34778e-05,-1.1391e+09,-1.1387e+09,-1.1391e+09,-3.13781e+06,0.036768,0.514305,0,0.515618,4430.02,-41255,0,41492.2,3.13781e+06
step02_gravity_refstate-mantle.xmf,616,-3.39528e-06,8.87431e-07,0,-1.49477e-05,-1.09938e+09,-1.09881e+09,-1.09893e+09,-1.99777e+06,0.0741422,0.473622,0,0.47939,5045.52,-40000,0,40317,1.99777e+06
step02_gravity_refstate-mantle.xmf,617,-6.22229e-06,2.39196e-05,0,9.41421e-06,-1.48364e+09,-1.47961e+09,-1.48281e+09,1.25821e+06,0.0879947,0.202648,0,0.220929,-6798.63,-51909.9,-0,52353.2,1.25821e+06
step02_gravity_refstate-mantle.xmf,618,-3.90636e-06,1.93841e-05,0,5.6657e-06,-1.55901e+09,-1.55589e+09,-1.55848e+09,757221,0.0998599,0.117617,0,0.154291,-9134.89,-54241.7,-0,55005.6,757221
step02_gravity_refstate-mantle.xmf,619,-3.5201e-06,1.84842e-05,0,3.75922e-06,-1.61369e+09,-1.61075e+09,-1.61322e+09,502420,0.10355,0.0775411,0,0.129364,-9969.42,-55931.2,-0,56812.7,502420
step02_gravity_refstate-mantle.xmf,620,-3.75215e-06,1.89655e-05,0,4.69365e-06,-1.58627e+09,-1.58324e+09,-1.58577e+09,627306,0.101716,0.0971369,0,0.140647,-9541.77,-55083.9,-0,55904.3,627306
step02_gravity_refstate-mantle.xmf,621,-5.87836e-06,2.29932e-05,0,8.26366e-06,-1.50806e+09,-1.5042e+09,-1.50727e+09,1.10444e+06,0.0906876,0.176723,0,0.198634,-7276.56,-52663.9,-0,53164.3,1.10444e+06
step02_gravity_refstate-mantle.xmf,622,-5.5643e-06,2.21837e-05,0,7.16095e-06,-1.5331e+09,-1.52939e+09,-1.53236e+09,957061,0.0932299,0.152128,0,0.178423,-7748.86,-53437.6,-0,53996.5,957061
step02_gravity_refstate-mantle.xmf,623,-7.87522e-06,2.69229e-05,0,1.07764e-05,-1.45906e+09,-1.45441e+09,-1.45801e+09,1.44027e+06,0.0809508,0.24277,0,0.255911,-5739.08,-51147.1,-0,51468,1.44027e+06
step02_gravity_refstate-mantle.xmf,624,-1.10432e-05,3.34856e-05,0,1.32683e-05,-1.40686e+09,-1.40091e+09,-1.40538e+09,1.77331e+06,0.0675515,0.328202,0,0.335081,-4133.38,-49530.2,-0,49702.4,1.77331e+06
step02_gravity_refstate-mantle.xmf,625,-1.32355e-05,3.79112e-05,0,1.37335e-05,-1.38286e+09,-1.37603e+09,-1.38109e+09,1.83549e+06,0.0589688,0.374757,0,0.379368,-3361.17,-48785.7,-0,48901.3,1.83549e+06
step02_gravity_refstate-mantle.xmf,626,-1.70341e-05,4.6233e-05,0,1.19005e-05,-1.35133e+09,-1.34288e+09,-1.34905e+09,1.59051e+06,0.0421544,0.445083,0,0.447075,-2225.3,-47807.6,-0,47859.3,1.59051e+06
step02_gravity_refstate-mantle.xmf,627,-1.81318e-05,5.52338e-05,0,-1.68388e-06,-1.30843e+09,-1.29863e+09,-1.30601e+09,-225051,-0.00531185,0.542069,-0,0.542095,293.655,-46498.1,0,46499,225051
step02_gravity_refstate-mantle.xmf,628,-1.88201e-05,5.4258e-05,0,2.86803e-06,-1.31909e+09,-1.30932e+09,-1.31657e+09,383312,0.0094233,0.523321,0,0.523406,-501.369,-46820.1,-0,46822.8,383312
step02_gravity_refstate-mantle.xmf,629,-1.87292e-05,5.12861e-05,0,7.65431e-06,-1.33481e+09,-1.32546e+09,-1.33231e+09,1.023e+06,0.025775,0.488158,0,0.488838,-1338.82,-47299,-0,47317.9,1.023e+06
step02_gravity_refstate-mantle.xmf,630,-3.67588e-07,5.94785e-06,0,-2.50945e-05,-1.15546e+09,-1.15462e+09,-1.15541e+09,-3.35388e+06,0.0222531,0.514871,0,0.515351,4393.76,-41765.5,0,41996,3.35388e+06
step02_gravity_refstate-mantle.xmf,631,-1.44547e-07,7.19951e-06,0,-2.98538e-05,-1.16292e+09,-1.16194e+09,-1.1629e+09,-3.98995e+06,0.0158822,0.545722,0,0.545953,4000,-42000.5,0,42190.6,3.98995e+06
step02_gravity_refstate-mantle.xmf,632,-3.19841e-06,2.97272e-06,0,-1.52178e-05,-1.11436e+09,-1.11353e+09,-1.11393e+09,-2.03386e+06,0.0588332,0.455716,0,0.459498,5324.81,-40469.2,0,40818,2.03386e+06
step02_gravity_refstate-mantle.xmf,633,-1.49884e-06,3.51844e-06,0,-1.86901e-05,-1.13087e+09,-1.1302e+09,-1.13067e+09,-2.49793e+06,0.0441022,0.477808,0,0.479839,4952.88,-40992.1,0,41290.2,2.49793e+06
step02_gravity_refstate-mantle.xmf,634,-1.64662e-05,5.62357e-05,0,-2.72701e-06,-1.29186e+09,-1.28215e+09,-1.28966e+09,-364466,-0.00824456,0.568642,-0,0.568702,500.036,-46000,0,46002.7,364466
step02_gravity_refstate-mantle.xmf,635,-5.05546e-06,3.13733e-06,0,-1.30083e-05,-1.09955e+09,-1.09846e+09,-1.09888e+09,-1.73856e+06,0.0717219,0.440889,0,0.446684,5604.1,-40000,0,40390.7,1.73856e+06
step02_gravity_refstate-mantle.xmf,636,-6.32159e-06,4.79864e-06,0,-1.1276e-05,-1.09969e+09,-1.0982e+09,-1.09885e+09,-1.50704e+06,0.0683235,0.409815,0,0.415471,6190.26,-40000,0,40476.2,1.50704e+06
step02_gravity_refstate-mantle.xmf,637,-4.32166e-06,4.51156e-06,0,-1.28541e-05,-1.11505e+09,-1.11387e+09,-1.11447e+09,-1.71795e+06,0.0561661,0.42341,0,0.427119,5887.65,-40487.1,0,40912.9,1.71795e+06
step02_gravity_refstate-mantle.xmf,638,-3.35095e-06,1.81472e-05,0,2.95094e-06,-1.6393e+09,-1.63643e+09,-1.63886e+09,394393,0.104931,0.0607341,0,0.12124,-10301.5,-56722.6,-0,57650.5,394393
step02_gravity_refstate-mantle.xmf,639,-5.29505e-06,2.14631e-05,0,6.10822e-06,-1.55803e+09,-1.55445e+09,-1.55732e+09,816364,0.0955558,0.129455,0,0.160902,-8198.33,-54207.6,-0,54824,816364
step02_gravity_refstate-mantle.xmf,640,-2.98652e-06,1.75117e-05,0,1.58659e-06,-1.68506e+09,-1.68232e+09,-1.68466e+09,212048,0.107015,0.0329037,0,0.111959,-10851,-58136.9,-0,59140.9,212048
step02_gravity_refstate-mantle.xmf,641,-2.39977e-06,1.66635e-05,0,8.03278e-07,-1.71328e+09,-1.71073e+09,-1.71296e+09,107358,0.108681,0.0165492,0,0.109934,-11411.3,-59010.3,-0,60103.5,107358
step02_gravity_refstate-mantle.xmf,642,-1.68665e-06,1.56223e-05,0,-9.02427e-09,-1.74525e+09,-1.74294e+09,-1.74503e+09,-1206.09,0.11012,-2.81947e-19,0,0.11012,-12072.3,-60000,-0,61202.5,1206.09
step02_gravity_refstate-mantle.xmf,643,-8.21304e-06,2.69661e-05,0,9.69742e-06,-1.48273e+09,-1.47803e+09,-1.48164e+09,1.29606e+06,0.0810034,0.22146,0,0.23581,-5825.1,-51876.3,-0,52202.3,1.29606e+06
step02_gravity_refstate-mantle.xmf,644,-1.04599e-05,3.1854e-05,0,1.22729e-05,-1.42679e+09,-1.42113e+09,-1.42539e+09,1.64027e+06,0.0703031,0.300331,0,0.308449,-4456.73,-50145.5,-0,50343.1,1.64027e+06
step02_gravity_refstate-mantle.xmf,645,-9.97886e-06,3.04891e-05,0,1.1301e-05,-1.44676e+09,-1.44135e+09,-1.44542e+09,1.51038e+06,0.0727697,0.274096,0,0.283592,-4774.9,-50762.1,-0,50986.2,1.51038e+06
step02_gravity_refstate-mantle.xmf,646,-9.44029e-06,2.91417e-05,0,1.03932e-05,-1.46654e+09,-1.46138e+09,-1.46527e+09,1.38906e+06,0.0755203,0.248509,0,0.259731,-5138.95,-51373.3,-0,51629.7,1.38906e+06
step02_gravity_refstate-mantle.xmf,647,-1.61214e-05,4.34118e-05,0,1.22096e-05,-1.36837e+09,-1.36042e+09,-1.36622e+09,1.63181e+06,0.0468109,0.414777,0,0.41741,-2509.52,-48332.9,-0,48398,1.63181e+06
step02_gravity_refstate-mantle.xmf,648,-1.34613e-05,3.73339e-05,0,1.24129e-05,-1.40298e+09,-1.39619e+09,-1.40118e+09,1.65898e+06,0.0583238,0.351422,0,0.356229,-3365.62,-49404,-0,49518.5,1.65898e+06
step02_gravity_refstate-mantle.xmf,649,-1.51484e-05,4.0772e-05,0,1.21565e-05,-1.3856e+09,-1.37813e+09,-1.38358e+09,1.62472e+06,0.0509776,0.385508,0,0.388864,-2803.97,-48864.9,-0,48945.3,1.62472e+06
step02_gravity_refstate-mantle.xmf,650,-1.8455e-05,4.88869e-05,0,8.88373e-06,-1.35032e+09,-1.34132e+09,-1.34786e+09,1.18731e+06,0.0313674,0.459555,0,0.460624,-1618.14,-47773.8,-0,47801.1,1.18731e+06
step02_gravity_refstate-mantle.xmf,651,-1.88079e-05,5.4552e-05,0,2.10748e-07,-1.31812e+09,-1.30832e+09,-1.31561e+09,28166.5,0.00077511,0.526566,0,0.526566,-41.295,-46791.2,-0,46791.2,28166.5
step02_gravity_refstate-mantle.xmf,652,-1.92901e-05,5.26655e-05,0,4.26269e-06,-1.33394e+09,-1.32433e+09,-1.33137e+09,569708,0.0144006,0.497264,0,0.497472,-741.715,-47271.8,-0,47277.6,569708
step02_gravity_refstate-mantle.xmf,653,-1.01316e-06,5.87537e-06,0,-2.08055e-05,-1.15007e+09,-1.14915e+09,-1.14994e+09,-2.78066e+06,0.0267926,0.483539,0,0.48428,4830.22,-41594.6,0,41874.1,2.78066e+06
step02_gravity_refstate-mantle.xmf,654,-9.12389e-07,9.31181e-06,0,-2.57679e-05,-1.17128e+09,-1.16991e+09,-1.17116e+09,-3.44388e+06,0.00872567,0.511038,0,0.511113,4394.58,-42259.1,0,42487,3.44388e+06
step02_gravity_refstate-mantle.xmf,655,-1.77796e-05,5.49136e-05,0,-4.48149e-06,-1.30649e+09,-1.29678e+09,-1.30412e+09,-598951,-0.0141827,0.541479,-0,0.541664,793.082,-46439.7,0,46446.5,598951
step02_gravity_refstate-mantle.xmf,656,-1.62987e-05,5.55817e-05,0,-5.52257e-06,-1.29188e+09,-1.28227e+09,-1.2897e+09,-738092,-0.0164279,0.563075,-0,0.563314,999.46,-46000,0,46010.9,738092
step02_gravity_refstate-mantle.xmf,657,-5.20319e-06,5.72035e-06,0,-1.07286e-05,-1.11553e+09,-1.11407e+09,-1.11483e+09,-1.43387e+06,0.0528604,0.391699,0,0.39525,6503.98,-40499.1,0,41018,1.43387e+06
step02_gravity_refstate-mantle.xmf,658,1.52127e-06,2.83721e-06,0,-2.88141e-09,-1.16909e+09,-1.16892e+09,-1.1693e+09,-385.101,2.84225e-19,0.0371997,0,0.0371997,40000,-42191.3,0,58138.7,385.101
step02_gravity_refstate-mantle.xmf,659,9.51759e-07,2.97395e-06,0,-7.38294e-09,-1.09827e+09,-1.098e+09,-1.09839e+09,-986.729,-7.70936e-20,0.0435824,-0,0.0435824,40000,-40000,0,56568.5,986.729
step02_gravity_refstate-mantle.xmf,660,1.33673e-06,2.89709e-06,0,5.10585e-08,-1.14905e+09,-1.14884e+09,-1.14923e+09,6823.97,-0.00212171,0.0392228,-0,0.0392801,38424.5,-41571,0,56609.1,6823.97
step02_gravity_refstate-mantle.xmf,661,9.13705e-07,3.00786e-06,0,2.23945e-08,-1.09827e+09,-1.09799e+09,-1.0984e+09,2993.03,-0.00205845,0.0441229,-0,0.0441709,37792.8,-40000,0,55030,2993.03
step02_gravity_refstate-mantle.xmf,662,-7.61592e-06,2.56166e-05,0,8.51312e-06,-1.50876e+09,-1.50432e+09,-1.50775e+09,1.13778e+06,0.0844374,0.1913,0,0.209106,-6351.55,-52680.9,-0,53062.4,1.13778e+06
step02_gravity_refstate-mantle.xmf,663,-3.95338e-06,1.89834e-05,0,2.1939e-06,-1.6693e+09,-1.66624e+09,-1.66877e+09,293214,0.10399,0.0451676,0,0.113376,-9999.4,-57647.4,-0,58508.2,293214
step02_gravity_refstate-mantle.xmf,664,-4.56523e-06,1.99592e-05,0,3.18362e-06,-1.64014e+09,-1.63686e+09,-1.63953e+09,425491,0.101282,0.0660851,0,0.120935,-9378.78,-56745,-0,57514.9,425491
step02_gravity_refstate-mantle.xmf,665,-5.14083e-06,2.10607e-05,0,5.13055e-06,-1.58479e+09,-1.58129e+09,-1.58411e+09,685698,0.0972961,0.107987,0,0.145354,-8548.55,-55034.3,-0,55694.3,685698
step02_gravity_refstate-mantle.xmf,666,-4.97375e-06,2.06645e-05,0,4.14889e-06,-1.61276e+09,-1.60933e+09,-1.61209e+09,554499,0.098993,0.0867806,0,0.131645,-8896.62,-55898.2,-0,56601.8,554499
step02_gravity_refstate-mantle.xmf,667,-7.16191e-06,2.45757e-05,0,7.42619e-06,-1.53385e+09,-1.52961e+09,-1.53289e+09,992511,0.0873588,0.164702,0,0.186436,-6827.43,-53456.1,-0,53890.4,992511
step02_gravity_refstate-mantle.xmf,668,-6.73081e-06,2.36522e-05,0,6.40204e-06,-1.55852e+09,-1.55446e+09,-1.55762e+09,855632,0.0901439,0.140167,0,0.166652,-7297.36,-54218.9,-0,54707.7,855632
step02_gravity_refstate-mantle.xmf,669,-1.24838e-05,3.49464e-05,0,1.15889e-05,-1.42612e+09,-1.41978e+09,-1.42445e+09,1.54885e+06,0.0622139,0.31709,0,0.323135,-3748.27,-50119.3,-0,50259.3,1.54885e+06
step02_gravity_refstate-mantle.xmf,670,-1.77898e-05,4.61777e-05,0,9.67132e-06,-1.36801e+09,-1.35946e+09,-1.36563e+09,1.29257e+06,0.036558,0.428434,0,0.429991,-1904.37,-48317.6,-0,48355.1,1.29257e+06
step02_gravity_refstate-mantle.xmf,671,-1.91659e-05,5.37951e-05,0,-1.80813e-06,-1.32573e+09,-1.31598e+09,-1.32317e+09,-241656,-0.00593634,0.51345,-0,0.513484,309.864,-47021.9,0,47022.9,241656
step02_gravity_refstate-mantle.xmf,672,-1.94976e-05,5.33468e-05,0,9.26179e-07,-1.33194e+09,-1.3222e+09,-1.32933e+09,123784,0.00325346,0.503803,0,0.503814,-167.468,-47210.2,-0,47210.5,123784
step02_gravity_refstate-mantle.xmf,673,-1.93534e-05,5.06272e-05,0,5.61356e-06,-1.34999e+09,-1.34063e+09,-1.3474e+09,750252,0.0198597,0.469198,0,0.469618,-1009.54,-47761.8,-0,47772.4,750252
step02_gravity_refstate-mantle.xmf,674,-9.4043e-07,7.93723e-06,0,-2.23875e-05,-1.16375e+09,-1.16256e+09,-1.16362e+09,-2.99208e+06,0.0148878,0.488636,0,0.488863,4718.24,-42022.7,0,42286.7,2.99208e+06
step02_gravity_refstate-mantle.xmf,675,-1.20821e-06,1.13902e-05,0,-3.04117e-05,-1.17899e+09,-1.17731e+09,-1.17883e+09,-4.06452e+06,0.00275927,0.541073,0,0.54108,4000,-42500.6,0,42688.4,4.06452e+06
step02_gravity_refstate-mantle.xmf,676,-2.90985e-06,5.02541e-06,0,-1.48291e-05,-1.1307e+09,-1.12964e+09,-1.13031e+09,-1.9819e+06,0.0429803,0.437032,0,0.439141,5605.3,-40981.2,0,41362.8,1.9819e+06
step02_gravity_refstate-mantle.xmf,677,-1.83424e-06,6.23218e-06,0,-1.70197e-05,-1.14741e+09,-1.14633e+09,-1.14716e+09,-2.27468e+06,0.0285183,0.449523,0,0.450426,5351.4,-41507.7,0,41851.2,2.27468e+06
step02_gravity_refstate-mantle.xmf,678,-1.86336e-05,5.41273e-05,0,-3.69879e-06,-1.31827e+09,-1.30855e+09,-1.31578e+09,-494343,-0.0121028,0.52352,-0,0.523659,646.191,-46795.9,0,46800.4,494343
step02_gravity_refstate-mantle.xmf,679,-1.74946e-05,5.402e-05,0,-7.15876e-06,-1.30639e+09,-1.29684e+09,-1.30406e+09,-956768,-0.0223106,0.53501,-0,0.535475,1254.4,-46436.3,0,46453.3,956768
step02_gravity_refstate-mantle.xmf,680,-1.60364e-05,5.44541e-05,0,-8.36551e-06,-1.29192e+09,-1.2825e+09,-1.28977e+09,-1.11805e+06,-0.0244892,0.553785,-0,0.554326,1498.34,-46000,0,46024.4,1.11805e+06
step02_gravity_refstate-mantle.xmf,681,-6.86651e-06,5.86227e-06,0,-9.75313e-06,-1.09972e+09,-1.09802e+09,-1.0988e+09,-1.30351e+06,0.064257,0.380391,0,0.38578,6805.63,-40000,0,40574.8,1.30351e+06
step02_gravity_refstate-mantle.xmf,682,-3.70463e-06,5.82698e-06,0,-1.21916e-05,-1.13029e+09,-1.12902e+09,-1.12979e+09,-1.6294e+06,0.0414347,0.404134,0,0.406252,6203.51,-40965.3,0,41432.3,1.6294e+06
step02_gravity_refstate-mantle.xmf,683,1.76947e-06,2.77252e-06,0,9.00049e-08,-1.19881e+09,-1.19868e+09,-1.19905e+09,12029.1,-0.00310132,0.0349117,-0,0.0350492,38257.1,-43110.8,0,57638.1,12029.1
step02_gravity_refstate-mantle.xmf,684,1.32285e-06,2.93178e-06,0,1.09969e-07,-1.15246e+09,-1.15225e+09,-1.15264e+09,14697.4,-0.00425305,0.0396609,-0,0.0398883,36872.8,-41676.5,0,55646.5,14697.4
step02_gravity_refstate-mantle.xmf,685,-6.30579e-06,2.28228e-05,0,5.55898e-06,-1.57923e+09,-1.57533e+09,-1.57838e+09,742958,0.0926823,0.120304,0,0.151865,-7734.69,-54859.1,-0,55401.6,742958
step02_gravity_refstate-mantle.xmf,686,-3.97069e-06,1.8998e-05,0,1.04445e-06,-1.70914e+09,-1.70607e+09,-1.70861e+09,139591,0.104572,0.0213781,0,0.106735,-10124.3,-58878,-0,59742.1,139591
step02_gravity_refstate-mantle.xmf,687,-3.18292e-06,1.78665e-05,0,-1.05243e-08,-1.74539e+09,-1.74258e+09,-1.74496e+09,-1406.58,0.107004,-3.61795e-19,0,0.107004,-10791.4,-60000,-0,60962.7,1406.58
step02_gravity_refstate-mantle.xmf,688,-9.41132e-06,2.82426e-05,0,8.42485e-06,-1.50986e+09,-1.50483e+09,-1.5086e+09,1.12598e+06,0.0768033,0.204689,0,0.218624,-5458.27,-52709.4,-0,52991.2,1.12598e+06
step02_gravity_refstate-mantle.xmf,689,-1.17552e-05,3.31487e-05,0,1.07864e-05,-1.44695e+09,-1.44095e+09,-1.44538e+09,1.4416e+06,0.0653796,0.288069,0,0.295395,-4094.87,-50763.2,-0,50928.1,1.4416e+06
step02_gravity_refstate-mantle.xmf,690,-1.10718e-05,3.15417e-05,0,9.97076e-06,-1.46805e+09,-1.46235e+09,-1.46657e+09,1.33259e+06,0.0685318,0.260009,0,0.268889,-4463.36,-51415.2,-0,51608.6,1.33259e+06
step02_gravity_refstate-mantle.xmf,691,-1.0181e-05,2.97668e-05,0,9.24623e-06,-1.48849e+09,-1.48315e+09,-1.48712e+09,1.23576e+06,0.0728773,0.231847,0,0.243031,-4963.79,-52047.9,-0,52284.1,1.23576e+06
step02_gravity_refstate-mantle.xmf,692,-1.69238e-05,4.35806e-05,0,1.00729e-05,-1.38536e+09,-1.37728e+09,-1.3831e+09,1.34624e+06,0.0412027,0.398956,0,0.401078,-2193.65,-48852.8,-0,48902,1.34624e+06
step02_gravity_refstate-mantle.xmf,693,-1.56421e-05,4.05139e-05,0,1.04161e-05,-1.4058e+09,-1.3983e+09,-1.40371e+09,1.39211e+06,0.0474505,0.36413,0,0.367209,-2625.56,-49484.9,-0,49554.5,1.39211e+06
step02_gravity_refstate-mantle.xmf,694,-1.45386e-05,3.80105e-05,0,1.0263e-05,-1.42564e+09,-1.41861e+09,-1.42369e+09,1.37165e+06,0.0522563,0.332808,0,0.336886,-3008.6,-50098.5,-0,50188.8,1.37165e+06
step02_gravity_refstate-mantle.xmf,695,-1.8992e-05,4.82493e-05,0,6.70386e-06,-1.36756e+09,-1.35858e+09,-1.36503e+09,895971,0.0251769,0.439164,0,0.439886,-1285.15,-48301.1,-0,48318.2,895971
step02_gravity_refstate-mantle.xmf,696,-1.98086e-05,5.16568e-05,0,2.11246e-06,-1.34887e+09,-1.33932e+09,-1.34623e+09,282330,0.00740791,0.476025,0,0.476083,-373.914,-47727,-0,47728.4,282330
step02_gravity_refstate-mantle.xmf,697,-1.27839e-06,8.12965e-06,0,-1.90739e-05,-1.16386e+09,-1.1626e+09,-1.16369e+09,-2.54922e+06,0.0143795,0.459808,0,0.460033,5135,-42024.4,0,42337,2.54922e+06
step02_gravity_refstate-mantle.xmf,698,-1.45584e-06,1.26476e-05,0,-2.6024e-05,-1.18702e+09,-1.18514e+09,-1.18683e+09,-3.47811e+06,-0.0041906,0.505248,-0,0.505265,4399.66,-42750.3,0,42976.1,3.47811e+06
step02_gravity_refstate-mantle.xmf,699,-1.13995e-06,1.04695e-05,0,-2.17708e-05,-1.17952e+09,-1.17797e+09,-1.17937e+09,-2.90967e+06,0.0014014,0.474287,0,0.474289,4855.83,-42515.1,0,42791.5,2.90967e+06
step02_gravity_refstate-mantle.xmf,700,-2.20264e-06,1.55943e-05,0,-3.04813e-05,-1.19502e+09,-1.19265e+09,-1.19473e+09,-4.07382e+06,-0.00973889,0.534329,-0,0.534418,4000,-43000,0,43185.6,4.07382e+06
step02_gravity_refstate-mantle.xmf,701,-1.84563e-05,5.34149e-05,0,-6.03519e-06,-1.31925e+09,-1.30964e+09,-1.31678e+09,-806603,-0.0196827,0.517326,-0,0.517701,1052.38,-46825.3,0,46837.1,806603
step02_gravity_refstate-mantle.xmf,702,-1.91627e-05,5.27773e-05,0,-4.47838e-06,-1.3314e+09,-1.32179e+09,-1.32884e+09,-598535,-0.0151087,0.500954,-0,0.501182,781.977,-47194.5,0,47201,598535
step02_gravity_refstate-mantle.xmf,703,-1.71138e-05,5.25274e-05,0,-9.96503e-06,-1.30727e+09,-1.29796e+09,-1.30498e+09,-1.33183e+06,-0.0305783,0.523745,-0,0.524637,1726.57,-46462,0,46494.1,1.33183e+06
step02_gravity_refstate-mantle.xmf,704,-5.30317e-06,6.56199e-06,0,-8.97702e-06,-1.11954e+09,-1.11795e+09,-1.11883e+09,-1.19978e+06,0.0460504,0.360154,0,0.363086,7175.31,-40624.5,0,41253.3,1.19978e+06
step02_gravity_refstate-mantle.xmf,705,-4.2547e-06,6.38631e-06,0,-1.02302e-05,-1.12952e+09,-1.1281e+09,-1.12895e+09,-1.36727e+06,0.0398802,0.376647,0,0.378752,6763.95,-40939.4,0,41494.4,1.36727e+06
step02_gravity_refstate-mantle.xmf,706,2.15907e-06,2.63111e-06,0,-3.08811e-09,-1.23991e+09,-1.23985e+09,-1.2402e+09,-412.726,4.84756e-19,0.0312053,0,0.0312053,40000,-44382.5,0,59747.9,412.726
step02_gravity_refstate-mantle.xmf,707,8.11262e-07,3.09254e-06,0,4.30539e-08,-1.09829e+09,-1.09798e+09,-1.0984e+09,5754.16,-0.00387319,0.0456702,-0,0.0458342,35691.6,-40000,0,53608.7,5754.16
step02_gravity_refstate-mantle.xmf,708,-8.82137e-06,2.70022e-05,0,7.44713e-06,-1.53445e+09,-1.52966e+09,-1.53327e+09,995309,0.0801215,0.17695,0,0.194244,-5923.29,-53469.8,-0,53796.8,995309
step02_gravity_refstate-mantle.xmf,709,-5.52577e-06,2.12893e-05,0,2.49768e-06,-1.66618e+09,-1.66259e+09,-1.66544e+09,333814,0.0984102,0.0526874,0,0.111627,-8821.29,-57546.2,-0,58218.4,333814
step02_gravity_refstate-mantle.xmf,710,-6.11094e-06,2.22147e-05,0,3.4391e-06,-1.63952e+09,-1.63573e+09,-1.6387e+09,459635,0.0954098,0.0737131,0,0.120568,-8277.93,-56721.3,-0,57322.1,459635
step02_gravity_refstate-mantle.xmf,711,-6.65897e-06,2.31652e-05,0,4.59467e-06,-1.60782e+09,-1.60384e+09,-1.60693e+09,614078,0.0921997,0.100178,0,0.136148,-7720.26,-55740.9,-0,56273,614078
step02_gravity_refstate-mantle.xmf,712,-8.2798e-06,2.59026e-05,0,6.4656e-06,-1.55961e+09,-1.55504e+09,-1.5585e+09,864128,0.0833407,0.150378,0,0.171928,-6393.76,-54247.8,-0,54623.3,864128
step02_gravity_refstate-mantle.xmf,713,-7.68367e-06,2.48e-05,0,5.51055e-06,-1.58459e+09,-1.58024e+09,-1.58356e+09,736485,0.0868622,0.125034,0,0.152245,-6916.01,-55020.5,-0,55453.4,736485
step02_gravity_refstate-mantle.xmf,714,-4.96303e-06,2.04393e-05,0,1.69316e-06,-1.69007e+09,-1.68667e+09,-1.6894e+09,226291,0.100988,0.0352186,0,0.106953,-9323.64,-58285.8,-0,59026.8,226291
step02_gravity_refstate-mantle.xmf,715,-1.3595e-05,3.58659e-05,0,9.81014e-06,-1.44669e+09,-1.44008e+09,-1.44487e+09,1.31113e+06,0.0562814,0.302131,0,0.307329,-3375.1,-50749.6,-0,50861.7,1.31113e+06
step02_gravity_refstate-mantle.xmf,716,-1.82962e-05,4.57317e-05,0,7.51252e-06,-1.38593e+09,-1.37737e+09,-1.38348e+09,1.00405e+06,0.0303814,0.408604,0,0.409732,-1579.72,-48866.4,-0,48892,1.00405e+06
step02_gravity_refstate-mantle.xmf,717,-1.98302e-05,5.20454e-05,0,-1.8003e-06,-1.34501e+09,-1.3354e+09,-1.34236e+09,-240610,-0.0062996,0.482388,-0,0.482429,318.83,-47608.4,0,47609.5,240610
step02_gravity_refstate-mantle.xmf,718,-1.97161e-05,4.95821e-05,0,3.43332e-06,-1.36673e+09,-1.35746e+09,-1.36409e+09,458863,0.0128316,0.446864,0,0.447049,-647.003,-48273.7,-0,48278.1,458863
step02_gravity_refstate-mantle.xmf,719,-3.1961e-06,1.97507e-05,0,-3.02079e-05,-1.21106e+09,-1.208e+09,-1.21064e+09,-4.03728e+06,-0.0215206,0.525498,-0,0.525939,4000,-43499.4,0,43682.9,4.03728e+06
step02_gravity_refstate-mantle.xmf,720,-1.9348e-06,1.60333e-05,0,-2.58651e-05,-1.20354e+09,-1.20114e+09,-1.20328e+09,-3.45687e+06,-0.0170715,0.497106,-0,0.497399,4409.06,-43266,0,43490.1,3.45687e+06
step02_gravity_refstate-mantle.xmf,721,-2.52075e-06,6.66192e-06,0,-1.38315e-05,-1.14637e+09,-1.14514e+09,-1.14603e+09,-1.84859e+06,0.0282578,0.415797,0,0.416756,5928.29,-41472.1,0,41893.7,1.84859e+06
step02_gravity_refstate-mantle.xmf,722,-1.60965e-06,8.00996e-06,0,-1.56279e-05,-1.16307e+09,-1.16179e+09,-1.16286e+09,-2.08867e+06,0.0143352,0.426457,0,0.426698,5675.15,-41997.6,0,42379.3,2.08867e+06
step02_gravity_refstate-mantle.xmf,723,-1.57329e-05,5.2735e-05,0,-1.13456e-05,-1.29199e+09,-1.28284e+09,-1.28989e+09,-1.51634e+06,-0.0323747,0.540728,-0,0.541696,1997.54,-46000,0,46043.4,1.51634e+06
step02_gravity_refstate-mantle.xmf,724,-1.80891e-05,5.23791e-05,0,-8.46858e-06,-1.319e+09,-1.30958e+09,-1.31658e+09,-1.13183e+06,-0.0270644,0.51096,-0,0.511676,1457.9,-46817.4,0,46840.1,1.13183e+06
step02_gravity_refstate-mantle.xmf,725,-7.06588e-06,6.55777e-06,0,-8.41533e-06,-1.09971e+09,-1.09789e+09,-1.09876e+09,-1.12471e+06,0.0597502,0.352572,0,0.357599,7451.82,-40000,0,40688.2,1.12471e+06
step02_gravity_refstate-mantle.xmf,726,-3.05315e-06,6.81345e-06,0,-1.13085e-05,-1.14456e+09,-1.14324e+09,-1.14415e+09,-1.51139e+06,0.0281721,0.38467,0,0.3857,6531.92,-41413,0,41924.9,1.51139e+06
step02_gravity_refstate-mantle.xmf,727,2.42323e-06,2.5562e-06,0,1.44804e-07,-1.27057e+09,-1.27055e+09,-1.27089e+09,19353,-0.00521534,0.0291278,-0,0.029591,37856.2,-45331.2,0,59059.4,19353
step02_gravity_refstate-mantle.xmf,728,1.83951e-06,2.78823e-06,0,2.01092e-07,-1.21179e+09,-1.21167e+09,-1.21204e+09,26875.9,-0.00678747,0.0347251,-0,0.0353822,36389.2,-43512.3,0,56723,26875.9
step02_gravity_refstate-mantle.xmf,729,1.24728e-06,3.02864e-06,0,1.92276e-07,-1.15844e+09,-1.15821e+09,-1.15861e+09,25697.7,-0.00730131,0.0410311,-0,0.0416757,34685.2,-41861,0,54363.6,25697.7
step02_gravity_refstate-mantle.xmf,730,-5.62914e-06,2.13879e-05,0,8.66439e-07,-1.71802e+09,-1.71441e+09,-1.71726e+09,115800,0.0986871,0.0182686,0,0.100364,-8898.6,-59147.1,-0,59812.8,115800
step02_gravity_refstate-mantle.xmf,731,-4.7877e-06,2.02064e-05,0,-4.42323e-09,-1.74554e+09,-1.7422e+09,-1.7449e+09,-591.165,0.10201,-3.04185e-19,0,0.10201,-9538.96,-60000,-0,60753.5,591.165
step02_gravity_refstate-mantle.xmf,732,-1.04892e-05,2.93879e-05,0,7.17326e-06,-1.53508e+09,-1.52975e+09,-1.53368e+09,958706,0.0715103,0.188409,0,0.201524,-5033.17,-53484.3,-0,53720.6,958706
step02_gravity_refstate-mantle.xmf,733,-1.11983e-05,3.07862e-05,0,7.93757e-06,-1.51172e+09,-1.50611e+09,-1.51022e+09,1.06086e+06,0.0676894,0.21624,0,0.226587,-4580.87,-52761.5,-0,52960,1.06086e+06
step02_gravity_refstate-mantle.xmf,734,-1.27786e-05,3.40416e-05,0,9.23262e-06,-1.46789e+09,-1.46163e+09,-1.46618e+09,1.23394e+06,0.059898,0.273036,0,0.279528,-3737.78,-51405.2,-0,51540.9,1.23394e+06
step02_gravity_refstate-mantle.xmf,735,-1.19742e-05,3.23477e-05,0,8.61471e-06,-1.48949e+09,-1.48357e+09,-1.48789e+09,1.15136e+06,0.0637397,0.244417,0,0.252592,-4142.29,-52073.5,-0,52238,1.15136e+06
step02_gravity_refstate-mantle.xmf,736,-1.73604e-05,4.31415e-05,0,8.08036e-06,-1.40531e+09,-1.39722e+09,-1.40299e+09,1.07994e+06,0.0357516,0.37718,0,0.37887,-1914.73,-49464.9,-0,49501.9,1.07994e+06
step02_gravity_refstate-mantle.xmf,737,-1.63065e-05,4.0623e-05,0,8.37071e-06,-1.4255e+09,-1.41789e+09,-1.42332e+09,1.11874e+06,0.0410728,0.345565,0,0.347997,-2282.29,-50089,-0,50141,1.11874e+06
step02_gravity_refstate-mantle.xmf,738,-1.53268e-05,3.84053e-05,0,8.33813e-06,-1.44588e+09,-1.43869e+09,-1.44383e+09,1.11439e+06,0.0456595,0.315377,0,0.318665,-2636.83,-50719.4,-0,50787.9,1.11439e+06
step02_gravity_refstate-mantle.xmf,739,-1.92695e-05,4.7348e-05,0,4.54767e-06,-1.38517e+09,-1.37627e+09,-1.3826e+09,607796,0.0182083,0.417234,0,0.417631,-930.717,-48840.8,-0,48849.6,607796
step02_gravity_refstate-mantle.xmf,740,-1.99604e-05,5.01548e-05,0,-2.08685e-08,-1.36511e+09,-1.35574e+09,-1.36245e+09,-2789.08,-0.000107524,0.451549,-0,0.451549,5.40554,-48223.8,0,48223.8,2789.08
step02_gravity_refstate-mantle.xmf,741,-4.13892e-06,2.38351e-05,0,-2.95733e-05,-1.22712e+09,-1.22338e+09,-1.22656e+09,-3.95247e+06,-0.0324358,0.514591,-0,0.515612,4000,-43999.5,0,44180.9,3.95247e+06
step02_gravity_refstate-mantle.xmf,742,-2.4956e-06,1.95606e-05,0,-2.57564e-05,-1.21968e+09,-1.21673e+09,-1.21935e+09,-3.44234e+06,-0.0287281,0.490095,-0,0.490936,4382.94,-43769.8,0,43988.7,3.44234e+06
step02_gravity_refstate-mantle.xmf,743,-1.05349e-06,9.94489e-06,0,-1.74787e-05,-1.17981e+09,-1.17834e+09,-1.17967e+09,-2.33603e+06,0.000558195,0.436541,0,0.436542,5430.11,-42523.4,0,42868.7,2.33603e+06
step02_gravity_refstate-mantle.xmf,744,-1.29086e-06,1.32978e-05,0,-2.27575e-05,-1.19433e+09,-1.19238e+09,-1.19415e+09,-3.04155e+06,-0.0104833,0.476941,-0,0.477056,4740.49,-42978.7,0,43239.3,3.04155e+06
step02_gravity_refstate-mantle.xmf,745,-1.86334e-05,5.1457e-05,0,-7.70434e-06,-1.33237e+09,-1.323e+09,-1.32988e+09,-1.02969e+06,-0.0259245,0.491755,-0,0.492438,1352.14,-47224.5,0,47243.8,1.02969e+06
step02_gravity_refstate-mantle.xmf,746,-1.93473e-05,5.09174e-05,0,-5.5177e-06,-1.34708e+09,-1.33769e+09,-1.3445e+09,-737441,-0.019442,0.47393,-0,0.474329,989.803,-47672.9,0,47683.2,737441
step02_gravity_refstate-mantle.xmf,747,-1.49137e-05,5.03049e-05,0,-1.4321e-05,-1.29202e+09,-1.2833e+09,-1.29003e+09,-1.91401e+06,-0.0399827,0.523854,-0,0.525378,2497.35,-46000,0,46067.7,1.91401e+06
step02_gravity_refstate-mantle.xmf,748,-1.65313e-05,5.03134e-05,0,-1.29755e-05,-1.30848e+09,-1.29955e+09,-1.30627e+09,-1.73417e+06,-0.0390831,0.50819,-0,0.509691,2223.6,-46497.8,0,46551,1.73417e+06
step02_gravity_refstate-mantle.xmf,749,-1.77227e-05,5.01449e-05,0,-1.08754e-05,-1.32653e+09,-1.31746e+09,-1.32416e+09,-1.45349e+06,-0.035237,0.489934,-0,0.4912,1883.58,-47046.9,0,47084.6,1.45349e+06
step02_gravity_refstate-mantle.xmf,750,-3.60352e-06,6.94292e-06,0,-9.29425e-06,-1.14096e+09,-1.13955e+09,-1.14048e+09,-1.24218e+06,0.029098,0.357134,0,0.358318,7140.97,-41298.5,0,41911.4,1.24218e+06
step02_gravity_refstate-mantle.xmf,751,-5.60574e-06,6.93506e-06,0,-7.56692e-06,-1.11772e+09,-1.11604e+09,-1.11697e+09,-1.01132e+06,0.0438588,0.333585,0,0.336455,7833.48,-40567.1,0,41316.5,1.01132e+06
step02_gravity_refstate-mantle.xmf,752,2.80779e-06,2.40162e-06,0,-1.32316e-09,-1.31073e+09,-1.31078e+09,-1.3111e+09,-176.84,5.36543e-19,0.0256917,0,0.0256917,40000,-46573.9,0,61393.2,176.84
step02_gravity_refstate-mantle.xmf,753,6.36471e-07,3.2232e-06,0,5.50581e-08,-1.09832e+09,-1.09797e+09,-1.0984e+09,7358.52,-0.00534057,0.0481436,-0,0.0484389,33691.1,-40000,0,52298.1,7358.52
step02_gravity_refstate-mantle.xmf,754,-6.4133e-06,2.25118e-05,0,1.69947e-06,-1.69302e+09,-1.68915e+09,-1.69216e+09,227134,0.0950592,0.0367614,0,0.10192,-8282.89,-58372.6,-0,58957.3,227134
step02_gravity_refstate-mantle.xmf,755,-9.88391e-06,2.81911e-05,0,6.31456e-06,-1.56003e+09,-1.55494e+09,-1.55871e+09,843941,0.0749647,0.160924,0,0.177528,-5472.31,-54255.8,-0,54531.1,843941
step02_gravity_refstate-mantle.xmf,756,-7.08126e-06,2.35043e-05,0,2.56952e-06,-1.66767e+09,-1.66358e+09,-1.66672e+09,343417,0.0915531,0.0570001,0,0.107847,-7734.99,-57587.6,-0,58104.7,343417
step02_gravity_refstate-mantle.xmf,757,-7.75426e-06,2.45516e-05,0,3.53071e-06,-1.6401e+09,-1.63578e+09,-1.63906e+09,471879,0.0877084,0.080687,0,0.119177,-7167.8,-56734.2,-0,57185.2,471879
step02_gravity_refstate-mantle.xmf,758,-9.22756e-06,2.69879e-05,0,5.41438e-06,-1.58615e+09,-1.58131e+09,-1.58492e+09,723632,0.0788895,0.133325,0,0.154916,-5977.54,-55064.1,-0,55387.6,723632
step02_gravity_refstate-mantle.xmf,759,-8.59471e-06,2.58768e-05,0,4.4522e-06,-1.61377e+09,-1.60916e+09,-1.61262e+09,595037,0.0827856,0.1061,0,0.134576,-6500.23,-55918.6,-0,56295.1,595037
step02_gravity_refstate-mantle.xmf,760,-1.44213e-05,3.6419e-05,0,8.06846e-06,-1.46737e+09,-1.46058e+09,-1.46545e+09,1.07835e+06,0.0498033,0.285345,0,0.289659,-2992.73,-51384.5,-0,51471.6,1.07835e+06
step02_gravity_refstate-mantle.xmf,761,-1.85622e-05,4.50236e-05,0,5.42655e-06,-1.40441e+09,-1.39592e+09,-1.40193e+09,725259,0.0235658,0.387044,0,0.387761,-1234.44,-49434,-0,49449.4,725259
step02_gravity_refstate-mantle.xmf,762,-1.97489e-05,4.82114e-05,0,1.37357e-06,-1.38395e+09,-1.37487e+09,-1.38131e+09,183578,0.00545572,0.422764,0,0.4228,-276.432,-48802.2,-0,48802.9,183578
step02_gravity_refstate-mantle.xmf,763,-5.03039e-06,2.78113e-05,0,-2.84219e-05,-1.24313e+09,-1.23874e+09,-1.24246e+09,-3.79859e+06,-0.0422183,0.501686,-0,0.50346,4000,-44498.5,0,44677.9,3.79859e+06
step02_gravity_refstate-mantle.xmf,764,-3.33107e-06,2.34386e-05,0,-2.60287e-05,-1.23505e+09,-1.23147e+09,-1.23461e+09,-3.47874e+06,-0.0386005,0.48701,-0,0.488537,4284.95,-44249,0,44456,3.47874e+06
step02_gravity_refstate-mantle.xmf,765,-8.56475e-07,1.23611e-05,0,-1.94644e-05,-1.19681e+09,-1.19505e+09,-1.1967e+09,-2.60141e+06,-0.0129104,0.446145,-0,0.446332,5183.04,-43056,0,43366.8,2.60141e+06
step02_gravity_refstate-mantle.xmf,766,-1.17759e-06,1.58574e-05,0,-2.15851e-05,-1.21257e+09,-1.2103e+09,-1.21242e+09,-2.88485e+06,-0.0245681,0.459692,-0,0.460348,4870.36,-43549.7,0,43821.2,2.88485e+06
step02_gravity_refstate-mantle.xmf,767,-1.96141e-06,7.80448e-06,0,-1.26731e-05,-1.16142e+09,-1.16012e+09,-1.16116e+09,-1.69376e+06,0.014722,0.394085,0,0.39436,6269.8,-41943.7,0,42409.8,1.69376e+06
step02_gravity_refstate-mantle.xmf,768,-1.07225e-06,9.21568e-06,0,-1.42828e-05,-1.17891e+09,-1.17754e+09,-1.17877e+09,-1.9089e+06,0.000727837,0.403779,0,0.40378,6001.1,-42493.6,0,42915.3,1.9089e+06
step02_gravity_refstate-mantle.xmf,769,-1.97364e-05,4.98463e-05,0,-3.52497e-06,-1.36362e+09,-1.35432e+09,-1.36099e+09,-471112,-0.013048,0.45152,-0,0.451709,657.755,-48178.5,0,48183,471112
step02_gravity_refstate-mantle.xmf,770,-1.51994e-05,4.71376e-05,0,-1.61816e-05,-1.3077e+09,-1.29937e+09,-1.30567e+09,-2.16267e+06,-0.0472004,0.491368,-0,0.49363,2744.83,-46474.5,0,46555.5,2.16267e+06
step02_gravity_refstate-mantle.xmf,771,-1.39341e-05,4.68085e-05,0,-1.74398e-05,-1.2921e+09,-1.28398e+09,-1.29023e+09,-2.33083e+06,-0.0471699,0.503167,-0,0.505373,2997.53,-46000,0,46097.6,2.33083e+06
step02_gravity_refstate-mantle.xmf,772,-7.00292e-06,6.9416e-06,0,-7.27407e-06,-1.09966e+09,-1.0978e+09,-1.09873e+09,-972180,0.0549647,0.326299,0,0.330896,8130.43,-40000,0,40817.9,972180
step02_gravity_refstate-mantle.xmf,773,-6.8182e-06,7.2133e-06,0,-6.23809e-06,-1.0996e+09,-1.09772e+09,-1.09869e+09,-833720,0.0500268,0.301504,0,0.305626,8843.14,-40000,0,40965.9,833720
step02_gravity_refstate-mantle.xmf,774,-5.61364e-06,7.11615e-06,0,-6.39892e-06,-1.11693e+09,-1.11523e+09,-1.11618e+09,-855215,0.0404344,0.307926,0,0.310569,8538.28,-40543.3,0,41432.6,855215
step02_gravity_refstate-mantle.xmf,775,-4.07223e-06,7.13288e-06,0,-7.67449e-06,-1.13769e+09,-1.13619e+09,-1.13715e+09,-1.0257e+06,0.0291762,0.331174,0,0.332456,7783.14,-41194.8,0,41923.6,1.0257e+06
step02_gravity_refstate-mantle.xmf,776,-2.28403e-06,7.54268e-06,0,-1.03378e-05,-1.15937e+09,-1.15806e+09,-1.15907e+09,-1.38164e+06,0.0151033,0.364063,0,0.364376,6894.09,-41877.6,0,42441.3,1.38164e+06
step02_gravity_refstate-mantle.xmf,777,2.35656e-06,2.63576e-06,0,2.92482e-07,-1.26884e+09,-1.26881e+09,-1.26916e+09,39090.2,-0.0104263,0.0304476,-0,0.0321833,35655,-45277.7,0,57631.1,39090.2
step02_gravity_refstate-mantle.xmf,778,3.11064e-06,2.30421e-06,0,1.35611e-07,-1.34554e+09,-1.34564e+09,-1.34595e+09,18124.4,-0.00572581,0.0233967,-0,0.0240871,38161.2,-47650.8,0,61048.2,18124.4
step02_gravity_refstate-mantle.xmf,779,4.45107e-07,3.38622e-06,0,4.72454e-08,-1.09834e+09,-1.09795e+09,-1.0984e+09,6314.35,-0.00639037,0.0515041,-0,0.051899,31786.7,-40000,0,51092,6314.35
step02_gravity_refstate-mantle.xmf,780,1.01842e-06,3.18985e-06,0,2.27653e-07,-1.14996e+09,-1.14967e+09,-1.15009e+09,30425.8,-0.0090661,0.0445044,-0,0.0454184,32738.9,-41597.7,0,52935.8,30425.8
step02_gravity_refstate-mantle.xmf,781,1.89027e-06,2.83199e-06,0,3.07053e-07,-1.2247e+09,-1.22458e+09,-1.22496e+09,41037.6,-0.0105811,0.0350646,-0,0.0366263,34641.2,-43911.5,0,55930.6,41037.6
step02_gravity_refstate-mantle.xmf,782,-7.28418e-06,2.37233e-05,0,8.16184e-07,-1.72091e+09,-1.71677e+09,-1.71994e+09,109083,0.0910476,0.0182431,0,0.0928573,-7716.43,-59231.6,-0,59732.1,109083
step02_gravity_refstate-mantle.xmf,783,-6.47141e-06,2.26009e-05,0,-3.35021e-09,-1.74571e+09,-1.74182e+09,-1.74484e+09,-447.755,0.0950948,-2.94773e-19,0,0.0950948,-8310.4,-60000,-0,60572.8,447.755
step02_gravity_refstate-mantle.xmf,784,-1.14304e-05,3.03639e-05,0,5.90314e-06,-1.56022e+09,-1.55463e+09,-1.55869e+09,788954,0.0653093,0.170781,0,0.182842,-4566.29,-54256.8,-0,54448.6,788954
step02_gravity_refstate-mantle.xmf,785,-1.21041e-05,3.16617e-05,0,6.58322e-06,-1.53543e+09,-1.52958e+09,-1.53381e+09,879847,0.0614709,0.199144,0,0.208416,-4144.99,-53489.9,-0,53650.3,879847
step02_gravity_refstate-mantle.xmf,786,-1.28225e-05,3.30869e-05,0,7.17088e-06,-1.51195e+09,-1.50582e+09,-1.51024e+09,958389,0.0576215,0.227475,0,0.23466,-3742.7,-52763.7,-0,52896.2,958389
step02_gravity_refstate-mantle.xmf,787,-1.3598e-05,3.46714e-05,0,7.66555e-06,-1.48931e+09,-1.48286e+09,-1.48749e+09,1.0245e+06,0.0537096,0.256216,0,0.261784,-3356.25,-52063,-0,52171.1,1.0245e+06
step02_gravity_refstate-mantle.xmf,788,-1.58445e-05,3.84715e-05,0,6.52473e-06,-1.4664e+09,-1.45914e+09,-1.46429e+09,872030,0.0386831,0.296207,0,0.298722,-2254.11,-51350.2,-0,51399.7,872030
step02_gravity_refstate-mantle.xmf,789,-1.76909e-05,4.2702e-05,0,6.05287e-06,-1.42449e+09,-1.41642e+09,-1.42213e+09,808966,0.0288756,0.356463,0,0.357631,-1561.92,-50054.1,-0,50078.4,808966
step02_gravity_refstate-mantle.xmf,790,-1.67626e-05,4.0505e-05,0,6.41803e-06,-1.445e+09,-1.43734e+09,-1.44276e+09,857770,0.0339543,0.326313,0,0.328075,-1904.21,-50688,-0,50723.8,857770
step02_gravity_refstate-mantle.xmf,791,-1.92692e-05,4.61769e-05,0,2.514e-06,-1.40317e+09,-1.39443e+09,-1.4006e+09,335996,0.0107874,0.393845,0,0.393993,-557.623,-49393.9,-0,49397.1,335996
step02_gravity_refstate-mantle.xmf,792,-1.97308e-05,4.8283e-05,0,-1.88513e-06,-1.3824e+09,-1.37331e+09,-1.37976e+09,-251947,-0.00745669,0.424745,-0,0.424811,377.669,-48754.5,0,48756,251947
step02_gravity_refstate-mantle.xmf,793,-2.60163e-06,2.41563e-05,0,-2.34596e-05,-1.24984e+09,-1.24627e+09,-1.2495e+09,-3.13538e+06,-0.0479142,0.462411,-0,0.464887,4483.27,-44712.6,0,44936.8,3.13538e+06
step02_gravity_refstate-mantle.xmf,794,-1.72085e-06,1.97426e-05,0,-2.27938e-05,-1.23141e+09,-1.22854e+09,-1.23118e+09,-3.0464e+06,-0.0373037,0.462451,-0,0.463953,4673.58,-44137.7,0,44384.4,3.0464e+06
step02_gravity_refstate-mantle.xmf,795,-4.91659e-07,1.11033e-05,0,-1.58756e-05,-1.19634e+09,-1.19479e+09,-1.19627e+09,-2.12178e+06,-0.01291,0.412186,-0,0.412389,5751.07,-43040.5,0,43423.1,2.12178e+06
step02_gravity_refstate-mantle.xmf,796,-1.84332e-05,4.93303e-05,0,-8.97299e-06,-1.34541e+09,-1.33635e+09,-1.34295e+09,-1.19924e+06,-0.0312119,0.467004,-0,0.468046,1614.44,-47623.2,0,47650.6,1.19924e+06
step02_gravity_refstate-mantle.xmf,797,-1.89705e-05,4.85866e-05,0,-6.96751e-06,-1.36272e+09,-1.35369e+09,-1.36019e+09,-931207,-0.0257386,0.445964,-0,0.446706,1313.69,-48152.5,0,48170.4,931207
step02_gravity_refstate-mantle.xmf,798,-1.62208e-05,4.72346e-05,0,-1.42346e-05,-1.32483e+09,-1.31635e+09,-1.32266e+09,-1.90245e+06,-0.045142,0.476011,-0,0.478146,2475.64,-46996.9,0,47062.1,1.90245e+06
step02_gravity_refstate-mantle.xmf,799,-1.33292e-05,4.24972e-05,0,-1.93457e-05,-1.30725e+09,-1.29979e+09,-1.30547e+09,-2.58556e+06,-0.0542869,0.471396,-0,0.474512,3246.54,-46461.1,0,46574.4,2.58556e+06
step02_gravity_refstate-mantle.xmf,800,-5.42896e-06,7.25329e-06,0,-5.391e-06,-1.11788e+09,-1.11618e+09,-1.11715e+09,-720507,0.0357593,0.283837,0,0.286081,9265.73,-40574,0,41618.6,720507
step02_gravity_refstate-mantle.xmf,801,-6.51756e-06,7.30589e-06,0,-5.35235e-06,-1.09953e+09,-1.09768e+09,-1.09865e+09,-715341,0.045028,0.278117,0,0.281739,9591.69,-40000,0,41133.9,715341
step02_gravity_refstate-mantle.xmf,802,-2.64556e-06,7.41994e-06,0,-8.42178e-06,-1.15666e+09,-1.15531e+09,-1.15631e+09,-1.12557e+06,0.0156222,0.336406,0,0.336769,7545.37,-41791,0,42466.7,1.12557e+06
step02_gravity_refstate-mantle.xmf,803,-4.26837e-06,7.2157e-06,0,-6.51057e-06,-1.13586e+09,-1.13432e+09,-1.13528e+09,-870137,0.0279708,0.308767,0,0.310031,8393.55,-41137,0,41984.6,870137
step02_gravity_refstate-mantle.xmf,804,3.43197e-06,2.17281e-06,0,-1.49664e-09,-1.38164e+09,-1.38181e+09,-1.3821e+09,-200.026,6.50938e-19,0.0206727,0,0.0206727,40000,-48768,0,63073.9,200.026
step02_gravity_refstate-mantle.xmf,805,2.83024e-06,2.4418e-06,0,2.49698e-07,-1.31709e+09,-1.31714e+09,-1.31746e+09,33372.2,-0.00979619,0.0260908,-0,0.0278693,36565,-46770.5,0,59367.3,33372.2
step02_gravity_refstate-mantle.xmf,806,7.93625e-07,3.37423e-06,0,2.40731e-07,-1.14537e+09,-1.14502e+09,-1.14547e+09,32173.7,-0.0104215,0.0484732,-0,0.0495808,30887.9,-41454.8,0,51696.8,32173.7
step02_gravity_refstate-mantle.xmf,807,1.67479e-06,2.99755e-06,0,3.84204e-07,-1.21437e+09,-1.2142e+09,-1.2146e+09,51348.8,-0.0133494,0.0383163,-0,0.0405752,32746.4,-43591.4,0,54521,51348.8
step02_gravity_refstate-mantle.xmf,808,-7.95487e-06,2.46717e-05,0,1.66849e-06,-1.69526e+09,-1.6909e+09,-1.6942e+09,222994,0.0872833,0.0386278,0,0.0954488,-7202.4,-58437.2,-0,58879.4,222994
step02_gravity_refstate-mantle.xmf,809,-1.07478e-05,2.91187e-05,0,5.15544e-06,-1.58619e+09,-1.58086e+09,-1.58476e+09,689025,0.069491,0.142339,0,0.158397,-5036.06,-55060.6,-0,55290.5,689025
step02_gravity_refstate-mantle.xmf,810,-8.64845e-06,2.5687e-05,0,2.5163e-06,-1.6698e+09,-1.66521e+09,-1.66864e+09,336304,0.0830559,0.0605435,0,0.10278,-6657.82,-57648.4,-0,58031.6,336304
step02_gravity_refstate-mantle.xmf,811,-9.37053e-06,2.68025e-05,0,3.43312e-06,-1.64181e+09,-1.63697e+09,-1.64056e+09,458837,0.0784414,0.0862998,0,0.116622,-6088.69,-56781.9,-0,57107.4,458837
step02_gravity_refstate-mantle.xmf,812,-1.00586e-05,2.79344e-05,0,4.35625e-06,-1.6127e+09,-1.60763e+09,-1.61136e+09,582213,0.0739291,0.114671,0,0.136437,-5546.91,-55881.2,-0,56155.8,582213
step02_gravity_refstate-mantle.xmf,813,-1.49996e-05,3.6673e-05,0,6.4121e-06,-1.48833e+09,-1.48143e+09,-1.48633e+09,856977,0.0429365,0.266856,0,0.270288,-2598.75,-52028.7,-0,52093.5,856977
step02_gravity_refstate-mantle.xmf,814,-1.85918e-05,4.40827e-05,0,3.45069e-06,-1.42333e+09,-1.41496e+09,-1.42085e+09,461185,0.0161712,0.36417,0,0.364529,-859.703,-50015.8,-0,50023.2,461185
step02_gravity_refstate-mantle.xmf,815,-1.94729e-05,4.65811e-05,0,-4.79575e-07,-1.40152e+09,-1.3927e+09,-1.39892e+09,-64095.2,-0.00202679,0.397479,-0,0.397484,104.281,-49342.6,0,49342.7,64095.2
step02_gravity_refstate-mantle.xmf,816,-5.88352e-06,3.13926e-05,0,-2.70065e-05,-1.25921e+09,-1.25423e+09,-1.25843e+09,-3.60941e+06,-0.0505448,0.486812,-0,0.489429,4000,-44998.7,0,45176.1,3.60941e+06
step02_gravity_refstate-mantle.xmf,817,-2.70553e-07,1.3379e-05,0,-1.76519e-05,-1.21311e+09,-1.21128e+09,-1.21307e+09,-2.35917e+06,-0.0253833,0.421229,-0,0.421993,5482.74,-43565.9,0,43909.5,2.35917e+06
step02_gravity_refstate-mantle.xmf,818,-3.79498e-07,1.63832e-05,0,-1.9172e-05,-1.22963e+09,-1.22739e+09,-1.22958e+09,-2.56234e+06,-0.0367318,0.429494,-0,0.431062,5212.77,-44083.2,0,44390.4,2.56234e+06
step02_gravity_refstate-mantle.xmf,819,-1.21271e-06,8.58184e-06,0,-1.16018e-05,-1.1773e+09,-1.176e+09,-1.17714e+09,-1.55058e+06,0.00135006,0.37245,0,0.372453,6620.77,-42441.3,0,42954.6,1.55058e+06
step02_gravity_refstate-mantle.xmf,820,-3.6186e-07,9.92537e-06,0,-1.30251e-05,-1.19501e+09,-1.19364e+09,-1.19497e+09,-1.7408e+06,-0.0121156,0.380592,-0,0.380784,6352.24,-42997.5,0,43464.2,1.7408e+06
step02_gravity_refstate-mantle.xmf,821,-1.92083e-05,4.75358e-05,0,-5.10406e-06,-1.38082e+09,-1.3719e+09,-1.37826e+09,-682158,-0.0201375,0.422657,-0,0.423137,1028.18,-48707.4,0,48718.3,682158
step02_gravity_refstate-mantle.xmf,822,-1.25561e-05,4.11036e-05,0,-2.1176e-05,-1.29227e+09,-1.2851e+09,-1.29059e+09,-2.83018e+06,-0.0537394,0.478844,-0,0.48185,3497.18,-46000,0,46132.7,2.83018e+06
step02_gravity_refstate-mantle.xmf,823,-1.43159e-05,4.35406e-05,0,-1.71017e-05,-1.32263e+09,-1.31489e+09,-1.32071e+09,-2.28564e+06,-0.052895,0.461163,-0,0.464186,2996.02,-46932.2,0,47027.7,2.28564e+06
step02_gravity_refstate-mantle.xmf,824,-1.70706e-05,4.70343e-05,0,-1.21698e-05,-1.34275e+09,-1.33419e+09,-1.34047e+09,-1.62649e+06,-0.0416873,0.457757,-0,0.459652,2208.15,-47544.4,0,47595.6,1.62649e+06
step02_gravity_refstate-mantle.xmf,825,-4.22229e-06,7.2219e-06,0,-5.54746e-06,-1.13594e+09,-1.13441e+09,-1.13537e+09,-741418,0.0251694,0.286983,0,0.288085,9036.97,-41139.9,0,42120.7,741418
step02_gravity_refstate-mantle.xmf,826,-5.07741e-06,7.24771e-06,0,-4.53738e-06,-1.12004e+09,-1.1184e+09,-1.11937e+09,-606421,0.0305099,0.26151,0,0.263284,10006.8,-40643.3,0,41857.1,606421
step02_gravity_refstate-mantle.xmf,827,-2.97955e-06,7.38596e-06,0,-6.96873e-06,-1.15402e+09,-1.15263e+09,-1.15362e+09,-931371,0.0157988,0.312388,0,0.312787,8179.3,-41707.2,0,42501.6,931371
step02_gravity_refstate-mantle.xmf,828,-1.41282e-06,8.03628e-06,0,-9.47944e-06,-1.17523e+09,-1.17396e+09,-1.17504e+09,-1.26693e+06,0.0021367,0.343748,0,0.343754,7263.24,-42374.4,0,42992.3,1.26693e+06
step02_gravity_refstate-mantle.xmf,829,2.29623e-06,2.74095e-06,0,4.103e-07,-1.27006e+09,-1.27e+09,-1.27037e+09,54836.6,-0.0149653,0.0321075,-0,0.0354239,33730,-45315.2,0,56490.5,54836.6
step02_gravity_refstate-mantle.xmf,830,3.7076e-06,2.08886e-06,0,1.32306e-07,-1.41595e+09,-1.41617e+09,-1.41645e+09,17682.7,-0.00688523,0.0186151,-0,0.0198476,38142.8,-49829.4,0,62752.2,17682.7
step02_gravity_refstate-mantle.xmf,831,2.94235e-06,2.47098e-06,0,3.78872e-07,-1.33322e+09,-1.33328e+09,-1.33362e+09,50636.3,-0.0157295,0.0260632,-0,0.0304418,34731.1,-47269.8,0,58657.3,50636.3
step02_gravity_refstate-mantle.xmf,832,3.37319e-06,2.25189e-06,0,2.63714e-07,-1.37772e+09,-1.37787e+09,-1.37817e+09,35245.4,-0.0121661,0.021765,-0,0.0249345,36408.3,-48646.6,0,60762.2,35245.4
step02_gravity_refstate-mantle.xmf,833,3.99643e-06,1.96539e-06,0,-1.28557e-10,-1.45286e+09,-1.45313e+09,-1.45339e+09,-17.1816,-3.55083e-19,0.0161074,-0,0.0161074,40000,-50971,0,64792.3,17.1816
step02_gravity_refstate-mantle.xmf,834,1.94113e-07,3.58631e-06,0,2.81772e-08,-1.09838e+09,-1.09793e+09,-1.09841e+09,3765.88,-0.0069744,0.0557375,-0,0.0561721,29973.6,-40000,0,49984.2,3765.88
step02_gravity_refstate-mantle.xmf,835,1.2796e-06,3.18029e-06,0,3.46822e-07,-1.18393e+09,-1.18368e+09,-1.1841e+09,46352.8,-0.0126455,0.042907,-0,0.0447317,31717.4,-42648.8,0,53150,46352.8
step02_gravity_refstate-mantle.xmf,836,-8.94061e-06,2.60236e-05,0,7.39237e-07,-1.72344e+09,-1.71877e+09,-1.72225e+09,98799,0.0814685,0.0180996,0,0.0834549,-6536.7,-59304.5,-0,59663.6,98799
step02_gravity_refstate-mantle.xmf,837,-8.16658e-06,2.49674e-05,0,-8.30092e-10,-1.74588e+09,-1.74145e+09,-1.74479e+09,-110.942,0.0862441,-2.85362e-19,0,0.0862441,-7101,-60000,-0,60418.7,110.942
step02_gravity_refstate-mantle.xmf,838,-1.21716e-05,3.10901e-05,0,4.66292e-06,-1.58595e+09,-1.58017e+09,-1.58433e+09,623199,0.0587938,0.150757,0,0.161816,-4101.26,-55048.8,-0,55201.3,623199
step02_gravity_refstate-mantle.xmf,839,-1.28519e-05,3.2342e-05,0,5.22851e-06,-1.56007e+09,-1.55403e+09,-1.55836e+09,698790,0.0544725,0.179777,0,0.187849,-3672.58,-54248,-0,54372.2,698790
step02_gravity_refstate-mantle.xmf,840,-1.35308e-05,3.36669e-05,0,5.73507e-06,-1.53475e+09,-1.52844e+09,-1.53294e+09,766492,0.0506017,0.209175,0,0.215209,-3293.7,-53464.5,-0,53565.9,766492
step02_gravity_refstate-mantle.xmf,841,-1.42485e-05,3.51096e-05,0,6.1213e-06,-1.51105e+09,-1.50445e+09,-1.50914e+09,818112,0.0467079,0.238049,0,0.242588,-2932.41,-52731.3,-0,52812.8,818112
step02_gravity_refstate-mantle.xmf,842,-1.61331e-05,3.82821e-05,0,4.8602e-06,-1.48716e+09,-1.47989e+09,-1.485e+09,649566,0.031434,0.275672,0,0.277458,-1856.22,-51989,-0,52022.1,649566
step02_gravity_refstate-mantle.xmf,843,-1.6953e-05,4.00683e-05,0,4.64565e-06,-1.46533e+09,-1.45771e+09,-1.46306e+09,620892,0.0267389,0.30485,0,0.30602,-1522.74,-51313.7,-0,51336.3,620892
step02_gravity_refstate-mantle.xmf,844,-1.78008e-05,4.2032e-05,0,4.15285e-06,-1.44406e+09,-1.43606e+09,-1.44168e+09,555028,0.0214631,0.33447,0,0.335158,-1179.27,-50656,-0,50669.8,555028
step02_gravity_refstate-mantle.xmf,845,-1.90038e-05,4.47688e-05,0,7.25076e-07,-1.4217e+09,-1.41317e+09,-1.41916e+09,96906.3,0.00336923,0.369048,0,0.369063,-177.553,-49964.2,-0,49964.5,96906.3
step02_gravity_refstate-mantle.xmf,846,-1.91844e-05,4.62175e-05,0,-3.4642e-06,-1.39984e+09,-1.3911e+09,-1.39727e+09,-462990,-0.0146558,0.397474,-0,0.397744,756.878,-49291.5,0,49297.3,462990
step02_gravity_refstate-mantle.xmf,847,-6.50584e-06,3.51426e-05,0,-2.42538e-05,-1.2752e+09,-1.26963e+09,-1.27433e+09,-3.24152e+06,-0.0568276,0.470101,-0,0.473523,4000,-45497.8,0,45673.3,3.24152e+06
step02_gravity_refstate-mantle.xmf,848,-3.84509e-06,2.83809e-05,0,-2.36619e-05,-1.26663e+09,-1.26233e+09,-1.26612e+09,-3.16242e+06,-0.0553953,0.45928,-0,0.462608,4316.33,-45233.8,0,45439.2,3.16242e+06
step02_gravity_refstate-mantle.xmf,849,-8.70183e-07,1.92631e-05,0,-2.06413e-05,-1.24207e+09,-1.23938e+09,-1.24196e+09,-2.75871e+06,-0.0443375,0.4384,-0,0.440637,4949.69,-44471.6,0,44746.2,2.75871e+06
step02_gravity_refstate-mantle.xmf,850,2.19201e-07,1.16966e-05,0,-1.45505e-05,-1.21277e+09,-1.21124e+09,-1.2128e+09,-1.94468e+06,-0.0251336,0.388476,-0,0.389288,6080.9,-43554.5,0,43976.9,1.94468e+06
step02_gravity_refstate-mantle.xmf,851,-1.77425e-05,4.65857e-05,0,-1.01388e-05,-1.36087e+09,-1.35227e+09,-1.35849e+09,-1.35505e+06,-0.0372286,0.43792,-0,0.439499,1939.26,-48098.2,0,48137.3,1.35505e+06
step02_gravity_refstate-mantle.xmf,852,-1.8197e-05,4.59792e-05,0,-8.17721e-06,-1.37894e+09,-1.37036e+09,-1.3765e+09,-1.09288e+06,-0.0321748,0.417089,-0,0.418328,1669.98,-48651.9,0,48680.5,1.09288e+06
step02_gravity_refstate-mantle.xmf,853,-9.8503e-06,3.6161e-05,0,-2.08551e-05,-1.30671e+09,-1.30056e+09,-1.30539e+09,-2.78728e+06,-0.0601485,0.448639,-0,0.452653,3751.64,-46451.3,0,46602.6,2.78728e+06
step02_gravity_refstate-mantle.xmf,854,-1.51847e-05,4.38751e-05,0,-1.49836e-05,-1.33999e+09,-1.3321e+09,-1.33796e+09,-2.00256e+06,-0.0507915,0.445337,-0,0.448224,2777.67,-47463.7,0,47544.9,2.00256e+06
step02_gravity_refstate-mantle.xmf,855,-1.17589e-05,3.89114e-05,0,-1.8969e-05,-1.32171e+09,-1.31493e+09,-1.32013e+09,-2.5352e+06,-0.0592619,0.442805,-0,0.446753,3489.59,-46909,0,47038.6,2.5352e+06
step02_gravity_refstate-mantle.xmf,856,-4.21865e-06,7.20808e-06,0,-4.81956e-06,-1.13518e+09,-1.13365e+09,-1.13462e+09,-644135,0.0231528,0.269025,0,0.270019,9625.63,-41116.5,0,42228.1,644135
step02_gravity_refstate-mantle.xmf,857,-6.15667e-06,7.30574e-06,0,-4.57761e-06,-1.09945e+09,-1.09765e+09,-1.09862e+09,-611798,0.0400394,0.256075,0,0.259186,10377.9,-40000,0,41324.3,611798
step02_gravity_refstate-mantle.xmf,858,-1.7397e-06,7.69458e-06,0,-7.70189e-06,-1.172e+09,-1.17074e+09,-1.17177e+09,-1.02936e+06,0.00344918,0.317116,0,0.317135,7940.4,-42271.8,0,43011.1,1.02936e+06
step02_gravity_refstate-mantle.xmf,859,-3.06031e-06,7.32992e-06,0,-5.82095e-06,-1.15366e+09,-1.15227e+09,-1.15325e+09,-777971,0.0140944,0.289703,0,0.290046,8830.42,-41695.2,0,42620.1,777971
step02_gravity_refstate-mantle.xmf,860,4.47152e-06,1.81171e-06,0,-3.00164e-10,-1.52458e+09,-1.52494e+09,-1.52518e+09,-40.117,-2.56091e-18,0.0119044,-0,0.0119044,40000,-53189.4,0,66551.6,40.117
step02_gravity_refstate-mantle.xmf,861,4.23136e-06,1.9049e-06,0,1.1696e-07,-1.48653e+09,-1.48684e+09,-1.4871e+09,15631.6,-0.0080199,0.0142559,-0,0.016357,38102,-52012.7,0,64475.5,15631.6
step02_gravity_refstate-mantle.xmf,862,6.2108e-07,3.55717e-06,0,2.74576e-07,-1.14904e+09,-1.14864e+09,-1.14912e+09,36697,-0.0119047,0.0520296,-0,0.0533741,29262.9,-41567.6,0,50834.8,36697
step02_gravity_refstate-mantle.xmf,863,1.08015e-06,3.36822e-06,0,3.83396e-07,-1.18161e+09,-1.1813e+09,-1.18175e+09,51240.9,-0.0144285,0.0465952,-0,0.048778,30038.6,-42576.2,0,52106.2,51240.9
step02_gravity_refstate-mantle.xmf,864,1.53741e-06,3.17806e-06,0,4.6622e-07,-1.21609e+09,-1.21587e+09,-1.21629e+09,62310.3,-0.0167432,0.0416369,-0,0.0448773,30717.5,-43643.9,0,53370,62310.3
step02_gravity_refstate-mantle.xmf,865,2.17815e-06,2.90066e-06,0,5.16094e-07,-1.26842e+09,-1.26833e+09,-1.26871e+09,68976,-0.0192426,0.0348486,-0,0.0398083,31767.2,-45264.1,0,55299.1,68976
step02_gravity_refstate-mantle.xmf,866,-9.27846e-06,2.64982e-05,0,1.63825e-06,-1.69541e+09,-1.69063e+09,-1.69417e+09,218952,0.0792047,0.0414305,0,0.0893861,-6264.45,-58437.6,-0,58772.4,218952
step02_gravity_refstate-mantle.xmf,867,-1.14772e-05,2.98936e-05,0,4.02591e-06,-1.6126e+09,-1.60707e+09,-1.61107e+09,538063,0.0635716,0.122009,0,0.137578,-4584.13,-55873.5,-0,56061.2,538063
step02_gravity_refstate-mantle.xmf,868,-1.02591e-05,2.7911e-05,0,2.24339e-06,-1.67508e+09,-1.66998e+09,-1.67371e+09,299829,0.0722207,0.0611387,0,0.0946244,-5520.69,-57806.6,-0,58069.6,299829
step02_gravity_refstate-mantle.xmf,869,-1.08531e-05,2.88575e-05,0,3.24289e-06,-1.64132e+09,-1.63601e+09,-1.63987e+09,433412,0.0679697,0.0929872,0,0.11518,-5051.38,-56762.2,-0,56986.5,433412
step02_gravity_refstate-mantle.xmf,870,-1.53911e-05,3.67317e-05,0,4.86271e-06,-1.50902e+09,-1.50206e+09,-1.50696e+09,649902,0.0355396,0.247685,0,0.250221,-2172.45,-52665.3,-0,52710.1,649902
step02_gravity_refstate-mantle.xmf,871,-1.83918e-05,4.29408e-05,0,1.70102e-06,-1.44253e+09,-1.43433e+09,-1.44007e+09,227342,0.0086608,0.340247,0,0.340357,-470.07,-50607.1,-0,50609.3,227342
step02_gravity_refstate-mantle.xmf,872,-1.89498e-05,4.47978e-05,0,-2.0317e-06,-1.41926e+09,-1.41074e+09,-1.41673e+09,-271537,-0.00928807,0.371621,-0,0.371737,488.957,-49889.4,0,49891.8,271537
step02_gravity_refstate-mantle.xmf,873,-4.1158e-06,2.83584e-05,0,-2.30762e-05,-1.28036e+09,-1.27601e+09,-1.27981e+09,-3.08414e+06,-0.0604102,0.441782,-0,0.445894,4412.05,-45655.8,0,45868.4,3.08414e+06
step02_gravity_refstate-mantle.xmf,874,-1.84285e-06,2.37585e-05,0,-2.17461e-05,-1.26757e+09,-1.26415e+09,-1.26732e+09,-2.90636e+06,-0.0569637,0.434414,-0,0.438133,4727.1,-45264.3,0,45510.4,2.90636e+06
step02_gravity_refstate-mantle.xmf,875,-8.61597e-07,2.04692e-05,0,-2.058e-05,-1.25492e+09,-1.25207e+09,-1.25481e+09,-2.75051e+06,-0.0514474,0.429302,-0,0.432374,4968.95,-44871.8,0,45146.1,2.75051e+06
step02_gravity_refstate-mantle.xmf,876,5.23643e-07,1.38587e-05,0,-1.62201e-05,-1.23055e+09,-1.22877e+09,-1.23062e+09,-2.16781e+06,-0.037283,0.396204,-0,0.397955,5798.3,-44111.2,0,44490.7,2.16781e+06
step02_gravity_refstate-mantle.xmf,877,2.35219e-07,1.69438e-05,0,-1.80872e-05,-1.2482e+09,-1.24597e+09,-1.24824e+09,-2.41735e+06,-0.0480175,0.406542,-0,0.409368,5446.97,-44662.5,0,44993.4,2.41735e+06
step02_gravity_refstate-mantle.xmf,878,-4.30083e-07,9.01806e-06,0,-1.06419e-05,-1.19317e+09,-1.1919e+09,-1.19311e+09,-1.42228e+06,-0.0109507,0.350746,-0,0.350917,6994.33,-42937.7,0,43503.6,1.42228e+06
step02_gravity_refstate-mantle.xmf,879,3.76559e-07,1.03126e-05,0,-1.20536e-05,-1.21141e+09,-1.21008e+09,-1.21146e+09,-1.61097e+06,-0.0239516,0.358404,-0,0.359203,6705.13,-43510,0,44023.6,1.61097e+06
step02_gravity_refstate-mantle.xmf,880,-1.84059e-05,4.51393e-05,0,-6.30513e-06,-1.39799e+09,-1.3895e+09,-1.39553e+09,-842681,-0.0267775,0.394128,-0,0.395037,1399.51,-49236.9,0,49256.7,842681
step02_gravity_refstate-mantle.xmf,881,-9.61488e-06,3.38104e-05,0,-2.05647e-05,-1.29224e+09,-1.28643e+09,-1.29095e+09,-2.74848e+06,-0.0595898,0.451935,-0,0.455846,4000,-46000,0,46173.6,2.74848e+06
step02_gravity_refstate-mantle.xmf,882,-1.31921e-05,4.07052e-05,0,-1.71187e-05,-1.33483e+09,-1.32763e+09,-1.33307e+09,-2.28792e+06,-0.0571067,0.436424,-0,0.440144,3238.67,-47309.4,0,47420.1,2.28792e+06
step02_gravity_refstate-mantle.xmf,883,-1.59786e-05,4.38636e-05,0,-1.29553e-05,-1.35813e+09,-1.35013e+09,-1.35599e+09,-1.73148e+06,-0.047627,0.427345,-0,0.429991,2555.05,-48018.4,0,48086.3,1.73148e+06
step02_gravity_refstate-mantle.xmf,884,-2.87723e-06,7.22955e-06,0,-4.85292e-06,-1.15657e+09,-1.15522e+09,-1.15618e+09,-648593,0.0100408,0.266196,0,0.266386,9557.71,-41786.2,0,42865.3,648593
step02_gravity_refstate-mantle.xmf,885,-3.70463e-06,7.16086e-06,0,-4.15302e-06,-1.14225e+09,-1.14079e+09,-1.14175e+09,-555051,0.0165276,0.250664,0,0.251208,10219.4,-41338.1,0,42582.5,555051
step02_gravity_refstate-mantle.xmf,886,-4.49898e-06,7.14234e-06,0,-3.69361e-06,-1.12495e+09,-1.1234e+09,-1.12435e+09,-493651,0.0234665,0.237197,0,0.238355,10889.7,-40798.6,0,42226.9,493651
step02_gravity_refstate-mantle.xmf,887,-5.7586e-06,7.20326e-06,0,-3.92493e-06,-1.09937e+09,-1.09764e+09,-1.0986e+09,-524566,0.0351131,0.235317,0,0.237923,11203.7,-40000,0,41539.4,524566
step02_gravity_refstate-mantle.xmf,888,-2.03312e-06,7.49143e-06,0,-6.53998e-06,-1.16879e+09,-1.16752e+09,-1.16852e+09,-874069,0.00467335,0.297921,0,0.297958,8486.34,-42170.1,0,43015.6,874069
step02_gravity_refstate-mantle.xmf,889,-6.07504e-07,8.28637e-06,0,-8.69418e-06,-1.19049e+09,-1.1893e+09,-1.19041e+09,-1.16198e+06,-0.00935541,0.323228,-0,0.323363,7664.92,-42852,0,43532.1,1.16198e+06
step02_gravity_refstate-mantle.xmf,890,2.77066e-06,2.63713e-06,0,5.00236e-07,-1.32151e+09,-1.32153e+09,-1.32188e+09,66856.6,-0.0206567,0.0289192,-0,0.0355389,32771.6,-46907.2,0,57221.2,66856.6
step02_gravity_refstate-mantle.xmf,891,4.8327e-06,1.7218e-06,0,-1.2216e-10,-1.59703e+09,-1.59744e+09,-1.59767e+09,-16.3267,-4.9628e-19,0.00793355,-0,0.00793355,40000,-55429.4,0,68355.1,16.3267
step02_gravity_refstate-mantle.xmf,892,4.66183e-06,1.77924e-06,0,9.05673e-08,-1.55942e+09,-1.55981e+09,-1.56005e+09,12104.3,-0.00901876,0.010095,-0,0.0135369,38061.9,-54266.8,0,66284.2,12104.3
step02_gravity_refstate-mantle.xmf,893,5.05812e-06,1.71003e-06,0,-2.48795e-09,-1.6704e+09,-1.67085e+09,-1.67108e+09,-332.515,-5.26056e-19,0.00403124,-0,0.00403124,40000,-57697.5,0,70206.8,332.515
step02_gravity_refstate-mantle.xmf,894,4.96033e-06,1.72295e-06,0,5.80021e-08,-1.63162e+09,-1.63205e+09,-1.63228e+09,7751.99,-0.00919976,0.0061606,-0,0.011072,38141.3,-56498.7,0,68167.9,7751.99
step02_gravity_refstate-mantle.xmf,895,3.95269e-06,2.05732e-06,0,2.51972e-07,-1.449e+09,-1.44925e+09,-1.44953e+09,33676.1,-0.0149509,0.0170955,-0,0.0227109,36223.1,-50851.8,0,62434.1,33676.1
step02_gravity_refstate-mantle.xmf,896,3.59362e-06,2.24975e-06,0,3.77417e-07,-1.40626e+09,-1.40644e+09,-1.40674e+09,50441.8,-0.01945,0.0208036,-0,0.0284797,34625.5,-49529.8,0,60432.8,50441.8
step02_gravity_refstate-mantle.xmf,897,-1.14884e-07,3.82168e-06,0,-9.87218e-09,-1.09843e+09,-1.0979e+09,-1.09841e+09,-1319.42,-0.00706552,0.0608461,-0,0.061255,28247.5,-40000,0,48968.6,1319.42
step02_gravity_refstate-mantle.xmf,898,-1.04663e-05,2.80986e-05,0,1.00503e-06,-1.71346e+09,-1.7083e+09,-1.71206e+09,134322,0.0705539,0.0283346,0,0.0760309,-5404.62,-58991.2,-0,59238.2,134322
step02_gravity_refstate-mantle.xmf,899,-9.80623e-06,2.72173e-05,0,2.95005e-09,-1.74605e+09,-1.7411e+09,-1.74474e+09,394.275,0.0755036,-4.31367e-19,0,0.0755036,-5906.01,-60000,-0,60290,394.275
step02_gravity_refstate-mantle.xmf,900,5.1303e-06,1.78421e-06,0,-9.61029e-09,-1.74492e+09,-1.74537e+09,-1.74561e+09,-1284.42,-3.68687e-18,-2.81832e-19,-0,3.69763e-18,40000,-60000,0,72111,1284.42
step02_gravity_refstate-mantle.xmf,901,5.0926e-06,1.74253e-06,0,2.81061e-08,-1.692e+09,-1.69245e+09,-1.69268e+09,3756.38,-0.00837296,0.00290239,-0,0.00886174,38355.1,-58364.9,0,69839.6,3756.38
step02_gravity_refstate-mantle.xmf,902,-1.27569e-05,3.1638e-05,0,3.49232e-06,-1.61236e+09,-1.60643e+09,-1.61066e+09,466749,0.0519314,0.128625,0,0.138713,-3622.6,-55862,-0,55979.4,466749
step02_gravity_refstate-mantle.xmf,903,-1.34265e-05,3.28131e-05,0,3.94172e-06,-1.58526e+09,-1.57908e+09,-1.58346e+09,526810,0.0469741,0.158457,0,0.165273,-3175.41,-55023.4,-0,55114.9,526810
step02_gravity_refstate-mantle.xmf,904,-1.41291e-05,3.4117e-05,0,4.27539e-06,-1.55898e+09,-1.55253e+09,-1.55709e+09,571407,0.0421292,0.188575,0,0.193223,-2753.83,-54210.1,-0,54280,571407
step02_gravity_refstate-mantle.xmf,905,-1.4764e-05,3.54262e-05,0,4.62198e-06,-1.53232e+09,-1.52561e+09,-1.53034e+09,617727,0.0387204,0.219516,0,0.222905,-2445.81,-53385.8,-0,53441.8,617727
step02_gravity_refstate-mantle.xmf,906,-1.62214e-05,3.78799e-05,0,3.40693e-06,-1.50799e+09,-1.50076e+09,-1.50582e+09,455337,0.0242581,0.254096,0,0.255251,-1456.37,-52630.8,-0,52650.9,455337
step02_gravity_refstate-mantle.xmf,907,-1.69407e-05,3.94364e-05,0,3.10468e-06,-1.48578e+09,-1.47824e+09,-1.48351e+09,414940,0.0196006,0.282414,0,0.283093,-1137.69,-51943.8,-0,51956.3,414940
step02_gravity_refstate-mantle.xmf,908,-1.76906e-05,4.11495e-05,0,2.48803e-06,-1.46393e+09,-1.45607e+09,-1.46157e+09,332525,0.0140346,0.311309,0,0.311625,-787.064,-51268.3,-0,51274.4,332525
step02_gravity_refstate-mantle.xmf,909,-1.85296e-05,4.32349e-05,0,-8.46577e-07,-1.44024e+09,-1.43199e+09,-1.43776e+09,-113145,-0.00423542,0.343842,-0,0.343868,228.84,-50536.3,0,50536.8,113145
step02_gravity_refstate-mantle.xmf,910,-1.84254e-05,4.41028e-05,0,-4.71517e-06,-1.41706e+09,-1.4087e+09,-1.4146e+09,-630182,-0.0215403,0.370574,-0,0.371199,1142.36,-49823.2,0,49836.3,630182
step02_gravity_refstate-mantle.xmf,911,8.899e-07,1.19957e-05,0,-1.35697e-05,-1.22973e+09,-1.22825e+09,-1.22985e+09,-1.81359e+06,-0.0362949,0.365455,-0,0.367253,6418.9,-44083.6,0,44548.4,1.81359e+06
step02_gravity_refstate-mantle.xmf,912,-1.67199e-05,4.36912e-05,0,-1.08975e-05,-1.37702e+09,-1.36895e+09,-1.37479e+09,-1.45645e+06,-0.0430779,0.408157,-0,0.410424,2292.03,-48596.7,0,48650.8,1.45645e+06
step02_gravity_refstate-mantle.xmf,913,-1.726e-05,4.34367e-05,0,-8.90677e-06,-1.39546e+09,-1.38735e+09,-1.39315e+09,-1.19039e+06,-0.0378293,0.388702,-0,0.390538,2014.84,-49162,0,49203.3,1.19039e+06
step02_gravity_refstate-mantle.xmf,914,-7.41721e-06,3.15827e-05,0,-2.02528e-05,-1.30695e+09,-1.30174e+09,-1.30596e+09,-2.70678e+06,-0.0646423,0.424293,-0,0.429189,4267.8,-46463.6,0,46659.2,2.70678e+06
step02_gravity_refstate-mantle.xmf,915,-8.90889e-06,3.4045e-05,0,-1.9342e-05,-1.32179e+09,-1.31605e+09,-1.3206e+09,-2.58505e+06,-0.0645799,0.421111,-0,0.426034,4001.1,-46918.2,0,47088.5,2.58505e+06
step02_gravity_refstate-mantle.xmf,916,-1.34043e-05,3.97787e-05,0,-1.56821e-05,-1.35303e+09,-1.34592e+09,-1.35124e+09,-2.09592e+06,-0.0574976,0.414327,-0,0.418298,3226.41,-47867.9,0,47976.5,2.09592e+06
step02_gravity_refstate-mantle.xmf,917,-1.09089e-05,3.66825e-05,0,-1.79781e-05,-1.33677e+09,-1.33041e+09,-1.33531e+09,-2.40277e+06,-0.0628256,0.416801,-0,0.421509,3703.66,-47374.2,0,47518.8,2.40277e+06
step02_gravity_refstate-mantle.xmf,918,-2.54947e-06,7.14707e-06,0,-4.06927e-06,-1.16253e+09,-1.16124e+09,-1.16219e+09,-543857,0.00449407,0.244574,0,0.244615,10277.3,-41972.4,0,43212.3,543857
step02_gravity_refstate-mantle.xmf,919,-5.33823e-06,7.09903e-06,0,-3.31773e-06,-1.09929e+09,-1.09763e+09,-1.09857e+09,-443415,0.0302964,0.215797,0,0.217914,12071.1,-40000,0,41781.7,443415
step02_gravity_refstate-mantle.xmf,920,-4.64559e-06,7.07366e-06,0,-3.2499e-06,-1.11757e+09,-1.116e+09,-1.11695e+09,-434349,0.023769,0.221045,0,0.222319,11646,-40569.3,0,42207.8,434349
step02_gravity_refstate-mantle.xmf,921,-9.40883e-07,7.81042e-06,0,-7.08364e-06,-1.18656e+09,-1.18539e+09,-1.18643e+09,-946728,-0.00717711,0.298602,-0,0.298689,8346.14,-42727,0,43534.6,946728
step02_gravity_refstate-mantle.xmf,922,-1.51826e-06,7.43085e-06,0,-5.66678e-06,-1.17826e+09,-1.17707e+09,-1.17806e+09,-757365,-0.00266264,0.275788,-0,0.275801,9083.6,-42465.9,0,43426.5,757365
step02_gravity_refstate-mantle.xmf,923,3.26777e-06,2.43453e-06,0,4.66605e-07,-1.37176e+09,-1.37187e+09,-1.37219e+09,62361.8,-0.0220381,0.0243407,-0,0.0328352,33358.7,-48462.1,0,58833.5,62361.8
step02_gravity_refstate-mantle.xmf,924,4.42666e-06,1.903e-06,0,2.09824e-07,-1.51741e+09,-1.51775e+09,-1.51801e+09,28043,-0.0168685,0.0129109,-0,0.0212424,36184.2,-52967.9,0,64147.5,28043
step02_gravity_refstate-mantle.xmf,925,2.71354e-06,2.79313e-06,0,5.97373e-07,-1.32327e+09,-1.32326e+09,-1.32363e+09,79838.9,-0.0258122,0.0313096,-0,0.0405778,30940.6,-46961.6,0,56238,79838.9
step02_gravity_refstate-mantle.xmf,926,1.24626e-06,3.41682e-06,0,4.9029e-07,-1.20603e+09,-1.20574e+09,-1.2062e+09,65527.2,-0.0182262,0.0467524,-0,0.0501794,28929.2,-43331.9,0,52101.4,65527.2
step02_gravity_refstate-mantle.xmf,927,5.69759e-07,3.70577e-06,0,3.31395e-07,-1.16171e+09,-1.16129e+09,-1.16178e+09,44290.9,-0.0141275,0.0547304,-0,0.0565244,27858.2,-41959,0,50365,44290.9
step02_gravity_refstate-mantle.xmf,928,2.05967e-06,3.10732e-06,0,5.97896e-07,-1.26968e+09,-1.26954e+09,-1.26995e+09,79908.8,-0.0237939,0.0385613,-0,0.0453114,29671.9,-45302.6,0,54154.8,79908.8
step02_gravity_refstate-mantle.xmf,929,-4.22638e-07,4.06005e-06,0,-7.68626e-08,-1.09848e+09,-1.09788e+09,-1.09842e+09,-10272.7,-0.00665766,0.0668416,-0,0.0671723,26604.2,-40000,0,48039.4,10272.7
step02_gravity_refstate-mantle.xmf,930,9.36328e-08,3.91432e-06,0,1.72008e-07,-1.13439e+09,-1.13388e+09,-1.1344e+09,22988.9,-0.0111062,0.0610258,-0,0.0620282,26961.7,-41112.5,0,49164.8,22988.9
step02_gravity_refstate-mantle.xmf,931,-7.67874e-07,4.32412e-06,0,-1.61476e-07,-1.09853e+09,-1.09785e+09,-1.09843e+09,-21581.3,-0.00574781,0.073744,-0,0.0739677,25039.7,-40000,0,47191,21581.3
step02_gravity_refstate-mantle.xmf,932,-6.43289e-08,4.09643e-06,0,1.6906e-07,-1.1397e+09,-1.13914e+09,-1.13969e+09,22594.8,-0.0118287,0.0652275,-0,0.0662913,25734.1,-41275.8,0,48640.9,22594.8
step02_gravity_refstate-mantle.xmf,933,-1.21272e-05,3.06007e-05,0,2.95781e-06,-1.6389e+09,-1.63319e+09,-1.63728e+09,395311,0.0568968,0.100553,0,0.115534,-4082.15,-56683.4,-0,56830.2,395311
step02_gravity_refstate-mantle.xmf,934,-1.1678e-05,2.98746e-05,0,2.27119e-06,-1.66625e+09,-1.6607e+09,-1.66469e+09,303544,0.0603739,0.0734666,0,0.0950913,-4426.02,-57529.4,-0,57699.4,303544
step02_gravity_refstate-mantle.xmf,935,5.13439e-06,1.816e-06,0,-1.11965e-08,-1.74492e+09,-1.74536e+09,-1.7456e+09,-1496.41,-0.0120159,-3.76488e-19,-0,0.0120159,37657.4,-60000,0,70838.4,1496.41
step02_gravity_refstate-mantle.xmf,936,-1.55989e-05,3.6603e-05,0,3.5796e-06,-1.52702e+09,-1.52004e+09,-1.52494e+09,478414,0.0285755,0.230323,0,0.232089,-1765.02,-53219.6,-0,53248.8,478414
step02_gravity_refstate-mantle.xmf,937,-1.79953e-05,4.16256e-05,0,1.73959e-07,-1.4622e+09,-1.45423e+09,-1.45979e+09,23249.6,0.00100974,0.315274,0,0.315276,-56.2381,-51214.1,-0,51214.1,23249.6
step02_gravity_refstate-mantle.xmf,938,-1.82804e-05,4.30437e-05,0,-3.30928e-06,-1.43575e+09,-1.42755e+09,-1.43331e+09,-442286,-0.0163357,0.34737,-0,0.347754,882.952,-50398.8,0,50406.5,442286
step02_gravity_refstate-mantle.xmf,939,-5.48089e-06,2.90181e-05,0,-2.16646e-05,-1.29452e+09,-1.28991e+09,-1.29379e+09,-2.89547e+06,-0.0639253,0.425193,-0,0.429972,4492.11,-46085.9,0,46304.4,2.89547e+06
step02_gravity_refstate-mantle.xmf,940,-4.27443e-07,1.99114e-05,0,-1.93076e-05,-1.26779e+09,-1.26507e+09,-1.26773e+09,-2.58045e+06,-0.057633,0.405896,-0,0.409967,5248.56,-45270.6,0,45573.8,2.58045e+06
step02_gravity_refstate-mantle.xmf,941,-2.33074e-06,2.39488e-05,0,-2.05893e-05,-1.28607e+09,-1.28256e+09,-1.28576e+09,-2.75176e+06,-0.0637038,0.409335,-0,0.414262,4941.96,-45832.9,0,46098.6,2.75176e+06
step02_gravity_refstate-mantle.xmf,942,1.0917e-06,1.40811e-05,0,-1.52247e-05,-1.24801e+09,-1.24627e+09,-1.24816e+09,-2.03478e+06,-0.0474616,0.372327,-0,0.375339,6119.88,-44654.9,0,45072.3,2.03478e+06
step02_gravity_refstate-mantle.xmf,943,3.1781e-07,9.2754e-06,0,-9.92601e-06,-1.20956e+09,-1.20836e+09,-1.2096e+09,-1.32661e+06,-0.0224124,0.330118,-0,0.330878,7365.91,-43449.7,0,44069.7,1.32661e+06
step02_gravity_refstate-mantle.xmf,944,1.00841e-06,1.05398e-05,0,-1.13264e-05,-1.22832e+09,-1.22705e+09,-1.22845e+09,-1.51378e+06,-0.0347456,0.336832,-0,0.338619,7067.76,-44037.1,0,44600.6,1.51378e+06
step02_gravity_refstate-mantle.xmf,945,-1.74385e-05,4.27504e-05,0,-7.20191e-06,-1.41505e+09,-1.407e+09,-1.41271e+09,-962535,-0.0331911,0.366117,-0,0.367618,1788.36,-49764.1,0,49796.2,962535
step02_gravity_refstate-mantle.xmf,946,-1.47866e-05,4.08438e-05,0,-1.31635e-05,-1.37424e+09,-1.3668e+09,-1.37226e+09,-1.7593e+06,-0.0528749,0.397139,-0,0.400644,2909.93,-48516.4,0,48603.6,1.7593e+06
step02_gravity_refstate-mantle.xmf,947,-1.55636e-06,7.22833e-06,0,-4.54329e-06,-1.17973e+09,-1.17856e+09,-1.17952e+09,-607211,-0.00488441,0.250214,-0,0.250262,9929.95,-42510.5,0,43654.9,607211
step02_gravity_refstate-mantle.xmf,948,-2.99502e-06,7.05397e-06,0,-3.49606e-06,-1.15346e+09,-1.15212e+09,-1.15306e+09,-467248,0.00788852,0.230639,0,0.230774,10899.5,-41689,0,43090.3,467248
step02_gravity_refstate-mantle.xmf,949,-3.97135e-06,6.88407e-06,0,-2.60651e-06,-1.12478e+09,-1.12333e+09,-1.12425e+09,-348359,0.0164778,0.200747,0,0.201422,12531.4,-40796,0,42677.3,348359
step02_gravity_refstate-mantle.xmf,950,-3.4173e-06,6.95296e-06,0,-2.96582e-06,-1.14187e+09,-1.14048e+09,-1.14141e+09,-396382,0.0115479,0.215502,0,0.215811,11655.8,-41327.7,0,42939.9,396382
step02_gravity_refstate-mantle.xmf,951,-4.91774e-06,6.9122e-06,0,-2.81695e-06,-1.09921e+09,-1.09763e+09,-1.09855e+09,-376485,0.0256239,0.197469,0,0.199124,12982.1,-40000,0,42054,376485
step02_gravity_refstate-mantle.xmf,952,-4.49527e-06,6.71887e-06,0,-2.35632e-06,-1.09914e+09,-1.09764e+09,-1.09854e+09,-314923,0.0211325,0.180298,0,0.181532,13939,-40000,0,42359.1,314923
step02_gravity_refstate-mantle.xmf,953,-3.8792e-06,6.7316e-06,0,-2.21636e-06,-1.11998e+09,-1.11856e+09,-1.11946e+09,-296217,0.0149174,0.184468,0,0.18507,13448.1,-40648.1,0,42814.9,296217
step02_gravity_refstate-mantle.xmf,954,-4.06022e-06,6.49579e-06,0,-1.95201e-06,-1.09906e+09,-1.09765e+09,-1.09852e+09,-260886,0.016854,0.164253,0,0.165116,14944.2,-40000,0,42700.4,260886
step02_gravity_refstate-mantle.xmf,955,-3.39109e-06,6.52434e-06,0,-1.79141e-06,-1.126e+09,-1.12467e+09,-1.12554e+09,-239421,0.00937307,0.168698,0,0.168958,14307,-40836.6,0,43270.3,239421
step02_gravity_refstate-mantle.xmf,956,1.40972e-07,8.42622e-06,0,-8.07598e-06,-1.20649e+09,-1.20538e+09,-1.20651e+09,-1.07935e+06,-0.0202054,0.30318,-0,0.303853,8079.51,-43351.5,0,44098,1.07935e+06
step02_gravity_refstate-mantle.xmf,957,3.24669e-06,2.54898e-06,0,5.51345e-07,-1.37364e+09,-1.37373e+09,-1.37407e+09,73687.3,-0.0270969,0.025859,-0,0.0374557,31843.5,-48520.4,0,58036.5,73687.3
step02_gravity_refstate-mantle.xmf,958,4.8094e-06,1.82158e-06,0,1.63646e-07,-1.59241e+09,-1.59281e+09,-1.59305e+09,21871.3,-0.0193211,0.00863794,-0,0.0211641,35980.1,-55286.8,0,65963.6,21871.3
step02_gravity_refstate-mantle.xmf,959,5.06796e-06,1.79333e-06,0,7.17791e-08,-1.67606e+09,-1.6765e+09,-1.67674e+09,9593.28,-0.018374,0.00389793,-0,0.0187829,36371.8,-57872.5,0,68353,9593.28
step02_gravity_refstate-mantle.xmf,960,3.71888e-06,2.32223e-06,0,4.7268e-07,-1.42416e+09,-1.42434e+09,-1.42465e+09,63173.7,-0.0269572,0.0209854,-0,0.0341625,32821.6,-50083.5,0,59880.1,63173.7
step02_gravity_refstate-mantle.xmf,961,4.15238e-06,2.08958e-06,0,3.57767e-07,-1.47803e+09,-1.47831e+09,-1.47859e+09,47815.5,-0.0242042,0.0162626,-0,0.0291602,34186.1,-51750,0,62022.2,47815.5
step02_gravity_refstate-mantle.xmf,962,-1.13589e-06,4.59827e-06,0,-2.72381e-07,-1.09858e+09,-1.09782e+09,-1.09843e+09,-36403.8,-0.00435167,0.0815745,-0,0.0816905,23550.3,-40000,0,46417.8,36403.8
step02_gravity_refstate-mantle.xmf,963,-3.76575e-07,4.36199e-06,0,1.00832e-07,-1.13904e+09,-1.13841e+09,-1.13899e+09,13476.2,-0.0113948,0.0724286,-0,0.0733195,24204.2,-41254.2,0,47830.4,13476.2
step02_gravity_refstate-mantle.xmf,964,-1.13409e-05,2.93264e-05,0,1.52665e-06,-1.69393e+09,-1.68849e+09,-1.69241e+09,204036,0.0630368,0.0472838,0,0.0787997,-4696.12,-58385.1,-0,58573.6,204036
step02_gravity_refstate-mantle.xmf,965,-1.13184e-05,2.92644e-05,0,6.22586e-09,-1.74621e+09,-1.74078e+09,-1.74469e+09,832.086,0.0629829,-4.12376e-19,0,0.0629829,-4720.6,-60000,-0,60185.4,832.086
step02_gravity_refstate-mantle.xmf,966,-1.3187e-05,3.20249e-05,0,2.49829e-06,-1.63762e+09,-1.63157e+09,-1.63585e+09,333896,0.0452945,0.106208,0,0.115463,-3162.96,-56640.3,-0,56728.5,333896
step02_gravity_refstate-mantle.xmf,967,-1.38114e-05,3.30694e-05,0,2.80686e-06,-1.61109e+09,-1.60482e+09,-1.60924e+09,375137,0.0395887,0.135033,0,0.140717,-2690.54,-55819.3,-0,55884.1,375137
step02_gravity_refstate-mantle.xmf,968,-1.44842e-05,3.42568e-05,0,2.97119e-06,-1.58368e+09,-1.57717e+09,-1.58175e+09,397100,0.0337515,0.165832,0,0.169232,-2224.27,-54971.3,-0,55016.3,397100
step02_gravity_refstate-mantle.xmf,969,-1.52925e-05,3.57238e-05,0,2.94714e-06,-1.55367e+09,-1.54686e+09,-1.55163e+09,393885,0.0273066,0.200754,0,0.202602,-1733.71,-54042.7,-0,54070.5,393885
step02_gravity_refstate-mantle.xmf,970,-1.60996e-05,3.72103e-05,0,2.21772e-06,-1.53118e+09,-1.52406e+09,-1.52903e+09,296399,0.0177652,0.228998,0,0.229686,-1089.85,-53346.3,-0,53357.4,296399
step02_gravity_refstate-mantle.xmf,971,-1.67552e-05,3.86149e-05,0,1.70436e-06,-1.508e+09,-1.5006e+09,-1.50576e+09,227788,0.0119906,0.257429,0,0.257708,-712.272,-52629.4,-0,52634.2,227788
step02_gravity_refstate-mantle.xmf,972,-1.73871e-05,4.00764e-05,0,1.07148e-06,-1.48495e+09,-1.47727e+09,-1.48262e+09,143203,0.00670836,0.286225,0,0.286304,-385.7,-51916.8,-0,51918.2,143203
step02_gravity_refstate-mantle.xmf,973,-1.78291e-05,4.14047e-05,0,-2.32362e-06,-1.46018e+09,-1.45226e+09,-1.45779e+09,-310551,-0.0126152,0.316458,-0,0.316709,703.091,-51152.1,0,51156.9,310551
step02_gravity_refstate-mantle.xmf,974,-1.75544e-05,4.20838e-05,0,-5.71319e-06,-1.43291e+09,-1.42494e+09,-1.43057e+09,-763568,-0.0282508,0.345673,-0,0.346825,1543.37,-50313.5,0,50337.2,763568
step02_gravity_refstate-mantle.xmf,975,6.04999e-07,1.66889e-05,0,-1.67591e-05,-1.2665e+09,-1.26435e+09,-1.26658e+09,-2.23986e+06,-0.0569955,0.376852,-0,0.381138,5842.49,-45229.5,0,45605.3,2.23986e+06
step02_gravity_refstate-mantle.xmf,976,1.35614e-06,1.22358e-05,0,-1.28813e-05,-1.24766e+09,-1.24621e+09,-1.24784e+09,-1.72158e+06,-0.0464557,0.343064,-0,0.346195,6763.61,-44641.2,0,45150.7,1.72158e+06
step02_gravity_refstate-mantle.xmf,977,-1.55094e-05,4.08332e-05,0,-1.12672e-05,-1.39407e+09,-1.38654e+09,-1.392e+09,-1.50586e+06,-0.0487062,0.377781,-0,0.380908,2675.29,-49124.2,0,49197,1.50586e+06
step02_gravity_refstate-mantle.xmf,978,-1.65063e-05,4.15615e-05,0,-9.07879e-06,-1.40958e+09,-1.40182e+09,-1.40738e+09,-1.21338e+06,-0.0414795,0.365991,-0,0.368334,2263.89,-49598.5,0,49650.2,1.21338e+06
step02_gravity_refstate-mantle.xmf,979,-4.6695e-06,2.6928e-05,0,-1.98505e-05,-1.30541e+09,-1.30119e+09,-1.30479e+09,-2.65302e+06,-0.0676651,0.400661,-0,0.406335,4807.95,-46422.3,0,46670.6,2.65302e+06
step02_gravity_refstate-mantle.xmf,980,-6.53531e-06,2.97119e-05,0,-1.90658e-05,-1.32137e+09,-1.31653e+09,-1.3205e+09,-2.54815e+06,-0.0687407,0.398403,-0,0.40429,4544.24,-46910,0,47129.6,2.54815e+06
step02_gravity_refstate-mantle.xmf,981,-8.44084e-06,3.2395e-05,0,-1.81425e-05,-1.3377e+09,-1.33224e+09,-1.33657e+09,-2.42475e+06,-0.0681318,0.394986,-0,0.400819,4244.58,-47408.4,0,47598.1,2.42475e+06
step02_gravity_refstate-mantle.xmf,982,-1.06515e-05,3.51674e-05,0,-1.66875e-05,-1.35487e+09,-1.34875e+09,-1.35345e+09,-2.23028e+06,-0.0653377,0.390633,-0,0.39606,3874.86,-47931.3,0,48087.6,2.23028e+06
step02_gravity_refstate-mantle.xmf,983,-1.24505e-05,3.7144e-05,0,-1.49082e-05,-1.37179e+09,-1.36516e+09,-1.37013e+09,-1.99248e+06,-0.0614336,0.382641,-0,0.387542,3535.04,-48446.9,0,48575.7,1.99248e+06
step02_gravity_refstate-mantle.xmf,984,-1.73002e-06,7.06765e-06,0,-3.69379e-06,-1.17813e+09,-1.17696e+09,-1.1779e+09,-493675,-0.00527236,0.229652,-0,0.229712,10720.5,-42459.6,0,43792.1,493675
step02_gravity_refstate-mantle.xmf,985,-3.62714e-06,6.25499e-06,0,-1.59379e-06,-1.09899e+09,-1.09767e+09,-1.0985e+09,-213010,0.0128224,0.14931,0,0.14986,15999.9,-40000,0,43081.3,213010
step02_gravity_refstate-mantle.xmf,986,-2.98684e-06,6.28432e-06,0,-1.40857e-06,-1.12779e+09,-1.12655e+09,-1.12739e+09,-188255,0.00544249,0.152882,0,0.152978,15331.7,-40893.9,0,43673.5,188255
step02_gravity_refstate-mantle.xmf,987,-1.40037e-07,7.88581e-06,0,-6.56396e-06,-1.20357e+09,-1.2025e+09,-1.20355e+09,-877273,-0.0183643,0.278815,-0,0.279419,8802.38,-43258,0,44144.5,877273
step02_gravity_refstate-mantle.xmf,988,-1.52197e-06,4.87924e-06,0,-4.11062e-07,-1.09865e+09,-1.09779e+09,-1.09844e+09,-54938.5,-0.00248846,0.0903565,-0,0.0903907,22132.3,-40000,0,45714.8,54938.5
step02_gravity_refstate-mantle.xmf,989,-6.82465e-07,4.62942e-06,0,1.08165e-08,-1.13937e+09,-1.13866e+09,-1.13927e+09,1445.63,-0.0106961,0.0802889,-0,0.0809983,22773.3,-41262.8,0,47130.1,1445.63
step02_gravity_refstate-mantle.xmf,990,4.54357e-06,1.95977e-06,0,2.72108e-07,-1.53906e+09,-1.5394e+09,-1.53967e+09,36367.3,-0.0245994,0.0122202,-0,0.0274675,34588.2,-53637.5,0,63822.6,36367.3
step02_gravity_refstate-mantle.xmf,991,3.21181e-06,2.71865e-06,0,6.26338e-07,-1.37558e+09,-1.37565e+09,-1.37601e+09,83710,-0.03285,0.0281783,-0,0.0432797,30110.6,-48580.7,0,57155.3,83710
step02_gravity_refstate-mantle.xmf,992,2.67653e-06,2.97531e-06,0,6.66783e-07,-1.32787e+09,-1.32783e+09,-1.32823e+09,89115.6,-0.0310578,0.0341467,-0,0.0461583,29157.1,-47104.1,0,55397.9,89115.6
step02_gravity_refstate-mantle.xmf,993,5.04265e-07,3.8846e-06,0,3.736e-07,-1.17364e+09,-1.17319e+09,-1.17371e+09,49931.7,-0.016465,0.0585052,-0,0.0607779,26364.8,-42327.7,0,49867.2,49931.7
step02_gravity_refstate-mantle.xmf,994,1.11176e-06,3.63822e-06,0,5.26848e-07,-1.21157e+09,-1.21123e+09,-1.21172e+09,70413.3,-0.0209974,0.0513377,-0,0.0554658,27147.6,-43502.7,0,51278.5,70413.3
step02_gravity_refstate-mantle.xmf,995,1.72849e-06,3.38188e-06,0,6.20661e-07,-1.25364e+09,-1.25342e+09,-1.25387e+09,82951.3,-0.0252852,0.0444134,-0,0.0511067,27928.4,-44805.7,0,52797.2,82951.3
step02_gravity_refstate-mantle.xmf,996,3.31527e-07,4.11374e-06,0,3.5733e-07,-1.17788e+09,-1.17737e+09,-1.17792e+09,47757.1,-0.017713,0.0640612,-0,0.0664649,24887.8,-42457.9,0,49214.6,47757.1
step02_gravity_refstate-mantle.xmf,997,-1.19817e-05,3.01454e-05,0,7.71591e-07,-1.71721e+09,-1.71158e+09,-1.7156e+09,103123,0.0564742,0.027048,0,0.0626173,-4152.36,-59102,-0,59247.7,103123
step02_gravity_refstate-mantle.xmf,998,-1.26374e-05,3.11552e-05,0,2.14301e-06,-1.6599e+09,-1.65405e+09,-1.65821e+09,286413,0.050518,0.0826728,0,0.0968858,-3605.14,-57330.1,-0,57443.3,286413
step02_gravity_refstate-mantle.xmf,999,-1.26391e-05,3.10739e-05,0,1.45422e-06,-1.68765e+09,-1.68181e+09,-1.68596e+09,194357,0.0496478,0.0561272,0,0.0749344,-3572.12,-58187,-0,58296.6,194357
step02_gravity_refstate-mantle.xmf,1000,5.13596e-06,1.91464e-06,0,-6.19842e-09,-1.74491e+09,-1.74534e+09,-1.7456e+09,-828.418,-0.0235148,-3.27684e-19,-0,0.0235148,35418.4,-60000,0,69674,828.418
step02_gravity_refstate-mantle.xmf,1001,-1.74508e-05,4.01825e-05,0,-9.2796e-07,-1.48316e+09,-1.47546e+09,-1.48083e+09,-124022,-0.00558253,0.28856,-0,0.288614,320.124,-51861.4,0,51862.4,124022
step02_gravity_refstate-mantle.xmf,1002,-1.75799e-05,4.14536e-05,0,-4.29543e-06,-1.44938e+09,-1.44149e+09,-1.44703e+09,-574084,-0.0226371,0.32705,-0,0.327833,1254.45,-50820.5,0,50836,574084
step02_gravity_refstate-mantle.xmf,1003,-4.90747e-07,1.96186e-05,0,-1.80487e-05,-1.28421e+09,-1.28153e+09,-1.28415e+09,-2.41221e+06,-0.0640268,0.379576,-0,0.384939,5576.96,-45776.8,0,46115.3,2.41221e+06
step02_gravity_refstate-mantle.xmf,1004,1.28442e-06,1.42556e-05,0,-1.44525e-05,-1.26604e+09,-1.2643e+09,-1.26621e+09,-1.93158e+06,-0.0561917,0.348588,-0,0.353088,6463.72,-45213.5,0,45673.2,1.93158e+06
step02_gravity_refstate-mantle.xmf,1005,1.49286e-06,1.08398e-05,0,-1.08642e-05,-1.24821e+09,-1.24696e+09,-1.24841e+09,-1.45201e+06,-0.0457442,0.315134,-0,0.318437,7438.3,-44655.5,0,45270.8,1.45201e+06
step02_gravity_refstate-mantle.xmf,1006,9.65795e-07,9.46287e-06,0,-9.37932e-06,-1.22735e+09,-1.22621e+09,-1.22748e+09,-1.25355e+06,-0.0334173,0.309336,-0,0.311136,7759.44,-44004.1,0,44683,1.25355e+06
step02_gravity_refstate-mantle.xmf,1007,-1.62091e-05,4.03089e-05,0,-8.41066e-06,-1.42688e+09,-1.41932e+09,-1.42471e+09,-1.12408e+06,-0.0414787,0.34341,-0,0.345906,2311.16,-50131.5,0,50184.7,1.12408e+06
step02_gravity_refstate-mantle.xmf,1008,-1.36494e-05,3.82905e-05,0,-1.32507e-05,-1.38711e+09,-1.38017e+09,-1.38529e+09,-1.77095e+06,-0.0574802,0.37246,-0,0.37687,3259.65,-48915.1,0,49023.6,1.77095e+06
step02_gravity_refstate-mantle.xmf,1009,-1.92129e-06,5.16242e-06,0,-5.80262e-07,-1.09871e+09,-1.09776e+09,-1.09845e+09,-77552.1,-0.000184148,0.100113,-0,0.100113,20782.4,-40000,0,45076.7,77552.1
step02_gravity_refstate-mantle.xmf,1010,-1.0398e-06,4.90678e-06,0,-1.26468e-07,-1.13712e+09,-1.13633e+09,-1.13698e+09,-16902.4,-0.00909651,0.0893646,-0,0.0898264,21425.1,-41191.9,0,46430.6,16902.4
step02_gravity_refstate-mantle.xmf,1011,-4.14339e-07,7.49133e-06,0,-5.28235e-06,-1.20114e+09,-1.20009e+09,-1.20109e+09,-705987,-0.0171326,0.255324,-0,0.255898,9579.26,-43180.3,0,44230.1,705987
step02_gravity_refstate-mantle.xmf,1012,-2.33077e-06,5.44429e-06,0,-7.81184e-07,-1.09877e+09,-1.09773e+09,-1.09846e+09,-104405,0.00253187,0.110866,0,0.110895,19497.2,-40000,0,44498.8,104405
step02_gravity_refstate-mantle.xmf,1013,-1.41326e-06,5.18182e-06,0,-3.02226e-07,-1.13416e+09,-1.13328e+09,-1.13397e+09,-40392.4,-0.00689576,0.0993635,-0,0.0996025,20161,-41098.5,0,45777.2,40392.4
step02_gravity_refstate-mantle.xmf,1014,-6.12642e-07,7.19743e-06,0,-4.24574e-06,-1.19987e+09,-1.19883e+09,-1.19979e+09,-567443,-0.0168424,0.233364,-0,0.233971,10385.7,-43139,0,44371.5,567443
step02_gravity_refstate-mantle.xmf,1015,-2.11616e-06,6.90958e-06,0,-2.99922e-06,-1.17004e+09,-1.16883e+09,-1.16976e+09,-400846,-0.00247159,0.212714,-0,0.212729,11508.4,-42206.6,0,43747.4,400846
step02_gravity_refstate-mantle.xmf,1016,-2.74964e-06,5.72154e-06,0,-1.01523e-06,-1.09884e+09,-1.09771e+09,-1.09847e+09,-135685,0.00562701,0.122636,0,0.122765,18273.7,-40000,0,43976.5,135685
step02_gravity_refstate-mantle.xmf,1017,-1.76679e-06,5.45162e-06,0,-4.99763e-07,-1.13267e+09,-1.13171e+09,-1.13244e+09,-66793.4,-0.004588,0.110219,-0,0.110314,18941.6,-41051,0,45210.2,66793.4
step02_gravity_refstate-mantle.xmf,1018,-3.18054e-06,5.9921e-06,0,-1.28514e-06,-1.09891e+09,-1.09769e+09,-1.09849e+09,-171759,0.00906816,0.135444,0,0.135747,17108.9,-40000,0,43505.3,171759
step02_gravity_refstate-mantle.xmf,1019,-2.0791e-06,5.71387e-06,0,-7.14147e-07,-1.13341e+09,-1.13237e+09,-1.13313e+09,-95445.8,-0.00248475,0.121968,-0,0.121993,17751.9,-41072.4,0,44744.5,95445.8
step02_gravity_refstate-mantle.xmf,1020,-2.36122e-06,5.9889e-06,0,-9.77984e-07,-1.13603e+09,-1.13492e+09,-1.13572e+09,-130708,-0.000432822,0.136054,-0,0.136054,16483.9,-41152.1,0,44330.7,130708
step02_gravity_refstate-mantle.xmf,1021,-2.42937e-06,6.74245e-06,0,-2.40407e-06,-1.16018e+09,-1.15896e+09,-1.15986e+09,-321304,0.000342393,0.195828,0,0.195829,12401.2,-41899.6,0,43696.3,321304
step02_gravity_refstate-mantle.xmf,1022,-2.63869e-06,6.57251e-06,0,-1.88484e-06,-1.15079e+09,-1.14956e+09,-1.15044e+09,-251908,0.00178652,0.177506,0,0.177515,13480.7,-41607.7,0,43737.1,251908
step02_gravity_refstate-mantle.xmf,1023,-2.31341e-06,6.32354e-06,0,-1.41997e-06,-1.15329e+09,-1.15213e+09,-1.15298e+09,-189779,-0.00202634,0.158706,-0,0.158719,14596.5,-41686.2,0,44167.9,189779
step02_gravity_refstate-mantle.xmf,1024,8.58571e-07,8.59748e-06,0,-7.70449e-06,-1.22549e+09,-1.22446e+09,-1.2256e+09,-1.02971e+06,-0.0316392,0.283859,-0,0.285617,8482.67,-43943.7,0,44754.9,1.02971e+06
step02_gravity_refstate-mantle.xmf,1025,3.69832e-06,2.48492e-06,0,5.54319e-07,-1.42566e+09,-1.42582e+09,-1.42615e+09,74084.8,-0.0337226,0.0228245,-0,0.0407207,31023.7,-50130.1,0,58953.4,74084.8
step02_gravity_refstate-mantle.xmf,1026,4.96923e-06,1.88454e-06,0,1.4193e-07,-1.63612e+09,-1.63654e+09,-1.63679e+09,18969,-0.026456,0.00644,-0,0.0272285,34672,-56638.4,0,66408.3,18969
step02_gravity_refstate-mantle.xmf,1027,4.78342e-06,1.9599e-06,0,2.42598e-07,-1.58676e+09,-1.58714e+09,-1.5874e+09,32423.2,-0.0293946,0.00963356,-0,0.0309329,33853.5,-55112.5,0,64679.6,32423.2
step02_gravity_refstate-mantle.xmf,1028,4.13081e-06,2.26823e-06,0,4.57555e-07,-1.47791e+09,-1.47816e+09,-1.47846e+09,61152.3,-0.0332172,0.0179103,-0,0.0377381,32008.1,-51746.5,0,60845.9,61152.3
step02_gravity_refstate-mantle.xmf,1029,4.49232e-06,2.09748e-06,0,3.52709e-07,-1.53148e+09,-1.5318e+09,-1.53208e+09,47139.5,-0.0320039,0.0136038,-0,0.0347752,32889.8,-53403.3,0,62718.8,47139.5
step02_gravity_refstate-mantle.xmf,1030,9.85666e-08,4.37673e-06,0,3.00343e-07,-1.1792e+09,-1.17863e+09,-1.17922e+09,40140.8,-0.0182609,0.0713356,-0,0.0736358,23371,-42498,0,48500.4,40140.8
step02_gravity_refstate-mantle.xmf,1031,2.23113e-06,3.18341e-06,0,6.60455e-07,-1.2921e+09,-1.29197e+09,-1.2924e+09,88269.7,-0.028897,0.0391893,-0,0.0486913,28432.3,-45996.6,0,54074.8,88269.7
step02_gravity_refstate-mantle.xmf,1032,-1.34529e-05,3.2232e-05,0,1.68191e-06,-1.6634e+09,-1.6573e+09,-1.66161e+09,224788,0.0396976,0.0820128,0,0.0911153,-2780.45,-57435.6,-0,57502.9,224788
step02_gravity_refstate-mantle.xmf,1033,-1.26144e-05,3.10034e-05,0,9.85557e-09,-1.74634e+09,-1.74051e+09,-1.74466e+09,1317.2,0.0488548,-4.10916e-19,0,0.0488548,-3539.92,-60000,-0,60104.3,1317.2
step02_gravity_refstate-mantle.xmf,1034,-1.4052e-05,3.31794e-05,0,1.85906e-06,-1.63752e+09,-1.63121e+09,-1.63564e+09,248464,0.0324711,0.109886,0,0.114583,-2221.27,-56634.4,-0,56678,248464
step02_gravity_refstate-mantle.xmf,1035,5.09305e-06,1.93394e-06,0,8.78997e-08,-1.68883e+09,-1.68925e+09,-1.68951e+09,11747.8,-0.0295689,0.00341422,-0,0.0297653,34189,-58267.5,0,67557.3,11747.8
step02_gravity_refstate-mantle.xmf,1036,-1.46229e-05,3.41546e-05,0,1.90963e-06,-1.61055e+09,-1.60403e+09,-1.6086e+09,255222,0.0260562,0.139497,0,0.14191,-1737.73,-55800.1,-0,55827.1,255222
step02_gravity_refstate-mantle.xmf,1037,-1.52348e-05,3.52532e-05,0,1.74993e-06,-1.58312e+09,-1.57638e+09,-1.58109e+09,233878,0.0193738,0.170417,0,0.171515,-1255.46,-54951.5,-0,54965.9,233878
step02_gravity_refstate-mantle.xmf,1038,-1.58487e-05,3.64218e-05,0,1.24774e-06,-1.55749e+09,-1.55051e+09,-1.55538e+09,166760,0.0116378,0.20015,0,0.200488,-731.948,-54158.7,-0,54163.7,166760
step02_gravity_refstate-mantle.xmf,1039,-1.64226e-05,3.76501e-05,0,4.69998e-07,-1.53179e+09,-1.52456e+09,-1.52959e+09,62815.2,0.00377059,0.230315,0,0.230345,-229.938,-53364,-0,53364.5,62815.2
step02_gravity_refstate-mantle.xmf,1040,-1.69454e-05,3.89215e-05,0,-1.7022e-07,-1.50684e+09,-1.49937e+09,-1.50457e+09,-22749.9,-0.00110365,0.259879,-0,0.259882,65.3204,-52593.1,0,52593.1,22749.9
step02_gravity_refstate-mantle.xmf,1041,-1.70531e-05,3.95298e-05,0,-2.78804e-06,-1.48559e+09,-1.47803e+09,-1.48332e+09,-372622,-0.0173352,0.283337,-0,0.283867,1003.92,-51937.7,0,51947.4,372622
step02_gravity_refstate-mantle.xmf,1042,-1.69664e-05,3.99653e-05,0,-4.53676e-06,-1.46657e+09,-1.45896e+09,-1.4643e+09,-606338,-0.0261016,0.303616,-0,0.304736,1487.5,-51351.6,0,51373.1,606338
step02_gravity_refstate-mantle.xmf,1043,-1.66345e-05,4.01193e-05,0,-6.44831e-06,-1.44797e+09,-1.44038e+09,-1.44575e+09,-861817,-0.0345248,0.322143,-0,0.323988,1945.99,-50779.7,0,50817,861817
step02_gravity_refstate-mantle.xmf,1044,-2.20844e-06,2.26715e-05,0,-1.8651e-05,-1.30092e+09,-1.29759e+09,-1.30062e+09,-2.49271e+06,-0.0685191,0.380067,-0,0.386194,5331.41,-46289.1,0,46595.1,2.49271e+06
step02_gravity_refstate-mantle.xmf,1045,5.13472e-07,1.67411e-05,0,-1.58314e-05,-1.28385e+09,-1.28168e+09,-1.28392e+09,-2.11587e+06,-0.0638844,0.352822,-0,0.358559,6171.77,-45765,0,46179.3,2.11587e+06
step02_gravity_refstate-mantle.xmf,1046,1.53618e-06,1.25832e-05,0,-1.24016e-05,-1.26691e+09,-1.26543e+09,-1.26711e+09,-1.65748e+06,-0.0556832,0.321873,-0,0.326654,7095.36,-45237.8,0,45790.9,1.65748e+06
step02_gravity_refstate-mantle.xmf,1047,-1.52863e-05,3.95912e-05,0,-1.02738e-05,-1.41284e+09,-1.40551e+09,-1.4108e+09,-1.37309e+06,-0.0486947,0.353491,-0,0.356829,2726.8,-49702.2,0,49777,1.37309e+06
step02_gravity_refstate-mantle.xmf,1048,-4.24865e-06,2.56514e-05,0,-1.83727e-05,-1.3199e+09,-1.3159e+09,-1.31933e+09,-2.45551e+06,-0.071518,0.376275,-0,0.383011,5095.17,-46869.4,0,47145.5,2.45551e+06
step02_gravity_refstate-mantle.xmf,1049,-6.07444e-06,2.82441e-05,0,-1.77975e-05,-1.33708e+09,-1.33249e+09,-1.33627e+09,-2.37864e+06,-0.0723705,0.372609,-0,0.379572,4833.84,-47394.5,0,47640.4,2.37864e+06
step02_gravity_refstate-mantle.xmf,1050,-8.03161e-06,3.08372e-05,0,-1.69258e-05,-1.35429e+09,-1.3491e+09,-1.35322e+09,-2.26213e+06,-0.0713426,0.36869,-0,0.375529,4518.68,-47919.8,0,48132.4,2.26213e+06
step02_gravity_refstate-mantle.xmf,1051,-9.91854e-06,3.31178e-05,0,-1.56883e-05,-1.37146e+09,-1.36571e+09,-1.37014e+09,-2.09674e+06,-0.0687634,0.362826,-0,0.369285,4190.1,-48443.4,0,48624.3,2.09674e+06
step02_gravity_refstate-mantle.xmf,1052,-1.16652e-05,3.5066e-05,0,-1.41235e-05,-1.38906e+09,-1.38281e+09,-1.3875e+09,-1.88761e+06,-0.064687,0.354918,-0,0.360764,3833.71,-48980.2,0,49130,1.88761e+06
step02_gravity_refstate-mantle.xmf,1053,-1.35087e-05,3.71111e-05,0,-1.21587e-05,-1.40636e+09,-1.3996e+09,-1.40456e+09,-1.62502e+06,-0.0578927,0.348054,-0,0.352835,3344.29,-49507.7,0,49620.6,1.62502e+06
step02_gravity_refstate-mantle.xmf,1054,-9.23429e-07,6.97278e-06,0,-3.36364e-06,-1.19608e+09,-1.19503e+09,-1.19596e+09,-449551,-0.0154722,0.213614,-0,0.214173,11223.2,-43019.2,0,44459.1,449551
step02_gravity_refstate-mantle.xmf,1055,-2.07383e-06,6.09483e-06,0,-1.071e-06,-1.15323e+09,-1.15214e+09,-1.15295e+09,-143139,-0.00436599,0.143431,-0,0.143497,15661,-41685.5,0,44530.3,143139
step02_gravity_refstate-mantle.xmf,1056,6.28027e-07,7.9985e-06,0,-6.27037e-06,-1.22384e+09,-1.22285e+09,-1.22392e+09,-838036,-0.0301439,0.260005,-0,0.261747,9238.24,-43889.6,0,44851.3,838036
step02_gravity_refstate-mantle.xmf,1057,-1.33642e-07,4.63698e-06,0,2.09843e-07,-1.18016e+09,-1.17952e+09,-1.18014e+09,28045.5,-0.0184183,0.0792443,-0,0.0813566,21989.3,-42526.7,0,47875.4,28045.5
step02_gravity_refstate-mantle.xmf,1058,3.65182e-06,2.69378e-06,0,6.07174e-07,-1.42522e+09,-1.42535e+09,-1.42571e+09,81148.7,-0.0400967,0.0253722,-0,0.0474499,29279.9,-50116.9,0,58043.3,81148.7
step02_gravity_refstate-mantle.xmf,1059,3.1675e-06,2.93196e-06,0,6.70273e-07,-1.37753e+09,-1.37756e+09,-1.37795e+09,89582,-0.03857,0.0312193,-0,0.0496215,28376.8,-48641,0,56313.3,89582
step02_gravity_refstate-mantle.xmf,1060,2.60727e-06,3.21227e-06,0,6.90671e-07,-1.32978e+09,-1.32969e+09,-1.33012e+09,92308.2,-0.0360509,0.038202,-0,0.0525267,27348,-47162.9,0,54518.4,92308.2
step02_gravity_refstate-mantle.xmf,1061,2.07067e-06,3.3852e-06,0,6.69841e-07,-1.28654e+09,-1.28636e+09,-1.28681e+09,89524.3,-0.0309511,0.0431521,-0,0.0531044,27157.5,-45824.1,0,53267.1,89524.3
step02_gravity_refstate-mantle.xmf,1062,9.8453e-07,3.85622e-06,0,5.334e-07,-1.2161e+09,-1.21572e+09,-1.21623e+09,71288.9,-0.023264,0.0563419,-0,0.0609559,25601.5,-43642.3,0,50597.3,71288.9
step02_gravity_refstate-mantle.xmf,1063,1.59502e-06,3.60007e-06,0,6.38898e-07,-1.25451e+09,-1.25424e+09,-1.25472e+09,85388.7,-0.0279676,0.0490487,-0,0.056462,26383.4,-44832.3,0,52019.4,85388.7
step02_gravity_refstate-mantle.xmf,1064,8.21032e-07,4.10905e-06,0,4.92994e-07,-1.21775e+09,-1.21731e+09,-1.21786e+09,65888.6,-0.0248935,0.0626481,-0,0.0674127,24089.7,-43693,0,49893.8,65888.6
step02_gravity_refstate-mantle.xmf,1065,-1.31639e-05,3.17252e-05,0,5.7785e-07,-1.7183e+09,-1.7123e+09,-1.71654e+09,77229.6,0.0415231,0.0275047,0,0.0498064,-2963.52,-59132,-0,59206.2,77229.6
step02_gravity_refstate-mantle.xmf,1066,4.96747e-06,2.02281e-06,0,1.78546e-07,-1.63659e+09,-1.63698e+09,-1.63725e+09,23862.7,-0.0349444,0.0068881,-0,0.0356168,32965.5,-56653,0,65546.1,23862.7
step02_gravity_refstate-mantle.xmf,1067,5.13754e-06,2.07616e-06,0,-6.30185e-09,-1.7449e+09,-1.7453e+09,-1.74558e+09,-842.242,-0.034511,-3.50145e-19,-0,0.034511,33277.3,-60000,0,68610.3,842.242
step02_gravity_refstate-mantle.xmf,1068,-1.68242e-05,3.87664e-05,0,-1.73357e-06,-1.50434e+09,-1.49691e+09,-1.50209e+09,-231692,-0.0117493,0.261858,-0,0.262122,694.644,-52516.3,0,52520.9,231692
step02_gravity_refstate-mantle.xmf,1069,-6.90628e-07,1.93104e-05,0,-1.67367e-05,-1.30096e+09,-1.29828e+09,-1.30086e+09,-2.23686e+06,-0.0693957,0.354186,-0,0.36092,5919.79,-46291.9,0,46668.9,2.23686e+06
step02_gravity_refstate-mantle.xmf,1070,1.1678e-06,1.45392e-05,0,-1.38133e-05,-1.28423e+09,-1.28244e+09,-1.28438e+09,-1.84614e+06,-0.0635052,0.327001,-0,0.333111,6785.27,-45775.3,0,46275.5,1.84614e+06
step02_gravity_refstate-mantle.xmf,1071,1.72734e-06,1.14296e-05,0,-1.07351e-05,-1.27251e+09,-1.27121e+09,-1.27274e+09,-1.43475e+06,-0.0571156,0.294724,-0,0.300207,7759.84,-45409.1,0,46067.3,1.43475e+06
step02_gravity_refstate-mantle.xmf,1072,1.46678e-06,9.72935e-06,0,-9.06251e-06,-1.24764e+09,-1.24654e+09,-1.24784e+09,-1.21121e+06,-0.0443462,0.289301,-0,0.29268,8142.43,-44634.9,0,45371.5,1.21121e+06
step02_gravity_refstate-mantle.xmf,1073,-1.44439e-05,3.76653e-05,0,-1.02476e-05,-1.42729e+09,-1.42033e+09,-1.42536e+09,-1.36959e+06,-0.0526182,0.330309,-0,0.334474,3039.36,-50149.3,0,50241.4,1.36959e+06
step02_gravity_refstate-mantle.xmf,1074,-5.30402e-07,4.91936e-06,0,4.95329e-08,-1.17187e+09,-1.17114e+09,-1.1718e+09,6620.08,-0.0161916,0.0889598,-0,0.0904213,20743.3,-42268.7,0,47084.3,6620.08
step02_gravity_refstate-mantle.xmf,1075,3.96609e-07,7.54382e-06,0,-5.05662e-06,-1.22242e+09,-1.22147e+09,-1.22247e+09,-675817,-0.0289767,0.237626,-0,0.239387,10030.1,-43843.1,0,44975.8,675817
step02_gravity_refstate-mantle.xmf,1076,-8.71743e-07,5.18239e-06,0,-1.36207e-07,-1.16616e+09,-1.16535e+09,-1.16605e+09,-18204.1,-0.0139954,0.0990426,-0,0.100026,19577.7,-42090.8,0,46421.1,18204.1
step02_gravity_refstate-mantle.xmf,1077,1.65917e-07,7.17871e-06,0,-4.02286e-06,-1.22062e+09,-1.21969e+09,-1.22064e+09,-537655,-0.0278301,0.21675,-0,0.21853,10862.4,-43785,0,45112.3,537655
step02_gravity_refstate-mantle.xmf,1078,-1.20558e-06,6.75404e-06,0,-2.62684e-06,-1.19029e+09,-1.18923e+09,-1.19013e+09,-351077,-0.0135215,0.195587,-0,0.196054,12102.7,-42838,0,44514.8,351077
step02_gravity_refstate-mantle.xmf,1079,-1.10891e-06,5.42859e-06,0,-3.1947e-07,-1.16602e+09,-1.16515e+09,-1.16588e+09,-42697.2,-0.0128118,0.109376,-0,0.110124,18436.3,-42085.5,0,45946.6,42697.2
step02_gravity_refstate-mantle.xmf,1080,-1.29158e-06,5.67141e-06,0,-5.38085e-07,-1.16804e+09,-1.16711e+09,-1.16787e+09,-71915,-0.0119972,0.120892,-0,0.121486,17286.4,-42147.1,0,45554.3,71915
step02_gravity_refstate-mantle.xmf,1081,-1.39505e-06,5.88564e-06,0,-7.78767e-07,-1.17157e+09,-1.1706e+09,-1.17138e+09,-104082,-0.0117204,0.132362,-0,0.132879,16252.5,-42256.1,0,45273.8,104082
step02_gravity_refstate-mantle.xmf,1082,-1.47777e-06,6.1094e-06,0,-1.10154e-06,-1.17485e+09,-1.17384e+09,-1.17465e+09,-147221,-0.0112746,0.146275,-0,0.146709,15157.6,-42357.4,0,44987.8,147221
step02_gravity_refstate-mantle.xmf,1083,-1.3794e-06,6.52824e-06,0,-2.00295e-06,-1.18416e+09,-1.1831e+09,-1.18398e+09,-267694,-0.0119575,0.178091,-0,0.178492,13068.1,-42646.7,0,44604,267694
step02_gravity_refstate-mantle.xmf,1084,-1.44968e-06,6.31829e-06,0,-1.49639e-06,-1.17991e+09,-1.17887e+09,-1.17972e+09,-199992,-0.0116605,0.161154,-0,0.161576,14106.1,-42514.4,0,44793.5,199992
step02_gravity_refstate-mantle.xmf,1085,1.40528e-06,8.81964e-06,0,-7.4944e-06,-1.24621e+09,-1.24522e+09,-1.2464e+09,-1.00163e+06,-0.0425374,0.265395,-0,0.268782,8874.56,-44588.1,0,45462.7,1.00163e+06
step02_gravity_refstate-mantle.xmf,1086,4.08872e-06,2.47895e-06,0,5.18477e-07,-1.47611e+09,-1.47633e+09,-1.47666e+09,69294.5,-0.0406962,0.0200203,-0,0.0453541,30160.7,-51691.3,0,59847,69294.5
step02_gravity_refstate-mantle.xmf,1087,4.76544e-06,2.13545e-06,0,2.9827e-07,-1.5846e+09,-1.58495e+09,-1.58523e+09,39863.8,-0.038365,0.0106862,-0,0.0398255,31960.2,-55046,0,63651.5,39863.8
step02_gravity_refstate-mantle.xmf,1088,4.4644e-06,2.28953e-06,0,4.12264e-07,-1.52954e+09,-1.52983e+09,-1.53014e+09,55099.1,-0.0401397,0.0151231,-0,0.0428941,31052.8,-53343.8,0,61723.9,55099.1
step02_gravity_refstate-mantle.xmf,1089,6.41203e-07,4.37371e-06,0,4.17539e-07,-1.21859e+09,-1.2181e+09,-1.21868e+09,55804.1,-0.0261071,0.0700929,-0,0.074797,22624.1,-43718.4,0,49225.5,55804.1
step02_gravity_refstate-mantle.xmf,1090,-1.36993e-05,3.24618e-05,0,9.79611e-07,-1.69104e+09,-1.68487e+09,-1.68921e+09,130925,0.0336703,0.0553668,0,0.064801,-2361.82,-58288.2,-0,58336,130925
step02_gravity_refstate-mantle.xmf,1091,-1.41804e-05,3.32033e-05,0,1.13954e-06,-1.66402e+09,-1.65769e+09,-1.66213e+09,152299,0.0263485,0.0837704,0,0.0878164,-1814.57,-57452.4,-0,57481,152299
step02_gravity_refstate-mantle.xmf,1092,-1.36126e-05,3.23323e-05,0,1.21496e-08,-1.74645e+09,-1.74031e+09,-1.74463e+09,1623.79,0.0333795,-4.19016e-19,0,0.0333795,-2359.95,-60000,-0,60046.4,1623.79
step02_gravity_refstate-mantle.xmf,1093,-1.46518e-05,3.39751e-05,0,1.09691e-06,-1.63752e+09,-1.63102e+09,-1.63556e+09,146602,0.0188002,0.112336,0,0.113898,-1268.63,-56632.4,-0,56646.6,146602
step02_gravity_refstate-mantle.xmf,1094,5.08939e-06,2.1254e-06,0,1.06376e-07,-1.69008e+09,-1.69048e+09,-1.69076e+09,14217.2,-0.0398432,0.00366466,-0,0.0400114,32173.4,-58306.7,0,66594.3,14217.2
step02_gravity_refstate-mantle.xmf,1095,-1.5113e-05,3.48007e-05,0,8.59009e-07,-1.61033e+09,-1.60366e+09,-1.60831e+09,114807,0.0116162,0.142074,0,0.142548,-766.236,-55791.6,-0,55796.9,114807
step02_gravity_refstate-mantle.xmf,1096,-1.55626e-05,3.56766e-05,0,3.53015e-07,-1.5837e+09,-1.57685e+09,-1.58162e+09,47180.5,0.00402823,0.171618,0,0.171665,-259.283,-54968.2,-0,54968.8,47180.5
step02_gravity_refstate-mantle.xmf,1097,-1.59697e-05,3.65724e-05,0,-4.37712e-07,-1.55739e+09,-1.55037e+09,-1.55526e+09,-58500.2,-0.00382816,0.200975,-0,0.201011,240.074,-54155.2,0,54155.7,58500.2
step02_gravity_refstate-mantle.xmf,1098,-1.63577e-05,3.75607e-05,0,-1.50883e-06,-1.529e+09,-1.5218e+09,-1.52682e+09,-201656,-0.0115578,0.232761,-0,0.233048,704.271,-53278.2,0,53282.8,201656
step02_gravity_refstate-mantle.xmf,1099,-1.63405e-05,3.79243e-05,0,-3.0078e-06,-1.51038e+09,-1.50313e+09,-1.5082e+09,-401993,-0.0213447,0.252282,-0,0.253184,1281.03,-52704,0,52719.6,401993
step02_gravity_refstate-mantle.xmf,1100,-1.6211e-05,3.82696e-05,0,-4.67594e-06,-1.48838e+09,-1.4811e+09,-1.48621e+09,-624939,-0.0301936,0.274863,-0,0.276516,1782.19,-52026.1,0,52056.6,624939
step02_gravity_refstate-mantle.xmf,1101,-1.5268e-05,3.81518e-05,0,-8.33156e-06,-1.44722e+09,-1.44008e+09,-1.44518e+09,-1.11351e+06,-0.0458981,0.313497,-0,0.316839,2657,-50760.7,0,50830.2,1.11351e+06
step02_gravity_refstate-mantle.xmf,1102,-1.58409e-05,3.83227e-05,0,-6.46575e-06,-1.46775e+09,-1.46051e+09,-1.46563e+09,-864147,-0.0384641,0.294735,-0,0.297235,2244.17,-51391.5,0,51440.5,864147
step02_gravity_refstate-mantle.xmf,1103,-2.2585e-06,2.19354e-05,0,-1.70938e-05,-1.31834e+09,-1.31511e+09,-1.31804e+09,-2.28458e+06,-0.0731593,0.353177,-0,0.360675,5679.04,-46825.2,0,47168.4,2.28458e+06
step02_gravity_refstate-mantle.xmf,1104,3.01601e-07,1.67219e-05,0,-1.4848e-05,-1.30099e+09,-1.29879e+09,-1.30103e+09,-1.98443e+06,-0.0695186,0.329648,-0,0.336898,6516.39,-46292.8,0,46749.2,1.98443e+06
step02_gravity_refstate-mantle.xmf,1105,1.44745e-06,1.31873e-05,0,-1.23169e-05,-1.2851e+09,-1.28354e+09,-1.2853e+09,-1.64616e+06,-0.0631797,0.307165,-0,0.313595,7288.58,-45800.8,0,46377.2,1.64616e+06
step02_gravity_refstate-mantle.xmf,1106,-4.0265e-06,2.45683e-05,0,-1.69857e-05,-1.3363e+09,-1.33247e+09,-1.33576e+09,-2.27014e+06,-0.0752452,0.350664,-0,0.358646,5417.46,-47374.7,0,47683.4,2.27014e+06
step02_gravity_refstate-mantle.xmf,1107,-5.8062e-06,2.70319e-05,0,-1.65282e-05,-1.35375e+09,-1.34936e+09,-1.35298e+09,-2.20899e+06,-0.0755986,0.347167,-0,0.355303,5136.8,-47908.3,0,48182.9,2.20899e+06
step02_gravity_refstate-mantle.xmf,1108,-7.61726e-06,2.93625e-05,0,-1.5745e-05,-1.37121e+09,-1.36627e+09,-1.37019e+09,-2.10432e+06,-0.0743584,0.342526,-0,0.350504,4828.14,-48441.5,0,48681.5,2.10432e+06
step02_gravity_refstate-mantle.xmf,1109,-9.39582e-06,3.14764e-05,0,-1.4603e-05,-1.38936e+09,-1.3839e+09,-1.38811e+09,-1.9517e+06,-0.0716466,0.335782,-0,0.343341,4495.25,-48995.6,0,49201.4,1.9517e+06
step02_gravity_refstate-mantle.xmf,1110,-1.10725e-05,3.3347e-05,0,-1.31737e-05,-1.40771e+09,-1.40177e+09,-1.40623e+09,-1.76067e+06,-0.0674158,0.327585,-0,0.33445,4123.74,-49555.9,0,49727.2,1.76067e+06
step02_gravity_refstate-mantle.xmf,1111,-1.30238e-07,6.89456e-06,0,-3.13058e-06,-1.21734e+09,-1.2164e+09,-1.21732e+09,-418403,-0.0262092,0.197496,-0,0.199227,11740,-43680.9,0,45231,418403
step02_gravity_refstate-mantle.xmf,1112,1.22627e-06,8.15756e-06,0,-6.10674e-06,-1.24555e+09,-1.24463e+09,-1.24572e+09,-816166,-0.0411776,0.242181,-0,0.245657,9660.49,-44564.7,0,45599.8,816166
step02_gravity_refstate-mantle.xmf,1113,3.69056e-07,4.67344e-06,0,2.91408e-07,-1.21579e+09,-1.21521e+09,-1.21584e+09,38946.6,-0.0262647,0.0797646,-0,0.0839775,21120.7,-43630.6,0,48473.9,38946.6
step02_gravity_refstate-mantle.xmf,1114,4.01773e-06,2.73038e-06,0,5.49499e-07,-1.47194e+09,-1.47211e+09,-1.47248e+09,73440.6,-0.0473433,0.0228185,-0,0.0525554,28441.2,-51562.6,0,58886.4,73440.6
step02_gravity_refstate-mantle.xmf,1115,3.59453e-06,2.94576e-06,0,6.22076e-07,-1.42472e+09,-1.42481e+09,-1.4252e+09,83140.5,-0.0461759,0.0285727,-0,0.0543011,27589.1,-50101.7,0,57195.6,83140.5
step02_gravity_refstate-mantle.xmf,1116,3.13969e-06,3.17668e-06,0,6.68328e-07,-1.38153e+09,-1.38153e+09,-1.38195e+09,89322,-0.0442513,0.0347276,-0,0.0562511,26720.2,-48765.1,0,55605.8,89322
step02_gravity_refstate-mantle.xmf,1117,2.17436e-06,3.53647e-06,0,6.86689e-07,-1.30269e+09,-1.30251e+09,-1.30298e+09,91776,-0.036179,0.0458436,-0,0.0583999,25756.1,-46324.2,0,53002.9,91776
step02_gravity_refstate-mantle.xmf,1118,1.49007e-06,3.83308e-06,0,6.2202e-07,-1.25763e+09,-1.25732e+09,-1.25783e+09,83133,-0.0308048,0.054376,-0,0.0624954,24854.5,-44928.5,0,51345.1,83133
step02_gravity_refstate-mantle.xmf,1119,1.36544e-06,4.10107e-06,0,5.51151e-07,-1.25832e+09,-1.25795e+09,-1.2585e+09,73661.4,-0.0330336,0.0609487,-0,0.0693251,23370.1,-44949.5,0,50661.9,73661.4
step02_gravity_refstate-mantle.xmf,1120,-1.39845e-05,3.28226e-05,0,3.76076e-07,-1.71802e+09,-1.71176e+09,-1.71615e+09,50262.6,0.025829,0.0288209,0,0.0387011,-1807.25,-59120.5,-0,59148.2,50262.6
step02_gravity_refstate-mantle.xmf,1121,4.94727e-06,2.25508e-06,0,2.12305e-07,-1.63542e+09,-1.63578e+09,-1.63608e+09,28374.5,-0.0448511,0.00776275,-0,0.0455179,30961.8,-56617.4,0,64530.4,28374.5
step02_gravity_refstate-mantle.xmf,1122,5.12298e-06,2.31004e-06,0,-5.23415e-09,-1.74488e+09,-1.74526e+09,-1.74556e+09,-699.544,-0.0450198,-3.84468e-19,-0,0.0450198,31228.8,-60000,0,67640.5,699.544
step02_gravity_refstate-mantle.xmf,1123,-8.37389e-07,1.8919e-05,0,-1.55117e-05,-1.31738e+09,-1.31473e+09,-1.31726e+09,-2.07313e+06,-0.0738786,0.330249,-0,0.338412,6271.53,-46797.1,0,47215.4,2.07313e+06
step02_gravity_refstate-mantle.xmf,1124,9.05638e-07,1.47083e-05,0,-1.29543e-05,-1.30364e+09,-1.30179e+09,-1.30376e+09,-1.73134e+06,-0.0699308,0.30332,-0,0.311277,7176.39,-46373.6,0,46925.6,1.73134e+06
step02_gravity_refstate-mantle.xmf,1125,1.39053e-06,1.31508e-05,0,-1.16862e-05,-1.29831e+09,-1.29674e+09,-1.2985e+09,-1.56186e+06,-0.0676068,0.289637,-0,0.297422,7626.02,-46208.4,0,46833.5,1.56186e+06
step02_gravity_refstate-mantle.xmf,1126,1.74874e-06,1.00465e-05,0,-8.82827e-06,-1.26908e+09,-1.26797e+09,-1.26931e+09,-1.1799e+06,-0.0541968,0.269783,-0,0.275173,8527.35,-45299.7,0,46095.3,1.1799e+06
step02_gravity_refstate-mantle.xmf,1127,-1.24881e-05,3.47666e-05,0,-1.15344e-05,-1.42687e+09,-1.42055e+09,-1.4252e+09,-1.54157e+06,-0.0621891,0.316286,-0,0.322342,3749.12,-50141.9,0,50281.9,1.54157e+06
step02_gravity_refstate-mantle.xmf,1128,-1.35629e-05,3.56785e-05,0,-9.82136e-06,-1.44684e+09,-1.44026e+09,-1.44503e+09,-1.31262e+06,-0.0564253,0.301769,-0,0.306999,3386.29,-50754.1,0,50867,1.31262e+06
step02_gravity_refstate-mantle.xmf,1129,-1.7288e-07,4.96173e-06,0,8.88401e-08,-1.19537e+09,-1.19469e+09,-1.19535e+09,11873.5,-0.0215554,0.0903367,-0,0.0928727,20084.3,-42997.1,0,47456.6,11873.5
step02_gravity_refstate-mantle.xmf,1130,1.01728e-06,7.62932e-06,0,-4.91244e-06,-1.24423e+09,-1.24334e+09,-1.24436e+09,-656548,-0.0396329,0.220868,-0,0.224396,10474.3,-44521.1,0,45736.6,656548
step02_gravity_refstate-mantle.xmf,1131,-2.79529e-07,5.1659e-06,0,-5.42866e-08,-1.197e+09,-1.19627e+09,-1.19696e+09,-7255.4,-0.0217384,0.098218,-0,0.100595,19096.9,-43047.2,0,47093,7255.4
step02_gravity_refstate-mantle.xmf,1132,8.0456e-07,7.19208e-06,0,-3.86493e-06,-1.24255e+09,-1.2417e+09,-1.24266e+09,-516548,-0.038076,0.200573,-0,0.204155,11347.4,-44466.8,0,45891.9,516548
step02_gravity_refstate-mantle.xmf,1133,-3.51358e-07,6.61934e-06,0,-2.37539e-06,-1.21326e+09,-1.21232e+09,-1.21321e+09,-317471,-0.0245485,0.179468,-0,0.181139,12675.2,-43552.6,0,45359.6,317471
step02_gravity_refstate-mantle.xmf,1134,-3.94446e-07,5.40259e-06,0,-2.58217e-07,-1.19923e+09,-1.19846e+09,-1.19918e+09,-34510.6,-0.0219573,0.108414,-0,0.110615,17964.8,-43116,0,46708.9,34510.6
step02_gravity_refstate-mantle.xmf,1135,-4.87718e-07,5.64069e-06,0,-5.17405e-07,-1.20125e+09,-1.20043e+09,-1.20118e+09,-69151.2,-0.0220571,0.119905,-0,0.121917,16853.1,-43178.2,0,46350.7,69151.2
step02_gravity_refstate-mantle.xmf,1136,-5.39623e-07,5.87733e-06,0,-8.41681e-07,-1.20352e+09,-1.20266e+09,-1.20344e+09,-112491,-0.0222275,0.1327,-0,0.134549,15765.5,-43248.6,0,46032.5,112491
step02_gravity_refstate-mantle.xmf,1137,-5.29148e-07,6.11279e-06,0,-1.24894e-06,-1.20641e+09,-1.20552e+09,-1.20633e+09,-166920,-0.0226771,0.146928,-0,0.148667,14697.2,-43338.5,0,45762.8,166920
step02_gravity_refstate-mantle.xmf,1138,-4.75321e-07,6.35074e-06,0,-1.75049e-06,-1.20895e+09,-1.20803e+09,-1.20888e+09,-233953,-0.0231295,0.16268,-0,0.164316,13664.3,-43418,0,45517.4,233953
step02_gravity_refstate-mantle.xmf,1139,1.74722e-06,9.0839e-06,0,-7.30936e-06,-1.26862e+09,-1.26764e+09,-1.26886e+09,-976897,-0.0526416,0.246483,-0,0.252042,9293.57,-45283.2,0,46227.1,976897
step02_gravity_refstate-mantle.xmf,1140,4.40594e-06,2.53345e-06,0,4.47211e-07,-1.52516e+09,-1.52541e+09,-1.52575e+09,59769.8,-0.0475241,0.0172233,-0,0.0505488,29330.5,-53208.6,0,60757.2,59769.8
step02_gravity_refstate-mantle.xmf,1141,4.72467e-06,2.36342e-06,0,3.37375e-07,-1.57968e+09,-1.58e+09,-1.58031e+09,45090.2,-0.0467349,0.0122647,-0,0.0483174,30153.1,-54894.6,0,62630.8,45090.2
step02_gravity_refstate-mantle.xmf,1142,1.22263e-06,4.37808e-06,0,4.41492e-07,-1.25798e+09,-1.25755e+09,-1.25814e+09,59005.4,-0.0347876,0.0686401,-0,0.0769522,21946.3,-44938.8,0,50011.3,59005.4
step02_gravity_refstate-mantle.xmf,1143,2.73259e-06,3.39666e-06,0,6.79567e-07,-1.34784e+09,-1.34775e+09,-1.34821e+09,90824.1,-0.0423261,0.0405604,-0,0.0586229,25884.9,-47722.4,0,54290.5,90824.1
step02_gravity_refstate-mantle.xmf,1144,-1.43145e-05,3.32808e-05,0,5.71911e-07,-1.69022e+09,-1.68386e+09,-1.68831e+09,76435.9,0.0187622,0.0576258,0,0.0606032,-1296.9,-58261,-0,58275.4,76435.9
step02_gravity_refstate-mantle.xmf,1145,-1.46296e-05,3.3786e-05,0,4.94926e-07,-1.66462e+09,-1.65814e+09,-1.66266e+09,66146.9,0.0115595,0.084636,0,0.0854217,-788.065,-57469.1,-0,57474.5,66146.9
step02_gravity_refstate-mantle.xmf,1146,-1.42401e-05,3.31631e-05,0,1.24599e-08,-1.74652e+09,-1.74018e+09,-1.74461e+09,1665.26,0.0169394,-4.37485e-19,0,0.0169394,-1179.97,-60000,-0,60011.6,1665.26
step02_gravity_refstate-mantle.xmf,1147,-1.49266e-05,3.43392e-05,0,2.34843e-07,-1.63808e+09,-1.63149e+09,-1.63608e+09,31386.8,0.00415384,0.112895,0,0.112971,-278.643,-56648.8,-0,56649.5,31386.8
step02_gravity_refstate-mantle.xmf,1148,5.06658e-06,2.38698e-06,0,1.14368e-07,-1.69105e+09,-1.69141e+09,-1.69173e+09,15285.3,-0.0496314,0.00403677,-0,0.0497953,30248.1,-58337,0,65712.6,15285.3
step02_gravity_refstate-mantle.xmf,1149,-1.52223e-05,3.49381e-05,0,-2.49985e-07,-1.61045e+09,-1.60375e+09,-1.60842e+09,-33410.5,-0.00314673,0.142472,-0,0.142507,207.114,-55795.1,0,55795.5,33410.5
step02_gravity_refstate-mantle.xmf,1150,-1.54503e-05,3.5509e-05,0,-1.03391e-06,-1.58416e+09,-1.57735e+09,-1.58209e+09,-138182,-0.0111618,0.170562,-0,0.170927,720.29,-54982.8,0,54987.5,138182
step02_gravity_refstate-mantle.xmf,1151,-1.56052e-05,3.60525e-05,0,-2.04948e-06,-1.55818e+09,-1.55127e+09,-1.55609e+09,-273913,-0.0189779,0.19806,-0,0.198967,1200.34,-54180.5,0,54193.8,273913
step02_gravity_refstate-mantle.xmf,1152,-1.55998e-05,3.64368e-05,0,-3.30865e-06,-1.53398e+09,-1.52702e+09,-1.53189e+09,-442201,-0.0270166,0.222993,-0,0.224624,1678.43,-53434.1,0,53460.4,442201
step02_gravity_refstate-mantle.xmf,1153,-1.54068e-05,3.66089e-05,0,-4.75834e-06,-1.51138e+09,-1.50443e+09,-1.50932e+09,-635952,-0.0350081,0.245263,-0,0.247749,2143.99,-52737.8,0,52781.3,635952
step02_gravity_refstate-mantle.xmf,1154,-1.50175e-05,3.65715e-05,0,-6.37275e-06,-1.48909e+09,-1.4822e+09,-1.48709e+09,-851718,-0.0426835,0.26617,-0,0.269571,2584.29,-52051.8,0,52115.9,851718
step02_gravity_refstate-mantle.xmf,1155,-1.43937e-05,3.62575e-05,0,-8.09266e-06,-1.46753e+09,-1.46076e+09,-1.46561e+09,-1.08158e+06,-0.0499598,0.285012,-0,0.289358,3004.15,-51389.2,0,51476.9,1.08158e+06
step02_gravity_refstate-mantle.xmf,1156,-2.23916e-06,2.11858e-05,0,-1.57604e-05,-1.3349e+09,-1.33177e+09,-1.3346e+09,-2.10637e+06,-0.0770022,0.328214,-0,0.337126,6039.13,-47335,0,47718.6,2.10637e+06
step02_gravity_refstate-mantle.xmf,1157,4.81994e-08,1.67498e-05,0,-1.40473e-05,-1.31637e+09,-1.31413e+09,-1.31637e+09,-1.87742e+06,-0.0738385,0.310689,-0,0.319343,6805.72,-46766.3,0,47258.9,1.87742e+06
step02_gravity_refstate-mantle.xmf,1158,1.70435e-06,1.16539e-05,0,-1.01956e-05,-1.29281e+09,-1.29148e+09,-1.29303e+09,-1.36264e+06,-0.0647106,0.272878,-0,0.280446,8186.84,-46036.5,0,46758.8,1.36264e+06
step02_gravity_refstate-mantle.xmf,1159,-3.89107e-06,2.36233e-05,0,-1.56966e-05,-1.35305e+09,-1.34937e+09,-1.35253e+09,-2.09786e+06,-0.0785648,0.325774,-0,0.335113,5758.73,-47890.7,0,48235.7,2.09786e+06
step02_gravity_refstate-mantle.xmf,1160,-5.59121e-06,2.59344e-05,0,-1.52854e-05,-1.3711e+09,-1.36689e+09,-1.37035e+09,-2.04289e+06,-0.0785656,0.321905,-0,0.331354,5464.75,-48442.8,0,48750,2.04289e+06
step02_gravity_refstate-mantle.xmf,1161,-7.30432e-06,2.81026e-05,0,-1.45495e-05,-1.38934e+09,-1.38461e+09,-1.38837e+09,-1.94454e+06,-0.0770972,0.316579,-0,0.325832,5147.78,-49000.4,0,49270,1.94454e+06
step02_gravity_refstate-mantle.xmf,1162,-1.043e-05,3.16722e-05,0,-1.22444e-05,-1.42698e+09,-1.42135e+09,-1.42559e+09,-1.63646e+06,-0.0703992,0.299918,-0,0.30807,4466.63,-50151.3,0,50349.8,1.63646e+06
step02_gravity_refstate-mantle.xmf,1163,-8.93934e-06,3.00303e-05,0,-1.3515e-05,-1.40798e+09,-1.40278e+09,-1.40679e+09,-1.80628e+06,-0.0743271,0.309247,-0,0.318054,4815.48,-49570.2,0,49803.6,1.80628e+06
step02_gravity_refstate-mantle.xmf,1164,5.56043e-07,6.8511e-06,0,-2.97178e-06,-1.24042e+09,-1.23958e+09,-1.2405e+09,-397179,-0.0365083,0.181868,-0,0.185496,12259.1,-44398.5,0,46059.9,397179
step02_gravity_refstate-mantle.xmf,1165,1.62477e-06,8.35397e-06,0,-5.9818e-06,-1.2678e+09,-1.2669e+09,-1.26801e+09,-799468,-0.050959,0.225075,-0,0.230772,10081,-45255,0,46364.2,799468
step02_gravity_refstate-mantle.xmf,1166,4.11321e-07,4.89339e-06,0,1.57694e-07,-1.22604e+09,-1.22544e+09,-1.2261e+09,21075.8,-0.0291859,0.087209,-0,0.0919632,19882.7,-43948.2,0,48236.6,21075.8
step02_gravity_refstate-mantle.xmf,1167,1.09182e-06,4.64877e-06,0,2.95644e-07,-1.25872e+09,-1.25825e+09,-1.25887e+09,39512.8,-0.036496,0.0770885,-0,0.0852913,20602.7,-44961.7,0,49457.3,39512.8
step02_gravity_refstate-mantle.xmf,1168,4.35128e-06,2.83405e-06,0,4.43701e-07,-1.52375e+09,-1.52395e+09,-1.52433e+09,59300.6,-0.0551148,0.0197349,-0,0.0585415,27574.3,-53165.5,0,59890.8,59300.6
step02_gravity_refstate-mantle.xmf,1169,3.92489e-06,3.03147e-06,0,5.38841e-07,-1.46723e+09,-1.46735e+09,-1.46775e+09,72016.1,-0.0535164,0.026343,-0,0.0596486,26778.7,-51417.2,0,57972.7,72016.1
step02_gravity_refstate-mantle.xmf,1170,3.53069e-06,3.23972e-06,0,5.90749e-07,-1.42462e+09,-1.42466e+09,-1.42509e+09,78953.6,-0.0519641,0.0324402,-0,0.0612588,25961.5,-50098.9,0,56426,78953.6
step02_gravity_refstate-mantle.xmf,1171,3.09798e-06,3.44797e-06,0,6.22362e-07,-1.38414e+09,-1.38409e+09,-1.38455e+09,83178.7,-0.0493467,0.0388926,-0,0.062831,25194.6,-48846,0,54960.9,83178.7
step02_gravity_refstate-mantle.xmf,1172,2.59897e-06,3.64384e-06,0,6.40107e-07,-1.34288e+09,-1.34274e+09,-1.34323e+09,85550.3,-0.0451098,0.0456214,-0,0.0641577,24567.8,-47568.9,0,53538.5,85550.3
step02_gravity_refstate-mantle.xmf,1173,2.01686e-06,3.83101e-06,0,6.32646e-07,-1.29984e+09,-1.29959e+09,-1.30011e+09,84553.2,-0.0391715,0.0524482,-0,0.0654616,24111,-46235.8,0,52144.9,84553.2
step02_gravity_refstate-mantle.xmf,1174,1.90268e-06,4.13143e-06,0,5.17759e-07,-1.29838e+09,-1.29808e+09,-1.29863e+09,69198.5,-0.0417421,0.0593967,-0,0.0725973,22660.2,-46190.8,0,51449.7,69198.5
step02_gravity_refstate-mantle.xmf,1175,-1.44217e-05,3.34156e-05,0,1.56581e-07,-1.71651e+09,-1.71011e+09,-1.71458e+09,20927.1,0.0099764,0.0309227,0,0.0324922,-690.829,-59072.5,-0,59076.5,20927.1
step02_gravity_refstate-mantle.xmf,1176,4.90309e-06,2.59122e-06,0,2.23714e-07,-1.63435e+09,-1.63465e+09,-1.635e+09,29899.4,-0.0552828,0.00905199,-0,0.056019,28836.8,-56584.9,0,63509.1,29899.4
step02_gravity_refstate-mantle.xmf,1177,5.07921e-06,2.62967e-06,0,-1.20938e-09,-1.74486e+09,-1.74519e+09,-1.74554e+09,-161.634,-0.0550286,-3.54693e-19,-0,0.0550286,29267.4,-60000,0,66757.6,161.634
step02_gravity_refstate-mantle.xmf,1178,-8.19094e-07,1.82482e-05,0,-1.42832e-05,-1.33282e+09,-1.33027e+09,-1.33271e+09,-1.90895e+06,-0.077613,0.306184,-0,0.315868,6684.07,-47272.4,0,47742.6,1.90895e+06
step02_gravity_refstate-mantle.xmf,1179,1.16868e-06,1.35643e-05,0,-1.14417e-05,-1.31362e+09,-1.31196e+09,-1.31378e+09,-1.52919e+06,-0.072379,0.276892,-0,0.286196,7816.65,-46680.8,0,47330.7,1.52919e+06
step02_gravity_refstate-mantle.xmf,1180,3.62436e-07,1.55496e-05,0,-1.2595e-05,-1.32743e+09,-1.3254e+09,-1.32747e+09,-1.68332e+06,-0.0765454,0.284996,-0,0.295096,7384.03,-47107,0,47682.2,1.68332e+06
step02_gravity_refstate-mantle.xmf,1181,1.82927e-06,1.03617e-05,0,-8.53364e-06,-1.29122e+09,-1.29008e+09,-1.29146e+09,-1.14052e+06,-0.0627468,0.250113,-0,0.257863,8937.59,-45985,0,46845.5,1.14052e+06
step02_gravity_refstate-mantle.xmf,1182,-1.16805e-05,3.2923e-05,0,-1.0819e-05,-1.4466e+09,-1.44064e+09,-1.44504e+09,-1.44597e+06,-0.0657052,0.287914,-0,0.295316,4121.13,-50752,0,50919.1,1.44597e+06
step02_gravity_refstate-mantle.xmf,1183,-1.2665e-05,3.37728e-05,0,-9.30914e-06,-1.46744e+09,-1.46124e+09,-1.46575e+09,-1.24417e+06,-0.0605102,0.272724,-0,0.279356,3784.01,-51391.6,0,51530.8,1.24417e+06
step02_gravity_refstate-mantle.xmf,1184,1.47397e-06,7.75247e-06,0,-4.79096e-06,-1.26713e+09,-1.26629e+09,-1.26732e+09,-640312,-0.0493641,0.204278,-0,0.210157,10934.1,-45231.7,0,46534.5,640312
step02_gravity_refstate-mantle.xmf,1185,3.64209e-07,5.15777e-06,0,-6.4162e-08,-1.22929e+09,-1.22865e+09,-1.22934e+09,-8575.25,-0.0304985,0.0969517,-0,0.101636,18655.3,-44048.9,0,47836.5,8575.25
step02_gravity_refstate-mantle.xmf,1186,1.32524e-06,7.26365e-06,0,-3.77321e-06,-1.26662e+09,-1.26582e+09,-1.26679e+09,-504290,-0.0479284,0.184947,-0,0.191056,11823,-45213.8,0,46734,504290
step02_gravity_refstate-mantle.xmf,1187,4.03825e-07,6.52995e-06,0,-2.2262e-06,-1.23838e+09,-1.23756e+09,-1.23844e+09,-297532,-0.0351763,0.164457,-0,0.168177,13217.1,-44333.6,0,46261.8,297532
step02_gravity_refstate-mantle.xmf,1188,3.11287e-07,5.41576e-06,0,-3.32567e-07,-1.23153e+09,-1.23085e+09,-1.23158e+09,-44447.5,-0.0315081,0.107796,-0,0.112306,17490.7,-44118.6,0,47459.2,44447.5
step02_gravity_refstate-mantle.xmf,1189,2.84419e-07,5.67846e-06,0,-6.72583e-07,-1.23334e+09,-1.23262e+09,-1.23338e+09,-89890.7,-0.0323798,0.119979,-0,0.124272,16360.2,-44175,0,47107.2,89890.7
step02_gravity_refstate-mantle.xmf,1190,2.90841e-07,5.94412e-06,0,-1.09048e-06,-1.23489e+09,-1.23413e+09,-1.23493e+09,-145742,-0.033183,0.13342,-0,0.137484,15275.6,-44223.4,0,46787.3,145742
step02_gravity_refstate-mantle.xmf,1191,3.4762e-07,6.22075e-06,0,-1.60984e-06,-1.23666e+09,-1.23587e+09,-1.2367e+09,-215155,-0.0341344,0.148378,-0,0.152254,14216.5,-44279.1,0,46505.3,215155
step02_gravity_refstate-mantle.xmf,1192,1.90003e-06,9.37871e-06,0,-7.12664e-06,-1.29128e+09,-1.29028e+09,-1.29153e+09,-952475,-0.061335,0.228563,-0,0.236649,9703.96,-45984.9,0,46997.6,952475
step02_gravity_refstate-mantle.xmf,1193,4.63642e-06,2.60816e-06,0,3.57772e-07,-1.56907e+09,-1.56934e+09,-1.56969e+09,47816.2,-0.0526449,0.0143552,-0,0.054567,28776.5,-54566.8,0,61689.7,47816.2
step02_gravity_refstate-mantle.xmf,1194,1.77682e-06,4.4329e-06,0,3.6528e-07,-1.29709e+09,-1.29674e+09,-1.29733e+09,48819.7,-0.0439709,0.0671451,-0,0.0802614,21302.6,-46151,0,50830.3,48819.7
step02_gravity_refstate-mantle.xmf,1195,-1.45722e-05,3.36712e-05,0,1.55367e-07,-1.68917e+09,-1.68272e+09,-1.68722e+09,20764.9,0.00533987,0.0593056,0,0.0595455,-366.555,-58227.7,-0,58228.9,20764.9
step02_gravity_refstate-mantle.xmf,1196,-1.46713e-05,3.38098e-05,0,-2.28456e-07,-1.66866e+09,-1.66218e+09,-1.6667e+09,-30533.1,-0.00457407,0.0806942,-0,0.0808238,311.718,-57593.8,0,57594.7,30533.1
step02_gravity_refstate-mantle.xmf,1197,-1.44534e-05,3.34392e-05,0,1.81804e-08,-1.74654e+09,-1.74014e+09,-1.74461e+09,2429.8,-5.18472e-06,-5.42371e-19,-0,5.18472e-06,-6.65677e-08,-60000,-0,60000,2429.8
step02_gravity_refstate-mantle.xmf,1198,-1.48829e-05,3.429e-05,0,-5.95946e-07,-1.63665e+09,-1.63008e+09,-1.63466e+09,-79648.2,-0.00976055,0.114144,-0,0.11456,655.228,-56604.9,0,56608.7,79648.2
step02_gravity_refstate-mantle.xmf,1199,5.04135e-06,2.66113e-06,0,9.40092e-08,-1.70047e+09,-1.70078e+09,-1.70114e+09,12564.3,-0.0574352,0.00371283,-0,0.0575551,28730.2,-58628.4,0,65289.5,12564.3
step02_gravity_refstate-mantle.xmf,1200,-1.49536e-05,3.4567e-05,0,-1.32434e-06,-1.61066e+09,-1.60404e+09,-1.60866e+09,-176998,-0.017566,0.140984,-0,0.142074,1162.96,-55802.1,0,55814.3,176998
step02_gravity_refstate-mantle.xmf,1201,-1.49457e-05,3.48161e-05,0,-2.28311e-06,-1.58474e+09,-1.57809e+09,-1.58274e+09,-305138,-0.0254215,0.167266,-0,0.169187,1659.17,-55002.4,0,55027.4,305138
step02_gravity_refstate-mantle.xmf,1202,-1.48294e-05,3.4981e-05,0,-3.44222e-06,-1.55935e+09,-1.5527e+09,-1.55737e+09,-460052,-0.0330903,0.192361,-0,0.195186,2129.74,-54219.3,0,54261.1,460052
step02_gravity_refstate-mantle.xmf,1203,-1.45696e-05,3.50061e-05,0,-4.7641e-06,-1.53494e+09,-1.52831e+09,-1.53299e+09,-636723,-0.0405036,0.215618,-0,0.21939,2574.88,-53466.9,0,53528.9,636723
step02_gravity_refstate-mantle.xmf,1204,-1.41575e-05,3.48678e-05,0,-6.18849e-06,-1.5116e+09,-1.50505e+09,-1.50971e+09,-827091,-0.0474434,0.236873,-0,0.241577,2986.19,-52748.4,0,52832.9,827091
step02_gravity_refstate-mantle.xmf,1205,-1.35146e-05,3.44434e-05,0,-7.74048e-06,-1.48926e+09,-1.48285e+09,-1.48745e+09,-1.03452e+06,-0.0542734,0.255703,-0,0.261399,3397.74,-52061.5,0,52172.3,1.03452e+06
step02_gravity_refstate-mantle.xmf,1206,-2.21171e-06,2.04727e-05,0,-1.45126e-05,-1.35162e+09,-1.34859e+09,-1.35132e+09,-1.93961e+06,-0.0804307,0.303922,-0,0.314384,6423.92,-47849.7,0,48279,1.93961e+06
step02_gravity_refstate-mantle.xmf,1207,1.57961e-06,1.18665e-05,0,-9.68576e-06,-1.31231e+09,-1.31094e+09,-1.31253e+09,-1.2945e+06,-0.0708925,0.253324,-0,0.263057,8586.21,-46638.9,0,47422.6,1.2945e+06
step02_gravity_refstate-mantle.xmf,1208,-3.77471e-06,2.27481e-05,0,-1.44557e-05,-1.37033e+09,-1.36679e+09,-1.36983e+09,-1.93201e+06,-0.0816274,0.301153,-0,0.312019,6128.07,-48423,0,48809.2,1.93201e+06
step02_gravity_refstate-mantle.xmf,1209,-5.42882e-06,2.49792e-05,0,-1.40811e-05,-1.38914e+09,-1.38508e+09,-1.38842e+09,-1.88194e+06,-0.0812786,0.297259,-0,0.30817,5804.49,-48998.7,0,49341.3,1.88194e+06
step02_gravity_refstate-mantle.xmf,1210,-9.83392e-06,3.02032e-05,0,-1.13588e-05,-1.44572e+09,-1.44037e+09,-1.44441e+09,-1.51811e+06,-0.0732865,0.274032,-0,0.283662,4823.05,-50730.5,0,50959.2,1.51811e+06
step02_gravity_refstate-mantle.xmf,1211,-6.99885e-06,2.69361e-05,0,-1.33843e-05,-1.40808e+09,-1.40355e+09,-1.40715e+09,-1.78881e+06,-0.0797232,0.290945,-0,0.30167,5492.66,-49578.3,0,49881.6,1.78881e+06
step02_gravity_refstate-mantle.xmf,1212,-8.49875e-06,2.8712e-05,0,-1.24575e-05,-1.42695e+09,-1.42197e+09,-1.42581e+09,-1.66495e+06,-0.0769457,0.283359,-0,0.29362,5158.67,-50155.6,0,50420.2,1.66495e+06
step02_gravity_refstate-mantle.xmf,1213,1.13986e-06,6.86645e-06,0,-2.88425e-06,-1.26587e+09,-1.2651e+09,-1.26602e+09,-385480,-0.0464717,0.166921,-0,0.173269,12760.4,-45188.4,0,46955.5,385480
step02_gravity_refstate-mantle.xmf,1214,1.86706e-06,8.60022e-06,0,-5.86087e-06,-1.29142e+09,-1.29052e+09,-1.29167e+09,-783306,-0.0598878,0.208174,-0,0.216617,10508,-45986.9,0,47172.1,783306
step02_gravity_refstate-mantle.xmf,1215,1.021e-06,4.92252e-06,0,8.70835e-08,-1.26051e+09,-1.25999e+09,-1.26065e+09,11638.7,-0.0382529,0.0861592,-0,0.0942692,19350.1,-45017.1,0,48999.7,11638.7
step02_gravity_refstate-mantle.xmf,1216,1.64612e-06,4.72488e-06,0,1.68643e-07,-1.29426e+09,-1.29385e+09,-1.29448e+09,22539.1,-0.045571,0.0761614,-0,0.088754,19999.6,-46063.3,0,50217.6,22539.1
step02_gravity_refstate-mantle.xmf,1217,4.64358e-06,2.87558e-06,0,3.2266e-07,-1.58115e+09,-1.58139e+09,-1.58177e+09,43123.5,-0.0597484,0.0149041,-0,0.0615793,27392.1,-54940.7,0,61390.6,43123.5
step02_gravity_refstate-mantle.xmf,1218,4.15922e-06,3.21592e-06,0,4.28322e-07,-1.50571e+09,-1.50584e+09,-1.50627e+09,57245.2,-0.0608841,0.0245591,-0,0.0656508,25864.6,-52607.9,0,58622.3,57245.2
step02_gravity_refstate-mantle.xmf,1219,3.83478e-06,3.38911e-06,0,4.73101e-07,-1.46508e+09,-1.46514e+09,-1.46559e+09,63230,-0.059616,0.0304479,-0,0.0669413,25148.7,-51351.2,0,57178.7,63230
step02_gravity_refstate-mantle.xmf,1220,3.45544e-06,3.58147e-06,0,5.029e-07,-1.42451e+09,-1.42449e+09,-1.42497e+09,67212.7,-0.0574317,0.0370989,-0,0.068372,24392.5,-50095.8,0,55718.8,67212.7
step02_gravity_refstate-mantle.xmf,1221,3.0154e-06,3.77046e-06,0,5.22859e-07,-1.38362e+09,-1.38352e+09,-1.38403e+09,69880.1,-0.053883,0.0443206,-0,0.0697688,23686.6,-48830.4,0,54272.1,69880.1
step02_gravity_refstate-mantle.xmf,1222,2.50163e-06,3.96282e-06,0,5.28566e-07,-1.34219e+09,-1.342e+09,-1.34253e+09,70642.8,-0.048939,0.0521385,-0,0.0715084,23021.4,-47547.7,0,52827.8,70642.8
step02_gravity_refstate-mantle.xmf,1223,2.38818e-06,4.314e-06,0,3.48627e-07,-1.34017e+09,-1.33992e+09,-1.34049e+09,46594,-0.0522174,0.0599756,-0,0.0795219,21529.6,-47485.5,0,52138.3,46594
step02_gravity_refstate-mantle.xmf,1224,-1.44888e-05,3.35336e-05,0,-1.36451e-07,-1.70872e+09,-1.7023e+09,-1.70678e+09,-18236.6,-0.00725204,0.0390193,-0,0.0396875,501.138,-58831.7,0,58833.9,18236.6
step02_gravity_refstate-mantle.xmf,1225,4.95148e-06,2.96424e-06,0,1.13779e-07,-1.68245e+09,-1.68272e+09,-1.68312e+09,15206.6,-0.0639163,0.00579304,-0,0.0641782,27366.9,-58072.2,0,64197.6,15206.6
step02_gravity_refstate-mantle.xmf,1226,5.00256e-06,3.0306e-06,0,-1.16499e-09,-1.74485e+09,-1.74511e+09,-1.74551e+09,-155.701,-0.0645029,-3.43473e-19,-0,0.0645029,27388.2,-60000,0,65955.4,155.701
step02_gravity_refstate-mantle.xmf,1227,-8.50699e-07,1.77069e-05,0,-1.30909e-05,-1.34956e+09,-1.34708e+09,-1.34944e+09,-1.7496e+06,-0.0811777,0.2822,-0,0.293643,7122.39,-47788,0,48315.8,1.7496e+06
step02_gravity_refstate-mantle.xmf,1228,1.00489e-06,1.35591e-05,0,-1.07333e-05,-1.33027e+09,-1.32859e+09,-1.3304e+09,-1.43451e+06,-0.0767084,0.257714,-0,0.268887,8205.41,-47194,0,47902,1.43451e+06
step02_gravity_refstate-mantle.xmf,1229,1.77341e-06,1.06658e-05,0,-8.2067e-06,-1.31299e+09,-1.3118e+09,-1.31322e+09,-1.09683e+06,-0.0698334,0.231708,-0,0.242003,9337.43,-46657.8,0,47583,1.09683e+06
step02_gravity_refstate-mantle.xmf,1230,-1.08984e-05,3.12517e-05,0,-1.01089e-05,-1.46578e+09,-1.46015e+09,-1.46433e+09,-1.35106e+06,-0.0693345,0.261026,-0,0.270078,4526.56,-51345.6,0,51544.8,1.35106e+06
step02_gravity_refstate-mantle.xmf,1231,-1.1708e-05,3.18887e-05,0,-8.72392e-06,-1.48964e+09,-1.48382e+09,-1.48808e+09,-1.16595e+06,-0.065206,0.242297,-0,0.250918,4267.01,-52079,0,52253.5,1.16595e+06
step02_gravity_refstate-mantle.xmf,1232,1.79256e-06,7.93365e-06,0,-4.70822e-06,-1.29114e+09,-1.29032e+09,-1.29138e+09,-629254,-0.0582268,0.188696,-0,0.197475,11369.9,-45976.1,0,47361.1,629254
step02_gravity_refstate-mantle.xmf,1233,9.93244e-07,5.21639e-06,0,-2.0255e-07,-1.26191e+09,-1.26134e+09,-1.26204e+09,-27070.8,-0.0398292,0.0964061,-0,0.10431,18140.7,-45060.9,0,48575.4,27070.8
step02_gravity_refstate-mantle.xmf,1234,1.71666e-06,7.39374e-06,0,-3.71449e-06,-1.2924e+09,-1.29164e+09,-1.29263e+09,-496442,-0.0571122,0.169983,-0,0.179321,12281.8,-46013.1,0,47624,496442
step02_gravity_refstate-mantle.xmf,1235,1.04076e-06,6.49189e-06,0,-2.13802e-06,-1.26538e+09,-1.26465e+09,-1.26552e+09,-285746,-0.0451916,0.150114,-0,0.156769,13747,-45171.6,0,47217.1,285746
step02_gravity_refstate-mantle.xmf,1236,9.85096e-07,5.51051e-06,0,-5.5581e-07,-1.2638e+09,-1.2632e+09,-1.26393e+09,-74284,-0.0415017,0.10779,-0,0.115503,16971.5,-45120.1,0,48206.4,74284
step02_gravity_refstate-mantle.xmf,1237,9.95045e-07,5.81273e-06,0,-9.86739e-07,-1.26488e+09,-1.26423e+09,-1.26501e+09,-131878,-0.0429044,0.120388,-0,0.127805,15860.6,-45154.1,0,47858.7,131878
step02_gravity_refstate-mantle.xmf,1238,1.02428e-06,6.13202e-06,0,-1.51227e-06,-1.26534e+09,-1.26466e+09,-1.26548e+09,-202115,-0.0441159,0.134478,-0,0.141529,14785.4,-45169.6,0,47527.9,202115
step02_gravity_refstate-mantle.xmf,1239,1.91655e-06,9.74508e-06,0,-6.96398e-06,-1.31511e+09,-1.31407e+09,-1.31537e+09,-930736,-0.0691562,0.211669,-0,0.22268,10087.4,-46722.1,0,47798.7,930736
step02_gravity_refstate-mantle.xmf,1240,2.07493e-06,4.56219e-06,0,2.30709e-07,-1.32068e+09,-1.32034e+09,-1.32095e+09,30834.2,-0.0503319,0.0682661,-0,0.0848148,20599,-46881.7,0,51207.6,30834.2
step02_gravity_refstate-mantle.xmf,1241,4.42553e-06,3.08858e-06,0,3.69051e-07,-1.54602e+09,-1.5462e+09,-1.54661e+09,49323.7,-0.0617737,0.0195281,-0,0.0647868,26436.8,-53854.6,0,59993.5,49323.7
step02_gravity_refstate-mantle.xmf,1242,-1.45181e-05,3.37071e-05,0,-8.37061e-07,-1.65768e+09,-1.65124e+09,-1.65574e+09,-111873,-0.0173757,0.0914067,-0,0.0930435,1184.27,-57255.5,0,57267.7,111873
step02_gravity_refstate-mantle.xmf,1243,-1.42556e-05,3.31799e-05,0,9.2827e-09,-1.74652e+09,-1.74018e+09,-1.74461e+09,1240.63,-0.0169376,-4.17264e-19,-0,0.0169376,1179.97,-60000,0,60011.6,1240.63
step02_gravity_refstate-mantle.xmf,1244,-1.44745e-05,3.37285e-05,0,-1.4296e-06,-1.63637e+09,-1.62993e+09,-1.63444e+09,-191066,-0.0239202,0.112773,-0,0.115282,1619.76,-56597.6,0,56620.8,191066
step02_gravity_refstate-mantle.xmf,1245,4.79848e-06,3.05681e-06,0,2.04673e-07,-1.63172e+09,-1.63195e+09,-1.63236e+09,27354.5,-0.0651647,0.0109311,-0,0.0660752,26778.7,-56504.1,0,62528.5,27354.5
step02_gravity_refstate-mantle.xmf,1246,-1.43304e-05,3.372e-05,0,-2.29181e-06,-1.6115e+09,-1.60508e+09,-1.60958e+09,-306300,-0.0315075,0.13714,-0,0.140713,2116.2,-55830.2,0,55870.3,306300
step02_gravity_refstate-mantle.xmf,1247,-1.40969e-05,3.36615e-05,0,-3.37893e-06,-1.58509e+09,-1.5787e+09,-1.5832e+09,-451594,-0.0390283,0.162318,-0,0.166944,2596.89,-55015.7,0,55077,451594
step02_gravity_refstate-mantle.xmf,1248,-1.37421e-05,3.34945e-05,0,-4.61773e-06,-1.55933e+09,-1.55301e+09,-1.55749e+09,-617159,-0.0462197,0.185934,-0,0.191593,3048.86,-54221.9,0,54307.6,617159
step02_gravity_refstate-mantle.xmf,1249,-1.32544e-05,3.3207e-05,0,-5.96696e-06,-1.53408e+09,-1.52787e+09,-1.53231e+09,-797484,-0.0529169,0.208101,-0,0.214724,3464.53,-53444.7,0,53556.9,797484
step02_gravity_refstate-mantle.xmf,1250,-1.27665e-05,3.29407e-05,0,-7.2088e-06,-1.51149e+09,-1.50538e+09,-1.50978e+09,-963456,-0.0580775,0.227513,-0,0.234809,3776.67,-52749.3,0,52884.3,963456
step02_gravity_refstate-mantle.xmf,1251,-2.22462e-06,1.98743e-05,0,-1.33333e-05,-1.36922e+09,-1.36627e+09,-1.36892e+09,-1.782e+06,-0.0836014,0.280243,-0,0.292447,6821.35,-48391.8,0,48870.2,1.782e+06
step02_gravity_refstate-mantle.xmf,1252,1.25713e-07,1.54421e-05,0,-1.15513e-05,-1.34892e+09,-1.34687e+09,-1.34894e+09,-1.54383e+06,-0.0813229,0.259985,-0,0.272407,7851.81,-47769,0,48410,1.54383e+06
step02_gravity_refstate-mantle.xmf,1253,1.40394e-06,1.20787e-05,0,-9.18454e-06,-1.33185e+09,-1.33042e+09,-1.33204e+09,-1.22751e+06,-0.0762096,0.235164,-0,0.247205,8968.35,-47241.7,0,48085.4,1.22751e+06
step02_gravity_refstate-mantle.xmf,1254,-3.74742e-06,2.20645e-05,0,-1.3281e-05,-1.38867e+09,-1.38522e+09,-1.38817e+09,-1.775e+06,-0.0844118,0.277505,-0,0.290059,6491.2,-48988.1,0,49416.3,1.775e+06
step02_gravity_refstate-mantle.xmf,1255,-5.22534e-06,2.40217e-05,0,-1.28983e-05,-1.40782e+09,-1.40391e+09,-1.40712e+09,-1.72386e+06,-0.0839453,0.272496,-0,0.285133,6183.5,-49574.6,0,49958.7,1.72386e+06
step02_gravity_refstate-mantle.xmf,1256,-9.38406e-06,2.91381e-05,0,-1.05814e-05,-1.46223e+09,-1.45708e+09,-1.46098e+09,-1.41421e+06,-0.0756576,0.252427,-0,0.263521,5136.13,-51240.6,0,51497.4,1.41421e+06
step02_gravity_refstate-mantle.xmf,1257,-8.06807e-06,2.75277e-05,0,-1.14499e-05,-1.44584e+09,-1.44108e+09,-1.44476e+09,-1.53027e+06,-0.0795231,0.258554,-0,0.270507,5521.08,-50739.1,0,51038.6,1.53027e+06
step02_gravity_refstate-mantle.xmf,1258,-6.6887e-06,2.58511e-05,0,-1.22532e-05,-1.42736e+09,-1.42301e+09,-1.42646e+09,-1.63764e+06,-0.0822952,0.265709,-0,0.278161,5863.97,-50173.1,0,50514.6,1.63764e+06
step02_gravity_refstate-mantle.xmf,1259,1.57655e-06,6.91867e-06,0,-2.80369e-06,-1.29153e+09,-1.29082e+09,-1.29174e+09,-374714,-0.0552052,0.152811,-0,0.162477,13253.2,-45984.2,0,47855.9,374714
step02_gravity_refstate-mantle.xmf,1260,1.97902e-06,8.94131e-06,0,-5.7947e-06,-1.31654e+09,-1.31561e+09,-1.3168e+09,-774462,-0.0681061,0.192777,-0,0.204454,10878.7,-46764.6,0,48013.2,774462
step02_gravity_refstate-mantle.xmf,1261,1.56478e-06,5.02957e-06,0,-9.54645e-08,-1.29332e+09,-1.29286e+09,-1.29353e+09,-12758.8,-0.0472987,0.0857305,-0,0.0979127,18783.5,-46034.5,0,49719.2,12758.8
step02_gravity_refstate-mantle.xmf,1262,2.05876e-06,4.86962e-06,0,-2.4374e-08,-1.32375e+09,-1.32337e+09,-1.32402e+09,-3257.59,-0.053426,0.0759223,-0,0.0928361,19431.8,-46977.2,0,50837.5,3257.59
step02_gravity_refstate-mantle.xmf,1263,4.57914e-06,3.25645e-06,0,2.68722e-07,-1.58578e+09,-1.58595e+09,-1.58639e+09,35914.7,-0.0671216,0.0165446,-0,0.0691306,25853,-55084.1,0,60849.3,35914.7
step02_gravity_refstate-mantle.xmf,1264,4.33003e-06,3.43367e-06,0,3.09457e-07,-1.54313e+09,-1.54325e+09,-1.54371e+09,41358.9,-0.0674051,0.0223083,-0,0.0710008,25098.9,-53765.7,0,59335.5,41358.9
step02_gravity_refstate-mantle.xmf,1265,4.05908e-06,3.61611e-06,0,3.31323e-07,-1.5044e+09,-1.50446e+09,-1.50495e+09,44281.4,-0.06699,0.0283146,-0,0.0727281,24348,-52568,0,57932.9,44281.4
step02_gravity_refstate-mantle.xmf,1266,3.74466e-06,3.79177e-06,0,3.44568e-07,-1.46512e+09,-1.46512e+09,-1.46562e+09,46051.5,-0.0653948,0.0349875,-0,0.0741661,23625.6,-51352.9,0,56526.9,46051.5
step02_gravity_refstate-mantle.xmf,1267,3.37358e-06,3.96211e-06,0,3.52844e-07,-1.42472e+09,-1.42465e+09,-1.42518e+09,47157.6,-0.0624865,0.0424336,-0,0.0755326,22921.4,-50103,0,55097.2,47157.6
step02_gravity_refstate-mantle.xmf,1268,2.93534e-06,4.13258e-06,0,3.55467e-07,-1.3837e+09,-1.38354e+09,-1.38409e+09,47508.2,-0.0582375,0.0506421,-0,0.0771766,22227.9,-48833.2,0,53654.1,47508.2
step02_gravity_refstate-mantle.xmf,1269,2.46895e-06,4.70313e-06,0,4.88693e-08,-1.35266e+09,-1.35236e+09,-1.35299e+09,6531.38,-0.0581428,0.0667944,-0,0.0885555,20119.1,-47872.7,0,51928.5,6531.38
step02_gravity_refstate-mantle.xmf,1270,-1.43486e-05,3.33159e-05,0,-6.34078e-07,-1.68504e+09,-1.67867e+09,-1.68312e+09,-84744.5,-0.0186295,0.0629721,-0,0.06567,1285.25,-58100.7,0,58114.9,84744.5
step02_gravity_refstate-mantle.xmf,1271,-1.39897e-05,3.28456e-05,0,-4.124e-07,-1.71543e+09,-1.70917e+09,-1.71356e+09,-55117.3,-0.0259821,0.0314343,-0,0.0407821,1817.52,-59040.6,0,59068.6,55117.3
step02_gravity_refstate-mantle.xmf,1272,4.84287e-06,3.29538e-06,0,1.15101e-07,-1.67091e+09,-1.67112e+09,-1.67156e+09,15383.2,-0.0700642,0.00767652,-0,0.0704835,26050.2,-57715.9,0,63322.4,15383.2
step02_gravity_refstate-mantle.xmf,1273,4.90825e-06,3.28529e-06,0,6.3528e-08,-1.70931e+09,-1.70953e+09,-1.70997e+09,8490.52,-0.069764,0.00364515,-0,0.0698592,26278.6,-58902.3,0,64498.4,8490.52
step02_gravity_refstate-mantle.xmf,1274,-1.1632e-05,3.13992e-05,0,-7.85642e-06,-1.5093e+09,-1.50355e+09,-1.50774e+09,-1.05001e+06,-0.0651562,0.2219,-0,0.231268,4348.3,-52685.3,0,52864.4,1.05001e+06
step02_gravity_refstate-mantle.xmf,1275,-1.01e-06,1.74297e-05,0,-1.20409e-05,-1.36854e+09,-1.36607e+09,-1.3684e+09,-1.60927e+06,-0.0846618,0.259537,-0,0.272996,7529.49,-48372.6,0,48955.1,1.60927e+06
step02_gravity_refstate-mantle.xmf,1276,7.9069e-07,1.36324e-05,0,-1.00391e-05,-1.34953e+09,-1.34782e+09,-1.34964e+09,-1.34173e+06,-0.0811106,0.238172,-0,0.251604,8603.8,-47787.8,0,48556.2,1.34173e+06
step02_gravity_refstate-mantle.xmf,1277,1.62474e-06,1.09975e-05,0,-7.86733e-06,-1.33556e+09,-1.3343e+09,-1.33577e+09,-1.05147e+06,-0.0761007,0.214235,-0,0.22735,9719.21,-47354.9,0,48342,1.05147e+06
step02_gravity_refstate-mantle.xmf,1278,-1.00479e-05,2.9627e-05,0,-9.51912e-06,-1.48298e+09,-1.47768e+09,-1.48164e+09,-1.27223e+06,-0.0734081,0.236377,-0,0.247513,4992.47,-51878.5,0,52118.2,1.27223e+06
step02_gravity_refstate-mantle.xmf,1279,1.98228e-06,8.212e-06,0,-4.6854e-06,-1.31683e+09,-1.316e+09,-1.3171e+09,-626204,-0.0665208,0.174618,-0,0.18686,11739.7,-46771.8,0,48222.6,626204
step02_gravity_refstate-mantle.xmf,1280,1.57056e-06,5.37059e-06,0,-4.70236e-07,-1.29462e+09,-1.29411e+09,-1.29483e+09,-62847,-0.0495061,0.0963023,-0,0.108282,17586.6,-46075.7,0,49317.9,62847
step02_gravity_refstate-mantle.xmf,1281,1.95091e-06,7.5456e-06,0,-3.57344e-06,-1.31971e+09,-1.31896e+09,-1.31997e+09,-477590,-0.0653786,0.154357,-0,0.167632,12793.6,-46858.6,0,48573.7,477590
step02_gravity_refstate-mantle.xmf,1282,1.54795e-06,6.48996e-06,0,-2.06134e-06,-1.29349e+09,-1.29283e+09,-1.2937e+09,-275498,-0.0542379,0.136177,-0,0.146581,14285.5,-46043.4,0,48208.6,275498
step02_gravity_refstate-mantle.xmf,1283,1.57477e-06,5.71644e-06,0,-9.11055e-07,-1.29563e+09,-1.29507e+09,-1.29584e+09,-121763,-0.0515523,0.107994,-0,0.119667,16447.3,-46107.6,0,48953.3,121763
step02_gravity_refstate-mantle.xmf,1284,1.59056e-06,6.08538e-06,0,-1.44995e-06,-1.29569e+09,-1.29508e+09,-1.2959e+09,-193785,-0.0532897,0.121243,-0,0.132437,15340.7,-46110.5,0,48595.4,193785
step02_gravity_refstate-mantle.xmf,1285,1.77957e-06,1.03259e-05,0,-6.91087e-06,-1.34268e+09,-1.34154e+09,-1.34292e+09,-923638,-0.0769779,0.196349,-0,0.210899,10373.1,-47574.2,0,48691.9,923638
step02_gravity_refstate-mantle.xmf,1286,2.87252e-06,4.53068e-06,0,1.10322e-07,-1.38555e+09,-1.38533e+09,-1.38594e+09,14744.5,-0.0625452,0.0575382,-0,0.0849856,20858.4,-48891.1,0,53154.6,14744.5
step02_gravity_refstate-mantle.xmf,1287,-1.40324e-05,3.304e-05,0,-1.31706e-06,-1.66168e+09,-1.65539e+09,-1.6598e+09,-176026,-0.0296852,0.0856676,-0,0.090665,2049.39,-57380.4,0,57417,176026
step02_gravity_refstate-mantle.xmf,1288,-1.36199e-05,3.23469e-05,0,9.43899e-09,-1.74645e+09,-1.74031e+09,-1.74463e+09,1261.52,-0.0333785,-3.67241e-19,-0,0.0333785,2359.95,-60000,0,60046.4,1261.52
step02_gravity_refstate-mantle.xmf,1289,-1.37547e-05,3.27518e-05,0,-2.13386e-06,-1.63771e+09,-1.6315e+09,-1.63587e+09,-285190,-0.0374417,0.108459,-0,0.114739,2579.5,-56641.3,0,56700,285190
step02_gravity_refstate-mantle.xmf,1290,4.66608e-06,3.56561e-06,0,1.44529e-07,-1.63352e+09,-1.63367e+09,-1.63415e+09,19316.2,-0.0736791,0.012652,-0,0.0747575,24996.1,-56560.3,0,61837.5,19316.2
step02_gravity_refstate-mantle.xmf,1291,4.75751e-06,3.75103e-06,0,5.45467e-08,-1.69602e+09,-1.69616e+09,-1.69666e+09,7290.16,-0.0767488,0.00573606,-0,0.0769629,24785.6,-58492.1,0,63526.8,7290.16
step02_gravity_refstate-mantle.xmf,1292,4.86431e-06,3.55547e-06,0,-1.92875e-09,-1.74483e+09,-1.74501e+09,-1.74548e+09,-257.777,-0.0733918,-5.42705e-19,-0,0.0733918,25586.2,-60000,0,65227.7,257.777
step02_gravity_refstate-mantle.xmf,1293,-1.34005e-05,3.24633e-05,0,-3.12707e-06,-1.6117e+09,-1.60557e+09,-1.60991e+09,-417933,-0.0448426,0.132427,-0,0.139813,3078.42,-55839.3,0,55924.1,417933
step02_gravity_refstate-mantle.xmf,1294,-1.29508e-05,3.2102e-05,0,-4.29111e-06,-1.58484e+09,-1.57882e+09,-1.58311e+09,-573506,-0.051863,0.156225,-0,0.164609,3545.49,-55011.7,0,55125.8,573506
step02_gravity_refstate-mantle.xmf,1295,-1.23677e-05,3.16149e-05,0,-5.59426e-06,-1.55775e+09,-1.55187e+09,-1.5561e+09,-747673,-0.0585556,0.179054,-0,0.188386,3989,-54177.7,0,54324.3,747673
step02_gravity_refstate-mantle.xmf,1296,-1.15996e-05,3.09532e-05,0,-7.04999e-06,-1.52935e+09,-1.52367e+09,-1.5278e+09,-942231,-0.064915,0.201756,-0,0.211942,4411.59,-53303.9,0,53486.1,942231
step02_gravity_refstate-mantle.xmf,1297,-1.04167e-05,2.96771e-05,0,-8.36248e-06,-1.5067e+09,-1.50135e+09,-1.50531e+09,-1.11765e+06,-0.0717842,0.215593,-0,0.22723,4937.93,-52608.9,0,52840.1,1.11765e+06
step02_gravity_refstate-mantle.xmf,1298,-2.33807e-06,1.94975e-05,0,-1.22729e-05,-1.38793e+09,-1.38501e+09,-1.38762e+09,-1.64027e+06,-0.0864706,0.258288,-0,0.272378,7185.43,-48967.9,0,49492.3,1.64027e+06
step02_gravity_refstate-mantle.xmf,1299,-7.60349e-08,1.53487e-05,0,-1.06691e-05,-1.36826e+09,-1.3662e+09,-1.36825e+09,-1.42592e+06,-0.0850193,0.23904,-0,0.25371,8265.78,-48364.8,0,49066,1.42592e+06
step02_gravity_refstate-mantle.xmf,1300,1.2009e-06,1.23183e-05,0,-8.80189e-06,-1.34982e+09,-1.34833e+09,-1.34998e+09,-1.17637e+06,-0.0805111,0.220494,-0,0.234733,9267.31,-47795.9,0,48686.1,1.17637e+06
step02_gravity_refstate-mantle.xmf,1301,-8.11249e-06,2.70001e-05,0,-1.02575e-05,-1.47015e+09,-1.46546e+09,-1.46907e+09,-1.37091e+06,-0.0807011,0.233471,-0,0.247025,5743.5,-51488.3,0,51807.7,1.37091e+06
step02_gravity_refstate-mantle.xmf,1302,-3.62287e-06,2.12855e-05,0,-1.2136e-05,-1.40678e+09,-1.40346e+09,-1.4063e+09,-1.62198e+06,-0.0870767,0.254157,-0,0.26866,6900.07,-49546.3,0,50024.5,1.62198e+06
step02_gravity_refstate-mantle.xmf,1303,-4.96978e-06,2.30531e-05,0,-1.17375e-05,-1.42724e+09,-1.42349e+09,-1.42657e+09,-1.56871e+06,-0.0866365,0.247563,-0,0.262285,6608.32,-50173.6,0,50606.9,1.56871e+06
step02_gravity_refstate-mantle.xmf,1304,-6.49034e-06,2.50004e-05,0,-1.11295e-05,-1.44824e+09,-1.44403e+09,-1.44737e+09,-1.48746e+06,-0.0845737,0.241052,-0,0.255458,6219.58,-50817.3,0,51196.5,1.48746e+06
step02_gravity_refstate-mantle.xmf,1305,1.84958e-06,6.91095e-06,0,-2.65865e-06,-1.3123e+09,-1.31163e+09,-1.31255e+09,-355329,-0.0612402,0.140553,-0,0.153315,13737.1,-46627.7,0,48609.1,355329
step02_gravity_refstate-mantle.xmf,1306,1.94719e-06,9.33341e-06,0,-5.71556e-06,-1.34148e+09,-1.3405e+09,-1.34174e+09,-763884,-0.0751234,0.17892,-0,0.194052,11196.6,-47535.9,0,48836.7,763884
step02_gravity_refstate-mantle.xmf,1307,2.03156e-06,5.22736e-06,0,-3.7085e-07,-1.32536e+09,-1.32493e+09,-1.32563e+09,-49564.1,-0.0562784,0.0853728,-0,0.102253,18226,-47027.8,0,50436.2,49564.1
step02_gravity_refstate-mantle.xmf,1308,2.44585e-06,5.10701e-06,0,-2.98915e-07,-1.35622e+09,-1.35586e+09,-1.35654e+09,-39950,-0.0619893,0.0751996,-0,0.0974559,18863.4,-47983.5,0,51558.1,39950
step02_gravity_refstate-mantle.xmf,1309,4.43671e-06,3.72321e-06,0,1.8374e-07,-1.58229e+09,-1.58238e+09,-1.58288e+09,24556.9,-0.0737523,0.0194845,-0,0.0762827,24331.1,-54976.6,0,60120.1,24556.9
step02_gravity_refstate-mantle.xmf,1310,4.2027e-06,3.92508e-06,0,1.79489e-07,-1.54407e+09,-1.5441e+09,-1.54463e+09,23988.7,-0.0740405,0.0257239,-0,0.0783818,23562.7,-53794.9,0,58728.9,23988.7
step02_gravity_refstate-mantle.xmf,1311,3.9358e-06,4.09173e-06,0,1.69397e-07,-1.50448e+09,-1.50446e+09,-1.50501e+09,22640,-0.0729222,0.032672,-0,0.0799069,22866.3,-52570.7,0,57328.4,22640
step02_gravity_refstate-mantle.xmf,1312,3.6308e-06,4.24421e-06,0,1.52675e-07,-1.46462e+09,-1.46454e+09,-1.46511e+09,20405.1,-0.0706267,0.0402999,-0,0.0813155,22189.6,-51337.9,0,55928.2,20405.1
step02_gravity_refstate-mantle.xmf,1313,3.27891e-06,4.3834e-06,0,1.35942e-07,-1.42465e+09,-1.42451e+09,-1.42509e+09,18168.7,-0.0670839,0.0485534,-0,0.0828112,21536.5,-50101.2,0,54534,18168.7
step02_gravity_refstate-mantle.xmf,1314,2.82423e-06,4.9769e-06,0,-2.19478e-07,-1.38906e+09,-1.38877e+09,-1.38944e+09,-29333.3,-0.0669365,0.0651178,-0,0.0933853,19548.7,-49000.3,0,52755.8,29333.3
step02_gravity_refstate-mantle.xmf,1315,-1.3553e-05,3.22646e-05,0,-1.08162e-06,-1.68899e+09,-1.68286e+09,-1.68718e+09,-144558,-0.0363175,0.057073,-0,0.0676483,2554.89,-58225.3,0,58281.3,144558
step02_gravity_refstate-mantle.xmf,1316,-1.31106e-05,3.16684e-05,0,-6.20946e-07,-1.71681e+09,-1.71083e+09,-1.71506e+09,-82989.4,-0.0423227,0.0288939,-0,0.0512452,3023.9,-59086.2,0,59163.5,82989.4
step02_gravity_refstate-mantle.xmf,1317,-1.19146e-06,1.72538e-05,0,-1.11069e-05,-1.3876e+09,-1.38514e+09,-1.38744e+09,-1.48444e+06,-0.0877105,0.238959,-0,0.254548,7905.63,-48959.8,0,49594,1.48444e+06
step02_gravity_refstate-mantle.xmf,1318,6.32309e-07,1.35899e-05,0,-9.3201e-06,-1.36773e+09,-1.366e+09,-1.36782e+09,-1.24563e+06,-0.0847116,0.219648,-0,0.235418,9017.77,-48348.8,0,49182.6,1.24563e+06
step02_gravity_refstate-mantle.xmf,1319,1.27278e-06,1.1879e-05,0,-7.97873e-06,-1.3624e+09,-1.36099e+09,-1.36257e+09,-1.06636e+06,-0.0828086,0.20247,-0,0.218749,9813.55,-48184.1,0,49173.3,1.06636e+06
step02_gravity_refstate-mantle.xmf,1320,-8.86582e-06,2.77728e-05,0,-9.38498e-06,-1.48884e+09,-1.48394e+09,-1.48765e+09,-1.2543e+06,-0.0786181,0.220964,-0,0.234533,5569.12,-52062.6,0,52359.6,1.2543e+06
step02_gravity_refstate-mantle.xmf,1321,2.04487e-06,8.50745e-06,0,-4.60907e-06,-1.34201e+09,-1.34115e+09,-1.34229e+09,-616003,-0.0734909,0.16128,-0,0.177234,12096.1,-47550.8,0,49065.2,616003
step02_gravity_refstate-mantle.xmf,1322,2.04418e-06,5.64194e-06,0,-8.39824e-07,-1.32673e+09,-1.32624e+09,-1.327e+09,-112242,-0.0590318,0.0962261,-0,0.11289,17039.7,-47071.2,0,50060.5,112242
step02_gravity_refstate-mantle.xmf,1323,2.09952e-06,7.32713e-06,0,-3.0451e-06,-1.3382e+09,-1.3375e+09,-1.33848e+09,-406978,-0.0692538,0.136722,-0,0.153261,13614.6,-47430.2,0,49345.5,406978
step02_gravity_refstate-mantle.xmf,1324,2.02882e-06,6.6106e-06,0,-2.13806e-06,-1.32674e+09,-1.32613e+09,-1.32701e+09,-285752,-0.0638185,0.124139,-0,0.139583,14659.1,-47074.1,0,49303.8,285752
step02_gravity_refstate-mantle.xmf,1325,2.03565e-06,6.07772e-06,0,-1.38711e-06,-1.32726e+09,-1.32672e+09,-1.32754e+09,-185387,-0.0614721,0.108437,-0,0.124649,15901,-47088.9,0,49701.1,185387
step02_gravity_refstate-mantle.xmf,1326,1.61204e-06,1.06744e-05,0,-6.66344e-06,-1.36489e+09,-1.36368e+09,-1.3651e+09,-890569,-0.0821418,0.18232,-0,0.19997,10685.2,-48260.1,0,49428.8,890569
step02_gravity_refstate-mantle.xmf,1327,3.16749e-06,4.84439e-06,0,-1.47191e-07,-1.42404e+09,-1.42381e+09,-1.42446e+09,-19672.1,-0.0711033,0.0553664,-0,0.0901172,20259.8,-50082.6,0,54025.3,19672.1
step02_gravity_refstate-mantle.xmf,1328,-1.3187e-05,3.18936e-05,0,-1.83401e-06,-1.66308e+09,-1.65706e+09,-1.66132e+09,-245115,-0.0435882,0.0814332,-0,0.092365,3072.51,-57426.6,0,57508.7,245115
step02_gravity_refstate-mantle.xmf,1329,-1.26164e-05,3.10121e-05,0,6.41482e-09,-1.74634e+09,-1.74051e+09,-1.74466e+09,857.341,-0.0488544,-3.47489e-19,-0,0.0488544,3539.92,-60000,0,60104.3,857.341
step02_gravity_refstate-mantle.xmf,1330,-1.27485e-05,3.13927e-05,0,-2.73996e-06,-1.63807e+09,-1.63217e+09,-1.63637e+09,-366196,-0.0505214,0.103925,-0,0.115554,3567.36,-56655.6,0,56767.8,366196
step02_gravity_refstate-mantle.xmf,1331,4.51899e-06,4.20505e-06,0,3.77652e-08,-1.65625e+09,-1.6563e+09,-1.65686e+09,5047.32,-0.0818036,0.0118022,-0,0.0826506,23439.8,-57263.2,0,61874.9,5047.32
step02_gravity_refstate-mantle.xmf,1332,4.65403e-06,4.20017e-06,0,-1.86627e-10,-1.74482e+09,-1.74488e+09,-1.74545e+09,-24.9427,-0.0816243,-5.74441e-19,-0,0.0816243,23856.4,-60000,0,64568.8,24.9427
step02_gravity_refstate-mantle.xmf,1333,-1.22161e-05,3.086e-05,0,-3.79624e-06,-1.61127e+09,-1.60551e+09,-1.60963e+09,-507367,-0.0572427,0.126982,-0,0.139288,4045.68,-55829.9,0,55976.2,507367
step02_gravity_refstate-mantle.xmf,1334,-1.1567e-05,3.02131e-05,0,-4.99444e-06,-1.58364e+09,-1.57805e+09,-1.58209e+09,-667506,-0.0636919,0.14948,-0,0.162483,4507.16,-54979.1,0,55163.5,667506
step02_gravity_refstate-mantle.xmf,1335,-1.07104e-05,2.93358e-05,0,-6.30147e-06,-1.5557e+09,-1.55035e+09,-1.55427e+09,-842191,-0.0700588,0.170422,-0,0.18426,4978.59,-54119.6,0,54348.1,842191
step02_gravity_refstate-mantle.xmf,1336,-9.78036e-06,2.83503e-05,0,-7.46729e-06,-1.53113e+09,-1.52604e+09,-1.52983e+09,-998003,-0.0753075,0.187126,-0,0.201711,5391.57,-53364.4,0,53636,998003
step02_gravity_refstate-mantle.xmf,1337,-2.33313e-06,1.90558e-05,0,-1.13618e-05,-1.40321e+09,-1.40035e+09,-1.4029e+09,-1.51851e+06,-0.0887349,0.23965,-0,0.25555,7543.92,-49438.9,0,50011.1,1.51851e+06
step02_gravity_refstate-mantle.xmf,1338,-2.65344e-07,1.52897e-05,0,-9.87125e-06,-1.38738e+09,-1.3853e+09,-1.38734e+09,-1.31929e+06,-0.0882275,0.220038,-0,0.237067,8651.39,-48953.9,0,49712.5,1.31929e+06
step02_gravity_refstate-mantle.xmf,1339,-8.97941e-06,2.7577e-05,0,-8.48389e-06,-1.50871e+09,-1.50383e+09,-1.50751e+09,-1.13387e+06,-0.0787584,0.202391,-0,0.217175,5666.15,-52675.2,0,52979.1,1.13387e+06
step02_gravity_refstate-mantle.xmf,1340,-7.68358e-06,2.59302e-05,0,-9.21778e-06,-1.49227e+09,-1.48778e+09,-1.49125e+09,-1.23196e+06,-0.0834105,0.207604,-0,0.223734,6161.96,-52171.8,0,52534.5,1.23196e+06
step02_gravity_refstate-mantle.xmf,1341,-3.19454e-06,2.01021e-05,0,-1.08951e-05,-1.4249e+09,-1.42179e+09,-1.42447e+09,-1.45613e+06,-0.0901083,0.228128,-0,0.245279,7481.09,-50105.8,0,50661.2,1.45613e+06
step02_gravity_refstate-mantle.xmf,1342,-4.82355e-06,2.23169e-05,0,-1.05831e-05,-1.44843e+09,-1.44481e+09,-1.44779e+09,-1.41443e+06,-0.089102,0.223264,-0,0.240387,7019.61,-50827.5,0,51309.9,1.41443e+06
step02_gravity_refstate-mantle.xmf,1343,-6.29715e-06,2.42098e-05,0,-9.99951e-06,-1.47057e+09,-1.46649e+09,-1.46973e+09,-1.33643e+06,-0.0868316,0.216233,-0,0.233016,6595.64,-51506.2,0,51926.8,1.33643e+06
step02_gravity_refstate-mantle.xmf,1344,2.09699e-06,7.97454e-06,0,-3.8226e-06,-1.3457e+09,-1.34492e+09,-1.34598e+09,-510890,-0.0729473,0.146941,-0,0.164052,12862.2,-47663.7,0,49368.7,510890
step02_gravity_refstate-mantle.xmf,1345,1.88006e-06,9.59e-06,0,-5.47311e-06,-1.36467e+09,-1.36364e+09,-1.36492e+09,-731481,-0.0805471,0.164701,-0,0.183342,11573.1,-48252.2,0,49620.7,731481
step02_gravity_refstate-mantle.xmf,1346,2.40165e-06,5.54679e-06,0,-7.28403e-07,-1.35759e+09,-1.35717e+09,-1.35791e+09,-97351.1,-0.0652138,0.0849485,-0,0.107094,17662.3,-48026.7,0,51171.5,97351.1
step02_gravity_refstate-mantle.xmf,1347,4.44383e-06,4.0929e-06,0,7.17084e-08,-1.61503e+09,-1.61507e+09,-1.61562e+09,9583.83,-0.0793711,0.0169625,-0,0.0811634,23536.2,-55988.9,0,60734.7,9583.83
step02_gravity_refstate-mantle.xmf,1348,2.7268e-06,5.47004e-06,0,-6.37663e-07,-1.38864e+09,-1.38827e+09,-1.38901e+09,-85223.7,-0.070396,0.0744798,-0,0.102483,18273.4,-48987.9,0,52285.1,85223.7
step02_gravity_refstate-mantle.xmf,1349,4.2536e-06,4.31732e-06,0,3.9611e-08,-1.58285e+09,-1.58285e+09,-1.58342e+09,5294.01,-0.0804986,0.0226679,-0,0.0836292,22788.4,-54994.4,0,59528.9,5294.01
step02_gravity_refstate-mantle.xmf,1350,4.02506e-06,4.50534e-06,0,-1.12048e-08,-1.54423e+09,-1.54417e+09,-1.54477e+09,-1497.52,-0.0801513,0.0298832,-0,0.0855408,22081.3,-53800.3,0,58155.4,1497.52
step02_gravity_refstate-mantle.xmf,1351,3.76948e-06,4.66587e-06,0,-7.09643e-08,-1.50446e+09,-1.50434e+09,-1.50496e+09,-9484.38,-0.0786053,0.0380009,-0,0.087309,21390.5,-52570.4,0,56755.6,9484.38
step02_gravity_refstate-mantle.xmf,1352,3.49112e-06,4.7529e-06,0,-1.14261e-07,-1.4634e+09,-1.46323e+09,-1.46387e+09,-15271,-0.0753025,0.0464913,-0,0.0884981,20828.6,-51300.5,0,55367.6,15271
step02_gravity_refstate-mantle.xmf,1353,3.08582e-06,5.41195e-06,0,-5.4955e-07,-1.42853e+09,-1.42822e+09,-1.42894e+09,-73447.4,-0.0758862,0.0626233,-0,0.098389,18974.6,-50222.3,0,53687.2,73447.4
step02_gravity_refstate-mantle.xmf,1354,-1.24757e-05,3.08414e-05,0,-1.44143e-06,-1.68882e+09,-1.68303e+09,-1.68715e+09,-192648,-0.051348,0.0546632,-0,0.0749979,3708.89,-58223.6,0,58341.6,192648
step02_gravity_refstate-mantle.xmf,1355,-1.19317e-05,3.00863e-05,0,-8.22836e-07,-1.71575e+09,-1.71014e+09,-1.71416e+09,-109972,-0.0569892,0.0283347,-0,0.0636445,4194.57,-59057.3,0,59206.1,109972
step02_gravity_refstate-mantle.xmf,1356,4.5048e-06,4.49153e-06,0,8.11881e-10,-1.70146e+09,-1.70146e+09,-1.70206e+09,108.508,-0.0849944,0.00608736,-0,0.0852121,23027.8,-58660.3,0,63018.3,108.508
step02_gravity_refstate-mantle.xmf,1357,-1.47721e-06,1.72661e-05,0,-1.02143e-05,-1.40886e+09,-1.40635e+09,-1.40866e+09,-1.36515e+06,-0.0906093,0.21909,-0,0.237088,8247.4,-49614.5,0,50295.3,1.36515e+06
step02_gravity_refstate-mantle.xmf,1358,4.51513e-07,1.36123e-05,0,-8.61855e-06,-1.38745e+09,-1.38569e+09,-1.38751e+09,-1.15187e+06,-0.0881685,0.201496,-0,0.219942,9429.77,-48956.8,0,49856.7,1.15187e+06
step02_gravity_refstate-mantle.xmf,1359,2.05501e-06,8.71598e-06,0,-4.43472e-06,-1.36528e+09,-1.36439e+09,-1.36556e+09,-592700,-0.0789495,0.148511,-0,0.168192,12467.6,-48270.1,0,49854.3,592700
step02_gravity_refstate-mantle.xmf,1360,2.18164e-06,7.95855e-06,0,-3.53393e-06,-1.36457e+09,-1.36379e+09,-1.36486e+09,-472309,-0.0768876,0.134359,-0,0.154804,13360.2,-48247,0,50062.6,472309
step02_gravity_refstate-mantle.xmf,1361,2.38208e-06,6.05419e-06,0,-1.28308e-06,-1.35865e+09,-1.35816e+09,-1.35897e+09,-171484,-0.0682277,0.0959057,-0,0.117698,16504.6,-48060.8,0,50815.8,171484
step02_gravity_refstate-mantle.xmf,1362,2.27136e-06,7.22717e-06,0,-2.68005e-06,-1.3612e+09,-1.36054e+09,-1.3615e+09,-358189,-0.0738717,0.121121,-0,0.14187,14337.3,-48141.7,0,50231.3,358189
step02_gravity_refstate-mantle.xmf,1363,2.33041e-06,6.5948e-06,0,-1.91952e-06,-1.35913e+09,-1.35856e+09,-1.35944e+09,-256543,-0.0709296,0.108103,-0,0.129296,15397.5,-48076.4,0,50481.9,256543
step02_gravity_refstate-mantle.xmf,1364,1.01444e-06,1.21694e-05,0,-7.42285e-06,-1.38824e+09,-1.38675e+09,-1.38838e+09,-992064,-0.0877263,0.183543,-0,0.20343,10234.8,-48981.2,0,50039.1,992064
step02_gravity_refstate-mantle.xmf,1365,1.45169e-06,1.09136e-05,0,-6.26665e-06,-1.3883e+09,-1.38703e+09,-1.38849e+09,-837538,-0.0867131,0.16673,-0,0.187931,11073.2,-48982.6,0,50218.7,837538
step02_gravity_refstate-mantle.xmf,1366,3.33185e-06,5.17822e-06,0,-3.66707e-07,-1.45585e+09,-1.45561e+09,-1.4563e+09,-49010.4,-0.077627,0.0529296,-0,0.0939548,19820.5,-51067.4,0,54778.9,49010.4
step02_gravity_refstate-mantle.xmf,1367,-1.2227e-05,3.06095e-05,0,-2.22733e-06,-1.66275e+09,-1.65702e+09,-1.66111e+09,-297683,-0.0551016,0.0785157,-0,0.0959213,3978.83,-57419.4,0,57557.1,297683
step02_gravity_refstate-mantle.xmf,1368,-1.13202e-05,2.92752e-05,0,1.41805e-09,-1.74621e+09,-1.74078e+09,-1.74469e+09,189.522,-0.0629822,-3.12576e-19,-0,0.0629822,4720.6,-60000,0,60185.4,189.522
step02_gravity_refstate-mantle.xmf,1369,-1.13998e-05,2.9595e-05,0,-3.1122e-06,-1.64186e+09,-1.63638e+09,-1.64034e+09,-415946,-0.0634857,0.09477,-0,0.114069,4649.2,-56777.1,0,56967.1,415946
step02_gravity_refstate-mantle.xmf,1370,4.24251e-06,4.73144e-06,0,-6.14555e-08,-1.62534e+09,-1.62528e+09,-1.62591e+09,-8213.53,-0.0861889,0.0181749,-0,0.0880843,22101.4,-56307.8,0,60490,8213.53
step02_gravity_refstate-mantle.xmf,1371,4.29492e-06,4.87017e-06,0,-4.41794e-08,-1.66907e+09,-1.66899e+09,-1.66964e+09,-5904.58,-0.0881461,0.0116409,-0,0.0889115,22109.2,-57659.2,0,61752.7,5904.58
step02_gravity_refstate-mantle.xmf,1372,4.35179e-06,4.98985e-06,0,1.68003e-09,-1.74482e+09,-1.74474e+09,-1.74541e+09,224.536,-0.0891083,-6.55235e-19,-0,0.0891083,22194.3,-60000,0,63973.3,224.536
step02_gravity_refstate-mantle.xmf,1373,-1.08725e-05,2.90404e-05,0,-4.32439e-06,-1.60882e+09,-1.60349e+09,-1.60737e+09,-577955,-0.0683291,0.122357,-0,0.140143,4999.77,-55758.6,0,55982.3,577955
step02_gravity_refstate-mantle.xmf,1374,-1.00679e-05,2.81364e-05,0,-5.42735e-06,-1.58258e+09,-1.57748e+09,-1.58124e+09,-725366,-0.0739658,0.141538,-0,0.159699,5454.31,-54951.2,0,55221.2,725366
step02_gravity_refstate-mantle.xmf,1375,-8.80308e-06,2.6719e-05,0,-6.86612e-06,-1.54875e+09,-1.544e+09,-1.54757e+09,-917657,-0.0805231,0.163782,-0,0.182506,6024,-53910.9,0,54246.4,917657
step02_gravity_refstate-mantle.xmf,1376,-7.77534e-06,2.55888e-05,0,-8.00261e-06,-1.52061e+09,-1.51615e+09,-1.51957e+09,-1.06955e+06,-0.0842694,0.181659,-0,0.200253,6370.58,-53045.8,0,53426.9,1.06955e+06
step02_gravity_refstate-mantle.xmf,1377,-3.73918e-07,1.51401e-05,0,-9.1575e-06,-1.40334e+09,-1.40127e+09,-1.40329e+09,-1.2239e+06,-0.090644,0.203952,-0,0.223188,9014.07,-49446,0,50260.9,1.2239e+06
step02_gravity_refstate-mantle.xmf,1378,-6.08015e-06,2.34448e-05,0,-8.85688e-06,-1.49488e+09,-1.49093e+09,-1.49407e+09,-1.18372e+06,-0.0891794,0.190708,-0,0.210529,7006.94,-52256.7,0,52724.4,1.18372e+06
step02_gravity_refstate-mantle.xmf,1379,-3.32503e-06,1.98159e-05,0,-9.80878e-06,-1.44841e+09,-1.44531e+09,-1.44796e+09,-1.31094e+06,-0.0924886,0.205442,-0,0.225301,7849.28,-50830.3,0,51432.7,1.31094e+06
step02_gravity_refstate-mantle.xmf,1380,-4.6875e-06,2.16512e-05,0,-9.45834e-06,-1.47107e+09,-1.46755e+09,-1.47044e+09,-1.26411e+06,-0.0914858,0.199208,-0,0.219211,7442.42,-51526,0,52060.7,1.26411e+06
step02_gravity_refstate-mantle.xmf,1381,1.8002e-06,9.7797e-06,0,-5.14363e-06,-1.38814e+09,-1.38707e+09,-1.38838e+09,-687446,-0.085207,0.150244,-0,0.172724,11984.2,-48977.1,0,50422,687446
step02_gravity_refstate-mantle.xmf,1382,2.63926e-06,6.01373e-06,0,-1.14461e-06,-1.38998e+09,-1.38953e+09,-1.39034e+09,-152978,-0.073853,0.0843172,-0,0.112088,17090.8,-49030.2,0,51923.5,152978
step02_gravity_refstate-mantle.xmf,1383,2.88256e-06,5.9804e-06,0,-1.01282e-06,-1.4222e+09,-1.42178e+09,-1.42258e+09,-135364,-0.0786041,0.0732414,-0,0.107438,17681,-50026.7,0,53059.3,135364
step02_gravity_refstate-mantle.xmf,1384,4.01228e-06,4.99354e-06,0,-1.57835e-07,-1.58309e+09,-1.58296e+09,-1.58362e+09,-21094.6,-0.0864962,0.0263788,-0,0.0904292,21341.7,-55001.7,0,58997.1,21094.6
step02_gravity_refstate-mantle.xmf,1385,3.78343e-06,5.20456e-06,0,-2.79577e-07,-1.54414e+09,-1.54395e+09,-1.54465e+09,-37365.4,-0.0858654,0.0349527,-0,0.0927069,20615.8,-53797.6,0,57612.5,37365.4
step02_gravity_refstate-mantle.xmf,1386,3.53586e-06,5.3347e-06,0,-4.12319e-07,-1.49873e+09,-1.49849e+09,-1.4992e+09,-55106.5,-0.0833009,0.0454678,-0,0.0949018,19910.3,-52393.5,0,56049.1,55106.5
step02_gravity_refstate-mantle.xmf,1387,3.27784e-06,5.67778e-06,0,-6.56772e-07,-1.47104e+09,-1.47072e+09,-1.47148e+09,-87777.6,-0.0827574,0.0554525,-0,0.0996181,18954.5,-51537.4,0,54912.4,87777.6
step02_gravity_refstate-mantle.xmf,1388,-1.1226e-05,2.92212e-05,0,-1.92397e-06,-1.68129e+09,-1.67588e+09,-1.67979e+09,-257139,-0.0643035,0.058398,-0,0.0868635,4792.56,-57995.2,0,58192.9,257139
step02_gravity_refstate-mantle.xmf,1389,-1.04562e-05,2.81061e-05,0,-9.60391e-07,-1.7152e+09,-1.71004e+09,-1.7138e+09,-128356,-0.0705649,0.0268209,-0,0.0754902,5407.09,-59044.9,0,59292,128356
step02_gravity_refstate-mantle.xmf,1390,4.14996e-06,5.36597e-06,0,-6.46552e-08,-1.70333e+09,-1.70317e+09,-1.70389e+09,-8641.17,-0.0921763,0.00695025,-0,0.092438,21376.7,-58717.9,0,62488.1,8641.17
step02_gravity_refstate-mantle.xmf,1391,-2.18447e-06,1.81319e-05,0,-9.81623e-06,-1.43086e+09,-1.42815e+09,-1.43057e+09,-1.31194e+06,-0.092535,0.207354,-0,0.227065,8236.02,-50291.7,0,50961.6,1.31194e+06
step02_gravity_refstate-mantle.xmf,1392,-1.07155e-06,1.61495e-05,0,-9.03324e-06,-1.4237e+09,-1.4214e+09,-1.42356e+09,-1.20729e+06,-0.0930187,0.196014,-0,0.216965,8929.46,-50072.9,0,50862.9,1.20729e+06
step02_gravity_refstate-mantle.xmf,1393,4.08748e-08,1.40579e-05,0,-8.11027e-06,-1.41235e+09,-1.41048e+09,-1.41236e+09,-1.08394e+06,-0.0920015,0.185146,-0,0.206745,9692.26,-49724.3,0,50660.1,1.08394e+06
step02_gravity_refstate-mantle.xmf,1394,2.06093e-06,8.82249e-06,0,-4.12691e-06,-1.38889e+09,-1.38799e+09,-1.38917e+09,-551561,-0.0835419,0.134515,-0,0.158347,12937.4,-48999.7,0,50678.9,551561
step02_gravity_refstate-mantle.xmf,1395,2.25933e-06,8.01747e-06,0,-3.25973e-06,-1.38936e+09,-1.38859e+09,-1.38967e+09,-435662,-0.0816184,0.120668,-0,0.145679,13883.2,-49013.6,0,50941.9,435662
step02_gravity_refstate-mantle.xmf,1396,2.55239e-06,6.6309e-06,0,-1.77e-06,-1.39031e+09,-1.38977e+09,-1.39066e+09,-236561,-0.0768417,0.095348,-0,0.122458,15964.2,-49041.4,0,51574.3,236561
step02_gravity_refstate-mantle.xmf,1397,2.42073e-06,7.29848e-06,0,-2.47607e-06,-1.39026e+09,-1.3896e+09,-1.39058e+09,-330927,-0.0794883,0.107547,-0,0.133734,14886.3,-49040.4,0,51250,330927
step02_gravity_refstate-mantle.xmf,1398,7.62308e-07,1.24525e-05,0,-6.93755e-06,-1.41198e+09,-1.41041e+09,-1.41208e+09,-927204,-0.0915839,0.167699,-0,0.191077,10575.8,-49713.4,0,50825.9,927204
step02_gravity_refstate-mantle.xmf,1399,1.28797e-06,1.11331e-05,0,-5.86929e-06,-1.41123e+09,-1.40991e+09,-1.4114e+09,-784431,-0.0905915,0.152468,-0,0.177351,11426,-49690.5,0,50987.3,784431
step02_gravity_refstate-mantle.xmf,1400,3.06137e-06,6.00356e-06,0,-9.24128e-07,-1.45202e+09,-1.45162e+09,-1.45243e+09,-123510,-0.0824898,0.0644437,-0,0.104678,18111.4,-50949.2,0,54072.6,123510
step02_gravity_refstate-mantle.xmf,1401,-9.80966e-06,2.72292e-05,0,-2.61364e-09,-1.74605e+09,-1.7411e+09,-1.74474e+09,-349.313,-0.0755037,-2.59129e-19,-0,0.0755037,5906.01,-60000,0,60290,349.313
step02_gravity_refstate-mantle.xmf,1402,-1.01686e-05,2.79709e-05,0,-3.74984e-06,-1.62991e+09,-1.62481e+09,-1.62855e+09,-501166,-0.0730934,0.100102,-0,0.123948,5511.55,-56412.1,0,56680.7,501166
step02_gravity_refstate-mantle.xmf,1403,3.92507e-06,5.69973e-06,0,-1.90073e-07,-1.65896e+09,-1.65872e+09,-1.65948e+09,-25403.2,-0.0939619,0.0155231,-0,0.0952355,20600.4,-57346.6,0,60934.4,25403.2
step02_gravity_refstate-mantle.xmf,1404,3.93849e-06,5.94053e-06,0,2.97816e-09,-1.74484e+09,-1.74457e+09,-1.74536e+09,398.031,-0.0957376,-7.80229e-19,-0,0.0957376,20595.2,-60000,0,63436.3,398.031
step02_gravity_refstate-mantle.xmf,1405,-9.35568e-06,2.69699e-05,0,-4.74235e-06,-1.60405e+09,-1.5992e+09,-1.6028e+09,-633815,-0.0783083,0.11848,-0,0.14202,5972.53,-55616.2,0,55936,633815
step02_gravity_refstate-mantle.xmf,1406,-8.38641e-06,2.58265e-05,0,-5.80653e-06,-1.57644e+09,-1.57186e+09,-1.57532e+09,-776043,-0.0832221,0.13647,-0,0.159844,6437.11,-54766.7,0,55143.7,776043
step02_gravity_refstate-mantle.xmf,1407,-7.18243e-06,2.43827e-05,0,-6.86585e-06,-1.54756e+09,-1.54334e+09,-1.5466e+09,-917621,-0.0878418,0.152884,-0,0.176323,6936.03,-53878.9,0,54323.6,917621
step02_gravity_refstate-mantle.xmf,1408,-5.90817e-06,2.28008e-05,0,-7.71103e-06,-1.52098e+09,-1.51715e+09,-1.52019e+09,-1.03058e+06,-0.0913549,0.165549,-0,0.189083,7407.37,-53062.5,0,53577,1.03058e+06
step02_gravity_refstate-mantle.xmf,1409,-4.52775e-06,2.10087e-05,0,-8.33236e-06,-1.4953e+09,-1.49188e+09,-1.49469e+09,-1.11362e+06,-0.0938785,0.17506,-0,0.198643,7892.54,-52273.7,0,52866.2,1.11362e+06
step02_gravity_refstate-mantle.xmf,1410,-2.04132e-06,1.75773e-05,0,-8.93475e-06,-1.44693e+09,-1.44431e+09,-1.44666e+09,-1.19413e+06,-0.0946228,0.189265,-0,0.2116,8673.71,-50787.6,0,51523,1.19413e+06
step02_gravity_refstate-mantle.xmf,1411,-3.20953e-06,1.92277e-05,0,-8.73224e-06,-1.47047e+09,-1.46747e+09,-1.47004e+09,-1.16706e+06,-0.0949424,0.182777,-0,0.205965,8320.92,-51511,0,52178.7,1.16706e+06
step02_gravity_refstate-mantle.xmf,1412,1.73237e-06,9.88735e-06,0,-4.72388e-06,-1.41237e+09,-1.41128e+09,-1.41261e+09,-631347,-0.0892595,0.135254,-0,0.162052,12450,-49725.7,0,51260.6,631347
step02_gravity_refstate-mantle.xmf,1413,2.71613e-06,6.63592e-06,0,-1.57784e-06,-1.42223e+09,-1.4217e+09,-1.42259e+09,-210878,-0.0818623,0.0832612,-0,0.116764,16520.3,-50028.3,0,52685.4,210878
step02_gravity_refstate-mantle.xmf,1414,3.9046e-06,5.5228e-06,0,-2.59087e-07,-1.61617e+09,-1.61595e+09,-1.61669e+09,-34627,-0.0915522,0.0228537,-0,0.0943615,20651.7,-56024.3,0,59709.4,34627
step02_gravity_refstate-mantle.xmf,1415,2.88029e-06,6.62347e-06,0,-1.38156e-06,-1.45386e+09,-1.45336e+09,-1.45425e+09,-184646,-0.0858497,0.0718746,-0,0.111965,17082.3,-51006.6,0,53791.1,184646
step02_gravity_refstate-mantle.xmf,1416,3.68237e-06,5.84419e-06,0,-4.3074e-07,-1.58483e+09,-1.58454e+09,-1.58533e+09,-57568.4,-0.0922536,0.0306563,-0,0.0972138,19881.8,-55055.6,0,58535.5,57568.4
step02_gravity_refstate-mantle.xmf,1417,3.47569e-06,6.04568e-06,0,-6.32152e-07,-1.54683e+09,-1.54649e+09,-1.5473e+09,-84487.1,-0.0912939,0.0403899,-0,0.0998295,19194.5,-53880.8,0,57197.7,84487.1
step02_gravity_refstate-mantle.xmf,1418,3.26752e-06,6.24816e-06,0,-8.65714e-07,-1.51154e+09,-1.51115e+09,-1.51198e+09,-115703,-0.0897763,0.0507912,-0,0.103148,18476,-52789.9,0,55929.8,115703
step02_gravity_refstate-mantle.xmf,1419,3.0573e-06,6.48663e-06,0,-1.13614e-06,-1.48231e+09,-1.48185e+09,-1.48272e+09,-151845,-0.0882795,0.0612853,-0,0.107467,17725.5,-51886.1,0,54830.3,151845
step02_gravity_refstate-mantle.xmf,1420,-9.96136e-06,2.75578e-05,0,-2.82822e-06,-1.65811e+09,-1.65309e+09,-1.65678e+09,-377992,-0.0744296,0.0747959,-0,0.105519,5708.53,-57283.4,0,57567.1,377992
step02_gravity_refstate-mantle.xmf,1421,-8.83642e-06,2.58828e-05,0,-9.56317e-07,-1.71685e+09,-1.71221e+09,-1.71567e+09,-127812,-0.0821069,0.023266,-0,0.0853396,6604.72,-59101.3,0,59469.2,127812
step02_gravity_refstate-mantle.xmf,1422,-9.33074e-06,2.6595e-05,0,-1.8631e-06,-1.68878e+09,-1.68397e+09,-1.68753e+09,-249004,-0.0788021,0.0470284,-0,0.0917684,6212.94,-58232.5,0,58563,249004
step02_gravity_refstate-mantle.xmf,1423,3.68702e-06,6.38076e-06,0,-1.46453e-07,-1.7033e+09,-1.70294e+09,-1.70379e+09,-19573.5,-0.0982626,0.00827331,-0,0.0986102,19823.6,-58716.3,0,61972.4,19573.5
step02_gravity_refstate-mantle.xmf,1424,-8.95771e-07,1.55152e-05,0,-8.07193e-06,-1.44063e+09,-1.43844e+09,-1.44051e+09,-1.07881e+06,-0.0952747,0.176433,-0,0.200514,9484.31,-50595.3,0,51476.6,1.07881e+06
step02_gravity_refstate-mantle.xmf,1425,-1.3873e-09,1.38588e-05,0,-7.32612e-06,-1.43209e+09,-1.43024e+09,-1.43209e+09,-979136,-0.0946152,0.167234,-0,0.192144,10169.1,-50333.2,0,51350.2,979136
step02_gravity_refstate-mantle.xmf,1426,2.03344e-06,8.99767e-06,0,-3.82737e-06,-1.41613e+09,-1.4152e+09,-1.4164e+09,-511528,-0.0882175,0.120465,-0,0.149312,13386.5,-49841.4,0,51607.8,511528
step02_gravity_refstate-mantle.xmf,1427,2.29437e-06,8.20288e-06,0,-3.04086e-06,-1.42005e+09,-1.41926e+09,-1.42036e+09,-406410,-0.0869397,0.107177,-0,0.138005,14329.8,-49962.2,0,51976.5,406410
step02_gravity_refstate-mantle.xmf,1428,2.53245e-06,7.39086e-06,0,-2.26772e-06,-1.42174e+09,-1.42109e+09,-1.42208e+09,-303081,-0.0846879,0.0944792,-0,0.126879,15405.2,-50013.8,0,52332.6,303081
step02_gravity_refstate-mantle.xmf,1429,3.70678e-07,1.29529e-05,0,-6.4381e-06,-1.44081e+09,-1.43913e+09,-1.44086e+09,-860452,-0.0955952,0.151614,-0,0.179235,10840.4,-50602.8,0,51750.9,860452
step02_gravity_refstate-mantle.xmf,1430,1.2017e-06,1.1134e-05,0,-5.26241e-06,-1.43582e+09,-1.43449e+09,-1.43598e+09,-703322,-0.0940034,0.135546,-0,0.164953,11940.5,-50449.5,0,51843.3,703322
step02_gravity_refstate-mantle.xmf,1431,-8.16575e-06,2.4971e-05,0,-6.09902e-09,-1.74588e+09,-1.74145e+09,-1.74479e+09,-815.134,-0.0862436,-2.43876e-19,-0,0.0862436,7101,-60000,0,60418.7,815.134
step02_gravity_refstate-mantle.xmf,1432,-8.92491e-06,2.62444e-05,0,-3.84843e-06,-1.63065e+09,-1.62595e+09,-1.62946e+09,-514342,-0.0810693,0.0936912,-0,0.123896,6349.11,-56438.8,0,56794.8,514342
step02_gravity_refstate-mantle.xmf,1433,3.52975e-06,6.42888e-06,0,-4.49866e-07,-1.62866e+09,-1.62827e+09,-1.62913e+09,-60124.6,-0.0971995,0.0240213,-0,0.100124,19333.1,-56409.7,0,59630.8,60124.6
step02_gravity_refstate-mantle.xmf,1434,3.53348e-06,6.58415e-06,0,-3.07481e-07,-1.66932e+09,-1.66891e+09,-1.66979e+09,-41094.9,-0.0989187,0.0157067,-0,0.100158,19377.5,-57666.3,0,60834.9,41094.9
step02_gravity_refstate-mantle.xmf,1435,3.39556e-06,7.07114e-06,0,5.72271e-09,-1.74486e+09,-1.74437e+09,-1.74531e+09,764.841,-0.101391,-1.05382e-18,-0,0.101391,19054.5,-60000,0,62952.9,764.841
step02_gravity_refstate-mantle.xmf,1436,-7.9387e-06,2.49858e-05,0,-4.85578e-06,-1.60235e+09,-1.59795e+09,-1.60128e+09,-648976,-0.0860304,0.111942,-0,0.141181,6860.84,-55567.8,0,55989.8,648976
step02_gravity_refstate-mantle.xmf,1437,-6.84789e-06,2.36375e-05,0,-5.82157e-06,-1.57391e+09,-1.56984e+09,-1.57299e+09,-778053,-0.0902424,0.128321,-0,0.156876,7351.4,-54693.3,0,55185.1,778053
step02_gravity_refstate-mantle.xmf,1438,-5.62351e-06,2.20757e-05,0,-6.60807e-06,-1.54724e+09,-1.54354e+09,-1.54649e+09,-883169,-0.0937895,0.140914,-0,0.169273,7864.4,-53873.8,0,54444.7,883169
step02_gravity_refstate-mantle.xmf,1439,-4.3438e-06,2.03942e-05,0,-7.2224e-06,-1.52084e+09,-1.51753e+09,-1.52026e+09,-965273,-0.0962418,0.151282,-0,0.179301,8360.64,-53062.3,0,53717,965273
step02_gravity_refstate-mantle.xmf,1440,-3.06848e-06,1.86581e-05,0,-7.65259e-06,-1.49432e+09,-1.49142e+09,-1.49391e+09,-1.02277e+06,-0.0973868,0.160034,-0,0.187337,8821.44,-52247.4,0,52986.8,1.02277e+06
step02_gravity_refstate-mantle.xmf,1441,-1.86855e-06,1.69538e-05,0,-7.90548e-06,-1.46757e+09,-1.46505e+09,-1.46732e+09,-1.05657e+06,-0.0970862,0.167833,-0,0.193891,9222.28,-51424.7,0,52245.1,1.05657e+06
step02_gravity_refstate-mantle.xmf,1442,1.66711e-06,9.97244e-06,0,-4.34673e-06,-1.43417e+09,-1.43306e+09,-1.43439e+09,-580940,-0.0924388,0.122753,-0,0.153666,12843.5,-50398.6,0,52009.4,580940
step02_gravity_refstate-mantle.xmf,1443,2.61463e-06,7.43092e-06,0,-1.99959e-06,-1.4544e+09,-1.45376e+09,-1.45475e+09,-267246,-0.0890999,0.0817195,-0,0.1209,15931.7,-51023.6,0,53453,267246
step02_gravity_refstate-mantle.xmf,1444,2.7325e-06,7.39475e-06,0,-1.70466e-06,-1.48639e+09,-1.48577e+09,-1.48676e+09,-227828,-0.0923756,0.0693972,-0,0.115539,16509,-52012.4,0,54569.6,227828
step02_gravity_refstate-mantle.xmf,1445,3.2792e-06,6.77857e-06,0,-7.45651e-07,-1.58711e+09,-1.58664e+09,-1.58755e+09,-99656.3,-0.0971151,0.0352191,-0,0.103304,18535.9,-55125.5,0,58158.5,99656.3
step02_gravity_refstate-mantle.xmf,1446,3.06261e-06,7.05961e-06,0,-1.05505e-06,-1.55234e+09,-1.55181e+09,-1.55275e+09,-141007,-0.0963464,0.0460147,-0,0.106771,17816.1,-54051,0,56911.5,141007
step02_gravity_refstate-mantle.xmf,1447,2.88685e-06,7.24882e-06,0,-1.37881e-06,-1.51794e+09,-1.51736e+09,-1.51832e+09,-184278,-0.0946237,0.0575883,-0,0.11077,17150.2,-52987.5,0,55693.8,184278
step02_gravity_refstate-mantle.xmf,1448,-8.45495e-06,2.54637e-05,0,-2.90188e-06,-1.65868e+09,-1.65414e+09,-1.65755e+09,-387836,-0.0840963,0.0688039,-0,0.108656,6759.54,-57305.7,0,57703,387836
step02_gravity_refstate-mantle.xmf,1449,-7.19367e-06,2.36019e-05,0,-1.00758e-06,-1.71519e+09,-1.71107e+09,-1.71423e+09,-134664,-0.0914708,0.0223279,-0,0.0941565,7771.85,-59054.9,0,59564.1,134664
step02_gravity_refstate-mantle.xmf,1450,-7.83873e-06,2.45307e-05,0,-1.96511e-06,-1.68653e+09,-1.6822e+09,-1.68548e+09,-262637,-0.0878374,0.0450543,-0,0.0987183,7262.48,-58167.7,0,58619.3,262637
step02_gravity_refstate-mantle.xmf,1451,3.10501e-06,7.53789e-06,0,-2.76764e-07,-1.69753e+09,-1.69694e+09,-1.69795e+09,-36989.5,-0.103197,0.0111606,-0,0.103798,18334.4,-58537.4,0,61341.5,36989.5
step02_gravity_refstate-mantle.xmf,1452,-6.86188e-07,1.48218e-05,0,-6.96597e-06,-1.46284e+09,-1.46077e+09,-1.46275e+09,-931001,-0.0979316,0.153447,-0,0.182035,10179.6,-51281.1,0,52281.7,931001
step02_gravity_refstate-mantle.xmf,1453,1.87817e-06,9.45089e-06,0,-3.67122e-06,-1.44965e+09,-1.44864e+09,-1.4499e+09,-490658,-0.0935751,0.107901,-0,0.142825,13615.7,-50877,0,52667.4,490658
step02_gravity_refstate-mantle.xmf,1454,2.29685e-06,8.36625e-06,0,-2.75171e-06,-1.4532e+09,-1.45239e+09,-1.45351e+09,-367766,-0.0916759,0.0932751,-0,0.130785,14801.6,-50986.8,0,53091.8,367766
step02_gravity_refstate-mantle.xmf,1455,1.21571e-06,1.09789e-05,0,-4.63173e-06,-1.45871e+09,-1.4574e+09,-1.45887e+09,-619031,-0.0966406,0.119609,-0,0.153772,12497.8,-51156.2,0,52660.7,619031
step02_gravity_refstate-mantle.xmf,1456,5.15777e-07,1.24776e-05,0,-5.59048e-06,-1.46165e+09,-1.46005e+09,-1.46172e+09,-747167,-0.0978827,0.132833,-0,0.165002,11501.4,-51246.2,0,52521,747167
step02_gravity_refstate-mantle.xmf,1457,-6.46991e-06,2.26037e-05,0,-8.99381e-09,-1.74571e+09,-1.74182e+09,-1.74484e+09,-1202.02,-0.0950945,-2.28635e-19,-0,0.0950945,8310.4,-60000,0,60572.8,1202.02
step02_gravity_refstate-mantle.xmf,1458,-7.48331e-06,2.42201e-05,0,-3.88011e-06,-1.62985e+09,-1.62561e+09,-1.62885e+09,-518577,-0.0888802,0.0874773,-0,0.124708,7299.34,-56418.5,0,56888.7,518577
step02_gravity_refstate-mantle.xmf,1459,3.16956e-06,7.29261e-06,0,-4.96747e-07,-1.65594e+09,-1.65539e+09,-1.65636e+09,-66390.2,-0.101531,0.0205131,-0,0.103582,18442.3,-57252.2,0,60149.3,66390.2
step02_gravity_refstate-mantle.xmf,1460,2.71337e-06,8.38223e-06,0,6.65155e-09,-1.7449e+09,-1.74414e+09,-1.74526e+09,888.98,-0.105929,-1.1339e-18,-0,0.105929,17567.7,-60000,0,62519,888.98
step02_gravity_refstate-mantle.xmf,1461,-6.4388e-06,2.2841e-05,0,-4.76875e-06,-1.60152e+09,-1.59761e+09,-1.60066e+09,-637343,-0.0929288,0.103763,-0,0.139293,7818.61,-55546.9,0,56094.5,637343
step02_gravity_refstate-mantle.xmf,1462,-5.32661e-06,2.13974e-05,0,-5.53069e-06,-1.57445e+09,-1.57088e+09,-1.57374e+09,-739176,-0.0961655,0.117126,-0,0.151546,8325.52,-54714.4,0,55344.2,739176
step02_gravity_refstate-mantle.xmf,1463,-4.14556e-06,1.98226e-05,0,-6.1358e-06,-1.54775e+09,-1.54455e+09,-1.5472e+09,-820050,-0.0985252,0.128093,-0,0.161601,8833.69,-53893.5,0,54612.7,820050
step02_gravity_refstate-mantle.xmf,1464,-3.63309e-08,1.35914e-05,0,-6.24914e-06,-1.46264e+09,-1.46082e+09,-1.46264e+09,-835197,-0.0981498,0.142471,-0,0.173006,10853,-51276.1,0,52412.1,835197
step02_gravity_refstate-mantle.xmf,1465,-2.9237e-06,1.814e-05,0,-6.58155e-06,-1.52025e+09,-1.51743e+09,-1.51986e+09,-879625,-0.0997624,0.137496,-0,0.169875,9332.3,-53047.8,0,53862.4,879625
step02_gravity_refstate-mantle.xmf,1466,-1.71718e-06,1.64044e-05,0,-6.85499e-06,-1.49154e+09,-1.48912e+09,-1.49131e+09,-916169,-0.0996025,0.145811,-0,0.176583,9799.96,-52164.6,0,53077.2,916169
step02_gravity_refstate-mantle.xmf,1467,2.3311e-06,8.39292e-06,0,-2.36161e-06,-1.48701e+09,-1.4862e+09,-1.48732e+09,-315629,-0.0954206,0.0791849,-0,0.123997,15339.3,-52031.3,0,54245.3,315629
step02_gravity_refstate-mantle.xmf,1468,2.95782e-06,7.60863e-06,0,-7.91207e-07,-1.62291e+09,-1.62228e+09,-1.6233e+09,-105745,-0.101745,0.0298973,-0,0.106047,17831.3,-56231.3,0,58990.8,105745
step02_gravity_refstate-mantle.xmf,1469,2.41928e-06,8.33017e-06,0,-1.96309e-06,-1.51993e+09,-1.51914e+09,-1.52025e+09,-262367,-0.0981454,0.0658984,-0,0.118216,15909.1,-53048.5,0,55382.7,262367
step02_gravity_refstate-mantle.xmf,1470,2.74541e-06,7.90549e-06,0,-1.15736e-06,-1.58659e+09,-1.5859e+09,-1.58696e+09,-154681,-0.101185,0.041335,-0,0.109302,17171,-55108.8,0,57722,154681
step02_gravity_refstate-mantle.xmf,1471,2.56887e-06,8.13971e-06,0,-1.54513e-06,-1.55286e+09,-1.55211e+09,-1.5532e+09,-206507,-0.099979,0.0531455,-0,0.113227,16542.7,-54066.3,0,56540.5,206507
step02_gravity_refstate-mantle.xmf,1472,-6.84453e-06,2.32098e-05,0,-2.94995e-06,-1.65611e+09,-1.65209e+09,-1.65519e+09,-394261,-0.0924764,0.0647247,-0,0.112877,7850.24,-57231.2,0,57767.1,394261
step02_gravity_refstate-mantle.xmf,1473,-5.5305e-06,2.12512e-05,0,-1.01837e-06,-1.71322e+09,-1.70964e+09,-1.71248e+09,-136105,-0.0990446,0.0213091,-0,0.101311,8961.23,-58999.1,0,59675.8,136105
step02_gravity_refstate-mantle.xmf,1474,-6.19529e-06,2.22232e-05,0,-2.00429e-06,-1.68345e+09,-1.67965e+09,-1.68262e+09,-267874,-0.0958937,0.0429196,-0,0.10506,8407.01,-58077.7,0,58683,267874
step02_gravity_refstate-mantle.xmf,1475,2.64624e-06,8.33409e-06,0,-6.52771e-07,-1.66112e+09,-1.66036e+09,-1.66147e+09,-87242.9,-0.105031,0.0220556,-0,0.107322,17310.5,-57411.5,0,59964.5,87242.9
step02_gravity_refstate-mantle.xmf,1476,2.27746e-06,9.10025e-06,0,-3.91269e-07,-1.70247e+09,-1.70156e+09,-1.70277e+09,-52293.1,-0.107572,0.0120389,-0,0.108243,16745.9,-58688.3,0,61030.7,52293.1
step02_gravity_refstate-mantle.xmf,1477,-4.43098e-07,1.41435e-05,0,-5.94756e-06,-1.48529e+09,-1.48334e+09,-1.48523e+09,-794891,-0.100318,0.132209,-0,0.165961,10890.4,-51974.4,0,53103.1,794891
step02_gravity_refstate-mantle.xmf,1478,1.84608e-06,9.53525e-06,0,-3.14281e-06,-1.48585e+09,-1.48482e+09,-1.4861e+09,-420037,-0.0976567,0.0906647,-0,0.133255,14195.2,-51995.1,0,53898,420037
step02_gravity_refstate-mantle.xmf,1479,1.23104e-06,1.0862e-05,0,-3.99755e-06,-1.48619e+09,-1.4849e+09,-1.48635e+09,-534273,-0.0994256,0.103013,-0,0.143168,13073.3,-52004.9,0,53622.9,534273
step02_gravity_refstate-mantle.xmf,1480,4.53538e-07,1.24229e-05,0,-4.91439e-06,-1.48771e+09,-1.48611e+09,-1.48777e+09,-656809,-0.100524,0.116102,-0,0.153573,11978.5,-52050.8,0,53411.3,656809
step02_gravity_refstate-mantle.xmf,1481,-4.78939e-06,2.02114e-05,0,-1.06606e-08,-1.74554e+09,-1.7422e+09,-1.7449e+09,-1424.78,-0.102012,-2.12067e-19,-0,0.102012,9538.96,-60000,0,60753.5,1424.78
step02_gravity_refstate-mantle.xmf,1482,-5.93713e-06,2.20077e-05,0,-3.81446e-06,-1.62744e+09,-1.6237e+09,-1.62664e+09,-509802,-0.0958077,0.0816039,-0,0.12585,8327.24,-56348.6,0,56960.6,509802
step02_gravity_refstate-mantle.xmf,1483,1.8381e-06,9.90047e-06,0,4.87135e-09,-1.74496e+09,-1.74388e+09,-1.74521e+09,651.056,-0.109216,4.07825e-18,-0,0.109216,16130.3,-60000,0,62130.4,651.056
step02_gravity_refstate-mantle.xmf,1484,-5.0082e-06,2.07534e-05,0,-4.51791e-06,-1.60144e+09,-1.598e+09,-1.60078e+09,-603819,-0.0984324,0.0950168,-0,0.136811,8780.12,-55548.8,0,56238.4,603819
step02_gravity_refstate-mantle.xmf,1485,-3.93493e-06,1.92951e-05,0,-5.08834e-06,-1.57564e+09,-1.57254e+09,-1.57511e+09,-680057,-0.10067,0.105889,-0,0.146106,9297.46,-54755.1,0,55538.9,680057
step02_gravity_refstate-mantle.xmf,1486,-2.79127e-06,1.76975e-05,0,-5.53994e-06,-1.54817e+09,-1.54543e+09,-1.5478e+09,-740413,-0.101977,0.1156,-0,0.154151,9825.99,-53910.1,0,54798.3,740413
step02_gravity_refstate-mantle.xmf,1487,-1.63117e-06,1.60126e-05,0,-5.82529e-06,-1.51918e+09,-1.51682e+09,-1.51896e+09,-778550,-0.10204,0.124021,-0,0.160604,10350.4,-53017.9,0,54018.8,778550
step02_gravity_refstate-mantle.xmf,1488,1.87259e-06,9.50285e-06,0,-2.61982e-06,-1.51979e+09,-1.51877e+09,-1.52004e+09,-350139,-0.100636,0.0754463,-0,0.125777,14740.8,-53043.8,0,55053.9,350139
step02_gravity_refstate-mantle.xmf,1489,2.3413e-06,8.80884e-06,0,-1.11977e-06,-1.6232e+09,-1.62234e+09,-1.62352e+09,-149657,-0.105126,0.0345648,-0,0.110662,16561.1,-56239.5,0,58627.2,149657
step02_gravity_refstate-mantle.xmf,1490,1.9607e-06,9.38049e-06,0,-2.1119e-06,-1.55323e+09,-1.55224e+09,-1.55349e+09,-282255,-0.10282,0.0612359,-0,0.119673,15302.7,-54077,0,56200.5,282255
step02_gravity_refstate-mantle.xmf,1491,2.11935e-06,9.14333e-06,0,-1.60851e-06,-1.58715e+09,-1.58621e+09,-1.58743e+09,-214978,-0.104298,0.0476993,-0,0.114688,15907.4,-55125,0,57374.3,214978
step02_gravity_refstate-mantle.xmf,1492,-5.10412e-06,2.07169e-05,0,-2.93709e-06,-1.65069e+09,-1.64724e+09,-1.65001e+09,-392542,-0.0996587,0.0615143,-0,0.117115,9045.86,-57069.2,0,57781.7,392542
step02_gravity_refstate-mantle.xmf,1493,-3.91427e-06,1.89161e-05,0,-9.8086e-07,-1.71131e+09,-1.70826e+09,-1.71079e+09,-131092,-0.104759,0.0200106,-0,0.106653,10171,-58945.1,0,59816.2,131092
step02_gravity_refstate-mantle.xmf,1494,-4.58138e-06,1.99071e-05,0,-1.99241e-06,-1.67914e+09,-1.67587e+09,-1.67853e+09,-266285,-0.102141,0.0411288,-0,0.11011,9563.75,-57949.4,0,58733.3,266285
step02_gravity_refstate-mantle.xmf,1495,8.26299e-07,1.16207e-05,0,1.68701e-09,-1.74504e+09,-1.7436e+09,-1.74515e+09,225.469,-0.111102,8.43675e-19,-0,0.111102,14737.8,-60000,0,61783.5,225.469
step02_gravity_refstate-mantle.xmf,1496,1.19594e-06,1.09865e-05,0,-5.57007e-07,-1.70285e+09,-1.70155e+09,-1.70301e+09,-74444,-0.110376,0.0143869,-0,0.11131,15141.4,-58697.8,0,60619.2,74444
step02_gravity_refstate-mantle.xmf,1497,1.8627e-06,9.77708e-06,0,-9.16392e-07,-1.66163e+09,-1.66057e+09,-1.66188e+09,-122476,-0.10813,0.0257078,-0,0.111144,15943,-57425.7,0,59597.8,122476
step02_gravity_refstate-mantle.xmf,1498,-3.41857e-07,1.35347e-05,0,1.318e-08,-1.74513e+09,-1.74328e+09,-1.74509e+09,1761.51,-0.111453,-1.54465e-18,-0,0.111453,13386.3,-60000,0,61475.1,1761.51
step02_gravity_refstate-mantle.xmf,1499,2.45494e-07,1.25703e-05,0,-4.08293e-07,-1.71983e+09,-1.71819e+09,-1.71987e+09,-54568.3,-0.111393,0.00983316,-0,0.111826,14006.8,-59220,0,60853.9,54568.3
step02_gravity_refstate-mantle.xmf,1500,-5.22606e-07,1.40575e-05,0,-5.01265e-06,-1.5182e+09,-1.51625e+09,-1.51813e+09,-669940,-0.103117,0.110868,-0,0.151409,11411.4,-52990.3,0,54205.1,669940
step02_gravity_refstate-mantle.xmf,1501,1.20499e-06,1.08507e-05,0,-3.36888e-06,-1.51928e+09,-1.51799e+09,-1.51944e+09,-450251,-0.102342,0.0861989,-0,0.133806,13600.3,-53027,0,54743.3,450251
step02_gravity_refstate-mantle.xmf,1502,4.13675e-07,1.23597e-05,0,-4.16958e-06,-1.51882e+09,-1.51722e+09,-1.51887e+09,-557264,-0.103207,0.0979938,-0,0.142318,12491.2,-53011.1,0,54462.9,557264
step02_gravity_refstate-mantle.xmf,1503,-3.21385e-06,1.78656e-05,0,-1.47355e-09,-1.7454e+09,-1.74258e+09,-1.74497e+09,-196.94,-0.107003,9.56929e-19,-0,0.107003,10791.4,-60000,0,60962.7,196.94
step02_gravity_refstate-mantle.xmf,1504,-4.7029e-06,2.01889e-05,0,-3.67449e-06,-1.62496e+09,-1.62163e+09,-1.62433e+09,-491095,-0.100367,0.0768465,-0,0.126408,9182.58,-56275.8,0,57020,491095
step02_gravity_refstate-mantle.xmf,1505,-9.70433e-07,1.44395e-05,0,-7.43088e-07,-1.70882e+09,-1.70676e+09,-1.70869e+09,-99313.7,-0.110854,0.0163028,-0,0.112047,12729.3,-58876.4,0,60236.7,99313.7
step02_gravity_refstate-mantle.xmf,1506,-1.71962e-06,1.56246e-05,0,-8.20248e-10,-1.74526e+09,-1.74294e+09,-1.74503e+09,-109.626,-0.11012,8.38855e-19,-0,0.11012,12072.3,-60000,0,61202.5,109.626
step02_gravity_refstate-mantle.xmf,1507,-2.39592e-06,1.66099e-05,0,-8.8102e-07,-1.70977e+09,-1.70723e+09,-1.70945e+09,-117748,-0.108716,0.0183159,-0,0.110248,11433,-58901.7,0,60001,117748
step02_gravity_refstate-mantle.xmf,1508,-3.7335e-06,1.88376e-05,0,-4.08042e-06,-1.60466e+09,-1.60164e+09,-1.60416e+09,-545349,-0.102592,0.084705,-0,0.133041,9729.32,-55651.7,0,56495.8,545349
step02_gravity_refstate-mantle.xmf,1509,-2.64519e-06,1.7292e-05,0,-4.53973e-06,-1.57738e+09,-1.57471e+09,-1.57702e+09,-606735,-0.103997,0.0946597,-0,0.140627,10299.5,-54812.2,0,55771.5,606735
step02_gravity_refstate-mantle.xmf,1510,-1.56685e-06,1.57113e-05,0,-4.8611e-06,-1.54866e+09,-1.54635e+09,-1.54845e+09,-649687,-0.104233,0.103454,-0,0.146858,10851.9,-53928.4,0,55009.4,649687
step02_gravity_refstate-mantle.xmf,1511,1.26536e-06,1.07205e-05,0,-2.74029e-06,-1.55219e+09,-1.55093e+09,-1.55236e+09,-366239,-0.10461,0.0704081,-0,0.126098,14136.1,-54043.5,0,55861.7,366239
step02_gravity_refstate-mantle.xmf,1512,1.57861e-06,1.01997e-05,0,-1.51722e-06,-1.62247e+09,-1.62132e+09,-1.62268e+09,-202776,-0.107581,0.0403089,-0,0.114885,15287.2,-56215.3,0,58256.9,202776
step02_gravity_refstate-mantle.xmf,1513,1.38438e-06,1.05115e-05,0,-2.12532e-06,-1.58622e+09,-1.585e+09,-1.5864e+09,-284049,-0.106359,0.0552061,-0,0.119833,14692.8,-55094.9,0,57020.4,284049
step02_gravity_refstate-mantle.xmf,1514,-3.66881e-06,1.8627e-05,0,-2.99822e-06,-1.64042e+09,-1.63744e+09,-1.63993e+09,-400713,-0.104053,0.0616648,-0,0.120953,10050.2,-56756.2,0,57639.2,400713
step02_gravity_refstate-mantle.xmf,1515,-3.01588e-06,1.76038e-05,0,-1.87251e-06,-1.67548e+09,-1.67272e+09,-1.67507e+09,-250262,-0.106697,0.0384134,-0,0.113401,10765.3,-57840.9,0,58834.2,250262
step02_gravity_refstate-mantle.xmf,1516,1.0681e-07,1.27533e-05,0,-1.01402e-06,-1.68707e+09,-1.68538e+09,-1.68709e+09,-135523,-0.11101,0.0230839,-0,0.113385,13769.5,-58207.6,0,59814,135523
step02_gravity_refstate-mantle.xmf,1517,9.36079e-07,1.1376e-05,0,-1.27625e-06,-1.65769e+09,-1.6563e+09,-1.65782e+09,-170571,-0.109855,0.031379,-0,0.114249,14611.8,-57302,0,59135.6,170571
step02_gravity_refstate-mantle.xmf,1518,-5.16447e-07,1.38965e-05,0,-4.15025e-06,-1.54984e+09,-1.54791e+09,-1.54977e+09,-554681,-0.105384,0.0916562,-0,0.139666,11906.7,-53967.1,0,55265,554681
step02_gravity_refstate-mantle.xmf,1519,4.30645e-07,1.2238e-05,0,-3.43199e-06,-1.55108e+09,-1.5495e+09,-1.55113e+09,-458685,-0.105494,0.0805829,-0,0.13275,13001.1,-54007.5,0,55550.3,458685
step02_gravity_refstate-mantle.xmf,1520,-6.44087e-07,1.39347e-05,0,-1.2926e-06,-1.68025e+09,-1.6783e+09,-1.68016e+09,-172756,-0.110671,0.0282829,-0,0.114227,12945.8,-57994.7,0,59422,172756
step02_gravity_refstate-mantle.xmf,1521,-1.49774e-06,1.52897e-05,0,-1.66484e-06,-1.67234e+09,-1.6701e+09,-1.67214e+09,-222506,-0.109614,0.0348827,-0,0.11503,12074.2,-57748.3,0,58997.1,222506
step02_gravity_refstate-mantle.xmf,1522,-2.454e-06,1.68699e-05,0,-3.56206e-06,-1.60812e+09,-1.60554e+09,-1.60779e+09,-476070,-0.10587,0.0742725,-0,0.129325,10772.5,-55762,0,56793.1,476070
step02_gravity_refstate-mantle.xmf,1523,-1.46601e-06,1.54057e-05,0,-3.93308e-06,-1.57943e+09,-1.57717e+09,-1.57923e+09,-525656,-0.106194,0.0837767,-0,0.135262,11337.1,-54878.6,0,56037.4,525656
step02_gravity_refstate-mantle.xmf,1524,5.3635e-07,1.20225e-05,0,-2.72227e-06,-1.58341e+09,-1.58187e+09,-1.58348e+09,-363832,-0.107319,0.0642721,-0,0.125093,13510.2,-55006.4,0,56641.2,363832
step02_gravity_refstate-mantle.xmf,1525,6.81518e-07,1.17526e-05,0,-1.98685e-06,-1.62006e+09,-1.61858e+09,-1.62015e+09,-265543,-0.108873,0.0474116,-0,0.118748,14040.9,-56138.9,0,57868.2,265543
step02_gravity_refstate-mantle.xmf,1526,-2.18425e-06,1.63766e-05,0,-2.59824e-06,-1.64101e+09,-1.63853e+09,-1.64072e+09,-347255,-0.107621,0.0540478,-0,0.120431,11265.8,-56778.7,0,57885.5,347255
step02_gravity_refstate-mantle.xmf,1527,-2.52349e-07,1.33207e-05,0,-1.73822e-06,-1.65275e+09,-1.65094e+09,-1.65272e+09,-232313,-0.110199,0.0388473,-0,0.116846,13210.3,-57146.4,0,58653.4,232313
step02_gravity_refstate-mantle.xmf,1528,-4.40737e-07,1.36717e-05,0,-3.32521e-06,-1.58183e+09,-1.57994e+09,-1.58177e+09,-444414,-0.107297,0.0735525,-0,0.130087,12395.3,-54955.3,0,56335.8,444414
step02_gravity_refstate-mantle.xmf,1529,-1.31538e-06,1.50726e-05,0,-3.05788e-06,-1.6107e+09,-1.60851e+09,-1.61052e+09,-408686,-0.107881,0.0652951,-0,0.126103,11803.2,-55844.7,0,57078.4,408686
step02_gravity_refstate-mantle.xmf,1530,-2.99014e-07,1.33986e-05,0,-2.54084e-06,-1.6146e+09,-1.61277e+09,-1.61456e+09,-339583,-0.108871,0.0564512,-0,0.122637,12862.9,-55967.8,0,57426.9,339583
step02_gravity_refstate-mantle.xmf,1531,-1.12166e-06,1.46908e-05,0,-2.32149e-06,-1.63843e+09,-1.63631e+09,-1.63828e+09,-310267,-0.109172,0.0498175,-0,0.120001,12237.8,-56701.6,0,58007.2,310267
step02_gravity_refstate-intrusion.xmf,0,9.27682e-06,-1.25679e-05,0,2.65801e-05,-1.09802e+09,-1.10011e+09,-1.09891e+09,2.53467e+06,-0.0735306,0.543828,-0,0.548777,-4000,-40000,-0,40199.5,2.53467e+06
step02_gravity_refstate-intrusion.xmf,1,4.35637e-06,-5.092e-06,0,3.4028e-05,-1.1146e+09,-1.11551e+09,-1.11502e+09,3.24491e+06,-0.058319,0.547194,-0,0.550293,-4000,-40502.2,-0,40699.2,3.24491e+06
step02_gravity_refstate-intrusion.xmf,2,3.0946e-06,-1.10883e-06,0,3.78838e-05,-1.13073e+09,-1.13113e+09,-1.13102e+09,3.6126e+06,-0.0436689,0.548741,-0,0.550476,-4000,-41001.3,-0,41196,3.6126e+06
step02_gravity_refstate-intrusion.xmf,3,2.09749e-06,3.00469e-06,0,4.03225e-05,-1.14684e+09,-1.14675e+09,-1.14704e+09,3.84515e+06,-0.0295076,0.548266,-0,0.549059,-4000,-41501.5,-0,41693.8,3.84515e+06
step02_gravity_refstate-intrusion.xmf,4,1.20749e-06,7.1873e-06,0,4.18299e-05,-1.16289e+09,-1.16232e+09,-1.16301e+09,3.9889e+06,-0.0158805,0.545721,-0,0.545952,-4000,-42000.5,-0,42190.6,3.9889e+06
step02_gravity_refstate-intrusion.xmf,5,3.63832e-07,1.14021e-05,0,4.26093e-05,-1.17897e+09,-1.17791e+09,-1.179e+09,4.06322e+06,-0.00275903,0.541073,-0,0.54108,-4000,-42500.6,-0,42688.4,4.06322e+06
step02_gravity_refstate-intrusion.xmf,6,-4.11438e-07,1.5592e-05,0,4.27637e-05,-1.19501e+09,-1.19349e+09,-1.19497e+09,4.07794e+06,0.0097402,0.53433,0,0.534419,-4000,-43000,-0,43185.6,4.07794e+06
step02_gravity_refstate-intrusion.xmf,7,-1.19475e-06,1.97827e-05,0,4.23074e-05,-1.21106e+09,-1.20906e+09,-1.21095e+09,4.03443e+06,0.021521,0.525498,0,0.525939,-4000,-43499.4,-0,43682.9,4.03443e+06
step02_gravity_refstate-intrusion.xmf,8,-1.84657e-06,2.38313e-05,0,4.13927e-05,-1.22712e+09,-1.22467e+09,-1.22694e+09,3.94721e+06,0.0324349,0.514591,0,0.515613,-4000,-43999.5,-0,44180.9,3.94721e+06
step02_gravity_refstate-intrusion.xmf,9,-2.38092e-06,2.78389e-05,0,4.00273e-05,-1.24313e+09,-1.24024e+09,-1.2429e+09,3.817e+06,0.0422158,0.50169,0,0.503463,-4000,-44498.5,-0,44677.9,3.817e+06
step02_gravity_refstate-intrusion.xmf,10,-2.98338e-06,3.16236e-05,0,3.78766e-05,-1.25919e+09,-1.25589e+09,-1.25891e+09,3.61191e+06,0.0505476,0.486811,0,0.489429,-4000,-44998.7,-0,45176.1,3.61191e+06
step02_gravity_refstate-intrusion.xmf,11,-3.95884e-06,3.51561e-05,0,3.46622e-05,-1.2753e+09,-1.27157e+09,-1.27492e+09,3.30539e+06,0.0568284,0.470102,0,0.473525,-4000,-45497.8,-0,45673.3,3.30539e+06
step02_gravity_refstate-intrusion.xmf,12,-1.07197e-05,4.39439e-05,0,2.87407e-05,-1.29209e+09,-1.28687e+09,-1.29106e+09,2.74071e+06,0.0595898,0.451935,0,0.455846,-4000,-46000,-0,46173.6,2.74071e+06
step02_gravity_refstate-intrusion.xmf,13,-1.23872e-05,5.70443e-05,0,2.83329e-05,-1.29159e+09,-1.28497e+09,-1.29041e+09,2.70183e+06,0.0537431,0.478841,0,0.481848,-3497.18,-46000,-0,46132.7,2.70183e+06
step02_gravity_refstate-intrusion.xmf,14,-1.38543e-05,6.41411e-05,0,2.43018e-05,-1.29141e+09,-1.28398e+09,-1.29009e+09,2.31742e+06,0.0471712,0.503166,0,0.505372,-2997.53,-46000,-0,46097.6,2.31742e+06
step02_gravity_refstate-intrusion.xmf,15,-1.48772e-05,6.89435e-05,0,2.00247e-05,-1.2913e+09,-1.2833e+09,-1.28988e+09,1.90955e+06,0.0399848,0.523851,0,0.525375,-2497.35,-46000,-0,46067.7,1.90955e+06
step02_gravity_refstate-intrusion.xmf,16,-1.55598e-05,7.2326e-05,0,1.58131e-05,-1.29121e+09,-1.28283e+09,-1.28972e+09,1.50794e+06,0.0323756,0.540725,0,0.541693,-1997.54,-46000,-0,46043.4,1.50794e+06
step02_gravity_refstate-intrusion.xmf,17,-1.60175e-05,7.46755e-05,0,1.17276e-05,-1.29114e+09,-1.28249e+09,-1.28962e+09,1.11834e+06,0.0244897,0.553783,0,0.554325,-1498.34,-46000,-0,46024.4,1.11834e+06
step02_gravity_refstate-intrusion.xmf,18,6.63129e-06,-8.34436e-06,0,-2.73653e-05,-1.09819e+09,-1.09961e+09,-1.09882e+09,-2.60956e+06,0.0735229,0.543834,0,0.548781,4000,-40000,0,40199.5,2.60956e+06
step02_gravity_refstate-intrusion.xmf,19,4.33672e-06,-5.07427e-06,0,-3.40452e-05,-1.11461e+09,-1.1155e+09,-1.11502e+09,-3.24655e+06,0.0583189,0.547195,0,0.550294,4000,-40502.2,0,40699.2,3.24655e+06
step02_gravity_refstate-intrusion.xmf,20,-1.63062e-05,7.62282e-05,0,7.73715e-06,-1.2911e+09,-1.28227e+09,-1.28954e+09,737815,0.0164269,0.563074,0,0.563313,-999.46,-46000,-0,46010.9,737815
step02_gravity_refstate-intrusion.xmf,21,-1.64623e-05,7.71128e-05,0,3.8245e-06,-1.29107e+09,-1.28215e+09,-1.2895e+09,364705,0.0082442,0.568641,0,0.568701,-500.036,-46000,-0,46002.7,364705
step02_gravity_refstate-intrusion.xmf,22,3.07504e-06,-1.10587e-06,0,-3.78887e-05,-1.13073e+09,-1.13113e+09,-1.13102e+09,-3.61307e+06,0.0436678,0.548741,0,0.550476,4000,-41001.3,0,41196,3.61307e+06
step02_gravity_refstate-intrusion.xmf,23,-1.65207e-05,7.74063e-05,0,-5.93838e-08,-1.29106e+09,-1.28211e+09,-1.28949e+09,-5662.84,1.26388e-06,0.570497,0,0.570497,4.01542e-10,-46000,0,46000,5662.84
step02_gravity_refstate-intrusion.xmf,24,2.10919e-06,2.98864e-06,0,-4.03042e-05,-1.14684e+09,-1.14675e+09,-1.14704e+09,-3.84341e+06,0.0295076,0.548266,0,0.549059,4000,-41501.5,0,41693.8,3.84341e+06
step02_gravity_refstate-intrusion.xmf,25,1.20499e-06,7.19951e-06,0,-4.18263e-05,-1.16289e+09,-1.16232e+09,-1.163e+09,-3.98855e+06,0.0158822,0.545722,0,0.545953,4000,-42000.5,0,42190.6,3.98855e+06
step02_gravity_refstate-intrusion.xmf,26,-1.64662e-05,7.71087e-05,0,-3.92897e-06,-1.29107e+09,-1.28215e+09,-1.2895e+09,-374666,-0.00824456,0.568642,-0,0.568702,500.036,-46000,0,46002.7,374666
step02_gravity_refstate-intrusion.xmf,27,-1.62987e-05,7.61729e-05,0,-7.8032e-06,-1.2911e+09,-1.28228e+09,-1.28955e+09,-744113,-0.0164279,0.563075,-0,0.563314,999.46,-46000,0,46010.9,744113
step02_gravity_refstate-intrusion.xmf,28,3.62115e-07,1.13902e-05,0,-4.25856e-05,-1.17897e+09,-1.17792e+09,-1.179e+09,-4.06096e+06,0.00275927,0.541073,0,0.54108,4000,-42500.6,0,42688.4,4.06096e+06
step02_gravity_refstate-intrusion.xmf,29,-1.60364e-05,7.46956e-05,0,-1.18704e-05,-1.29114e+09,-1.28249e+09,-1.28962e+09,-1.13196e+06,-0.0244892,0.553785,-0,0.554326,1498.34,-46000,0,46024.4,1.13196e+06
step02_gravity_refstate-intrusion.xmf,30,-3.87831e-07,1.55992e-05,0,-4.27734e-05,-1.19501e+09,-1.19348e+09,-1.19497e+09,-4.07887e+06,-0.00973889,0.534329,-0,0.534418,4000,-43000,0,43185.6,4.07887e+06
step02_gravity_refstate-intrusion.xmf,31,-1.11787e-06,1.97458e-05,0,-4.2368e-05,-1.21105e+09,-1.20906e+09,-1.21095e+09,-4.04021e+06,-0.0215206,0.525498,-0,0.525939,4000,-43499.4,0,43682.9,4.04021e+06
step02_gravity_refstate-intrusion.xmf,32,-1.55824e-05,7.235e-05,0,-1.59786e-05,-1.29121e+09,-1.28282e+09,-1.28972e+09,-1.52372e+06,-0.0323747,0.540728,-0,0.541696,1997.54,-46000,0,46043.4,1.52372e+06
step02_gravity_refstate-intrusion.xmf,33,-1.75643e-06,2.38057e-05,0,-4.14297e-05,-1.22711e+09,-1.22467e+09,-1.22694e+09,-3.95074e+06,-0.0324358,0.514591,-0,0.515612,4000,-43999.5,0,44180.9,3.95074e+06
step02_gravity_refstate-intrusion.xmf,34,-1.49137e-05,6.90482e-05,0,-2.02599e-05,-1.2913e+09,-1.28329e+09,-1.28987e+09,-1.93198e+06,-0.0399827,0.523854,-0,0.525378,2497.35,-46000,0,46067.7,1.93198e+06
step02_gravity_refstate-intrusion.xmf,35,-2.34576e-06,2.78113e-05,0,-3.9972e-05,-1.24312e+09,-1.24025e+09,-1.2429e+09,-3.81173e+06,-0.0422183,0.501686,-0,0.50346,4000,-44498.5,0,44677.9,3.81173e+06
step02_gravity_refstate-intrusion.xmf,36,-1.39341e-05,6.43978e-05,0,-2.46686e-05,-1.29141e+09,-1.28394e+09,-1.29008e+09,-2.3524e+06,-0.0471699,0.503167,-0,0.505373,2997.53,-46000,0,46097.6,2.3524e+06
step02_gravity_refstate-intrusion.xmf,37,-2.91397e-06,3.16284e-05,0,-3.78445e-05,-1.25918e+09,-1.25589e+09,-1.25891e+09,-3.60885e+06,-0.0505448,0.486812,-0,0.489429,4000,-44998.7,0,45176.1,3.60885e+06
step02_gravity_refstate-intrusion.xmf,38,-1.25561e-05,5.78625e-05,0,-2.93899e-05,-1.29157e+09,-1.28486e+09,-1.29038e+09,-2.80262e+06,-0.0537394,0.478844,-0,0.48185,3497.18,-46000,0,46132.7,2.80262e+06
step02_gravity_refstate-intrusion.xmf,39,-3.92186e-06,3.51426e-05,0,-3.46559e-05,-1.27529e+09,-1.27157e+09,-1.27492e+09,-3.30479e+06,-0.0568276,0.470101,-0,0.473523,4000,-45497.8,0,45673.3,3.30479e+06
step02_gravity_refstate-intrusion.xmf,40,-6.2381e-06,3.72012e-05,0,-2.9873e-05,-1.29179e+09,-1.28765e+09,-1.29119e+09,-2.84869e+06,-0.0595898,0.451935,-0,0.455846,4000,-46000,0,46173.6,2.84869e+06
step02_gravity_refstate-intrusion.xmf,41,1.40126e-05,-2.25358e-05,0,2.3621e-05,-1.09787e+09,-1.10135e+09,-1.09921e+09,2.2525e+06,-0.0676401,0.5824,-0,0.586315,-3497.18,-40000,-0,40152.6,2.2525e+06
step02_gravity_refstate-intrusion.xmf,42,1.68886e-05,-2.79291e-05,0,1.96646e-05,-1.09774e+09,-1.10201e+09,-1.09935e+09,1.87522e+06,-0.0599043,0.615405,-0,0.618314,-2997.53,-40000,-0,40112.2,1.87522e+06
step02_gravity_refstate-intrusion.xmf,43,1.86802e-05,-3.14157e-05,0,1.58984e-05,-1.09766e+09,-1.10244e+09,-1.09945e+09,1.51607e+06,-0.051001,0.642883,-0,0.644903,-2497.35,-40000,-0,40077.9,1.51607e+06
step02_gravity_refstate-intrusion.xmf,44,1.97953e-05,-3.37419e-05,0,1.23751e-05,-1.09763e+09,-1.10273e+09,-1.09951e+09,1.18009e+06,-0.0413807,0.664972,-0,0.666258,-1997.54,-40000,-0,40049.8,1.18009e+06
step02_gravity_refstate-intrusion.xmf,45,2.04749e-05,-3.52815e-05,0,9.0723e-06,-1.09761e+09,-1.10293e+09,-1.09956e+09,865134,-0.031328,0.681881,-0,0.682601,-1498.34,-40000,-0,40028.1,865134
step02_gravity_refstate-intrusion.xmf,46,2.0913e-05,-3.62071e-05,0,5.98874e-06,-1.0976e+09,-1.10304e+09,-1.09959e+09,571086,-0.0210166,0.693817,-0,0.694135,-999.46,-40000,-0,40012.5,571086
step02_gravity_refstate-intrusion.xmf,47,2.10989e-05,-3.6739e-05,0,2.96821e-06,-1.0976e+09,-1.10311e+09,-1.09961e+09,283049,-0.0105473,0.700933,-0,0.701013,-500.036,-40000,-0,40003.1,283049
step02_gravity_refstate-intrusion.xmf,48,2.11277e-05,-3.69118e-05,0,-1.42978e-08,-1.0976e+09,-1.10314e+09,-1.09962e+09,-1363.44,-3.8067e-07,0.703299,-0,0.703299,-4.01542e-10,-40000,-0,40000,1363.44
step02_gravity_refstate-intrusion.xmf,49,2.11107e-05,-3.67493e-05,0,-2.96166e-06,-1.0976e+09,-1.10312e+09,-1.09961e+09,-282423,0.0105474,0.700932,0,0.701012,500.036,-40000,0,40003.1,282423
step02_gravity_refstate-intrusion.xmf,50,2.08689e-05,-3.62001e-05,0,-5.97614e-06,-1.0976e+09,-1.10305e+09,-1.09959e+09,-569885,0.0210162,0.693817,0,0.694135,999.46,-40000,0,40012.5,569885
step02_gravity_refstate-intrusion.xmf,51,2.04814e-05,-3.52255e-05,0,-9.09976e-06,-1.09761e+09,-1.10292e+09,-1.09956e+09,-867754,0.0313272,0.681881,0,0.682601,1498.34,-40000,0,40028.1,867754
step02_gravity_refstate-intrusion.xmf,52,1.98056e-05,-3.36626e-05,0,-1.2399e-05,-1.09762e+09,-1.10272e+09,-1.09951e+09,-1.18237e+06,0.0413805,0.664972,0,0.666258,1997.54,-40000,0,40049.8,1.18237e+06
step02_gravity_refstate-intrusion.xmf,53,1.86926e-05,-3.13261e-05,0,-1.59147e-05,-1.09766e+09,-1.10243e+09,-1.09944e+09,-1.51762e+06,0.051002,0.642882,0,0.644902,2497.35,-40000,0,40077.9,1.51762e+06
step02_gravity_refstate-intrusion.xmf,54,1.69302e-05,-2.78747e-05,0,-1.97065e-05,-1.09773e+09,-1.102e+09,-1.09934e+09,-1.87921e+06,0.0599058,0.615403,0,0.618312,2997.53,-40000,0,40112.2,1.87921e+06
step02_gravity_refstate-intrusion.xmf,55,1.41683e-05,-2.27464e-05,0,-2.39259e-05,-1.09786e+09,-1.10138e+09,-1.09921e+09,-2.28157e+06,0.0676463,0.582399,0,0.586314,3497.18,-40000,0,40152.6,2.28157e+06
step02_gravity_refstate-intrusion.xmf,56,9.63812e-06,-1.35085e-05,0,2.68237e-05,-1.10981e+09,-1.11202e+09,-1.11073e+09,2.55791e+06,-0.0597665,0.578375,-0,0.581455,-3635.73,-40364.1,-0,40527.5,2.55791e+06
step02_gravity_refstate-intrusion.xmf,57,7.46661e-06,-8.42218e-06,0,2.88482e-05,-1.12219e+09,-1.1237e+09,-1.1229e+09,2.75096e+06,-0.0489141,0.585758,-0,0.587797,-3597.3,-40745.3,-0,40903.8,2.75096e+06
step02_gravity_refstate-intrusion.xmf,58,1.24851e-05,-1.78558e-05,0,2.29693e-05,-1.11126e+09,-1.11416e+09,-1.11246e+09,2.19035e+06,-0.0542335,0.607924,-0,0.610339,-3256.67,-40414.8,-0,40545.8,2.19035e+06
step02_gravity_refstate-intrusion.xmf,59,5.05247e-06,-2.43107e-06,0,3.13574e-05,-1.13795e+09,-1.13866e+09,-1.13843e+09,2.99024e+06,-0.0355503,0.589352,-0,0.590423,-3586.47,-41231.3,-0,41387,2.99024e+06
step02_gravity_refstate-intrusion.xmf,60,1.47893e-05,-2.18886e-05,0,1.84346e-05,-1.11173e+09,-1.11522e+09,-1.11314e+09,1.75792e+06,-0.0468669,0.64098,-0,0.642691,-2747.44,-40432.9,-0,40526.1,1.75792e+06
step02_gravity_refstate-intrusion.xmf,61,9.44344e-06,-1.06101e-05,0,2.33689e-05,-1.12855e+09,-1.13047e+09,-1.12945e+09,2.22846e+06,-0.039493,0.626026,-0,0.62727,-3107.39,-40947.3,-0,41065,2.22846e+06
step02_gravity_refstate-intrusion.xmf,62,3.07782e-06,3.24321e-06,0,3.32449e-05,-1.15416e+09,-1.15414e+09,-1.15445e+09,3.17024e+06,-0.0221823,0.589149,-0,0.589567,-3586.5,-41732.7,-0,41886.5,3.17024e+06
step02_gravity_refstate-intrusion.xmf,63,5.56065e-06,-1.93148e-06,0,2.68306e-05,-1.14518e+09,-1.14589e+09,-1.14571e+09,2.55857e+06,-0.0277774,0.619164,-0,0.619787,-3239.22,-41457.9,-0,41584.3,2.55857e+06
step02_gravity_refstate-intrusion.xmf,64,1.61217e-05,-2.44138e-05,0,1.44763e-05,-1.11194e+09,-1.11581e+09,-1.11348e+09,1.38046e+06,-0.0389942,0.667092,-0,0.66823,-2248.57,-40441.3,-0,40503.8,1.38046e+06
step02_gravity_refstate-intrusion.xmf,65,1.18505e-05,-1.45137e-05,0,1.73811e-05,-1.12737e+09,-1.12989e+09,-1.1285e+09,1.65746e+06,-0.0340428,0.662111,-0,0.662986,-2528.14,-40915.3,-0,40993.4,1.65746e+06
step02_gravity_refstate-intrusion.xmf,66,7.2951e-06,-4.56013e-06,0,2.11931e-05,-1.14415e+09,-1.14528e+09,-1.14484e+09,2.02097e+06,-0.0256494,0.650403,-0,0.650909,-2802.91,-41429.6,-0,41524.3,2.02097e+06
step02_gravity_refstate-intrusion.xmf,67,1.69396e-05,-2.60807e-05,0,1.07111e-05,-1.11214e+09,-1.11624e+09,-1.11375e+09,1.02141e+06,-0.0302592,0.688351,-0,0.689016,-1726.51,-40448.2,-0,40485,1.02141e+06
step02_gravity_refstate-intrusion.xmf,68,3.28841e-06,4.48825e-06,0,2.66414e-05,-1.16107e+09,-1.16096e+09,-1.16139e+09,2.54053e+06,-0.0152411,0.627563,-0,0.627748,-3123.61,-41949.4,-0,42065.6,2.54053e+06
step02_gravity_refstate-intrusion.xmf,69,1.36844e-06,8.71478e-06,0,3.44978e-05,-1.17018e+09,-1.16948e+09,-1.17031e+09,3.28971e+06,-0.0093995,0.58554,-0,0.585615,-3593.38,-42229.1,-0,42381.7,3.28971e+06
step02_gravity_refstate-intrusion.xmf,70,1.30766e-05,-1.67408e-05,0,1.28498e-05,-1.1269e+09,-1.12974e+09,-1.12814e+09,1.22536e+06,-0.0275157,0.68812,-0,0.68867,-1985.71,-40902.5,-0,40950.7,1.22536e+06
step02_gravity_refstate-intrusion.xmf,71,8.80486e-06,-6.97814e-06,0,1.56797e-05,-1.14287e+09,-1.14437e+09,-1.1437e+09,1.49522e+06,-0.0220893,0.680965,-0,0.681323,-2266.49,-41392.8,-0,41454.8,1.49522e+06
step02_gravity_refstate-intrusion.xmf,72,-1.76484e-07,1.39588e-05,0,3.48797e-05,-1.1861e+09,-1.18475e+09,-1.18608e+09,3.32612e+06,0.00283006,0.580186,0,0.580193,-3590.78,-42722.9,-0,42873.6,3.32612e+06
step02_gravity_refstate-intrusion.xmf,73,4.56685e-06,2.53639e-06,0,1.92547e-05,-1.15982e+09,-1.16002e+09,-1.16026e+09,1.83613e+06,-0.013795,0.666208,-0,0.666351,-2555.46,-41913.4,-0,41991.2,1.83613e+06
step02_gravity_refstate-intrusion.xmf,74,1.7385e-05,-2.70551e-05,0,7.18961e-06,-1.11239e+09,-1.11663e+09,-1.11405e+09,685602,-0.021015,0.704101,-0,0.704415,-1193.16,-40456.4,-0,40474,685602
step02_gravity_refstate-intrusion.xmf,75,1.36082e-05,-1.77249e-05,0,8.76346e-06,-1.12733e+09,-1.13032e+09,-1.12863e+09,835683,-0.0197538,0.708421,-0,0.708696,-1418.76,-40916.7,-0,40941.3,835683
step02_gravity_refstate-intrusion.xmf,76,7.57507e-07,1.11497e-05,0,2.91856e-05,-1.17755e+09,-1.17656e+09,-1.17762e+09,2.78313e+06,-0.00343078,0.612651,-0,0.612661,-3260.43,-42458.2,-0,42583.2,2.78313e+06
step02_gravity_refstate-intrusion.xmf,77,1.06379e-06,1.08828e-05,0,2.32949e-05,-1.17645e+09,-1.17552e+09,-1.17656e+09,2.2214e+06,-0.00377016,0.645054,-0,0.645065,-2832.74,-42425.4,-0,42519.8,2.2214e+06
step02_gravity_refstate-intrusion.xmf,78,9.65633e-06,-8.4236e-06,0,1.09504e-05,-1.14235e+09,-1.14408e+09,-1.14328e+09,1.04423e+06,-0.0170655,0.705338,-0,0.705544,-1696.79,-41378.5,-0,41413.3,1.04423e+06
step02_gravity_refstate-intrusion.xmf,79,5.52423e-06,1.01462e-06,0,1.38037e-05,-1.15828e+09,-1.15871e+09,-1.15881e+09,1.31632e+06,-0.011887,0.694556,-0,0.694658,-2007.76,-41867.6,-0,41915.7,1.31632e+06
step02_gravity_refstate-intrusion.xmf,80,-1.09217e-06,1.66597e-05,0,2.75384e-05,-1.19121e+09,-1.18951e+09,-1.1911e+09,2.62607e+06,0.00621932,0.616247,0,0.616278,-3141.44,-42881.1,-0,42996,2.62607e+06
step02_gravity_refstate-intrusion.xmf,81,-1.73564e-06,1.94859e-05,0,3.40002e-05,-1.20218e+09,-1.20015e+09,-1.20201e+09,3.24226e+06,0.0144916,0.575913,0,0.576096,-3546.76,-43221.9,-0,43367.2,3.24226e+06
step02_gravity_refstate-intrusion.xmf,82,1.43572e-06,1.04939e-05,0,1.69432e-05,-1.17578e+09,-1.17491e+09,-1.17591e+09,1.61571e+06,-0.00348768,0.677187,-0,0.677196,-2300.29,-42405.5,-0,42467.9,1.61571e+06
step02_gravity_refstate-intrusion.xmf,83,1.78553e-05,-2.81002e-05,0,4.20954e-06,-1.11154e+09,-1.11592e+09,-1.11324e+09,401422,-0.0125878,0.712525,-0,0.712636,-703.679,-40430.6,-0,40436.8,401422
step02_gravity_refstate-intrusion.xmf,84,1.37418e-05,-1.79187e-05,0,4.85376e-06,-1.12818e+09,-1.1312e+09,-1.12949e+09,462854,-0.0112203,0.722661,-0,0.722748,-812.227,-40943.1,-0,40951.2,462854
step02_gravity_refstate-intrusion.xmf,85,1.00698e-05,-9.14841e-06,0,6.71797e-06,-1.14224e+09,-1.14407e+09,-1.1432e+09,640626,-0.0111581,0.722971,-0,0.723057,-1094.42,-41375.6,-0,41390.1,640626
step02_gravity_refstate-intrusion.xmf,86,-1.91356e-06,1.88105e-05,0,2.06317e-05,-1.19283e+09,-1.19085e+09,-1.19264e+09,1.96744e+06,0.00646373,0.652237,0,0.652269,-2604.72,-42931,-0,43010,1.96744e+06
step02_gravity_refstate-intrusion.xmf,87,-3.34189e-06,2.52046e-05,0,3.33437e-05,-1.2191e+09,-1.21637e+09,-1.21878e+09,3.17966e+06,0.0259505,0.564022,0,0.564619,-3548.43,-43747.1,-0,43890.7,3.17966e+06
step02_gravity_refstate-intrusion.xmf,88,1.86753e-05,-3.03266e-05,0,1.39174e-06,-1.10832e+09,-1.11299e+09,-1.1101e+09,132716,-0.00438144,0.713895,-0,0.713909,-234.551,-40330.9,-0,40331.6,132716
step02_gravity_refstate-intrusion.xmf,89,5.95813e-06,4.1746e-07,0,8.92475e-06,-1.15795e+09,-1.15847e+09,-1.15851e+09,851064,-0.00850613,0.717144,-0,0.717195,-1395.51,-41858.2,-0,41881.5,851064
step02_gravity_refstate-intrusion.xmf,90,1.71977e-06,1.02501e-05,0,1.15214e-05,-1.17492e+09,-1.1741e+09,-1.17508e+09,1.09868e+06,-0.00297101,0.703792,-0,0.703799,-1709.37,-42379.8,-0,42414.3,1.09868e+06
step02_gravity_refstate-intrusion.xmf,91,-4.1035e-06,2.507e-05,0,2.51511e-05,-1.2103e+09,-1.20752e+09,-1.20991e+09,2.39841e+06,0.0182378,0.61456,0,0.61483,-2997.15,-43471.4,-0,43574.6,2.39841e+06
step02_gravity_refstate-intrusion.xmf,92,-2.17389e-06,1.96028e-05,0,1.43131e-05,-1.19242e+09,-1.19035e+09,-1.19221e+09,1.3649e+06,0.00507212,0.683165,0,0.683184,-2015.71,-42918.7,-0,42966,1.3649e+06
step02_gravity_refstate-intrusion.xmf,93,-4.58218e-06,3.02864e-05,0,3.29814e-05,-1.23532e+09,-1.232e+09,-1.23489e+09,3.14511e+06,0.0361662,0.545941,0,0.547138,-3595.49,-44251.4,-0,44397.2,3.14511e+06
step02_gravity_refstate-intrusion.xmf,94,1.81037e-05,-2.88278e-05,0,-1.2919e-06,-1.11079e+09,-1.11527e+09,-1.11252e+09,-123196,0.00396254,0.716226,0,0.716237,218.89,-40407.4,0,40408,123196
step02_gravity_refstate-intrusion.xmf,95,1.49528e-05,-2.08498e-05,0,1.14455e-06,-1.12383e+09,-1.12725e+09,-1.12526e+09,109144,-0.00290881,0.726305,-0,0.72631,-194.683,-40809.4,-0,40809.8,109144
step02_gravity_refstate-intrusion.xmf,96,1.05315e-05,-1.01486e-05,0,2.76758e-06,-1.14109e+09,-1.14307e+09,-1.1421e+09,263916,-0.00489304,0.732734,-0,0.73275,-464.014,-41340.6,-0,41343.2,263916
step02_gravity_refstate-intrusion.xmf,97,6.11835e-06,2.37595e-07,0,4.75141e-06,-1.15791e+09,-1.15847e+09,-1.15849e+09,453095,-0.00477727,0.731269,-0,0.731284,-777.007,-41857.6,-0,41864.8,453095
step02_gravity_refstate-intrusion.xmf,98,-5.29238e-06,2.78541e-05,0,1.74887e-05,-1.20951e+09,-1.20635e+09,-1.20901e+09,1.66772e+06,0.0146644,0.655433,0,0.655597,-2332.47,-43446.5,-0,43509,1.66772e+06
step02_gravity_refstate-intrusion.xmf,99,-6.09156e-06,3.57027e-05,0,3.13541e-05,-1.25135e+09,-1.24737e+09,-1.25077e+09,2.98993e+06,0.0448657,0.528618,0,0.530519,-3606.5,-44749,-0,44894.1,2.98993e+06
step02_gravity_refstate-intrusion.xmf,100,-6.22736e-06,3.23132e-05,0,2.64592e-05,-1.22962e+09,-1.22594e+09,-1.22902e+09,2.52315e+06,0.0303952,0.58644,0,0.587227,-3149.09,-44070.9,-0,44183.3,2.52315e+06
step02_gravity_refstate-intrusion.xmf,101,1.77955e-05,-2.79503e-05,0,-4.59384e-06,-1.11171e+09,-1.11607e+09,-1.11341e+09,-438069,0.0137502,0.711703,0,0.711836,770.664,-40435.7,0,40443.1,438069
step02_gravity_refstate-intrusion.xmf,102,1.80459e-06,1.03359e-05,0,6.88708e-06,-1.17466e+09,-1.17385e+09,-1.17484e+09,656752,-0.00196182,0.72242,-0,0.722422,-1088.86,-42372.6,-0,42386.6,656752
step02_gravity_refstate-intrusion.xmf,103,-2.40713e-06,2.0419e-05,0,9.24355e-06,-1.1922e+09,-1.19003e+09,-1.19197e+09,881465,0.00358782,0.705758,0,0.705767,-1404.95,-42912.3,-0,42935.3,881465
step02_gravity_refstate-intrusion.xmf,104,-6.0682e-06,2.96939e-05,0,1.1772e-05,-1.20956e+09,-1.20615e+09,-1.20898e+09,1.12257e+06,0.0112142,0.681855,0,0.681948,-1722.42,-43447.6,-0,43481.8,1.12257e+06
step02_gravity_refstate-intrusion.xmf,105,-7.39687e-06,3.69179e-05,0,2.72572e-05,-1.24385e+09,-1.23962e+09,-1.24314e+09,2.59925e+06,0.0388767,0.56165,0,0.562994,-3281.06,-44513.1,-0,44633.9,2.59925e+06
step02_gravity_refstate-intrusion.xmf,106,-7.55659e-06,3.43327e-05,0,2.01412e-05,-1.22566e+09,-1.22167e+09,-1.22494e+09,1.92066e+06,0.0246575,0.623982,0,0.624469,-2626.22,-43946.2,-0,44024.6,1.92066e+06
step02_gravity_refstate-intrusion.xmf,107,1.44091e-05,-1.94789e-05,0,-2.7665e-06,-1.12585e+09,-1.12909e+09,-1.12723e+09,-263814,0.00675968,0.725748,0,0.72578,468.58,-40871.7,0,40874.4,263814
step02_gravity_refstate-intrusion.xmf,108,1.06204e-05,-1.03111e-05,0,-8.62397e-07,-1.14087e+09,-1.14287e+09,-1.14188e+09,-82238.1,0.00156571,0.734635,0,0.734637,147.524,-41333.9,0,41334.1,82238.1
step02_gravity_refstate-intrusion.xmf,109,1.75719e-05,-2.74917e-05,0,-7.93269e-06,-1.11128e+09,-1.11557e+09,-1.11295e+09,-756461,0.02329,0.70041,0,0.700797,1304.82,-40422.2,0,40443.2,756461
step02_gravity_refstate-intrusion.xmf,110,6.36071e-06,-2.41946e-07,0,9.44498e-07,-1.15717e+09,-1.1578e+09,-1.15778e+09,90067.3,-0.000987835,0.737258,-0,0.737259,-155.399,-41835.2,-0,41835.4,90067.3
step02_gravity_refstate-intrusion.xmf,111,1.87671e-06,1.03212e-05,0,2.84556e-06,-1.17436e+09,-1.17355e+09,-1.17454e+09,271352,-0.000870456,0.73262,-0,0.732621,-463.834,-42363.5,-0,42366,271352
step02_gravity_refstate-intrusion.xmf,112,-9.06047e-06,3.7985e-05,0,1.43899e-05,-1.22632e+09,-1.22183e+09,-1.22545e+09,1.37222e+06,0.0199639,0.652582,0,0.652887,-2025.11,-43965.7,-0,44012.3,1.37222e+06
step02_gravity_refstate-intrusion.xmf,113,-8.32867e-06,4.17769e-05,0,2.91896e-05,-1.26725e+09,-1.26248e+09,-1.26646e+09,2.78352e+06,0.0516428,0.509242,0,0.511854,-3611.39,-45240.3,-0,45384.3,2.78352e+06
step02_gravity_refstate-intrusion.xmf,114,-1.06372e-05,4.59049e-05,0,2.45033e-05,-1.25933e+09,-1.25394e+09,-1.25831e+09,2.33663e+06,0.0444628,0.55048,0,0.552273,-3151.06,-44991.9,-0,45102.1,2.33663e+06
step02_gravity_refstate-intrusion.xmf,115,-9.61358e-06,4.13029e-05,0,2.19865e-05,-1.24339e+09,-1.23853e+09,-1.24247e+09,2.09663e+06,0.0349156,0.590398,0,0.59143,-2846.18,-44496.3,-0,44587.2,2.09663e+06
step02_gravity_refstate-intrusion.xmf,116,1.39738e-05,-1.84574e-05,0,-6.62611e-06,-1.12677e+09,-1.12987e+09,-1.12811e+09,-631866,0.0153946,0.716537,0,0.716703,1089.68,-40899.8,0,40914.4,631866
step02_gravity_refstate-intrusion.xmf,117,1.78014e-05,-2.81963e-05,0,-1.07904e-05,-1.10829e+09,-1.11268e+09,-1.10999e+09,-1.02898e+06,0.0321626,0.684444,0,0.685199,1746.55,-40329.8,0,40367.6,1.02898e+06
step02_gravity_refstate-intrusion.xmf,118,-2.54674e-06,2.09741e-05,0,4.88138e-06,-1.19209e+09,-1.18985e+09,-1.19185e+09,465489,0.00200584,0.720063,0,0.720066,-776.974,-42909.2,-0,42916.2,465489
step02_gravity_refstate-intrusion.xmf,119,-6.63941e-06,3.13907e-05,0,7.00322e-06,-1.21017e+09,-1.20654e+09,-1.20954e+09,667827,0.0073416,0.699658,0,0.699696,-1082.8,-43466.7,-0,43480.1,667827
step02_gravity_refstate-intrusion.xmf,120,-9.9628e-06,4.06652e-05,0,9.42611e-06,-1.22745e+09,-1.22262e+09,-1.2265e+09,898874,0.0145456,0.672165,0,0.672322,-1413.74,-44001.2,-0,44023.9,898874
step02_gravity_refstate-intrusion.xmf,121,-1.13211e-05,4.53165e-05,0,1.67289e-05,-1.24298e+09,-1.23758e+09,-1.2419e+09,1.59527e+06,0.029103,0.618819,0,0.619503,-2307.26,-44482.6,-0,44542.4,1.59527e+06
step02_gravity_refstate-intrusion.xmf,122,1.04409e-05,-9.87485e-06,0,-4.67666e-06,-1.1412e+09,-1.14313e+09,-1.14219e+09,-445967,0.00818137,0.728755,0,0.728801,779.405,-41343.8,0,41351.2,445967
step02_gravity_refstate-intrusion.xmf,123,6.3746e-06,-2.43046e-07,0,-2.77091e-06,-1.15706e+09,-1.15769e+09,-1.15767e+09,-264234,0.00296538,0.735282,0,0.735288,464.717,-41831.7,0,41834.2,264234
step02_gravity_refstate-intrusion.xmf,124,1.41797e-05,-1.90114e-05,0,-1.08973e-05,-1.12377e+09,-1.12694e+09,-1.12513e+09,-1.03917e+06,0.0255467,0.696097,0,0.696566,1736.24,-40807.2,0,40844.1,1.03917e+06
step02_gravity_refstate-intrusion.xmf,125,1.63903e-05,-2.48973e-05,0,-1.40315e-05,-1.11122e+09,-1.11516e+09,-1.11279e+09,-1.33804e+06,0.0385074,0.668954,0,0.670061,2195.8,-40419.5,0,40479.1,1.33804e+06
step02_gravity_refstate-intrusion.xmf,126,1.98125e-06,1.01403e-05,0,-9.09931e-07,-1.17394e+09,-1.17317e+09,-1.17413e+09,-86771.1,0.000308403,0.734716,0,0.734716,155.581,-42350.9,0,42351.2,86771.1
step02_gravity_refstate-intrusion.xmf,127,-2.56794e-06,2.1151e-05,0,9.3729e-07,-1.19191e+09,-1.18965e+09,-1.19167e+09,89380,0.000376634,0.72611,0,0.72611,-147.066,-42903.9,-0,42904.2,89380
step02_gravity_refstate-intrusion.xmf,128,-1.00051e-05,4.74648e-05,0,2.82977e-05,-1.27999e+09,-1.27451e+09,-1.27904e+09,2.69846e+06,0.0552423,0.490006,0,0.49311,-3635.73,-45635.9,-0,45780.5,2.69846e+06
step02_gravity_refstate-intrusion.xmf,129,-1.25502e-05,4.85825e-05,0,1.20915e-05,-1.24343e+09,-1.2376e+09,-1.24224e+09,1.15304e+06,0.0225128,0.640188,0,0.640584,-1739.58,-44496.7,-0,44530.7,1.15304e+06
step02_gravity_refstate-intrusion.xmf,130,-1.32973e-05,5.36926e-05,0,2.52895e-05,-1.27803e+09,-1.27164e+09,-1.27676e+09,2.41161e+06,0.0508042,0.514606,0,0.517108,-3274.23,-45570.7,-0,45688.2,2.41161e+06
step02_gravity_refstate-intrusion.xmf,131,-1.31337e-05,5.23933e-05,0,1.90243e-05,-1.25977e+09,-1.25352e+09,-1.25851e+09,1.81416e+06,0.03758,0.581645,0,0.582858,-2559.8,-45005.2,-0,45077.9,1.81416e+06
step02_gravity_refstate-intrusion.xmf,132,1.04104e-05,-1.00266e-05,0,-8.95362e-06,-1.14013e+09,-1.14208e+09,-1.14112e+09,-853817,0.0151543,0.713877,0,0.714038,1418.09,-41310.5,0,41334.8,853817
step02_gravity_refstate-intrusion.xmf,133,-6.87153e-06,3.2201e-05,0,2.76752e-06,-1.21032e+09,-1.20659e+09,-1.20966e+09,263911,0.00300272,0.709289,0,0.709295,-436.558,-43471.6,-0,43473.8,263911
step02_gravity_refstate-intrusion.xmf,134,-1.09638e-05,4.39452e-05,0,4.83351e-06,-1.23058e+09,-1.22535e+09,-1.22954e+09,460923,0.00813301,0.681982,0,0.68203,-739.535,-44099,-0,44105.2,460923
step02_gravity_refstate-intrusion.xmf,135,-1.33475e-05,5.15165e-05,0,8.00624e-06,-1.24542e+09,-1.23924e+09,-1.24415e+09,763475,0.0157993,0.652158,0,0.652349,-1180.47,-44559.5,-0,44575.2,763475
step02_gravity_refstate-intrusion.xmf,136,-1.44358e-05,6.00875e-05,0,2.13153e-05,-1.27772e+09,-1.27062e+09,-1.27635e+09,2.03263e+06,0.0436462,0.54139,0,0.543147,-2747.44,-45567.2,-0,45650,2.03263e+06
step02_gravity_refstate-intrusion.xmf,137,-1.42317e-05,5.60123e-05,0,1.46833e-05,-1.25967e+09,-1.25298e+09,-1.25832e+09,1.4002e+06,0.0302955,0.603743,0,0.604503,-2028.29,-45003.5,-0,45049.2,1.4002e+06
step02_gravity_refstate-intrusion.xmf,138,6.25208e-06,5.62391e-09,0,-6.77215e-06,-1.15715e+09,-1.15774e+09,-1.15774e+09,-645792,0.00692122,0.725077,0,0.72511,1094.08,-41834.3,0,41848.6,645792
step02_gravity_refstate-intrusion.xmf,139,1.99746e-06,1.00911e-05,0,-4.77565e-06,-1.17389e+09,-1.17312e+09,-1.17408e+09,-455406,0.0015582,0.728691,0,0.728693,780.117,-42349.1,0,42356.3,455406
step02_gravity_refstate-intrusion.xmf,140,9.65899e-06,-8.41203e-06,0,-1.34272e-05,-1.14085e+09,-1.14257e+09,-1.14177e+09,-1.28042e+06,0.0209021,0.692009,0,0.692324,2020.94,-41332,0,41381.4,1.28042e+06
step02_gravity_refstate-intrusion.xmf,141,1.49076e-05,-2.20857e-05,0,-1.80749e-05,-1.11198e+09,-1.11551e+09,-1.1134e+09,-1.72362e+06,0.0458586,0.64441,0,0.64604,2690.5,-40440.9,0,40530.3,1.72362e+06
step02_gravity_refstate-intrusion.xmf,142,1.24835e-05,-1.54607e-05,0,-1.56157e-05,-1.1267e+09,-1.12936e+09,-1.12789e+09,-1.48912e+06,0.0320688,0.672041,0,0.672806,2333.76,-40895.8,0,40962.3,1.48912e+06
step02_gravity_refstate-intrusion.xmf,143,-2.45337e-06,2.08877e-05,0,-2.90988e-06,-1.19154e+09,-1.18931e+09,-1.1913e+09,-277486,-0.00118149,0.724229,-0,0.72423,480.056,-42892.4,0,42895.1,277486
step02_gravity_refstate-intrusion.xmf,144,-6.71165e-06,3.18314e-05,0,-1.16721e-06,-1.20948e+09,-1.20581e+09,-1.20884e+09,-111305,-0.00131838,0.711609,-0,0.71161,196.716,-43445.9,0,43446.4,111305
step02_gravity_refstate-intrusion.xmf,145,-1.50911e-05,5.86997e-05,0,1.0508e-05,-1.26006e+09,-1.25303e+09,-1.25862e+09,1.00204e+06,0.0224223,0.619863,0,0.620268,-1481.93,-45016.2,-0,45040.6,1.00204e+06
step02_gravity_refstate-intrusion.xmf,146,-1.52429e-05,6.31038e-05,0,1.72917e-05,-1.27595e+09,-1.26848e+09,-1.2745e+09,1.64894e+06,0.0363421,0.564604,0,0.565772,-2266.03,-45514.1,-0,45570.5,1.64894e+06
step02_gravity_refstate-intrusion.xmf,147,6.02963e-06,5.33261e-08,0,-1.14055e-05,-1.1568e+09,-1.15737e+09,-1.15738e+09,-1.08763e+06,0.0108805,0.706552,0,0.706635,1713.47,-41822.6,0,41857.7,1.08763e+06
step02_gravity_refstate-intrusion.xmf,148,1.22524e-05,-1.74033e-05,0,-2.28204e-05,-1.11304e+09,-1.11587e+09,-1.11421e+09,-2.17615e+06,0.0525897,0.610618,0,0.612878,3232.07,-40469.4,0,40598.3,2.17615e+06
step02_gravity_refstate-intrusion.xmf,149,-1.38296e-05,5.41606e-05,0,4.91375e-06,-1.24848e+09,-1.242e+09,-1.24716e+09,468576,0.0100621,0.654867,0,0.654945,-724.919,-44656.4,-0,44662.3,468576
step02_gravity_refstate-intrusion.xmf,150,-1.04897e-05,4.26217e-05,0,5.07481e-07,-1.22755e+09,-1.22248e+09,-1.22655e+09,48393.4,0.000730444,0.691154,0,0.691155,-69.6942,-44005.2,-0,44005.2,48393.4
step02_gravity_refstate-intrusion.xmf,151,-1.54648e-05,6.08704e-05,0,6.88366e-06,-1.26142e+09,-1.25415e+09,-1.25995e+09,656426,0.0150221,0.627876,0,0.628056,-979.107,-45060.3,-0,45070.9,656426
step02_gravity_refstate-intrusion.xmf,152,-1.57982e-05,6.58866e-05,0,1.32023e-05,-1.27576e+09,-1.26797e+09,-1.27425e+09,1.25897e+06,0.0283594,0.581736,0,0.582427,-1752.58,-45510.3,-0,45544,1.25897e+06
step02_gravity_refstate-intrusion.xmf,153,1.99117e-06,9.9983e-06,0,-9.10052e-06,-1.17386e+09,-1.1731e+09,-1.17405e+09,-867825,0.00282256,0.71421,0,0.714216,1408.66,-42348,0,42371.4,867825
step02_gravity_refstate-intrusion.xmf,154,-2.28443e-06,2.04029e-05,0,-7.01394e-06,-1.19129e+09,-1.18913e+09,-1.19108e+09,-668849,-0.00261749,0.714156,-0,0.714161,1106.68,-42884.8,0,42899,668849
step02_gravity_refstate-intrusion.xmf,155,1.08829e-05,-1.32896e-05,0,-2.08411e-05,-1.12568e+09,-1.12799e+09,-1.12672e+09,-1.98741e+06,0.0392959,0.639984,0,0.641189,2886.45,-40860.7,0,40962.6,1.98741e+06
step02_gravity_refstate-intrusion.xmf,156,5.55294e-06,9.46968e-07,0,-1.65655e-05,-1.15671e+09,-1.15715e+09,-1.15724e+09,-1.57968e+06,0.0144547,0.679676,0,0.679829,2316.74,-41819,0,41883.1,1.57968e+06
step02_gravity_refstate-intrusion.xmf,157,8.49602e-06,-6.50401e-06,0,-1.87276e-05,-1.14113e+09,-1.14256e+09,-1.14194e+09,-1.78586e+06,0.0260211,0.662569,0,0.66308,2598.05,-41338.6,0,41420.1,1.78586e+06
step02_gravity_refstate-intrusion.xmf,158,-1.33871e-05,5.25302e-05,0,1.84205e-06,-1.24477e+09,-1.23849e+09,-1.2435e+09,175658,0.00361328,0.665061,0,0.66507,-269.932,-44541,-0,44541.8,175658
step02_gravity_refstate-intrusion.xmf,159,-6.50378e-06,3.12233e-05,0,-5.08829e-06,-1.20908e+09,-1.20548e+09,-1.20846e+09,-485219,-0.00534591,0.705823,-0,0.705843,813.333,-43433.3,0,43440.9,485219
step02_gravity_refstate-intrusion.xmf,160,-1.02568e-05,4.18825e-05,0,-3.35261e-06,-1.22666e+09,-1.22169e+09,-1.22569e+09,-319705,-0.005507,0.689641,-0,0.689663,535.706,-43977.6,0,43980.9,319705
step02_gravity_refstate-intrusion.xmf,161,-1.53914e-05,6.17258e-05,0,3.53422e-06,-1.26156e+09,-1.25421e+09,-1.26009e+09,337023,0.00768016,0.633536,0,0.633583,-498.66,-45066.3,-0,45069.1,337023
step02_gravity_refstate-intrusion.xmf,162,-1.63794e-05,6.80795e-05,0,9.24981e-06,-1.27629e+09,-1.26824e+09,-1.27473e+09,882062,0.020258,0.592877,0,0.593223,-1243.33,-45528,-0,45545,882062
step02_gravity_refstate-intrusion.xmf,163,8.31769e-06,-9.072e-06,0,-2.56042e-05,-1.12808e+09,-1.12974e+09,-1.12888e+09,-2.44162e+06,0.0415079,0.612636,0,0.61404,3286.11,-40930.3,0,41062,2.44162e+06
step02_gravity_refstate-intrusion.xmf,164,1.87319e-06,9.66519e-06,0,-1.43849e-05,-1.17378e+09,-1.17303e+09,-1.17395e+09,-1.37174e+06,0.00409121,0.691098,0,0.69111,2027.17,-42344.3,0,42392.8,1.37174e+06
step02_gravity_refstate-intrusion.xmf,165,9.85263e-06,-1.35167e-05,0,-2.64591e-05,-1.10978e+09,-1.112e+09,-1.11072e+09,-2.52314e+06,0.0597696,0.578372,0,0.581452,3635.73,-40364.1,0,40527.5,2.52314e+06
step02_gravity_refstate-intrusion.xmf,166,-1.32699e-05,5.20917e-05,0,-1.82054e-06,-1.24399e+09,-1.23776e+09,-1.24273e+09,-173606,-0.00379781,0.666247,-0,0.666258,286.136,-44516.8,0,44517.7,173606
step02_gravity_refstate-intrusion.xmf,167,-1.65224e-05,6.93337e-05,0,5.51019e-06,-1.27648e+09,-1.2683e+09,-1.27491e+09,525451,0.0121891,0.60029,0,0.600414,-745.333,-45535.4,-0,45541.5,525451
step02_gravity_refstate-intrusion.xmf,168,-2.04775e-06,1.97007e-05,0,-1.17086e-05,-1.19116e+09,-1.18909e+09,-1.19097e+09,-1.11653e+06,-0.00391373,0.695666,-0,0.695677,1726.68,-42880.7,0,42915.4,1.11653e+06
step02_gravity_refstate-intrusion.xmf,169,-6.1277e-06,3.01421e-05,0,-9.37768e-06,-1.20872e+09,-1.20527e+09,-1.20814e+09,-894256,-0.00912874,0.692255,-0,0.692315,1426.5,-43422.2,0,43445.7,894256
step02_gravity_refstate-intrusion.xmf,170,7.02519e-06,-8.05584e-06,0,-2.92038e-05,-1.12242e+09,-1.12386e+09,-1.12309e+09,-2.78488e+06,0.048973,0.58325,0,0.585302,3627.11,-40750.9,0,40912,2.78488e+06
step02_gravity_refstate-intrusion.xmf,171,6.65037e-06,-4.39818e-06,0,-2.5058e-05,-1.14078e+09,-1.14183e+09,-1.14141e+09,-2.38953e+06,0.0304677,0.627139,0,0.627878,3129.79,-41322.7,0,41441.1,2.38953e+06
step02_gravity_refstate-intrusion.xmf,172,1.88713e-06,9.47537e-06,0,-2.03562e-05,-1.17293e+09,-1.1722e+09,-1.17311e+09,-1.94116e+06,0.00571709,0.659804,0,0.659828,2621.37,-42317.8,0,42399,1.94116e+06
step02_gravity_refstate-intrusion.xmf,173,4.63733e-06,2.0964e-06,0,-2.29299e-05,-1.15646e+09,-1.1567e+09,-1.1569e+09,-2.18659e+06,0.0176006,0.644871,0,0.645112,2892.25,-41809.1,0,41909,2.18659e+06
step02_gravity_refstate-intrusion.xmf,174,-1.53178e-05,6.14122e-05,0,-3.06054e-08,-1.2605e+09,-1.25318e+09,-1.25903e+09,-2918.53,-0.000201197,0.637672,-0,0.637672,13.142,-45033.2,0,45033.2,2918.53
step02_gravity_refstate-intrusion.xmf,175,-9.90172e-06,4.06931e-05,0,-7.35878e-06,-1.22607e+09,-1.22124e+09,-1.22513e+09,-701734,-0.0114522,0.680793,-0,0.680889,1135.36,-43958.9,0,43973.5,701734
step02_gravity_refstate-intrusion.xmf,176,-1.3101e-05,5.12955e-05,0,-5.59026e-06,-1.24366e+09,-1.23752e+09,-1.24241e+09,-533087,-0.0112311,0.660984,-0,0.661079,852.387,-44505.9,0,44514,533087
step02_gravity_refstate-intrusion.xmf,177,-1.63758e-05,6.97951e-05,0,1.87779e-06,-1.27628e+09,-1.26806e+09,-1.27471e+09,179066,0.00405152,0.604567,0,0.604581,-247.424,-45530.5,-0,45531.1,179066
step02_gravity_refstate-intrusion.xmf,178,4.74743e-06,-2.43143e-06,0,-3.16885e-05,-1.13793e+09,-1.13861e+09,-1.13838e+09,-3.02182e+06,0.0356792,0.58792,0,0.589002,3602.3,-41229.2,0,41386.3,3.02182e+06
step02_gravity_refstate-intrusion.xmf,179,-1.61123e-06,1.80998e-05,0,-1.7728e-05,-1.19037e+09,-1.18849e+09,-1.19022e+09,-1.69054e+06,-0.00462826,0.668263,-0,0.668279,2346.72,-42855.4,0,42919.6,1.69054e+06
step02_gravity_refstate-intrusion.xmf,180,-1.52592e-05,6.10805e-05,0,-3.79803e-06,-1.26048e+09,-1.2532e+09,-1.25903e+09,-362180,-0.00848456,0.635106,-0,0.635162,554.752,-45032.5,0,45035.9,362180
step02_gravity_refstate-intrusion.xmf,181,-5.44234e-06,2.83858e-05,0,-1.44945e-05,-1.2082e+09,-1.20497e+09,-1.20768e+09,-1.3822e+06,-0.0125142,0.670135,-0,0.670252,2046.57,-43406.1,0,43454.3,1.3822e+06
step02_gravity_refstate-intrusion.xmf,182,-9.27323e-06,3.88399e-05,0,-1.18271e-05,-1.22558e+09,-1.22099e+09,-1.22469e+09,-1.12783e+06,-0.0170812,0.664382,-0,0.664602,1737.12,-43943.3,0,43977.6,1.12783e+06
step02_gravity_refstate-intrusion.xmf,183,2.96592e-06,3.59846e-06,0,-3.1875e-05,-1.15554e+09,-1.15548e+09,-1.15582e+09,-3.0396e+06,0.0208116,0.596572,0,0.596935,3503.7,-41775.5,0,41922.2,3.0396e+06
step02_gravity_refstate-intrusion.xmf,184,-7.4307e-07,1.61303e-05,0,-2.44976e-05,-1.18806e+09,-1.18645e+09,-1.18799e+09,-2.33609e+06,-0.00392115,0.633637,-0,0.633649,2927.75,-42784.7,0,42884.7,2.33609e+06
step02_gravity_refstate-intrusion.xmf,185,1.63485e-06,9.1736e-06,0,-2.78494e-05,-1.17179e+09,-1.17107e+09,-1.17194e+09,-2.65572e+06,0.00752248,0.620631,0,0.620677,3183.84,-42280.9,0,42400.6,2.65572e+06
step02_gravity_refstate-intrusion.xmf,186,-1.63606e-05,6.9636e-05,0,-1.89059e-06,-1.27598e+09,-1.26778e+09,-1.27442e+09,-180287,-0.00434013,0.605141,-0,0.605157,265.313,-45521.2,0,45521.9,180287
step02_gravity_refstate-intrusion.xmf,187,-1.28385e-05,4.94407e-05,0,-9.83561e-06,-1.24299e+09,-1.23705e+09,-1.24177e+09,-937924,-0.0186647,0.649755,-0,0.650023,1439.79,-44483.2,0,44506.5,937924
step02_gravity_refstate-intrusion.xmf,188,-1.53032e-05,6.0997e-05,0,-7.95708e-06,-1.26219e+09,-1.25492e+09,-1.26073e+09,-758787,-0.0175,0.623533,-0,0.623778,1136.49,-45085,0,45099.3,758787
step02_gravity_refstate-intrusion.xmf,189,-4.22993e-06,2.53292e-05,0,-2.16793e-05,-1.20697e+09,-1.20415e+09,-1.20656e+09,-2.06734e+06,-0.0151028,0.635787,-0,0.635966,2716.25,-43368.4,0,43453.4,2.06734e+06
step02_gravity_refstate-intrusion.xmf,190,-1.62956e-05,6.9217e-05,0,-5.64823e-06,-1.27631e+09,-1.26815e+09,-1.27475e+09,-538616,-0.0126099,0.600294,-0,0.600426,771.371,-45530.8,0,45537.3,538616
step02_gravity_refstate-intrusion.xmf,191,-1.16491e-05,4.60013e-05,0,-1.43864e-05,-1.24158e+09,-1.23608e+09,-1.24047e+09,-1.37188e+06,-0.0255985,0.631996,-0,0.632515,2042.62,-44439,0,44485.9,1.37188e+06
step02_gravity_refstate-intrusion.xmf,192,-1.473e-05,5.71398e-05,0,-1.23828e-05,-1.25917e+09,-1.25231e+09,-1.25776e+09,-1.18083e+06,-0.026085,0.614192,-0,0.614746,1742.04,-44987.4,0,45021.2,1.18083e+06
step02_gravity_refstate-intrusion.xmf,193,-8.11425e-06,3.597e-05,0,-1.7342e-05,-1.22514e+09,-1.22094e+09,-1.22437e+09,-1.65373e+06,-0.0223298,0.638736,-0,0.639127,2358.82,-43930.2,0,43993.5,1.65373e+06
step02_gravity_refstate-intrusion.xmf,194,-2.10506e-06,1.98279e-05,0,-2.81173e-05,-1.19944e+09,-1.19735e+09,-1.19924e+09,-2.68127e+06,-0.0118629,0.608735,-0,0.60885,3177.65,-43136.3,0,43253.1,2.68127e+06
step02_gravity_refstate-intrusion.xmf,195,-3.23769e-07,1.4431e-05,0,-3.32112e-05,-1.1869e+09,-1.18549e+09,-1.18687e+09,-3.16702e+06,-0.00340199,0.588126,-0,0.588136,3501.01,-42747.7,0,42890.8,3.16702e+06
step02_gravity_refstate-intrusion.xmf,196,1.07353e-06,9.0753e-06,0,-3.54333e-05,-1.17124e+09,-1.17047e+09,-1.17134e+09,-3.37892e+06,0.00864102,0.58094,0,0.581004,3638.77,-42261.1,0,42417.5,3.37892e+06
step02_gravity_refstate-intrusion.xmf,197,-1.64417e-05,7.0021e-05,0,-8.61951e-06,-1.27949e+09,-1.27124e+09,-1.27792e+09,-821957,-0.0187282,0.587796,-0,0.588094,1141.4,-45629.8,0,45644.1,821957
step02_gravity_refstate-intrusion.xmf,198,-1.30903e-05,5.18182e-05,0,-1.70689e-05,-1.25523e+09,-1.24904e+09,-1.25399e+09,-1.62769e+06,-0.0335431,0.598563,-0,0.599502,2347.2,-44864.3,0,44925.7,1.62769e+06
step02_gravity_refstate-intrusion.xmf,199,-3.77836e-06,2.49195e-05,0,-2.74711e-05,-1.21117e+09,-1.20844e+09,-1.21081e+09,-2.61965e+06,-0.0194092,0.60247,-0,0.602782,3153.26,-43499.7,0,43613.9,2.61965e+06
step02_gravity_refstate-intrusion.xmf,200,-1.59136e-05,6.60025e-05,0,-1.08023e-05,-1.27379e+09,-1.26598e+09,-1.27227e+09,-1.0301e+06,-0.0236328,0.593337,-0,0.593808,1463.11,-45449.3,0,45472.8,1.0301e+06
step02_gravity_refstate-intrusion.xmf,201,-1.47954e-05,5.91796e-05,0,-1.55209e-05,-1.26655e+09,-1.2595e+09,-1.26514e+09,-1.48007e+06,-0.0328663,0.58817,-0,0.589088,2116.05,-45218.9,0,45268.4,1.48007e+06
step02_gravity_refstate-intrusion.xmf,202,-1.00718e-05,4.19411e-05,0,-1.97871e-05,-1.24113e+09,-1.23617e+09,-1.24017e+09,-1.8869e+06,-0.031827,0.605409,-0,0.606245,2630.76,-44425.3,0,44503.2,1.8869e+06
step02_gravity_refstate-intrusion.xmf,203,-6.44008e-06,3.21349e-05,0,-2.45177e-05,-1.22568e+09,-1.222e+09,-1.22506e+09,-2.338e+06,-0.0271801,0.601553,-0,0.602167,2987.98,-43948,0,44049.5,2.338e+06
step02_gravity_refstate-intrusion.xmf,204,-1.85747e-06,1.98668e-05,0,-3.44804e-05,-1.20371e+09,-1.20164e+09,-1.20354e+09,-3.28805e+06,-0.0156167,0.572368,-0,0.572581,3575.37,-43269.5,0,43416.9,3.28805e+06
step02_gravity_refstate-intrusion.xmf,205,-1.60157e-05,6.59237e-05,0,-1.39385e-05,-1.27675e+09,-1.26894e+09,-1.27522e+09,-1.32918e+06,-0.0299945,0.576869,-0,0.577649,1852.03,-45540.1,0,45577.7,1.32918e+06
step02_gravity_refstate-intrusion.xmf,206,-1.36543e-05,5.49982e-05,0,-1.98079e-05,-1.26615e+09,-1.2596e+09,-1.26485e+09,-1.88888e+06,-0.0403259,0.56693,-0,0.568362,2645.77,-45204.4,0,45281.8,1.88888e+06
step02_gravity_refstate-intrusion.xmf,207,-1.09684e-05,4.63222e-05,0,-2.24283e-05,-1.25456e+09,-1.2491e+09,-1.25352e+09,-2.13877e+06,-0.0403827,0.570182,-0,0.57161,2932.89,-44843.9,0,44939.7,2.13877e+06
step02_gravity_refstate-intrusion.xmf,208,-3.32175e-06,2.52354e-05,0,-3.32133e-05,-1.21891e+09,-1.21619e+09,-1.21859e+09,-3.16722e+06,-0.0258153,0.564808,-0,0.565398,3541.12,-43741.5,0,43884.6,3.16722e+06
step02_gravity_refstate-intrusion.xmf,209,-1.52876e-05,6.39738e-05,0,-1.77172e-05,-1.2784e+09,-1.27084e+09,-1.27694e+09,-1.68951e+06,-0.0373388,0.55776,-0,0.559008,2318.61,-45590.9,0,45649.9,1.68951e+06
step02_gravity_refstate-intrusion.xmf,210,-8.1594e-06,3.82989e-05,0,-2.53086e-05,-1.24172e+09,-1.23729e+09,-1.24095e+09,-2.41343e+06,-0.0365024,0.575742,-0,0.576898,3112.71,-44446.4,0,44555.3,2.41343e+06
step02_gravity_refstate-intrusion.xmf,211,-4.9427e-06,3.07604e-05,0,-3.19722e-05,-1.23475e+09,-1.23135e+09,-1.23428e+09,-3.04887e+06,-0.0355138,0.55199,-0,0.553131,3530.13,-44232.9,0,44373.6,3.04887e+06
step02_gravity_refstate-intrusion.xmf,212,-1.43335e-05,5.96988e-05,0,-2.18327e-05,-1.27865e+09,-1.27159e+09,-1.27729e+09,-2.08197e+06,-0.0448984,0.535931,-0,0.537808,2828.92,-45595.7,0,45683.4,2.08197e+06
step02_gravity_refstate-intrusion.xmf,213,-1.13218e-05,4.86577e-05,0,-2.46511e-05,-1.26592e+09,-1.2602e+09,-1.26484e+09,-2.35072e+06,-0.0469639,0.539156,-0,0.541198,3178.67,-45197.1,0,45308.7,2.35072e+06
step02_gravity_refstate-intrusion.xmf,214,-7.15668e-06,3.7992e-05,0,-2.91643e-05,-1.25245e+09,-1.24814e+09,-1.25177e+09,-2.78111e+06,-0.0445486,0.536954,-0,0.538799,3481.79,-44781.8,0,44917,2.78111e+06
step02_gravity_refstate-intrusion.xmf,215,-1.27276e-05,5.41681e-05,0,-2.52765e-05,-1.27905e+09,-1.27267e+09,-1.27783e+09,-2.41037e+06,-0.0510559,0.512296,-0,0.514834,3282.12,-45605.7,0,45723.6,2.41037e+06
step02_gravity_refstate-intrusion.xmf,216,-8.28905e-06,4.24499e-05,0,-2.90919e-05,-1.26809e+09,-1.26325e+09,-1.2673e+09,-2.77421e+06,-0.0518405,0.508965,-0,0.511598,3599.15,-45267.5,0,45410.4,2.77421e+06
step02_gravity_refstate-intrusion.xmf,217,-1.0926e-05,4.95118e-05,0,-2.79532e-05,-1.28001e+09,-1.27425e+09,-1.27897e+09,-2.66562e+06,-0.0552408,0.490008,-0,0.493112,3635.73,-45635.9,0,45780.5,2.66562e+06
step02_gravity_refstate-crust.xmf,0,9.13451e-07,6.19244e-06,0,-5.43012e-08,-1.09836e+09,-1.09799e+09,-1.09842e+09,-3725.06,0.00205855,0.044123,0,0.044171,-37792.8,-40000,-0,55030,3725.06
step02_gravity_refstate-crust.xmf,1,9.51721e-07,6.13944e-06,0,-6.5629e-09,-1.09835e+09,-1.098e+09,-1.09842e+09,-450.215,1.43363e-19,0.0435824,0,0.0435824,-40000,-40000,-0,56568.5,450.215
step02_gravity_refstate-crust.xmf,2,8.11102e-07,6.319e-06,0,-9.09422e-08,-1.09836e+09,-1.09798e+09,-1.09842e+09,-6238.63,0.00387345,0.04567,0,0.045834,-35691.6,-40000,-0,53608.7,6238.63
step02_gravity_refstate-crust.xmf,3,4.45611e-07,6.76508e-06,0,-9.73842e-08,-1.09838e+09,-1.09795e+09,-1.09841e+09,-6680.56,0.00638999,0.0515042,0,0.0518991,-31786.7,-40000,-0,51092,6680.56
step02_gravity_refstate-crust.xmf,4,6.55302e-07,6.506e-06,0,-9.79683e-08,-1.09837e+09,-1.09797e+09,-1.09842e+09,-6720.62,0.00534018,0.0481436,0,0.0484389,-33691.1,-40000,-0,52298.1,6720.62
step02_gravity_refstate-crust.xmf,5,1.93562e-07,7.06514e-06,0,-5.55152e-08,-1.0984e+09,-1.09793e+09,-1.09841e+09,-3808.34,0.00697478,0.0557374,0,0.0561721,-29973.6,-40000,-0,49984.2,3808.34
step02_gravity_refstate-crust.xmf,6,-9.02791e-08,7.4009e-06,0,2.45563e-08,-1.09842e+09,-1.0979e+09,-1.09841e+09,1684.56,0.00706555,0.0608462,0,0.0612551,-28247.5,-40000,-0,48968.6,1684.56
step02_gravity_refstate-crust.xmf,7,-7.56599e-07,8.15618e-06,0,3.12997e-07,-1.09846e+09,-1.09785e+09,-1.09841e+09,21471.6,0.00574797,0.0737441,0,0.0739677,-25039.7,-40000,-0,47191,21471.6
step02_gravity_refstate-crust.xmf,8,-4.06382e-07,7.75205e-06,0,1.53443e-07,-1.09844e+09,-1.09788e+09,-1.09841e+09,10526.2,0.00665747,0.0668418,0,0.0671725,-26604.2,-40000,-0,48039.4,10526.2
step02_gravity_refstate-crust.xmf,9,-1.12446e-06,8.55548e-06,0,5.33054e-07,-1.09848e+09,-1.09782e+09,-1.0984e+09,36567.5,0.0043516,0.0815745,0,0.0816905,-23550.3,-40000,-0,46417.8,36567.5
step02_gravity_refstate-crust.xmf,10,-1.51051e-06,8.96379e-06,0,8.02278e-07,-1.09851e+09,-1.09779e+09,-1.0984e+09,55036.3,0.00248851,0.0903566,0,0.0903909,-22132.3,-40000,-0,45714.8,55036.3
step02_gravity_refstate-crust.xmf,11,-1.91042e-06,9.37019e-06,0,1.13284e-06,-1.09853e+09,-1.09776e+09,-1.0984e+09,77712.8,0.000183867,0.100113,0,0.100113,-20782.4,-40000,-0,45076.7,77712.8
step02_gravity_refstate-crust.xmf,12,-2.3236e-06,9.77315e-06,0,1.52149e-06,-1.09856e+09,-1.09773e+09,-1.0984e+09,104374,-0.00253171,0.110866,-0,0.110895,-19497.2,-40000,-0,44498.8,104374
step02_gravity_refstate-crust.xmf,13,-2.74496e-06,1.01634e-05,0,1.98098e-06,-1.09859e+09,-1.09771e+09,-1.0984e+09,135895,-0.00562711,0.122636,-0,0.122765,-18273.7,-40000,-0,43976.5,135895
step02_gravity_refstate-crust.xmf,14,-3.17431e-06,1.05368e-05,0,2.50671e-06,-1.09862e+09,-1.09768e+09,-1.09841e+09,171960,-0.00906814,0.135444,-0,0.135747,-17108.9,-40000,-0,43505.3,171960
step02_gravity_refstate-crust.xmf,15,-3.60607e-06,1.08896e-05,0,3.10993e-06,-1.09866e+09,-1.09766e+09,-1.09841e+09,213341,-0.0128222,0.14931,-0,0.149859,-15999.9,-40000,-0,43081.3,213341
step02_gravity_refstate-crust.xmf,16,-5.77393e-06,1.19954e-05,0,7.64271e-06,-1.09885e+09,-1.09763e+09,-1.09846e+09,524290,-0.0351135,0.235318,-0,0.237923,-11203.7,-40000,-0,41539.4,524290
step02_gravity_refstate-crust.xmf,17,-5.33718e-06,1.18372e-05,0,6.51092e-06,-1.09881e+09,-1.09763e+09,-1.09844e+09,446649,-0.0302958,0.215797,-0,0.217913,-12071.1,-40000,-0,41781.7,446649
step02_gravity_refstate-crust.xmf,18,-6.17466e-06,1.20005e-05,0,8.95476e-06,-1.0989e+09,-1.09765e+09,-1.09847e+09,614297,-0.0400389,0.256075,-0,0.259186,-10377.9,-40000,-0,41324.3,614297
step02_gravity_refstate-crust.xmf,19,-6.53772e-06,1.18773e-05,0,1.04565e-05,-1.09894e+09,-1.09768e+09,-1.09849e+09,717317,-0.045028,0.278117,-0,0.281738,-9591.69,-40000,-0,41133.9,717317
step02_gravity_refstate-crust.xmf,20,-6.83832e-06,1.15837e-05,0,1.21795e-05,-1.09899e+09,-1.09772e+09,-1.09852e+09,835515,-0.0500267,0.301503,-0,0.305625,-8843.14,-40000,-0,40965.9,835515
step02_gravity_refstate-crust.xmf,21,-7.03989e-06,1.10605e-05,0,1.41574e-05,-1.09903e+09,-1.09779e+09,-1.09855e+09,971201,-0.0549646,0.326298,-0,0.330895,-8130.43,-40000,-0,40817.9,971201
step02_gravity_refstate-crust.xmf,22,-4.90489e-06,1.16693e-05,0,5.49748e-06,-1.09877e+09,-1.09763e+09,-1.09843e+09,377127,-0.0256238,0.197469,-0,0.199125,-12982.1,-40000,-0,42054,377127
step02_gravity_refstate-crust.xmf,23,-4.0437e-06,1.12068e-05,0,3.80409e-06,-1.09869e+09,-1.09765e+09,-1.09842e+09,260961,-0.0168543,0.164253,-0,0.165116,-14944.2,-40000,-0,42700.4,260961
step02_gravity_refstate-crust.xmf,24,-4.4688e-06,1.14419e-05,0,4.60544e-06,-1.09873e+09,-1.09764e+09,-1.09842e+09,315933,-0.0211324,0.180298,-0,0.181532,-13939,-40000,-0,42359.1,315933
step02_gravity_refstate-crust.xmf,25,-6.34547e-06,7.07706e-06,0,2.20002e-05,-1.09912e+09,-1.0982e+09,-1.09869e+09,1.50922e+06,-0.0683234,0.409815,-0,0.415472,-6190.26,-40000,-0,40476.2,1.50922e+06
step02_gravity_refstate-crust.xmf,26,-6.86605e-06,8.8062e-06,0,1.90306e-05,-1.09911e+09,-1.09803e+09,-1.09864e+09,1.3055e+06,-0.064257,0.380391,-0,0.38578,-6805.63,-40000,-0,40574.8,1.3055e+06
step02_gravity_refstate-crust.xmf,27,-7.08287e-06,1.02182e-05,0,1.64319e-05,-1.09907e+09,-1.09789e+09,-1.09859e+09,1.12723e+06,-0.0597502,0.352572,-0,0.357599,-7451.82,-40000,-0,40688.2,1.12723e+06
step02_gravity_refstate-crust.xmf,28,-5.26982e-06,4.37529e-06,0,2.53616e-05,-1.09912e+09,-1.09846e+09,-1.09876e+09,1.73981e+06,-0.0717225,0.440889,-0,0.446684,-5604.1,-40000,-0,40390.7,1.73981e+06
step02_gravity_refstate-crust.xmf,29,-3.40534e-06,4.86117e-07,0,2.91367e-05,-1.09908e+09,-1.09881e+09,-1.09884e+09,1.99877e+06,-0.0741415,0.473623,-0,0.479391,-5045.52,-40000,-0,40317,1.99877e+06
step02_gravity_refstate-crust.xmf,30,-9.5108e-08,-5.55872e-06,0,3.3471e-05,-1.09897e+09,-1.09934e+09,-1.09896e+09,2.29611e+06,-0.0751179,0.507996,-0,0.513519,-4512.49,-40000,-0,40253.7,2.29611e+06
step02_gravity_refstate-crust.xmf,31,9.27682e-06,-1.60763e-05,0,3.94101e-05,-1.09837e+09,-1.10011e+09,-1.09901e+09,2.70353e+06,-0.0735306,0.543828,-0,0.548777,-4000,-40000,-0,40199.5,2.70353e+06
step02_gravity_refstate-crust.xmf,32,6.31665e-06,-1.32821e-05,0,-3.59643e-05,-1.09858e+09,-1.09993e+09,-1.09902e+09,-2.46715e+06,0.0735229,0.543834,0,0.548781,4000,-40000,0,40199.5,2.46715e+06
step02_gravity_refstate-crust.xmf,33,-2.56287e-07,-5.14416e-06,0,-3.30337e-05,-1.09897e+09,-1.0993e+09,-1.09895e+09,-2.26611e+06,0.0751184,0.507995,0,0.513519,4512.49,-40000,0,40253.7,2.26611e+06
step02_gravity_refstate-crust.xmf,34,-3.39528e-06,4.21527e-07,0,-2.89942e-05,-1.09908e+09,-1.09882e+09,-1.09885e+09,-1.989e+06,0.0741422,0.473622,0,0.47939,5045.52,-40000,0,40317,1.989e+06
step02_gravity_refstate-crust.xmf,35,-5.2511e-06,4.24979e-06,0,-2.52969e-05,-1.09912e+09,-1.09847e+09,-1.09876e+09,-1.73537e+06,0.0717219,0.440889,0,0.446684,5604.1,-40000,0,40390.7,1.73537e+06
step02_gravity_refstate-crust.xmf,36,-6.32159e-06,6.93637e-06,0,-2.19777e-05,-1.09913e+09,-1.09822e+09,-1.09869e+09,-1.50767e+06,0.0683235,0.409815,0,0.415471,6190.26,-40000,0,40476.2,1.50767e+06
step02_gravity_refstate-crust.xmf,37,9.51759e-07,6.13935e-06,0,6.6039e-09,-1.09835e+09,-1.098e+09,-1.09842e+09,453.028,-4.59689e-20,0.0435824,-0,0.0435824,40000,-40000,0,56568.5,453.028
step02_gravity_refstate-crust.xmf,38,9.13705e-07,6.19073e-06,0,5.44862e-08,-1.09836e+09,-1.09799e+09,-1.09842e+09,3737.75,-0.00205845,0.0441229,-0,0.0441709,37792.8,-40000,0,55030,3737.75
step02_gravity_refstate-crust.xmf,39,-6.86651e-06,8.80793e-06,0,-1.90319e-05,-1.09911e+09,-1.09803e+09,-1.09864e+09,-1.30559e+06,0.064257,0.380391,0,0.38578,6805.63,-40000,0,40574.8,1.30559e+06
step02_gravity_refstate-crust.xmf,40,8.11262e-07,6.31568e-06,0,8.92708e-08,-1.09836e+09,-1.09798e+09,-1.09842e+09,6123.98,-0.00387319,0.0456702,-0,0.0458342,35691.6,-40000,0,53608.7,6123.98
step02_gravity_refstate-crust.xmf,41,-7.06588e-06,1.00943e-05,0,-1.64429e-05,-1.09908e+09,-1.0979e+09,-1.09859e+09,-1.12798e+06,0.0597502,0.352572,0,0.357599,7451.82,-40000,0,40688.2,1.12798e+06
step02_gravity_refstate-crust.xmf,42,6.53135e-07,6.51374e-06,0,1.07238e-07,-1.09837e+09,-1.09797e+09,-1.09842e+09,7356.55,-0.00534057,0.0481436,-0,0.0484389,33691.1,-40000,0,52298.1,7356.55
step02_gravity_refstate-crust.xmf,43,-7.02062e-06,1.09483e-05,0,-1.41769e-05,-1.09903e+09,-1.0978e+09,-1.09855e+09,-972533,0.0549647,0.326299,0,0.330896,8130.43,-40000,0,40817.9,972533
step02_gravity_refstate-crust.xmf,44,-6.8182e-06,1.14846e-05,0,-1.22037e-05,-1.09899e+09,-1.09773e+09,-1.09852e+09,-837177,0.0500268,0.301504,0,0.305626,8843.14,-40000,0,40965.9,837177
step02_gravity_refstate-crust.xmf,45,4.45107e-07,6.76723e-06,0,9.8631e-08,-1.09838e+09,-1.09795e+09,-1.09841e+09,6766.09,-0.00639037,0.0515041,-0,0.051899,31786.7,-40000,0,51092,6766.09
step02_gravity_refstate-crust.xmf,46,-6.51756e-06,1.17899e-05,0,-1.04807e-05,-1.09894e+09,-1.09769e+09,-1.0985e+09,-718975,0.045028,0.278117,0,0.281739,9591.69,-40000,0,41133.9,718975
step02_gravity_refstate-crust.xmf,47,1.94113e-07,7.06354e-06,0,5.47011e-08,-1.0984e+09,-1.09793e+09,-1.09841e+09,3752.5,-0.0069744,0.0557375,-0,0.0561721,29973.6,-40000,0,49984.2,3752.5
step02_gravity_refstate-crust.xmf,48,-6.15667e-06,1.19227e-05,0,-8.97942e-06,-1.0989e+09,-1.09766e+09,-1.09847e+09,-615988,0.0400394,0.256075,0,0.259186,10377.9,-40000,0,41324.3,615988
step02_gravity_refstate-crust.xmf,49,-5.75712e-06,1.19285e-05,0,-7.66253e-06,-1.09885e+09,-1.09764e+09,-1.09846e+09,-525649,0.0351131,0.235317,0,0.237923,11203.7,-40000,0,41539.4,525649
step02_gravity_refstate-crust.xmf,50,-9.00764e-08,7.40009e-06,0,-2.4729e-08,-1.09842e+09,-1.0979e+09,-1.09841e+09,-1696.41,-0.00706552,0.0608461,-0,0.061255,28247.5,-40000,0,48968.6,1696.41
step02_gravity_refstate-crust.xmf,51,-5.33823e-06,1.18375e-05,0,-6.51259e-06,-1.09881e+09,-1.09763e+09,-1.09844e+09,-446764,0.0302964,0.215797,0,0.217914,12071.1,-40000,0,41781.7,446764
step02_gravity_refstate-crust.xmf,52,-4.11486e-07,7.76884e-06,0,-1.445e-07,-1.09844e+09,-1.09787e+09,-1.09841e+09,-9912.67,-0.00665766,0.0668416,-0,0.0671723,26604.2,-40000,0,48039.4,9912.67
step02_gravity_refstate-crust.xmf,53,-7.56279e-07,8.15562e-06,0,-3.13085e-07,-1.09846e+09,-1.09785e+09,-1.09841e+09,-21477.7,-0.00574781,0.073744,-0,0.0739677,25039.7,-40000,0,47191,21477.7
step02_gravity_refstate-crust.xmf,54,-4.90581e-06,1.16691e-05,0,-5.49699e-06,-1.09877e+09,-1.09763e+09,-1.09843e+09,-377093,0.0256239,0.197469,0,0.199124,12982.1,-40000,0,42054,377093
step02_gravity_refstate-crust.xmf,55,-4.46954e-06,1.14412e-05,0,-4.60586e-06,-1.09873e+09,-1.09764e+09,-1.09842e+09,-315962,0.0211325,0.180298,0,0.181532,13939,-40000,0,42359.1,315962
step02_gravity_refstate-crust.xmf,56,-4.03203e-06,1.11654e-05,0,-3.81982e-06,-1.09869e+09,-1.09765e+09,-1.09842e+09,-262040,0.016854,0.164253,0,0.165116,14944.2,-40000,0,42700.4,262040
step02_gravity_refstate-crust.xmf,57,-1.12455e-06,8.55744e-06,0,-5.30661e-07,-1.09848e+09,-1.09782e+09,-1.0984e+09,-36403.3,-0.00435167,0.0815745,-0,0.0816905,23550.3,-40000,0,46417.8,36403.3
step02_gravity_refstate-crust.xmf,58,-3.59642e-06,1.0851e-05,0,-3.13005e-06,-1.09866e+09,-1.09767e+09,-1.09841e+09,-214722,0.0128224,0.14931,0,0.14986,15999.9,-40000,0,43081.3,214722
step02_gravity_refstate-crust.xmf,59,-1.51057e-06,8.96634e-06,0,-8.01577e-07,-1.09851e+09,-1.09779e+09,-1.0984e+09,-54988.2,-0.00248846,0.0903565,-0,0.0903907,22132.3,-40000,0,45714.8,54988.2
step02_gravity_refstate-crust.xmf,60,-1.91127e-06,9.3758e-06,0,-1.12994e-06,-1.09853e+09,-1.09776e+09,-1.0984e+09,-77514.2,-0.000184148,0.100113,-0,0.100113,20782.4,-40000,0,45076.7,77514.2
step02_gravity_refstate-crust.xmf,61,-2.32341e-06,9.7763e-06,0,-1.52288e-06,-1.09856e+09,-1.09773e+09,-1.0984e+09,-104470,0.00253187,0.110866,0,0.110895,19497.2,-40000,0,44498.8,104470
step02_gravity_refstate-crust.xmf,62,-2.74528e-06,1.01649e-05,0,-1.98071e-06,-1.09859e+09,-1.09771e+09,-1.0984e+09,-135877,0.00562701,0.122636,0,0.122765,18273.7,-40000,0,43976.5,135877
step02_gravity_refstate-crust.xmf,63,-3.17429e-06,1.05386e-05,0,-2.50736e-06,-1.09862e+09,-1.09768e+09,-1.09841e+09,-172005,0.00906816,0.135444,0,0.135747,17108.9,-40000,0,43505.3,172005
step02_gravity_refstate-crust.xmf,64,-3.64171e-06,1.37674e-06,0,-1.28341e-08,-346155,-1889.43,-96333.8,-880.418,-1.34042e-18,0.201867,-0,0.201867,-40000,0,-0,40000,880.418
step02_gravity_refstate-crust.xmf,65,-3.00653e-06,1.36238e-06,0,1.138e-07,-5.95706e+07,-5.92708e+07,-5.93643e+07,7806.67,-0.00648929,0.199724,-0,0.199829,-37854.5,-2158.67,-0,37916,7806.67
step02_gravity_refstate-crust.xmf,66,-3.60522e-06,1.3687e-06,0,-1.40078e-08,-342441,-1230.99,-95123.6,-960.935,-0.0113498,0.203525,-0,0.203841,-36899.5,0,-0,36899.5,960.935
step02_gravity_refstate-crust.xmf,67,-2.80631e-06,1.38143e-06,0,-5.24029e-09,-8.33321e+07,-8.30448e+07,-8.31396e+07,-359.484,-1.11138e-18,0.197685,-0,0.197685,-40000,-3024.57,-0,40114.2,359.484
step02_gravity_refstate-crust.xmf,68,-2.72957e-06,1.32531e-06,0,3.17516e-07,-7.89344e+07,-7.86562e+07,-7.87472e+07,21781.6,-0.0128425,0.20168,-0,0.202089,-35431.4,-2864.69,-0,35547,21781.6
step02_gravity_refstate-crust.xmf,69,-2.47623e-06,1.45989e-06,0,2.14239e-07,-1.24889e+08,-1.24619e+08,-1.2472e+08,14696.8,-0.00549323,0.196404,-0,0.196481,-37804,-4538.96,-0,38075.6,14696.8
step02_gravity_refstate-crust.xmf,70,-2.1804e-06,1.55931e-06,0,5.02851e-07,-1.64076e+08,-1.6382e+08,-1.63927e+08,34495.6,-0.00960599,0.196741,-0,0.196976,-35726.1,-5966.96,-0,36220.9,34495.6
step02_gravity_refstate-crust.xmf,71,-2.17691e-06,1.40585e-06,0,6.90844e-07,-1.38647e+08,-1.38402e+08,-1.38498e+08,47391.9,-0.0154465,0.202817,-0,0.203404,-33393.4,-5040.97,-0,33771.8,47391.9
step02_gravity_refstate-crust.xmf,72,-3.36373e-06,1.27489e-06,0,-1.42436e-09,-319594,-1384.45,-88842.2,-97.7108,-0.0218247,0.208225,-0,0.209366,-33894,0,-0,33894,97.7108
step02_gravity_refstate-crust.xmf,73,-2.27524e-06,1.59725e-06,0,-3.35717e-09,-1.6352e+08,-1.63254e+08,-1.63364e+08,-230.302,-9.20151e-19,0.193338,-0,0.193338,-40000,-5946.36,-0,40439.6,230.302
step02_gravity_refstate-crust.xmf,74,-1.85211e-06,1.74348e-06,0,8.98257e-07,-2.14904e+08,-2.14657e+08,-2.14777e+08,61620.5,-0.0126223,0.197779,-0,0.198181,-33669.4,-7818.99,-0,34565.4,61620.5
step02_gravity_refstate-crust.xmf,75,-2.08365e-06,1.74033e-06,0,3.00098e-07,-1.99919e+08,-1.99657e+08,-1.99776e+08,20586.7,-0.00460719,0.192026,-0,0.192081,-37812.2,-7272.53,-0,38505.2,20586.7
step02_gravity_refstate-crust.xmf,76,-1.85716e-06,1.52067e-06,0,1.0219e-06,-1.80448e+08,-1.80216e+08,-1.8032e+08,70102.6,-0.0170031,0.204749,-0,0.205454,-31844.7,-6564.22,-0,32514.2,70102.6
step02_gravity_refstate-crust.xmf,77,-2.53663e-06,1.20693e-06,0,4.45758e-07,-6.85176e+07,-6.82608e+07,-6.83436e+07,30579,-0.0214569,0.208778,-0,0.209878,-32361.2,-2486.06,-0,32456.6,30579
step02_gravity_refstate-crust.xmf,78,-1.64603e-06,1.7652e-06,0,1.33398e-06,-2.34406e+08,-2.34172e+08,-2.34293e+08,91510.8,-0.0167831,0.204035,-0,0.204724,-31046,-8529.85,-0,32196.4,91510.8
step02_gravity_refstate-crust.xmf,79,-1.9233e-06,1.84544e-06,0,6.19003e-07,-2.26261e+08,-2.26002e+08,-2.26129e+08,42463.6,-0.00839369,0.192794,-0,0.192976,-35780.2,-8232.32,-0,36715,42463.6
step02_gravity_refstate-crust.xmf,80,-1.65463e-06,2.10589e-06,0,1.25047e-06,-2.83574e+08,-2.83316e+08,-2.83461e+08,85782.6,-0.0133823,0.195924,-0,0.196381,-32545.2,-10320.4,-0,34142.4,85782.6
step02_gravity_refstate-crust.xmf,81,-1.98788e-06,1.27689e-06,0,8.82661e-07,-1.27722e+08,-1.27498e+08,-1.27585e+08,60550.5,-0.0212879,0.210599,-0,0.211672,-30831.7,-4643.77,-0,31179.5,60550.5
step02_gravity_refstate-crust.xmf,82,-2.96431e-06,1.12399e-06,0,2.15007e-10,-281624,-1166.47,-78272.4,14.7495,-0.0310758,0.215554,-0,0.217783,-30975.9,0,-0,30975.9,14.7495
step02_gravity_refstate-crust.xmf,83,-1.62019e-06,1.4453e-06,0,1.32771e-06,-1.85599e+08,-1.85389e+08,-1.85488e+08,91081.2,-0.0209195,0.212441,-0,0.213469,-29480.9,-6752.61,-0,30244.4,91081.2
step02_gravity_refstate-crust.xmf,84,-1.37299e-06,1.72894e-06,0,1.8236e-06,-2.52287e+08,-2.52074e+08,-2.52193e+08,125099,-0.0207556,0.214043,-0,0.215047,-28121.5,-9181.89,-0,29582.5,125099
step02_gravity_refstate-crust.xmf,85,-1.49824e-06,2.06716e-06,0,1.67249e-06,-2.91197e+08,-2.90953e+08,-2.91095e+08,114733,-0.0171916,0.203486,-0,0.204211,-30079.2,-10598.5,-0,31891.8,114733
step02_gravity_refstate-crust.xmf,86,-1.36994e-06,2.07811e-06,0,1.99363e-06,-3.04922e+08,-3.04685e+08,-3.04828e+08,136763,-0.0195301,0.209523,-0,0.210431,-28323.7,-11098.6,-0,30420.6,136763
step02_gravity_refstate-crust.xmf,87,-1.44064e-06,2.43092e-06,0,1.98967e-06,-3.49764e+08,-3.49498e+08,-3.49665e+08,136491,-0.0178922,0.202083,-0,0.202874,-29214.9,-12731.4,-0,31868.5,136491
step02_gravity_refstate-crust.xmf,88,-1.96283e-06,1.95642e-06,0,-3.0399e-09,-2.41106e+08,-2.40837e+08,-2.40971e+08,-208.537,-8.93774e-19,0.188321,-0,0.188321,-40000,-8772.79,-0,40950.7,208.537
step02_gravity_refstate-crust.xmf,89,-1.76586e-06,2.13642e-06,0,8.54209e-07,-2.79478e+08,-2.7921e+08,-2.79357e+08,58598.7,-0.00939067,0.190543,-0,0.190775,-34890.5,-10170.8,-0,36342.7,58598.7
step02_gravity_refstate-crust.xmf,90,-1.83437e-06,2.16708e-06,0,4.0516e-07,-2.79533e+08,-2.79258e+08,-2.79407e+08,27794,-0.00451904,0.186582,-0,0.186637,-37572.1,-10172.6,-0,38924.8,27794
step02_gravity_refstate-crust.xmf,91,-2.18648e-06,1.06194e-06,0,5.7384e-07,-6.56955e+07,-6.54727e+07,-6.55455e+07,39365.4,-0.0282731,0.217522,-0,0.219352,-29564.5,-2384.51,-0,29660.5,39365.4
step02_gravity_refstate-crust.xmf,92,-1.31215e-06,2.3672e-06,0,2.34494e-06,-3.55234e+08,-3.54982e+08,-3.55144e+08,160863,-0.020597,0.210389,-0,0.211395,-27238.5,-12931,-0,30152,160863
step02_gravity_refstate-crust.xmf,93,-1.56454e-06,2.47444e-06,0,1.57456e-06,-3.43509e+08,-3.43232e+08,-3.43401e+08,108015,-0.0145291,0.194266,-0,0.194809,-31465.8,-12503.3,-0,33858.9,108015
step02_gravity_refstate-crust.xmf,94,-1.66295e-06,2.50249e-06,0,1.13965e-06,-3.38749e+08,-3.38463e+08,-3.38635e+08,78180.2,-0.0107474,0.187923,-0,0.18823,-33815.4,-12329.7,-0,35993.1,78180.2
step02_gravity_refstate-crust.xmf,95,-1.65099e-06,1.1409e-06,0,1.11781e-06,-1.2808e+08,-1.27888e+08,-1.27967e+08,76682.1,-0.0261194,0.220285,-0,0.221828,-28163.6,-4657.96,-0,28546.2,76682.1
step02_gravity_refstate-crust.xmf,96,-2.43832e-06,9.2408e-07,0,3.68432e-09,-231672,-1011.75,-64403.6,252.744,-0.0387681,0.225041,-0,0.228356,-28137.7,0,-0,28137.7,252.744
step02_gravity_refstate-crust.xmf,97,-1.19722e-06,1.9656e-06,0,2.28614e-06,-3.04819e+08,-3.04602e+08,-3.04737e+08,156829,-0.0219967,0.218391,-0,0.219496,-26402.5,-11095.4,-0,28639.1,156829
step02_gravity_refstate-crust.xmf,98,-1.29914e-06,1.31902e-06,0,1.65009e-06,-1.8994e+08,-1.8976e+08,-1.89851e+08,113196,-0.0246302,0.223282,-0,0.224636,-26810.4,-6911.74,-0,27687,113196
step02_gravity_refstate-crust.xmf,99,-1.43375e-06,2.80419e-06,0,2.30791e-06,-4.05941e+08,-4.0565e+08,-4.05842e+08,158323,-0.0192373,0.201036,-0,0.201955,-28221.8,-14777.2,-0,31856.5,158323
step02_gravity_refstate-crust.xmf,100,-1.54025e-06,2.87043e-06,0,1.88067e-06,-4.01784e+08,-4.01481e+08,-4.01678e+08,129014,-0.0159509,0.192302,-0,0.192962,-30421.4,-14625.5,-0,33754.5,129014
step02_gravity_refstate-crust.xmf,101,-1.79686e-06,2.40774e-06,0,-1.30691e-09,-3.16284e+08,-3.15996e+08,-3.16161e+08,-89.6543,-7.66237e-19,0.182345,-0,0.182345,-40000,-11511.1,-0,41623.4,89.6543
step02_gravity_refstate-crust.xmf,102,-1.73798e-06,2.47887e-06,0,7.53393e-07,-3.29971e+08,-3.29682e+08,-3.29852e+08,51682.8,-0.00728236,0.184511,-0,0.184655,-35878.3,-12009.7,-0,37835,51682.8
step02_gravity_refstate-crust.xmf,103,-1.71617e-06,8.78469e-07,0,7.00973e-07,-6.5309e+07,-6.5131e+07,-6.51913e+07,48086.7,-0.0337328,0.228297,-0,0.230775,-26784,-2372.06,-0,26888.8,48086.7
step02_gravity_refstate-crust.xmf,104,-1.08139e-06,1.54967e-06,0,2.15115e-06,-2.49997e+08,-2.49816e+08,-2.49923e+08,147569,-0.0240614,0.226482,-0,0.227757,-25474.8,-9099.41,-0,27051.2,147569
step02_gravity_refstate-crust.xmf,105,-1.13219e-06,2.23518e-06,0,2.69026e-06,-3.57351e+08,-3.5712e+08,-3.57273e+08,184552,-0.0231281,0.220733,-0,0.221941,-25164.7,-13008.6,-0,28328.1,184552
step02_gravity_refstate-crust.xmf,106,-1.30274e-06,2.68481e-06,0,2.71073e-06,-4.08612e+08,-4.08339e+08,-4.08523e+08,185956,-0.0221527,0.211162,-0,0.212321,-26103.3,-14874.8,-0,30044,185956
step02_gravity_refstate-crust.xmf,107,-1.46954e-06,3.17759e-06,0,2.63462e-06,-4.60315e+08,-4.59997e+08,-4.60215e+08,180735,-0.0211163,0.200461,-0,0.20157,-27108.7,-16757.2,-0,31869.9,180735
step02_gravity_refstate-crust.xmf,108,-1.3298e-06,3.00823e-06,0,3.04526e-06,-4.58896e+08,-4.58599e+08,-4.58805e+08,208905,-0.024072,0.212083,-0,0.213445,-24987.8,-16705.9,-0,30057.8,208905
step02_gravity_refstate-crust.xmf,109,-1.61991e-06,2.90375e-06,0,1.42654e-06,-3.97259e+08,-3.96949e+08,-3.97148e+08,97860.7,-0.0122975,0.18507,-0,0.185478,-32729,-14460.5,-0,35781.2,97860.7
step02_gravity_refstate-crust.xmf,110,-1.73589e-06,2.67543e-06,0,4.21501e-07,-3.56549e+08,-3.56247e+08,-3.5643e+08,28915,-0.00390979,0.179616,-0,0.179658,-37764.7,-12977.6,-0,39932.3,28915
step02_gravity_refstate-crust.xmf,111,-1.69013e-06,2.93365e-06,0,9.13888e-07,-3.95419e+08,-3.95102e+08,-3.95303e+08,62692.7,-0.00794309,0.178978,-0,0.179154,-35358.8,-14393.3,-0,38176.1,62692.7
step02_gravity_refstate-crust.xmf,112,-1.23011e-06,9.7027e-07,0,1.33502e-06,-1.29114e+08,-1.28963e+08,-1.29029e+08,91582.4,-0.029938,0.232036,-0,0.23396,-25462.1,-4697.04,-0,25891.7,91582.4
step02_gravity_refstate-crust.xmf,113,-1.80217e-06,6.82238e-07,0,8.29381e-09,-171262,-831.644,-47633.1,568.955,-0.0446647,0.236196,-0,0.240382,-25371.6,0,-0,25371.6,568.955
step02_gravity_refstate-crust.xmf,114,-9.61083e-07,1.8099e-06,0,2.59906e-06,-3.06426e+08,-3.06236e+08,-3.0636e+08,178296,-0.0243453,0.229634,-0,0.230921,-24209.8,-11154.7,-0,26656,178296
step02_gravity_refstate-crust.xmf,115,-9.32158e-07,1.15081e-06,0,1.91417e-06,-1.91893e+08,-1.9175e+08,-1.91829e+08,131312,-0.0274219,0.235651,-0,0.237241,-24227.7,-6984.06,-0,25214.2,131312
step02_gravity_refstate-crust.xmf,116,-1.12032e-06,2.50222e-06,0,3.07337e-06,-4.09059e+08,-4.08811e+08,-4.08983e+08,210833,-0.0246796,0.222689,-0,0.224052,-24020.7,-14891.6,-0,28262.2,210833
step02_gravity_refstate-crust.xmf,117,-1.5148e-06,3.51514e-06,0,2.9463e-06,-5.08747e+08,-5.08401e+08,-5.08643e+08,202116,-0.0233155,0.200781,-0,0.202131,-25938.8,-18520.7,-0,31872.2,202116
step02_gravity_refstate-crust.xmf,118,-1.56247e-06,3.2789e-06,0,2.17269e-06,-4.58227e+08,-4.57895e+08,-4.58119e+08,149047,-0.0176857,0.190232,-0,0.191053,-29361.5,-16681,-0,33769.1,149047
step02_gravity_refstate-crust.xmf,119,-1.62461e-06,3.32344e-06,0,1.71035e-06,-4.547e+08,-4.5436e+08,-4.54588e+08,117330,-0.0140996,0.182101,-0,0.182646,-31603.4,-16552.4,-0,35675.7,117330
step02_gravity_refstate-crust.xmf,120,-1.72567e-06,2.9148e-06,0,-7.42682e-10,-3.89247e+08,-3.88928e+08,-3.89128e+08,-50.948,-7.281e-19,0.175273,-0,0.175273,-40000,-14168.4,-0,42435.2,50.948
step02_gravity_refstate-crust.xmf,121,-1.1655e-06,6.68165e-07,0,8.19672e-07,-6.62284e+07,-6.61026e+07,-6.61484e+07,56229.5,-0.0375098,0.240418,-0,0.243326,-24091.4,-2407.43,-0,24211.4,56229.5
step02_gravity_refstate-crust.xmf,122,-7.66235e-07,1.37143e-06,0,2.42382e-06,-2.51929e+08,-2.51782e+08,-2.51877e+08,166274,-0.0262173,0.238922,-0,0.240356,-23089.6,-9170.75,-0,24844.1,166274
step02_gravity_refstate-crust.xmf,123,-1.14279e-06,2.78465e-06,0,3.42553e-06,-4.58631e+08,-4.58361e+08,-4.58552e+08,234991,-0.026619,0.224602,-0,0.226174,-22924.2,-16696.6,-0,28360.1,234991
step02_gravity_refstate-crust.xmf,124,-9.02878e-07,2.04856e-06,0,3.01258e-06,-3.59325e+08,-3.59123e+08,-3.59263e+08,206663,-0.0253058,0.23263,-0,0.234002,-23028.9,-13081.1,-0,26484.8,206663
step02_gravity_refstate-crust.xmf,125,-1.62843e-06,3.7267e-06,0,2.47815e-06,-5.17725e+08,-5.17358e+08,-5.17614e+08,170001,-0.0198733,0.188012,-0,0.18906,-28171.7,-18847.5,-0,33895,170001
step02_gravity_refstate-crust.xmf,126,-1.3714e-06,3.29852e-06,0,3.37655e-06,-5.06312e+08,-5.05992e+08,-5.06218e+08,231631,-0.0262958,0.213418,-0,0.215032,-23860.7,-18432.4,-0,30151.1,231631
step02_gravity_refstate-crust.xmf,127,-1.66226e-06,3.34058e-06,0,1.2693e-06,-4.51435e+08,-4.51092e+08,-4.51321e+08,87074,-0.0105651,0.17613,-0,0.176446,-33750.9,-16433.4,-0,37539.1,87074
step02_gravity_refstate-crust.xmf,128,-1.70019e-06,3.19277e-06,0,4.38446e-07,-4.27589e+08,-4.27254e+08,-4.27473e+08,30077.4,-0.00373556,0.171981,-0,0.172022,-37813.1,-15564.9,-0,40891.3,30077.4
step02_gravity_refstate-crust.xmf,129,-7.64867e-07,7.89186e-07,0,1.53383e-06,-1.32896e+08,-1.32789e+08,-1.32843e+08,105221,-0.0322073,0.244578,-0,0.24669,-22899.5,-4836.33,-0,23404.7,105221
step02_gravity_refstate-crust.xmf,130,-1.07605e-06,4.06878e-07,0,1.43523e-08,-102278,-549.377,-28461.2,984.567,-0.0485922,0.248512,-0,0.253218,-22669.8,0,-0,22669.8,984.567
step02_gravity_refstate-crust.xmf,131,-6.78001e-07,1.60561e-06,0,2.86967e-06,-3.07964e+08,-3.07808e+08,-3.07918e+08,196860,-0.0261433,0.24209,-0,0.243497,-22000.9,-11211.5,-0,24692.8,196860
step02_gravity_refstate-crust.xmf,132,-5.39336e-07,9.78674e-07,0,2.14798e-06,-1.97744e+08,-1.9764e+08,-1.97707e+08,147352,-0.0289449,0.248418,-0,0.250099,-21790.9,-7198.4,-0,22949.1,147352
step02_gravity_refstate-crust.xmf,133,-8.90115e-07,2.26418e-06,0,3.399e-06,-4.09887e+08,-4.0967e+08,-4.09825e+08,233171,-0.0267673,0.235235,-0,0.236753,-21954.6,-14922.2,-0,26545.8,233171
step02_gravity_refstate-crust.xmf,134,-1.66909e-06,3.99124e-06,0,2.81094e-06,-5.55689e+08,-5.553e+08,-5.55574e+08,192830,-0.0225121,0.190052,-0,0.191381,-26724.1,-20229.8,-0,33517.5,192830
step02_gravity_refstate-crust.xmf,135,-1.58726e-06,3.82669e-06,0,3.25216e-06,-5.5354e+08,-5.53169e+08,-5.53431e+08,223098,-0.0256615,0.201589,-0,0.203216,-24779.7,-20151.7,-0,31939.4,223098
step02_gravity_refstate-crust.xmf,136,-1.66619e-06,3.75868e-06,0,1.96513e-06,-5.1128e+08,-5.10908e+08,-5.11166e+08,134808,-0.0159598,0.178683,-0,0.179395,-30534.3,-18612.7,-0,35760,134808
step02_gravity_refstate-crust.xmf,137,-1.69226e-06,3.493e-06,0,8.40149e-07,-4.68375e+08,-4.68019e+08,-4.68259e+08,57634.2,-0.00697996,0.169506,-0,0.16965,-35884.2,-17050.2,-0,39728.9,57634.2
step02_gravity_refstate-crust.xmf,138,-1.68266e-06,3.75364e-06,0,1.5139e-06,-5.05618e+08,-5.05245e+08,-5.05503e+08,103853,-0.0123998,0.172163,-0,0.172609,-32659.5,-18406.5,-0,37489.2,103853
step02_gravity_refstate-crust.xmf,139,-1.70069e-06,3.44287e-06,0,5.8462e-11,-4.60181e+08,-4.59828e+08,-4.60064e+08,4.01049,-6.68664e-19,0.167062,-0,0.167062,-40000,-16751.8,-0,43366.1,4.01049
step02_gravity_refstate-crust.xmf,140,-1.1813e-06,3.02423e-06,0,3.7713e-06,-5.04564e+08,-5.04275e+08,-5.04483e+08,258711,-0.0288399,0.22688,-0,0.228706,-21846,-18369.1,-0,28542.4,258711
step02_gravity_refstate-crust.xmf,141,-1.43641e-06,3.56889e-06,0,3.70678e-06,-5.5083e+08,-5.50486e+08,-5.50731e+08,254285,-0.0287241,0.215249,-0,0.217157,-22733.4,-20053.2,-0,30314,254285
step02_gravity_refstate-crust.xmf,142,-5.5095e-07,4.41926e-07,0,9.52733e-07,-7.02419e+07,-7.01738e+07,-7.02041e+07,65357.5,-0.0393092,0.253525,-0,0.256555,-21444.1,-2555.68,-0,21595.9,65357.5
step02_gravity_refstate-crust.xmf,143,-4.5075e-07,1.19709e-06,0,2.64643e-06,-2.57562e+08,-2.57449e+08,-2.57532e+08,181545,-0.0273918,0.250822,-0,0.252313,-20950.4,-9376.85,-0,22953.1,181545
step02_gravity_refstate-crust.xmf,144,-9.01287e-07,2.49388e-06,0,3.75547e-06,-4.58143e+08,-4.5791e+08,-4.58081e+08,257625,-0.0286557,0.237858,-0,0.239578,-20921.6,-16679.4,-0,26756.6,257625
step02_gravity_refstate-crust.xmf,145,-6.29601e-07,1.80214e-06,0,3.27107e-06,-3.59493e+08,-3.59326e+08,-3.5945e+08,224396,-0.0268985,0.245298,-0,0.246768,-20951.5,-13087.9,-0,24703.5,224396
step02_gravity_refstate-crust.xmf,146,-1.70597e-06,4.10047e-06,0,2.51551e-06,-5.60951e+08,-5.60553e+08,-5.60834e+08,172564,-0.0203407,0.182547,-0,0.183677,-28028.5,-20421.4,-0,34679,172564
step02_gravity_refstate-crust.xmf,147,-1.69177e-06,3.75935e-06,0,1.14495e-06,-5.03873e+08,-5.03499e+08,-5.03757e+08,78543.6,-0.00943474,0.167733,-0,0.167998,-34420.8,-18343,-0,39003.3,78543.6
step02_gravity_refstate-crust.xmf,148,-1.69155e-06,3.72682e-06,0,4.14389e-07,-4.97805e+08,-4.97433e+08,-4.97689e+08,28427.1,-0.00343636,0.162998,-0,0.163035,-37970.7,-18122,-0,42073.5,28427.1
step02_gravity_refstate-crust.xmf,149,-1.23068e-06,3.2354e-06,0,4.11632e-06,-5.47898e+08,-5.47591e+08,-5.47813e+08,282379,-0.0312648,0.229562,-0,0.231681,-20782.5,-19946.8,-0,28806,282379
step02_gravity_refstate-crust.xmf,150,-2.83491e-07,6.21238e-07,0,1.75441e-06,-1.43721e+08,-1.43659e+08,-1.43701e+08,120353,-0.0326792,0.257421,-0,0.259487,-20445.2,-5232.12,-0,21104,120353
step02_gravity_refstate-crust.xmf,151,-2.854e-07,1.08283e-07,0,2.30741e-08,-27111.6,-104.939,-7533.15,1582.88,-0.0504388,0.261468,-0,0.266289,-20024.7,0,-0,20024.7,1582.88
step02_gravity_refstate-crust.xmf,152,-3.81298e-07,1.37707e-06,0,3.0627e-06,-3.092e+08,-3.09079e+08,-3.09174e+08,210101,-0.027204,0.254209,-0,0.255661,-19984.7,-11257.3,-0,22937.2,210101
step02_gravity_refstate-crust.xmf,153,-1.80459e-07,8.42238e-07,0,2.3867e-06,-2.12442e+08,-2.12372e+08,-2.1243e+08,163727,-0.0291049,0.260014,-0,0.261638,-19660.4,-7734.73,-0,21127.2,163727
step02_gravity_refstate-crust.xmf,154,-6.03384e-07,1.95387e-06,0,3.66408e-06,-4.0954e+08,-4.09365e+08,-4.09499e+08,251356,-0.0282877,0.248637,-0,0.250241,-19910.9,-14910.3,-0,24874.9,251356
step02_gravity_refstate-crust.xmf,155,-1.73802e-06,4.215e-06,0,2.18441e-06,-5.68412e+08,-5.68003e+08,-5.68292e+08,149850,-0.0178032,0.174551,-0,0.175457,-29516.9,-20693.1,-0,36047.9,149850
step02_gravity_refstate-crust.xmf,156,-1.49805e-06,3.78171e-06,0,4.07031e-06,-5.91325e+08,-5.90963e+08,-5.91222e+08,279223,-0.0314477,0.218779,-0,0.221028,-21485.3,-21527.6,-0,30414.7,279223
step02_gravity_refstate-crust.xmf,157,-1.7865e-06,4.44154e-06,0,2.58192e-06,-6.00068e+08,-5.99641e+08,-5.99946e+08,177120,-0.0211058,0.178303,-0,0.179547,-27662.2,-21845.7,-0,35248.1,177120
step02_gravity_refstate-crust.xmf,158,-1.76223e-06,4.33063e-06,0,3.02816e-06,-5.98096e+08,-5.97678e+08,-5.97975e+08,207732,-0.0243959,0.188844,-0,0.190413,-25800.1,-21773.9,-0,33760.1,207732
step02_gravity_refstate-crust.xmf,159,-1.70429e-06,4.17376e-06,0,3.54745e-06,-6.00837e+08,-6.00434e+08,-6.0072e+08,243355,-0.0280601,0.201646,-0,0.203589,-23699.1,-21873.6,-0,32250.6,243355
step02_gravity_refstate-crust.xmf,160,-1.72349e-06,4.19573e-06,0,1.68855e-06,-5.61388e+08,-5.60982e+08,-5.6127e+08,115834,-0.0138874,0.166881,-0,0.167458,-31788.1,-20437.4,-0,37791.1,115834
step02_gravity_refstate-crust.xmf,161,-1.69535e-06,4.05589e-06,0,8.1624e-07,-5.41218e+08,-5.40823e+08,-5.41102e+08,55994.1,-0.00674828,0.15931,-0,0.159453,-35994.8,-19703,-0,41034.6,55994.1
step02_gravity_refstate-crust.xmf,162,-1.7085e-06,4.13974e-06,0,1.26288e-06,-5.52718e+08,-5.52317e+08,-5.52601e+08,86633.4,-0.0104315,0.162179,-0,0.162514,-33814.8,-20121.8,-0,39348.7,86633.4
step02_gravity_refstate-crust.xmf,163,-1.68648e-06,3.96691e-06,0,7.17369e-10,-5.29273e+08,-5.28885e+08,-5.29158e+08,49.2115,-6.0985e-19,0.15774,-0,0.15774,-40000,-19268,-0,44398.8,49.2115
step02_gravity_refstate-crust.xmf,164,-9.2312e-07,2.6756e-06,0,4.11279e-06,-5.0368e+08,-5.03433e+08,-5.03617e+08,282137,-0.0308577,0.240784,-0,0.242753,-19905.9,-18337.4,-0,27064.8,282137
step02_gravity_refstate-crust.xmf,165,1.25073e-07,2.21047e-07,0,1.12993e-06,-8.14477e+07,-8.14411e+07,-8.14563e+07,77512.9,-0.0385903,0.268412,-0,0.271172,-18599.8,-2966.03,-0,18834.8,77512.9
step02_gravity_refstate-crust.xmf,166,-1.8571e-07,1.05536e-06,0,2.8079e-06,-2.65388e+08,-2.65303e+08,-2.65375e+08,192622,-0.0277921,0.260697,-0,0.262174,-19236.8,-9662.6,-0,21527.2,192622
step02_gravity_refstate-crust.xmf,167,-5.99554e-07,2.13066e-06,0,4.02578e-06,-4.58069e+08,-4.57881e+08,-4.58028e+08,276168,-0.0301354,0.251704,-0,0.253502,-18949.7,-16677.3,-0,25243.3,276168
step02_gravity_refstate-crust.xmf,168,-3.10558e-07,1.49375e-06,0,3.44017e-06,-3.56521e+08,-3.56397e+08,-3.565e+08,235995,-0.0278133,0.25841,-0,0.259903,-18935.4,-12980.6,-0,22957.4,235995
step02_gravity_refstate-crust.xmf,169,-1.29785e-06,3.4341e-06,0,4.46384e-06,-5.8975e+08,-5.89425e+08,-5.89661e+08,306219,-0.0337973,0.232266,-0,0.234712,-19778,-21470.5,-0,29191.6,306219
step02_gravity_refstate-crust.xmf,170,-1.67771e-06,4.22502e-06,0,3.75705e-07,-5.63597e+08,-5.63192e+08,-5.63482e+08,25773.3,-0.00312942,0.153345,-0,0.153377,-38130.2,-20518.1,-0,43300.2,25773.3
step02_gravity_refstate-crust.xmf,171,-9.5906e-07,2.83769e-06,0,4.46946e-06,-5.47232e+08,-5.46971e+08,-5.47166e+08,306605,-0.0332547,0.243745,-0,0.246003,-18946.1,-19923,-0,27493.3,306605
step02_gravity_refstate-crust.xmf,172,1.43008e-07,4.98127e-07,0,2.04078e-06,-1.66717e+08,-1.66693e+08,-1.66727e+08,139998,-0.0313269,0.269473,-0,0.271288,-18207.7,-6070.86,-0,19193.1,139998
step02_gravity_refstate-crust.xmf,173,5.27313e-07,-2.0196e-07,0,2.51375e-08,50011.5,-16.5931,13837.9,1724.43,-0.0501604,0.274538,-0,0.279083,-17428.6,0,-0,17428.6,1724.43
step02_gravity_refstate-crust.xmf,174,-5.46332e-08,1.09604e-06,0,3.14653e-06,-3.04775e+08,-3.04696e+08,-3.04771e+08,215852,-0.0276238,0.266292,-0,0.267721,-18079.8,-11097.1,-0,21213.8,215852
step02_gravity_refstate-crust.xmf,175,1.5639e-07,7.48787e-07,0,2.70959e-06,-2.4296e+08,-2.42919e+08,-2.42971e+08,185878,-0.0282309,0.271829,-0,0.273291,-17508.7,-8846.99,-0,19616.9,185878
step02_gravity_refstate-crust.xmf,176,-2.34144e-07,1.54774e-06,0,3.85756e-06,-4.08436e+08,-4.08314e+08,-4.0842e+08,264629,-0.0291658,0.263416,-0,0.265026,-17762.5,-14871,-0,23165.8,264629
step02_gravity_refstate-crust.xmf,177,-1.61408e-06,4.0342e-06,0,4.36923e-06,-6.30824e+08,-6.30437e+08,-6.30713e+08,299729,-0.0337656,0.220163,-0,0.222737,-20586.5,-22965.5,-0,30841.8,299729
step02_gravity_refstate-crust.xmf,178,-1.77412e-06,4.64341e-06,0,1.8469e-06,-6.16878e+08,-6.16438e+08,-6.16756e+08,126697,-0.0154299,0.161372,-0,0.162108,-30836.2,-22458.1,-0,38147.5,126697
step02_gravity_refstate-crust.xmf,179,-1.75145e-06,4.33903e-06,0,3.92505e-06,-6.3335e+08,-6.32932e+08,-6.3323e+08,269259,-0.0310151,0.20688,-0,0.209192,-22247,-23057.4,-0,32040.2,269259
step02_gravity_refstate-crust.xmf,180,-1.82303e-06,4.7534e-06,0,2.24195e-06,-6.31594e+08,-6.31143e+08,-6.31469e+08,153798,-0.0187149,0.166676,-0,0.167724,-28969.8,-22993.8,-0,36986,153798
step02_gravity_refstate-crust.xmf,181,-1.86315e-06,4.75364e-06,0,2.7143e-06,-6.36809e+08,-6.36355e+08,-6.36682e+08,186201,-0.0224121,0.175916,-0,0.177338,-26950.6,-23183.5,-0,35550.1,186201
step02_gravity_refstate-crust.xmf,182,-1.87337e-06,4.68837e-06,0,3.17778e-06,-6.3967e+08,-6.3922e+08,-6.39541e+08,217996,-0.0258777,0.186311,-0,0.1881,-25093.2,-23287.5,-0,34234.2,217996
step02_gravity_refstate-crust.xmf,183,-1.73168e-06,4.58467e-06,0,1.41986e-06,-6.09472e+08,-6.09039e+08,-6.09354e+08,97402.5,-0.0119128,0.155764,-0,0.156219,-32870,-22188.5,-0,39658.1,97402.5
step02_gravity_refstate-crust.xmf,184,-1.6977e-06,4.53154e-06,0,1.0005e-06,-6.03574e+08,-6.03146e+08,-6.03457e+08,68634.5,-0.00841538,0.151549,-0,0.151783,-34934.2,-21973.9,-0,41270.4,68634.5
step02_gravity_refstate-crust.xmf,185,-1.65361e-06,4.4655e-06,0,1.57187e-09,-5.96709e+08,-5.96289e+08,-5.96595e+08,107.831,-5.72093e-19,0.147386,-0,0.147386,-40000,-21724,-0,45518.5,107.831
step02_gravity_refstate-crust.xmf,186,-1.67233e-06,4.49073e-06,0,6.34342e-07,-5.99339e+08,-5.98916e+08,-5.99224e+08,43515.9,-0.00533233,0.149095,-0,0.14919,-36778.8,-21819.7,-0,42764.3,43515.9
step02_gravity_refstate-crust.xmf,187,-6.10851e-07,2.26651e-06,0,4.39264e-06,-5.04509e+08,-5.04311e+08,-5.04467e+08,301335,-0.0323115,0.25469,-0,0.256731,-18050.3,-18368.2,-0,25752.7,301335
step02_gravity_refstate-crust.xmf,188,-2.823e-07,1.75812e-06,0,4.23604e-06,-4.62536e+08,-4.62396e+08,-4.62517e+08,290592,-0.0310788,0.26449,-0,0.26631,-17158.2,-16840.7,-0,24041.8,290592
step02_gravity_refstate-crust.xmf,189,-1.74768e-06,4.30782e-06,0,4.65978e-06,-6.69534e+08,-6.69119e+08,-6.69414e+08,319661,-0.0360415,0.221341,-0,0.224256,-19746.9,-24374.7,-0,31369.8,319661
step02_gravity_refstate-crust.xmf,190,-1.39771e-06,3.64445e-06,0,4.80408e-06,-6.30339e+08,-6.29993e+08,-6.30243e+08,329560,-0.0362704,0.23426,-0,0.237051,-18914.7,-22948.1,-0,29738.6,329560
step02_gravity_refstate-crust.xmf,191,-1.89622e-06,4.59208e-06,0,4.94316e-06,-7.06609e+08,-7.06164e+08,-7.06479e+08,339101,-0.0381909,0.222367,-0,0.225623,-18970.3,-25724.3,-0,31962.6,339101
step02_gravity_refstate-crust.xmf,192,-1.53811e-06,3.90383e-06,0,5.11186e-06,-6.6932e+08,-6.68947e+08,-6.69215e+08,350673,-0.0385587,0.23524,-0,0.238379,-18211.5,-24367.1,-0,30420.6,350673
step02_gravity_refstate-crust.xmf,193,-1.01395e-06,2.99262e-06,0,4.83517e-06,-5.89703e+08,-5.89428e+08,-5.89633e+08,331693,-0.0357948,0.246611,-0,0.249195,-18050.3,-21469.2,-0,28048.9,331693
step02_gravity_refstate-crust.xmf,194,5.46726e-07,1.8014e-07,0,1.65293e-06,-1.26692e+08,-1.26717e+08,-1.26729e+08,113391,-0.0335029,0.27944,-0,0.281441,-16513,-4614.83,-0,17145.7,113391
step02_gravity_refstate-crust.xmf,195,7.98825e-07,-1.11536e-07,0,9.1077e-07,-6.19719e+07,-6.20343e+07,-6.20267e+07,62478.8,-0.0397132,0.282114,-0,0.284896,-16025.4,-2259.21,-0,16183.9,62478.8
step02_gravity_refstate-crust.xmf,196,6.1029e-08,1.10936e-06,0,3.47077e-06,-3.45528e+08,-3.45456e+08,-3.45532e+08,238095,-0.0279091,0.271766,-0,0.273196,-16972.2,-12581.3,-0,21126.8,238095
step02_gravity_refstate-crust.xmf,197,-1.89046e-06,4.63534e-06,0,4.17651e-06,-6.71079e+08,-6.70631e+08,-6.70949e+08,286509,-0.0330955,0.207414,-0,0.210037,-21381,-24430.8,-0,32465.6,286509
step02_gravity_refstate-crust.xmf,198,-2.04388e-06,4.94415e-06,0,4.42806e-06,-7.08069e+08,-7.07589e+08,-7.07929e+08,303765,-0.035137,0.208087,-0,0.211032,-20526.4,-25777.3,-0,32951.6,303765
step02_gravity_refstate-crust.xmf,199,-1.85697e-06,4.60993e-06,0,3.55849e-06,-6.43839e+08,-6.43395e+08,-6.43712e+08,244112,-0.0286551,0.195345,-0,0.197435,-23615,-23439.2,-0,33272.6,244112
step02_gravity_refstate-crust.xmf,200,-1.62767e-06,4.70663e-06,0,3.4445e-07,-6.30338e+08,-6.29903e+08,-6.30226e+08,23629.3,-0.00292333,0.142438,-0,0.142468,-38198.9,-22948.8,-0,44562.3,23629.3
step02_gravity_refstate-crust.xmf,201,-8.79509e-09,1.36517e-06,0,4.05103e-06,-4.2706e+08,-4.26965e+08,-4.27059e+08,277901,-0.0299089,0.272372,-0,0.274009,-16350.5,-15549.6,-0,22563.9,277901
step02_gravity_refstate-crust.xmf,202,-6.29403e-07,2.37644e-06,0,4.75943e-06,-5.48045e+08,-5.47838e+08,-5.48001e+08,326497,-0.0346736,0.257782,-0,0.260104,-17203,-19953.2,-0,26345.3,326497
step02_gravity_refstate-crust.xmf,203,-1.69964e-06,4.16657e-06,0,5.42369e-06,-7.0611e+08,-7.05707e+08,-7.05993e+08,372065,-0.0407549,0.23633,-0,0.239818,-17541.2,-25706.2,-0,31120.8,372065
step02_gravity_refstate-crust.xmf,204,4.87853e-07,3.73463e-07,0,2.26907e-06,-1.89956e+08,-1.89964e+08,-1.89989e+08,155658,-0.0295226,0.280324,-0,0.281874,-16239.8,-6918.09,-0,17651.9,155658
step02_gravity_refstate-crust.xmf,205,1.3524e-06,-5.12208e-07,0,2.13023e-08,128510,597.676,35735.1,1461.34,-0.0477955,0.287216,-0,0.291166,-14873.9,0,-0,14873.9,1461.34
step02_gravity_refstate-crust.xmf,206,3.04085e-07,7.75379e-07,0,3.12547e-06,-2.9594e+08,-2.95908e+08,-2.95961e+08,214408,-0.0273856,0.278442,-0,0.279785,-16186.6,-10776.4,-0,19445.8,214408
step02_gravity_refstate-crust.xmf,207,1.68177e-07,1.07304e-06,0,3.80331e-06,-3.89381e+08,-3.89319e+08,-3.89393e+08,260907,-0.0287076,0.276946,-0,0.278429,-15935.2,-14178.1,-0,21329.6,260907
step02_gravity_refstate-crust.xmf,208,-2.07361e-06,4.87986e-06,0,5.24925e-06,-7.42314e+08,-7.41837e+08,-7.42171e+08,360099,-0.040319,0.223919,-0,0.22752,-18180.7,-27023.8,-0,32570.3,360099
step02_gravity_refstate-crust.xmf,209,-1.75487e-06,5.00804e-06,0,1.5463e-06,-6.63188e+08,-6.62724e+08,-6.63067e+08,106076,-0.0132543,0.149436,-0,0.150023,-31899.2,-24144.7,-0,40006.6,106076
step02_gravity_refstate-crust.xmf,210,-2.20527e-06,5.24473e-06,0,4.69038e-06,-7.42974e+08,-7.42463e+08,-7.42823e+08,321760,-0.0371174,0.209276,-0,0.212542,-19673.7,-27047.9,-0,33446.2,321760
step02_gravity_refstate-crust.xmf,211,-1.82711e-06,5.07211e-06,0,1.95504e-06,-6.68746e+08,-6.68273e+08,-6.68621e+08,134116,-0.0166796,0.155746,-0,0.156636,-29946.9,-24346.8,-0,38595.1,134116
step02_gravity_refstate-crust.xmf,212,-1.97115e-06,4.89655e-06,0,3.72195e-06,-6.76465e+08,-6.75994e+08,-6.7633e+08,255326,-0.0301434,0.194577,-0,0.196898,-22930.8,-24627,-0,33649.8,255326
step02_gravity_refstate-crust.xmf,213,-1.90188e-06,5.11324e-06,0,2.39047e-06,-6.73587e+08,-6.73105e+08,-6.73456e+08,163986,-0.0202254,0.163741,-0,0.164985,-28012.1,-24522.8,-0,37229.6,163986
step02_gravity_refstate-crust.xmf,214,-1.96466e-06,5.11777e-06,0,2.83885e-06,-6.77837e+08,-6.77351e+08,-6.77702e+08,194745,-0.023748,0.172986,-0,0.174608,-26166.2,-24677.3,-0,35967.2,194745
step02_gravity_refstate-crust.xmf,215,-1.99875e-06,5.06534e-06,0,3.29047e-06,-6.80534e+08,-6.8005e+08,-6.80397e+08,225726,-0.0271359,0.183237,-0,0.185235,-24446.5,-24775.3,-0,34805.9,225726
step02_gravity_refstate-crust.xmf,216,-1.68779e-06,4.94911e-06,0,1.14353e-06,-6.59223e+08,-6.58768e+08,-6.59108e+08,78446.2,-0.00983518,0.144278,-0,0.144613,-33915.6,-24000.5,-0,41548.7,78446.2
step02_gravity_refstate-crust.xmf,217,-1.62504e-06,4.93839e-06,0,7.09867e-07,-6.61425e+08,-6.60974e+08,-6.61313e+08,48696.9,-0.0061112,0.139326,-0,0.13946,-36164.2,-24080.9,-0,43448.1,48696.9
step02_gravity_refstate-crust.xmf,218,-1.5789e-06,4.92095e-06,0,2.48844e-09,-6.6267e+08,-6.62225e+08,-6.62562e+08,170.707,-5.70103e-19,0.136111,-0,0.136111,-40000,-24126.4,-0,46712.8,170.707
step02_gravity_refstate-crust.xmf,219,-2.6775e-07,1.82843e-06,0,4.59964e-06,-5.07456e+08,-5.07312e+08,-5.07437e+08,315535,-0.0331828,0.267737,-0,0.269786,-16354,-18476.2,-0,24674.3,315535
step02_gravity_refstate-crust.xmf,220,4.94903e-08,1.36966e-06,0,4.37198e-06,-4.67956e+08,-4.67865e+08,-4.67959e+08,299918,-0.0314864,0.276173,-0,0.277962,-15556.6,-17038.7,-0,23072.2,299918
step02_gravity_refstate-crust.xmf,221,-1.42679e-06,3.66299e-06,0,5.85955e-06,-7.06048e+08,-7.05699e+08,-7.0595e+08,401965,-0.042834,0.250098,-0,0.253739,-16208.6,-25704.3,-0,30388,401965
step02_gravity_refstate-crust.xmf,222,-1.86026e-06,4.42206e-06,0,5.77148e-06,-7.41788e+08,-7.41357e+08,-7.4166e+08,395924,-0.0430199,0.238385,-0,0.242235,-16810.4,-27004.8,-0,31809.6,395924
step02_gravity_refstate-crust.xmf,223,-1.29156e-06,3.48019e-06,0,5.49825e-06,-6.7057e+08,-6.70242e+08,-6.70481e+08,377180,-0.0405063,0.247989,-0,0.251275,-16865.6,-24412.9,-0,29672.2,377180
step02_gravity_refstate-crust.xmf,224,-1.11588e-06,3.18174e-06,0,5.19417e-06,-6.31015e+08,-6.3072e+08,-6.30939e+08,356320,-0.0382853,0.24832,-0,0.251254,-17333.9,-22973.2,-0,28779,356320
step02_gravity_refstate-crust.xmf,225,-6.56548e-07,2.46741e-06,0,5.14809e-06,-5.90403e+08,-5.90188e+08,-5.90357e+08,353159,-0.0372231,0.261113,-0,0.263753,-16380.9,-21495.4,-0,27025.6,353159
step02_gravity_refstate-crust.xmf,226,5.60026e-07,4.69452e-07,0,2.71893e-06,-2.44474e+08,-2.4448e+08,-2.44513e+08,186519,-0.0274141,0.284859,-0,0.286175,-15312.8,-8903.32,-0,17713,186519
step02_gravity_refstate-crust.xmf,227,8.06065e-07,1.15652e-07,0,1.91779e-06,-1.54184e+08,-1.54232e+08,-1.5424e+08,131560,-0.0305602,0.287573,-0,0.289192,-15000.7,-5616.68,-0,16017.7,131560
step02_gravity_refstate-crust.xmf,228,1.00457e-06,-7.17812e-08,0,1.43274e-06,-1.07183e+08,-1.07256e+08,-1.07252e+08,98286.3,-0.0336999,0.289396,-0,0.291351,-14666,-3906.04,-0,15177.2,98286.3
step02_gravity_refstate-crust.xmf,229,1.44665e-06,-3.79999e-07,0,8.20377e-07,-5.68234e+07,-5.69487e+07,-5.69226e+07,56277.8,-0.0376043,0.294396,-0,0.296788,-13596.3,-2073.98,-0,13753.6,56277.8
step02_gravity_refstate-crust.xmf,230,4.30754e-07,7.51633e-07,0,3.45668e-06,-3.42012e+08,-3.4199e+08,-3.42042e+08,237128,-0.0273924,0.284108,-0,0.285425,-15090.4,-12454.2,-0,19566,237128
step02_gravity_refstate-crust.xmf,231,3.17136e-07,1.00038e-06,0,4.09941e-06,-4.29388e+08,-4.29341e+08,-4.2941e+08,281220,-0.0297606,0.283154,-0,0.284713,-14827.5,-15635.1,-0,21547.9,281220
step02_gravity_refstate-crust.xmf,232,-1.53907e-06,3.80952e-06,0,6.24153e-06,-7.37355e+08,-7.36988e+08,-7.37249e+08,428169,-0.0450923,0.253491,-0,0.257471,-15513.5,-26843.8,-0,31004.2,428169
step02_gravity_refstate-crust.xmf,233,-2.11385e-06,5.20972e-06,0,3.90087e-06,-7.10856e+08,-7.10354e+08,-7.10711e+08,267600,-0.0317311,0.194035,-0,0.196612,-22169.3,-25878.9,-0,34076.3,267600
step02_gravity_refstate-crust.xmf,234,-2.27849e-06,5.5482e-06,0,4.09845e-06,-7.46693e+08,-7.46156e+08,-7.46537e+08,281154,-0.033387,0.193859,-0,0.196713,-21328.5,-27183.5,-0,34552.1,281154
step02_gravity_refstate-crust.xmf,235,-1.53287e-06,5.13259e-06,0,3.31675e-07,-6.94473e+08,-6.94016e+08,-6.94368e+08,22752.9,-0.00289429,0.13102,-0,0.131052,-38101.5,-25284.7,-0,45727.9,22752.9
step02_gravity_refstate-crust.xmf,236,-2.33292e-07,1.83959e-06,0,4.97754e-06,-5.49654e+08,-5.49512e+08,-5.49638e+08,341459,-0.0354835,0.271838,-0,0.274144,-15511.8,-20012.6,-0,25320.4,341459
step02_gravity_refstate-crust.xmf,237,-1.04376e-06,3.01973e-06,0,6.2299e-06,-7.02664e+08,-7.02386e+08,-7.02593e+08,427371,-0.0442461,0.264233,-0,0.267912,-14939.4,-25581.7,-0,29624.4,427371
step02_gravity_refstate-crust.xmf,238,8.52048e-07,1.6878e-07,0,2.28181e-06,-1.96694e+08,-1.96741e+08,-1.96753e+08,156532,-0.0279388,0.291312,-0,0.292649,-14277.9,-7164.56,-0,15974.7,156532
step02_gravity_refstate-crust.xmf,239,2.13802e-06,-8.09152e-07,0,2.15428e-08,203188,1011.73,56519.6,1477.84,-0.0434268,0.298995,-0,0.302132,-12353.1,0,-0,12353.1,1477.84
step02_gravity_refstate-crust.xmf,240,6.8465e-07,4.51369e-07,0,3.06409e-06,-2.93582e+08,-2.93598e+08,-2.93629e+08,210197,-0.026403,0.290626,-0,0.291822,-14207.7,-10691.6,-0,17781.2,210197
step02_gravity_refstate-crust.xmf,241,5.66689e-07,6.43388e-07,0,3.76742e-06,-3.87262e+08,-3.87256e+08,-3.87301e+08,258445,-0.0279631,0.289629,-0,0.290976,-14070.5,-14101.9,-0,19921,258445
step02_gravity_refstate-crust.xmf,242,-2.39791e-06,5.55218e-06,0,4.98135e-06,-7.76753e+08,-7.76207e+08,-7.76588e+08,341720,-0.0390861,0.211133,-0,0.214721,-18798.7,-28277.3,-0,33955.8,341720
step02_gravity_refstate-crust.xmf,243,-2.27847e-06,5.18525e-06,0,5.56415e-06,-7.76592e+08,-7.7608e+08,-7.76435e+08,381701,-0.0423061,0.225607,-0,0.229539,-17424.8,-28271.4,-0,33209.9,381701
step02_gravity_refstate-crust.xmf,244,-2.04435e-06,4.66392e-06,0,6.13941e-06,-7.74352e+08,-7.73892e+08,-7.74212e+08,421163,-0.0451463,0.240972,-0,0.245164,-16103.8,-28190,-0,32465.5,421163
step02_gravity_refstate-crust.xmf,245,-2.43972e-06,5.81983e-06,0,4.40352e-06,-7.77404e+08,-7.76837e+08,-7.77236e+08,302082,-0.0355952,0.197119,-0,0.200307,-20237.7,-28301.3,-0,34792.6,302082
step02_gravity_refstate-crust.xmf,246,-1.67827e-06,5.33362e-06,0,1.25256e-06,-7.10361e+08,-7.0988e+08,-7.10246e+08,85925.4,-0.0110245,0.137495,-0,0.137936,-32879.9,-25862.9,-0,41832.7,85925.4
step02_gravity_refstate-crust.xmf,247,-1.77479e-06,5.40271e-06,0,1.6336e-06,-7.12846e+08,-7.12354e+08,-7.12725e+08,112065,-0.0143067,0.143393,-0,0.144105,-30944.7,-25953.1,-0,40387.4,112065
step02_gravity_refstate-crust.xmf,248,-1.88351e-06,5.458e-06,0,2.04773e-06,-7.1438e+08,-7.13876e+08,-7.1425e+08,140474,-0.017784,0.151054,-0,0.152097,-29019.4,-26008.5,-0,38968.8,140474
step02_gravity_refstate-crust.xmf,249,-2.13781e-06,5.44969e-06,0,3.40318e-06,-7.20487e+08,-7.19966e+08,-7.2034e+08,233458,-0.028366,0.180549,-0,0.182763,-23725.4,-26229.8,-0,35368.1,233458
step02_gravity_refstate-crust.xmf,250,-1.98959e-06,5.49647e-06,0,2.4841e-06,-7.16589e+08,-7.16076e+08,-7.16453e+08,170409,-0.0213381,0.159908,-0,0.161325,-27156.3,-26088.6,-0,37657.4,170409
step02_gravity_refstate-crust.xmf,251,-2.08054e-06,5.50565e-06,0,2.93458e-06,-7.19422e+08,-7.18902e+08,-7.19279e+08,201312,-0.0248698,0.169638,-0,0.171451,-25392.4,-26191.4,-0,36479.6,201312
step02_gravity_refstate-crust.xmf,252,-1.60881e-06,5.23321e-06,0,9.32649e-07,-7.0223e+08,-7.0176e+08,-7.02119e+08,63979.7,-0.00819784,0.13455,-0,0.1348,-34669.5,-25567,-0,43077.2,63979.7
step02_gravity_refstate-crust.xmf,253,-1.4449e-06,5.31947e-06,0,3.23758e-09,-7.2734e+08,-7.26876e+08,-7.27241e+08,222.098,-5.27214e-19,0.124049,-0,0.124049,-40000,-26481.9,-0,47971.8,222.098
step02_gravity_refstate-crust.xmf,254,-1.50511e-06,5.35028e-06,0,6.25369e-07,-7.25781e+08,-7.25311e+08,-7.25678e+08,42900.3,-0.00555312,0.127187,-0,0.127308,-36215.8,-26425,-0,44831.5,42900.3
step02_gravity_refstate-crust.xmf,255,1.28265e-07,1.32522e-06,0,4.72555e-06,-5.10169e+08,-5.10087e+08,-5.10177e+08,324173,-0.0334316,0.280656,-0,0.28264,-14714.4,-18575.8,-0,23697.5,324173
step02_gravity_refstate-crust.xmf,256,4.40852e-07,8.99781e-07,0,4.41827e-06,-4.71126e+08,-4.71095e+08,-4.71157e+08,303093,-0.0312361,0.288246,-0,0.289934,-13935,-17155,-0,22101.5,303093
step02_gravity_refstate-crust.xmf,257,-1.01898e-06,3.01796e-06,0,5.87171e-06,-6.76231e+08,-6.75954e+08,-6.76161e+08,402800,-0.0422231,0.260087,-0,0.263492,-15600.8,-24619.4,-0,29146.2,402800
step02_gravity_refstate-crust.xmf,258,-7.19196e-07,2.5982e-06,0,5.59353e-06,-6.35748e+08,-6.35521e+08,-6.35699e+08,383716,-0.0401298,0.264405,-0,0.267433,-15580.1,-23146.2,-0,27901.3,383716
step02_gravity_refstate-crust.xmf,259,-1.89605e-07,1.80883e-06,0,5.37489e-06,-5.895e+08,-5.89363e+08,-5.89487e+08,368717,-0.037889,0.276437,-0,0.279022,-14689.7,-21463.4,-0,26008.9,368717
step02_gravity_refstate-crust.xmf,260,-1.09882e-06,3.07112e-06,0,6.64496e-06,-7.32395e+08,-7.32109e+08,-7.3232e+08,455844,-0.0465242,0.268739,-0,0.272736,-14256,-26663.9,-0,30235.7,455844
step02_gravity_refstate-crust.xmf,261,9.47085e-07,1.89093e-07,0,2.63036e-06,-2.44678e+08,-2.4473e+08,-2.44743e+08,180443,-0.0258675,0.296638,-0,0.297763,-13264.8,-8911.89,-0,15980.5,180443
step02_gravity_refstate-crust.xmf,262,1.16311e-06,-7.95995e-08,0,1.81838e-06,-1.50395e+08,-1.5048e+08,-1.50475e+08,124741,-0.0291131,0.296611,-0,0.298036,-13306.9,-5479.85,-0,14391,124741
step02_gravity_refstate-crust.xmf,263,1.57096e-06,-3.2744e-07,0,1.3079e-06,-1.02886e+08,-1.03016e+08,-1.02994e+08,89721.8,-0.030873,0.301843,-0,0.303417,-12189.5,-3751.51,-0,12753.7,89721.8
step02_gravity_refstate-crust.xmf,264,2.0985e-06,-6.44154e-07,0,7.20182e-07,-5.34723e+07,-5.36604e+07,-5.36163e+07,49404.5,-0.0334431,0.306235,-0,0.308055,-11036.9,-1954.21,-0,11208.5,49404.5
step02_gravity_refstate-crust.xmf,265,8.24191e-07,3.70013e-07,0,3.35862e-06,-3.40383e+08,-3.40414e+08,-3.4044e+08,230401,-0.0261588,0.296261,-0,0.297413,-13170.2,-12395.9,-0,18086.2,230401
step02_gravity_refstate-crust.xmf,266,7.09491e-07,5.53041e-07,0,4.06559e-06,-4.31314e+08,-4.31325e+08,-4.31363e+08,278900,-0.0289879,0.294823,-0,0.296244,-13166.2,-15706.1,-0,20494.7,278900
step02_gravity_refstate-crust.xmf,267,-1.68454e-06,3.96452e-06,0,6.68112e-06,-7.69281e+08,-7.68893e+08,-7.69165e+08,458325,-0.04742,0.257329,-0,0.261662,-14811.1,-28005.8,-0,31681.1,458325
step02_gravity_refstate-crust.xmf,268,-2.43245e-06,5.99586e-06,0,3.9386e-06,-7.79819e+08,-7.79241e+08,-7.79652e+08,270188,-0.0326141,0.185929,-0,0.188767,-21444.1,-28389.5,-0,35578.3,270188
step02_gravity_refstate-crust.xmf,269,-2.30626e-06,5.86591e-06,0,3.55993e-06,-7.61023e+08,-7.60462e+08,-7.60865e+08,244211,-0.029876,0.179277,-0,0.181749,-22768.9,-27705.5,-0,35861.1,244211
step02_gravity_refstate-crust.xmf,270,-1.37156e-06,5.50199e-06,0,2.97108e-07,-7.58068e+08,-7.57597e+08,-7.57974e+08,20381.6,-0.00264969,0.118741,-0,0.118771,-38051.6,-27601.2,-0,47008,20381.6
step02_gravity_refstate-crust.xmf,271,2.2641e-07,1.22738e-06,0,5.09641e-06,-5.5075e+08,-5.50681e+08,-5.50765e+08,349613,-0.0355525,0.285651,-0,0.287855,-13884,-20053.4,-0,24390.7,349613
step02_gravity_refstate-crust.xmf,272,-5.68263e-07,2.31443e-06,0,6.07492e-06,-6.6612e+08,-6.65923e+08,-6.66082e+08,416739,-0.0426103,0.273465,-0,0.276765,-14410.5,-24252.1,-0,28210.4,416739
step02_gravity_refstate-crust.xmf,273,-5.46498e-07,2.24055e-06,0,6.54073e-06,-6.99302e+08,-6.99111e+08,-6.99264e+08,448694,-0.0450971,0.27921,-0,0.282828,-13626.8,-25460,-0,28877.4,448694
step02_gravity_refstate-crust.xmf,274,1.2374e-06,-6.94329e-08,0,2.17614e-06,-1.98964e+08,-1.99054e+08,-1.99049e+08,149283,-0.0257184,0.302329,-0,0.303421,-12224.5,-7248.39,-0,14211.9,149283
step02_gravity_refstate-crust.xmf,275,2.85059e-06,-1.07802e-06,0,2.48709e-08,270942,1438.57,75390.9,1706.14,-0.0372301,0.309403,-0,0.311635,-9858.69,0,-0,9858.69,1706.14
step02_gravity_refstate-crust.xmf,276,1.06973e-06,1.19657e-07,0,2.91668e-06,-2.92698e+08,-2.92763e+08,-2.92771e+08,200084,-0.0246632,0.302208,-0,0.303213,-12228.9,-10660.5,-0,16223.2,200084
step02_gravity_refstate-crust.xmf,277,9.87119e-07,1.90214e-07,0,3.63166e-06,-3.86518e+08,-3.86573e+08,-3.86586e+08,249132,-0.0264925,0.301814,-0,0.302974,-12204.7,-14075.9,-0,18630.2,249132
step02_gravity_refstate-crust.xmf,278,-2.59448e-06,6.32782e-06,0,4.03379e-06,-8.09317e+08,-8.08705e+08,-8.09139e+08,276718,-0.0332836,0.184407,-0,0.187387,-20860.5,-29463.3,-0,36100.5,276718
step02_gravity_refstate-crust.xmf,279,-2.64077e-06,6.16689e-06,0,4.60767e-06,-8.09142e+08,-8.08538e+08,-8.08961e+08,316086,-0.0369516,0.197627,-0,0.201052,-19459.3,-29456.5,-0,35303.6,316086
step02_gravity_refstate-crust.xmf,280,-2.62899e-06,5.92196e-06,0,5.21848e-06,-8.1013e+08,-8.09543e+08,-8.09949e+08,357987,-0.0405484,0.211626,-0,0.215475,-18085.9,-29492.1,-0,34596,357987
step02_gravity_refstate-crust.xmf,281,-2.53485e-06,5.55394e-06,0,5.86762e-06,-8.10915e+08,-8.1036e+08,-8.10741e+08,402519,-0.0440154,0.226683,-0,0.230917,-16740.9,-29520.5,-0,33937,402519
step02_gravity_refstate-crust.xmf,282,-2.31763e-06,4.98438e-06,0,6.59981e-06,-8.11469e+08,-8.10968e+08,-8.1131e+08,452747,-0.0474384,0.243905,-0,0.248476,-15333,-29540.7,-0,33282.9,452747
step02_gravity_refstate-crust.xmf,283,-1.52775e-06,5.57732e-06,0,9.21568e-07,-7.54357e+08,-7.5387e+08,-7.54252e+08,63219.6,-0.00826604,0.125397,-0,0.12567,-34171.8,-27465.6,-0,43841.4,63219.6
step02_gravity_refstate-crust.xmf,284,-1.66039e-06,5.6769e-06,0,1.31863e-06,-7.5654e+08,-7.56037e+08,-7.56426e+08,90457.7,-0.0118194,0.131246,-0,0.131777,-31900.1,-27544.7,-0,42146.5,90457.7
step02_gravity_refstate-crust.xmf,285,-1.79972e-06,5.76628e-06,0,1.70122e-06,-7.5754e+08,-7.57021e+08,-7.57416e+08,116704,-0.0151444,0.138187,-0,0.139014,-29952,-27580.6,-0,40716.2,116704
step02_gravity_refstate-crust.xmf,286,-1.94419e-06,5.83767e-06,0,2.10719e-06,-7.57853e+08,-7.5732e+08,-7.5772e+08,144553,-0.0185729,0.146463,-0,0.147636,-28105.7,-27591.6,-0,39385.6,144553
step02_gravity_refstate-crust.xmf,287,-2.2112e-06,5.91139e-06,0,3.00926e-06,-7.60637e+08,-7.6008e+08,-7.60485e+08,206435,-0.0257622,0.166228,-0,0.168212,-24597.6,-27691.9,-0,37039,206435
step02_gravity_refstate-crust.xmf,288,-2.08408e-06,5.89026e-06,0,2.54139e-06,-7.58923e+08,-7.58376e+08,-7.5878e+08,174339,-0.0221134,0.155806,-0,0.157367,-26324.9,-27630,-0,38163,174339
step02_gravity_refstate-crust.xmf,289,-1.239e-06,5.64966e-06,0,4.85261e-09,-7.90899e+08,-7.90427e+08,-7.90814e+08,332.889,-4.83164e-19,0.111349,-0,0.111349,-40000,-28797.2,-0,49287.7,332.889
step02_gravity_refstate-crust.xmf,290,-1.344e-06,5.66699e-06,0,5.45865e-07,-7.82413e+08,-7.81932e+08,-7.8232e+08,37446.3,-0.00495893,0.115891,-0,0.115997,-36172,-28487.9,-0,46043.1,37446.3
step02_gravity_refstate-crust.xmf,291,5.83195e-07,7.49208e-07,0,4.75772e-06,-5.12801e+08,-5.1279e+08,-5.12841e+08,326379,-0.0329977,0.293574,-0,0.295423,-13083.5,-18672.6,-0,22800.1,326379
step02_gravity_refstate-crust.xmf,292,8.74491e-07,3.75935e-07,0,4.36102e-06,-4.73195e+08,-4.73229e+08,-4.73255e+08,299166,-0.0302814,0.300135,-0,0.301659,-12323.1,-17231.3,-0,21184.3,299166
step02_gravity_refstate-crust.xmf,293,3.48627e-07,1.07128e-06,0,5.48745e-06,-5.89217e+08,-5.89168e+08,-5.89241e+08,376439,-0.0377441,0.291257,-0,0.293692,-13069,-21454.1,-0,25121.3,376439
step02_gravity_refstate-crust.xmf,294,-1.08583e-07,1.69985e-06,0,5.80792e-06,-6.27777e+08,-6.27653e+08,-6.2777e+08,398424,-0.0403912,0.282263,-0,0.285138,-13817.7,-22857,-0,26709,398424
step02_gravity_refstate-crust.xmf,295,-1.17797e-06,3.10752e-06,0,7.13072e-06,-7.62884e+08,-7.6259e+08,-7.62803e+08,489167,-0.0489016,0.273693,-0,0.278027,-13576.3,-27773.6,-0,30914.2,489167
step02_gravity_refstate-crust.xmf,296,-1.79976e-06,4.01411e-06,0,7.17429e-06,-7.97222e+08,-7.96824e+08,-7.97099e+08,492156,-0.0496783,0.262615,-0,0.267272,-14083.9,-29022.6,-0,32259.4,492156
step02_gravity_refstate-crust.xmf,297,-5.63241e-07,2.22219e-06,0,7.02432e-06,-7.31517e+08,-7.31326e+08,-7.31478e+08,481868,-0.0475559,0.284495,-0,0.288442,-12954.3,-26632.8,-0,29616.2,481868
step02_gravity_refstate-crust.xmf,298,1.31564e-06,-8.66971e-08,0,2.46215e-06,-2.45915e+08,-2.46011e+08,-2.46005e+08,168903,-0.0235951,0.307394,-0,0.308298,-11267.9,-8957.97,-0,14394.8,168903
step02_gravity_refstate-crust.xmf,299,1.58634e-06,-2.99307e-07,0,1.70033e-06,-1.54359e+08,-1.54488e+08,-1.54468e+08,116643,-0.0258042,0.307833,-0,0.308912,-11052,-5625.54,-0,12401.4,116643
step02_gravity_refstate-crust.xmf,300,2.62267e-06,-8.45729e-07,0,6.40518e-07,-5.58252e+07,-5.60632e+07,-5.60052e+07,43939.5,-0.0272455,0.316416,-0,0.317587,-8513.09,-2041.68,-0,8754.49,43939.5
step02_gravity_refstate-crust.xmf,301,2.03834e-06,-5.29957e-07,0,1.20866e-06,-1.08012e+08,-1.08188e+08,-1.08152e+08,82914,-0.0261158,0.312875,-0,0.313963,-9759.07,-3939.71,-0,10524.3,82914
step02_gravity_refstate-crust.xmf,302,1.2296e-06,-2.67249e-08,0,3.15862e-06,-3.40155e+08,-3.40241e+08,-3.40239e+08,216681,-0.0241464,0.307906,-0,0.308852,-11215,-12388.6,-0,16710.9,216681
step02_gravity_refstate-crust.xmf,303,1.15207e-06,4.09973e-08,0,3.91407e-06,-4.32921e+08,-4.32998e+08,-4.33001e+08,268505,-0.0274273,0.306736,-0,0.30796,-11412.2,-15765.7,-0,19462.6,268505
step02_gravity_refstate-crust.xmf,304,-2.48084e-06,6.37294e-06,0,3.51963e-06,-8.05794e+08,-8.05187e+08,-8.05624e+08,241447,-0.029817,0.17321,-0,0.175758,-22275.6,-29335.6,-0,36834.4,241447
step02_gravity_refstate-crust.xmf,305,-2.27053e-06,4.77845e-06,0,7.13836e-06,-8.26111e+08,-8.25627e+08,-8.25955e+08,489692,-0.049863,0.254112,-0,0.258958,-14369.7,-30073.6,-0,33330.3,489692
step02_gravity_refstate-crust.xmf,306,-1.92851e-06,4.0979e-06,0,7.67261e-06,-8.23233e+08,-8.2282e+08,-8.23101e+08,526341,-0.0517894,0.268013,-0,0.27297,-13417.7,-29969.2,-0,32835.7,526341
step02_gravity_refstate-crust.xmf,307,-1.12347e-06,5.82709e-06,0,2.65089e-07,-8.27297e+08,-8.2682e+08,-8.2722e+08,18185.1,-0.00237354,0.104626,-0,0.104653,-37825.5,-30123,-0,48354.6,18185.1
step02_gravity_refstate-crust.xmf,308,7.46995e-07,5.45101e-07,0,5.10574e-06,-5.51969e+08,-5.51983e+08,-5.5202e+08,350254,-0.0348523,0.299198,-0,0.301221,-12284.1,-20098.9,-0,23555.5,350254
step02_gravity_refstate-crust.xmf,309,-5.80399e-10,1.47381e-06,0,6.30062e-06,-6.64282e+08,-6.64181e+08,-6.64282e+08,432222,-0.0429092,0.289013,-0,0.292181,-12949.4,-24186.1,-0,27434.6,432222
step02_gravity_refstate-crust.xmf,310,4.83004e-08,1.37573e-06,0,6.78524e-06,-6.99241e+08,-6.9915e+08,-6.99244e+08,465467,-0.0454333,0.29466,-0,0.298142,-12273.8,-25458.9,-0,28263.1,465467
step02_gravity_refstate-crust.xmf,311,-1.26711e-06,3.0922e-06,0,7.69296e-06,-7.92492e+08,-7.92193e+08,-7.92405e+08,527737,-0.051292,0.279451,-0,0.28412,-12894.1,-28851.1,-0,31601.3,527737
step02_gravity_refstate-crust.xmf,312,-2.13554e-06,4.3102e-06,0,8.15434e-06,-8.50196e+08,-8.49754e+08,-8.50049e+08,559388,-0.053689,0.27203,-0,0.277277,-12874.5,-30950.3,-0,33521.2,559388
step02_gravity_refstate-crust.xmf,313,-1.3418e-06,3.02922e-06,0,8.38264e-06,-8.23258e+08,-8.22958e+08,-8.23166e+08,575049,-0.0539182,0.287282,-0,0.292298,-12119.4,-29970.8,-0,32328.5,575049
step02_gravity_refstate-crust.xmf,314,1.59368e-06,-2.98183e-07,0,1.99817e-06,-2.03051e+08,-2.03181e+08,-2.03161e+08,137074,-0.0226951,0.312472,-0,0.313295,-10167.4,-7398.27,-0,12574.2,137074
step02_gravity_refstate-crust.xmf,315,3.45315e-06,-1.30844e-06,0,2.38719e-08,328105,1459.56,91218.6,1637.61,-0.0294516,0.318012,-0,0.319373,-7383.26,0,-0,7383.26,1637.61
step02_gravity_refstate-crust.xmf,316,1.44292e-06,-2.08763e-07,0,2.67301e-06,-2.92482e+08,-2.92595e+08,-2.92581e+08,183368,-0.0221942,0.312805,-0,0.313592,-10265,-10653.6,-0,14794.2,183368
step02_gravity_refstate-crust.xmf,317,1.45665e-06,-3.14626e-07,0,3.38392e-06,-3.90517e+08,-3.90638e+08,-3.90617e+08,232137,-0.0241694,0.314135,-0,0.315063,-10185.4,-14222.6,-0,17493.6,232137
step02_gravity_refstate-crust.xmf,318,-2.65664e-06,6.78443e-06,0,3.56436e-06,-8.41402e+08,-8.40754e+08,-8.4122e+08,244515,-0.03002,0.170303,-0,0.172929,-21598.1,-30631.8,-0,37480.5,244515
step02_gravity_refstate-crust.xmf,319,-2.79107e-06,6.73371e-06,0,4.1269e-06,-8.42131e+08,-8.41477e+08,-8.41939e+08,283105,-0.0338367,0.182883,-0,0.185987,-20180.6,-30657.7,-0,36703.6,283105
step02_gravity_refstate-crust.xmf,320,-1.73013e-06,3.49253e-06,0,8.8838e-06,-8.55048e+08,-8.5469e+08,-8.54929e+08,609429,-0.0559206,0.288427,-0,0.293798,-11810.6,-31127.3,-0,33292.6,609429
step02_gravity_refstate-crust.xmf,321,-2.87318e-06,6.58939e-06,0,4.74767e-06,-8.42343e+08,-8.41694e+08,-8.42146e+08,325690,-0.0377347,0.196666,-0,0.200253,-18798.8,-30664.9,-0,35968.5,325690
step02_gravity_refstate-crust.xmf,322,-2.50784e-06,5.07279e-06,0,7.45515e-06,-8.50351e+08,-8.49831e+08,-8.50179e+08,511423,-0.0511599,0.255607,-0,0.260677,-13959.5,-30955.6,-0,33957.5,511423
step02_gravity_refstate-crust.xmf,323,-2.72665e-06,5.61728e-06,0,6.76909e-06,-8.48274e+08,-8.47702e+08,-8.48087e+08,464360,-0.0482832,0.240505,-0,0.245304,-15054.4,-30879.9,-0,34354.1,464360
step02_gravity_refstate-crust.xmf,324,-2.88969e-06,6.34813e-06,0,5.407e-06,-8.42885e+08,-8.42251e+08,-8.42686e+08,370920,-0.0415279,0.21117,-0,0.215215,-17474.7,-30684.2,-0,35311.3,370920
step02_gravity_refstate-crust.xmf,325,-2.8292e-06,5.99373e-06,0,6.10639e-06,-8.43954e+08,-8.43349e+08,-8.4376e+08,418898,-0.0451626,0.226426,-0,0.230886,-16194.5,-30722.8,-0,34729.7,418898
step02_gravity_refstate-crust.xmf,326,-1.48836e-06,5.8908e-06,0,1.02281e-06,-7.9896e+08,-7.98453e+08,-7.98858e+08,70165,-0.00929739,0.119476,-0,0.119837,-32839.1,-29090,-0,43870.7,70165
step02_gravity_refstate-crust.xmf,327,-2.33632e-06,6.34593e-06,0,3.03138e-06,-8.01562e+08,-8.00966e+08,-8.01402e+08,207953,-0.0262135,0.162369,-0,0.164471,-23836,-29182,-0,37679.5,207953
step02_gravity_refstate-crust.xmf,328,-1.64805e-06,6.00744e-06,0,1.36319e-06,-7.99789e+08,-7.99264e+08,-7.99676e+08,93514.7,-0.0123505,0.125615,-0,0.126221,-30861,-29119.7,-0,42430.6,93514.7
step02_gravity_refstate-crust.xmf,329,-1.8226e-06,6.12009e-06,0,1.72593e-06,-8.0005e+08,-7.99505e+08,-7.99925e+08,118399,-0.0155262,0.133006,-0,0.133909,-29012.7,-29128.7,-0,41112.2,118399
step02_gravity_refstate-crust.xmf,330,-2.00727e-06,6.21971e-06,0,2.13054e-06,-8.0004e+08,-7.99475e+08,-7.99902e+08,146155,-0.0189603,0.141816,-0,0.143078,-27208.2,-29127.8,-0,39858.7,146155
step02_gravity_refstate-crust.xmf,331,-2.18452e-06,6.29493e-06,0,2.56731e-06,-8.00425e+08,-7.99843e+08,-8.00275e+08,176118,-0.0225241,0.151613,-0,0.153277,-25491.3,-29141.2,-0,38717.1,176118
step02_gravity_refstate-crust.xmf,332,-1.36568e-06,5.82474e-06,0,7.48213e-07,-8.01916e+08,-8.01422e+08,-8.01822e+08,51327.4,-0.00681677,0.114714,-0,0.114916,-34540.1,-29198,-0,45227.7,51327.4
step02_gravity_refstate-crust.xmf,333,-9.57757e-07,5.90616e-06,0,1.9176e-09,-8.53529e+08,-8.53058e+08,-8.53463e+08,131.547,-2.47384e-19,0.0981707,-0,0.0981707,-40000,-31078.8,-0,50654.7,131.547
step02_gravity_refstate-crust.xmf,334,-1.15301e-06,5.92594e-06,0,5.20607e-07,-8.35489e+08,-8.35003e+08,-8.3541e+08,35713.7,-0.00472665,0.105509,-0,0.105615,-35633.1,-30421.3,-0,46852.7,35713.7
step02_gravity_refstate-crust.xmf,335,1.0744e-06,1.30434e-07,0,4.66567e-06,-5.13852e+08,-5.13916e+08,-5.13925e+08,320065,-0.0317531,0.305891,-0,0.307535,-11504.9,-18711.8,-0,21965.8,320065
step02_gravity_refstate-crust.xmf,336,1.34683e-06,-1.96832e-07,0,4.19574e-06,-4.75945e+08,-4.76051e+08,-4.76037e+08,287828,-0.028603,0.311815,-0,0.313124,-10680.8,-17332.4,-0,20359,287828
step02_gravity_refstate-crust.xmf,337,1.54903e-06,-4.24583e-07,0,3.72845e-06,-4.39408e+08,-4.39543e+08,-4.39514e+08,255772,-0.0256506,0.316592,-0,0.317629,-9884.16,-16002.7,-0,18809.1,255772
step02_gravity_refstate-crust.xmf,338,9.47603e-07,2.68486e-07,0,5.47394e-06,-5.89485e+08,-5.89532e+08,-5.8955e+08,375513,-0.0367444,0.30552,-0,0.307721,-11494.1,-21465,-0,24348.8,375513
step02_gravity_refstate-crust.xmf,339,5.12853e-07,8.30409e-07,0,5.9234e-06,-6.27157e+08,-6.27135e+08,-6.27192e+08,406345,-0.0400292,0.29797,-0,0.300647,-12223.5,-22835.6,-0,25901.3,406345
step02_gravity_refstate-crust.xmf,340,-5.84461e-07,2.15956e-06,0,7.55497e-06,-7.61576e+08,-7.61388e+08,-7.61536e+08,518271,-0.049932,0.290202,-0,0.294467,-12318.3,-27726.9,-0,30340.1,518271
step02_gravity_refstate-crust.xmf,341,5.9668e-08,1.2783e-06,0,7.31507e-06,-7.31887e+08,-7.31803e+08,-7.31891e+08,501814,-0.0478985,0.299897,-0,0.303698,-11706.1,-26647.3,-0,29105.2,501814
step02_gravity_refstate-crust.xmf,342,-1.04291e-06,2.44257e-06,0,9.03263e-06,-8.37806e+08,-8.37567e+08,-8.37735e+08,619639,-0.0558326,0.300069,-0,0.305219,-11215.8,-30500.7,-0,32497.5,619639
step02_gravity_refstate-crust.xmf,343,1.65476e-06,-3.52622e-07,0,2.20982e-06,-2.47792e+08,-2.4793e+08,-2.47906e+08,151594,-0.0206626,0.316966,-0,0.317638,-9303.51,-9027.27,-0,12963.3,151594
step02_gravity_refstate-crust.xmf,344,1.9347e-06,-4.92716e-07,0,1.54022e-06,-1.64124e+08,-1.64291e+08,-1.64257e+08,105659,-0.0214536,0.317806,-0,0.318529,-8812.2,-5982.18,-0,10650.9,105659
step02_gravity_refstate-crust.xmf,345,3.06119e-06,-1.03258e-06,0,4.79311e-07,-5.50831e+07,-5.53639e+07,-5.5293e+07,32880.7,-0.020233,0.324289,-0,0.32492,-6026.38,-2016.14,-0,6354.69,32880.7
step02_gravity_refstate-crust.xmf,346,2.41117e-06,-7.05997e-07,0,1.02076e-06,-1.18263e+08,-1.18477e+08,-1.18428e+08,70024.4,-0.0195081,0.323226,-0,0.323814,-7053.9,-4314.14,-0,8268.58,70024.4
step02_gravity_refstate-crust.xmf,347,1.62825e-06,-4.22563e-07,0,2.82909e-06,-3.38887e+08,-3.39028e+08,-3.38999e+08,194076,-0.0213049,0.318541,-0,0.319253,-9245.19,-12343.5,-0,15421.9,194076
step02_gravity_refstate-crust.xmf,348,-2.47502e-06,6.77235e-06,0,3.03972e-06,-8.40152e+08,-8.39518e+08,-8.39982e+08,208525,-0.0262839,0.158709,-0,0.160871,-23081.1,-30587.1,-0,38318.5,208525
step02_gravity_refstate-crust.xmf,349,-2.43486e-06,4.60445e-06,0,8.68577e-06,-8.78449e+08,-8.77966e+08,-8.78282e+08,595844,-0.0555109,0.275956,-0,0.281484,-12350.4,-31978.1,-0,34280.2,595844
step02_gravity_refstate-crust.xmf,350,-2.79389e-06,5.39727e-06,0,7.86566e-06,-8.76959e+08,-8.76397e+08,-8.76767e+08,539584,-0.0526404,0.258462,-0,0.263768,-13438.8,-31923.6,-0,34637,539584
step02_gravity_refstate-crust.xmf,351,-1.95788e-06,3.63229e-06,0,9.5004e-06,-8.80668e+08,-8.80285e+08,-8.80534e+08,651727,-0.0578947,0.293992,-0,0.299638,-11296.4,-32059.3,-0,33991.3,651727
step02_gravity_refstate-crust.xmf,352,-7.9436e-07,6.01168e-06,0,1.41006e-07,-8.84377e+08,-8.8391e+08,-8.84323e+08,9673.01,-0.00117743,0.0918718,-0,0.0918794,-38495.8,-32202.7,-0,50189.1,9673.01
step02_gravity_refstate-crust.xmf,353,-8.66782e-07,6.06924e-06,0,3.12584e-07,-8.85238e+08,-8.84762e+08,-8.85178e+08,21443.3,-0.00273081,0.0932968,-0,0.0933367,-36591.6,-32233.9,-0,48764.4,21443.3
step02_gravity_refstate-crust.xmf,354,1.71379e-06,-6.08448e-07,0,3.34773e-06,-4.13614e+08,-4.13773e+08,-4.13732e+08,229654,-0.0233421,0.320564,-0,0.321412,-9129.8,-15064,-0,17614.7,229654
step02_gravity_refstate-crust.xmf,355,1.30992e-06,-1.83842e-07,0,4.98462e-06,-5.5303e+08,-5.53132e+08,-5.5312e+08,341945,-0.0333192,0.312111,-0,0.313884,-10722.3,-20138.6,-0,22815.2,341945
step02_gravity_refstate-crust.xmf,356,7.37786e-07,4.23042e-07,0,6.44339e-06,-6.65765e+08,-6.65786e+08,-6.65815e+08,442016,-0.0424443,0.306085,-0,0.309014,-11341.4,-24241.5,-0,26763.3,442016
step02_gravity_refstate-crust.xmf,357,6.50437e-07,4.92704e-07,0,6.97014e-06,-7.02693e+08,-7.02704e+08,-7.02738e+08,478152,-0.0452822,0.308535,-0,0.31184,-11065,-25585.6,-0,27875.8,478152
step02_gravity_refstate-crust.xmf,358,-5.66913e-07,1.96588e-06,0,8.1549e-06,-7.8937e+08,-7.89196e+08,-7.89331e+08,559426,-0.0522389,0.297324,-0,0.301878,-11649.3,-28738.6,-0,31009.8,559426
step02_gravity_refstate-crust.xmf,359,-1.15217e-06,2.44121e-06,0,9.57557e-06,-8.58492e+08,-8.58245e+08,-8.58413e+08,656884,-0.0575715,0.305383,-0,0.310763,-10791.2,-31253.4,-0,33063.9,656884
step02_gravity_refstate-crust.xmf,360,-4.84688e-07,1.68809e-06,0,8.80691e-06,-8.14933e+08,-8.14784e+08,-8.149e+08,604154,-0.05446,0.30606,-0,0.310867,-10948,-29669.1,-0,31624.6,604154
step02_gravity_refstate-crust.xmf,361,-2.7458e-06,4.86877e-06,0,9.26717e-06,-9.04038e+08,-9.03515e+08,-9.03849e+08,635728,-0.0572255,0.281057,-0,0.286824,-11810.4,-32908.8,-0,34963.9,635728
step02_gravity_refstate-crust.xmf,362,-2.18538e-06,3.73248e-06,0,1.02042e-05,-9.04431e+08,-9.04025e+08,-9.04281e+08,700008,-0.0597836,0.300553,-0,0.306441,-10776.3,-32923.6,-0,34642.4,700008
step02_gravity_refstate-crust.xmf,363,3.91167e-06,-1.48445e-06,0,2.11603e-08,371575,1401.41,103235,1451.59,-0.0203991,0.32446,-0,0.325101,-4919.33,0,-0,4919.33,1451.59
step02_gravity_refstate-crust.xmf,364,1.85328e-06,-4.6939e-07,0,1.80961e-06,-2.10005e+08,-2.10165e+08,-2.10132e+08,124139,-0.0195708,0.320117,-0,0.320715,-8439.05,-7652.22,-0,11391.8,124139
step02_gravity_refstate-crust.xmf,365,1.78911e-06,-5.17654e-07,0,2.32273e-06,-2.91164e+08,-2.91322e+08,-2.91287e+08,159339,-0.0190268,0.322102,-0,0.322664,-8311.98,-10606.6,-0,13475.5,159339
step02_gravity_refstate-crust.xmf,366,-2.62816e-06,7.17159e-06,0,3.06744e-06,-8.74463e+08,-8.73791e+08,-8.74283e+08,210427,-0.026199,0.156126,-0,0.158309,-22295.8,-31836.2,-0,38867,210427
step02_gravity_refstate-crust.xmf,367,-2.83513e-06,7.2068e-06,0,3.60764e-06,-8.74643e+08,-8.73954e+08,-8.74448e+08,247484,-0.0300767,0.168255,-0,0.170922,-20867.6,-31841.9,-0,38070.5,247484
step02_gravity_refstate-crust.xmf,368,-3.00485e-06,7.1686e-06,0,4.21e-06,-8.74582e+08,-8.73884e+08,-8.74375e+08,288806,-0.0341037,0.181489,-0,0.184665,-19486.1,-31839,-0,37328.7,288806
step02_gravity_refstate-crust.xmf,369,-3.12292e-06,7.04132e-06,0,4.87318e-06,-8.7458e+08,-8.73883e+08,-8.74366e+08,334300,-0.0381959,0.19576,-0,0.199451,-18147.8,-31838.2,-0,36647.2,334300
step02_gravity_refstate-crust.xmf,370,-3.03345e-06,6.03194e-06,0,7.06753e-06,-8.76757e+08,-8.76136e+08,-8.76549e+08,484832,-0.0493982,0.241628,-0,0.246626,-14549.1,-31916.3,-0,35076,484832
step02_gravity_refstate-crust.xmf,371,-3.14583e-06,6.48108e-06,0,6.3086e-06,-8.75519e+08,-8.74859e+08,-8.75303e+08,432770,-0.0459109,0.225906,-0,0.230524,-15686.9,-31871.5,-0,35522.8,432770
step02_gravity_refstate-crust.xmf,372,-3.17075e-06,6.80944e-06,0,5.58005e-06,-8.7465e+08,-8.73965e+08,-8.74432e+08,382791,-0.0421862,0.210727,-0,0.214908,-16877.2,-31840.2,-0,36036.6,382791
step02_gravity_refstate-crust.xmf,373,-3.01657e-06,5.08774e-06,0,9.90963e-06,-9.27462e+08,-9.26906e+08,-9.27255e+08,679801,-0.0588832,0.287443,-0,0.293412,-11254.2,-33760.9,-0,35587.3,679801
step02_gravity_refstate-crust.xmf,374,-1.27212e-06,6.05303e-06,0,7.63924e-07,-8.40634e+08,-8.40132e+08,-8.40547e+08,52405.2,-0.00694745,0.108243,-0,0.108466,-33682.7,-30608.4,-0,45512.6,52405.2
step02_gravity_refstate-crust.xmf,375,-1.43054e-06,6.18492e-06,0,1.0406e-06,-8.41659e+08,-8.41137e+08,-8.41561e+08,71385.3,-0.00945974,0.113222,-0,0.113617,-31777.8,-30645.2,-0,44147,71385.3
step02_gravity_refstate-crust.xmf,376,-2.27573e-06,6.71076e-06,0,2.55392e-06,-8.40048e+08,-8.39431e+08,-8.39892e+08,175199,-0.0225351,0.14756,-0,0.149271,-24661.2,-30584,-0,39288.1,175199
step02_gravity_refstate-crust.xmf,377,-1.62587e-06,6.3317e-06,0,1.35581e-06,-8.41993e+08,-8.41447e+08,-8.41882e+08,93008.3,-0.0122946,0.11978,-0,0.120409,-29896.6,-30656.8,-0,42821.1,93008.3
step02_gravity_refstate-crust.xmf,378,-1.84231e-06,6.47835e-06,0,1.71049e-06,-8.41992e+08,-8.41421e+08,-8.41865e+08,117340,-0.0154103,0.127675,-0,0.128602,-28085,-30656.1,-0,41576,117340
step02_gravity_refstate-crust.xmf,379,-2.06787e-06,6.60924e-06,0,2.11058e-06,-8.41494e+08,-8.40898e+08,-8.41352e+08,144786,-0.0188129,0.136885,-0,0.138172,-26344.8,-30637.3,-0,40406.6,144786
step02_gravity_refstate-crust.xmf,380,-5.83572e-07,6.07635e-06,0,5.85562e-09,-9.15408e+08,-9.14951e+08,-9.15368e+08,401.695,-1.94779e-19,0.084658,-0,0.084658,-40000,-33333.4,-0,52068.4,401.695
step02_gravity_refstate-crust.xmf,381,-9.73392e-07,6.16046e-06,0,5.19669e-07,-8.83735e+08,-8.83245e+08,-8.83668e+08,35649.3,-0.00456332,0.0966501,-0,0.0967577,-34623.6,-32178.8,-0,47268.1,35649.3
step02_gravity_refstate-crust.xmf,382,1.59804e-06,-5.25628e-07,0,4.45888e-06,-5.16098e+08,-5.16244e+08,-5.16208e+08,305879,-0.0297829,0.317688,-0,0.319081,-9926.56,-18794.7,-0,21255.1,305879
step02_gravity_refstate-crust.xmf,383,1.83021e-06,-7.80743e-07,0,3.9033e-06,-4.78156e+08,-4.78335e+08,-4.78281e+08,267766,-0.0261458,0.322629,-0,0.323687,-9059.27,-17413.9,-0,19629.5,267766
step02_gravity_refstate-crust.xmf,384,1.9713e-06,-9.13617e-07,0,3.35618e-06,-4.39111e+08,-4.39309e+08,-4.39246e+08,230234,-0.0227634,0.326161,-0,0.326955,-8255.18,-15992.8,-0,17997.7,230234
step02_gravity_refstate-crust.xmf,385,1.89496e-06,-7.60214e-07,0,2.94177e-06,-3.86727e+08,-3.86909e+08,-3.86857e+08,201806,-0.0206867,0.324953,-0,0.325611,-8176.65,-14085.7,-0,16286.9,201806
step02_gravity_refstate-crust.xmf,386,1.58836e-06,-5.76317e-07,0,5.30927e-06,-5.89727e+08,-5.89875e+08,-5.89836e+08,364216,-0.0348272,0.318936,-0,0.320832,-9965.28,-21475.1,-0,23674.6,364216
step02_gravity_refstate-crust.xmf,387,1.2027e-06,-1.0586e-07,0,5.86699e-06,-6.25545e+08,-6.25635e+08,-6.25628e+08,402475,-0.0385974,0.312842,-0,0.315214,-10693,-22778.3,-0,25163.3,402475
step02_gravity_refstate-crust.xmf,388,1.20852e-06,-2.59176e-07,0,6.70199e-06,-6.84061e+08,-6.84161e+08,-6.84144e+08,459757,-0.0429684,0.317319,-0,0.320215,-10294.7,-24908.4,-0,26952,459757
step02_gravity_refstate-crust.xmf,389,1.3166e-07,1.07078e-06,0,7.87734e-06,-7.61015e+08,-7.6095e+08,-7.61024e+08,540386,-0.0501712,0.306687,-0,0.310764,-11087.6,-27707.7,-0,29843.8,540386
step02_gravity_refstate-crust.xmf,390,7.41399e-07,2.79082e-07,0,7.50066e-06,-7.33602e+08,-7.33634e+08,-7.33653e+08,514545,-0.0475768,0.314436,-0,0.318015,-10542.1,-26710.9,-0,28716,514545
step02_gravity_refstate-crust.xmf,391,-1.26781e-06,2.4182e-06,0,1.02553e-05,-8.81409e+08,-8.81156e+08,-8.81322e+08,703513,-0.0595567,0.312473,-0,0.318098,-10288.8,-32087.2,-0,33696.4,703513
step02_gravity_refstate-crust.xmf,392,-3.81883e-07,1.3675e-06,0,9.45817e-06,-8.3687e+08,-8.3675e+08,-8.36844e+08,648831,-0.0564061,0.314919,-0,0.31993,-10320.8,-30467.7,-0,32168.2,648831
step02_gravity_refstate-crust.xmf,393,3.39592e-06,-1.17102e-06,0,2.90483e-07,-5.15487e+07,-5.1862e+07,-5.17817e+07,19927.1,-0.0125139,0.329506,-0,0.329744,-3578.68,-1888.61,-0,4046.45,19927.1
step02_gravity_refstate-crust.xmf,394,1.96053e-06,-5.8701e-07,0,1.84744e-06,-2.44134e+08,-2.44309e+08,-2.44269e+08,126734,-0.0171799,0.324985,-0,0.325439,-7369.73,-8894.97,-0,11551.3,126734
step02_gravity_refstate-crust.xmf,395,2.16367e-06,-6.33237e-07,0,1.41218e-06,-1.88809e+08,-1.89001e+08,-1.88957e+08,96875.4,-0.0165057,0.326044,-0,0.326462,-6720.11,-6881.54,-0,9618.5,96875.4
step02_gravity_refstate-crust.xmf,396,2.82078e-06,-9.06075e-07,0,6.35014e-07,-1.0353e+08,-1.03786e+08,-1.03723e+08,43562,-0.013643,0.329522,-0,0.329804,-4588.77,-3779.12,-0,5944.62,43562
step02_gravity_refstate-crust.xmf,397,1.98783e-06,-7.8093e-07,0,2.37944e-06,-3.36614e+08,-3.36804e+08,-3.3675e+08,163230,-0.0177224,0.327601,-0,0.32808,-7288.66,-12261.6,-0,14264.3,163230
step02_gravity_refstate-crust.xmf,398,-2.38793e-06,7.10086e-06,0,2.56476e-06,-8.75797e+08,-8.75146e+08,-8.75634e+08,175942,-0.0223897,0.144606,-0,0.146329,-23779.2,-31885.6,-0,39776.1,175942
step02_gravity_refstate-crust.xmf,399,-3.12337e-06,5.76344e-06,0,8.32102e-06,-9.03667e+08,-9.03057e+08,-9.03453e+08,570822,-0.0540382,0.261961,-0,0.267476,-12895.1,-32895.2,-0,35332.4,570822
step02_gravity_refstate-crust.xmf,400,-3.33277e-06,6.38775e-06,0,7.43806e-06,-9.02184e+08,-9.01517e+08,-9.01955e+08,510251,-0.0505836,0.244607,-0,0.249783,-13975,-32841.3,-0,35691.1,510251
step02_gravity_refstate-crust.xmf,401,-2.38687e-06,3.82766e-06,0,1.09485e-05,-9.26896e+08,-9.2647e+08,-9.26733e+08,751070,-0.061621,0.308207,-0,0.314307,-10248.4,-33740.9,-0,35262.9,751070
step02_gravity_refstate-crust.xmf,402,-3.46645e-06,6.10252e-06,0,8.85146e-06,-9.28701e+08,-9.28045e+08,-9.28463e+08,607210,-0.0554371,0.266993,-0,0.272687,-12307.5,-33805.7,-0,35976.4,607210
step02_gravity_refstate-crust.xmf,403,-4.52637e-07,6.15642e-06,0,1.29544e-07,-9.40449e+08,-9.39996e+08,-9.40418e+08,8886.69,-0.000866324,0.0797642,-0,0.0797689,-37947.5,-34245.7,-0,51115.4,8886.69
step02_gravity_refstate-crust.xmf,404,-6.05539e-07,6.23956e-06,0,2.92857e-07,-9.33865e+08,-9.33395e+08,-9.33823e+08,20090,-0.00220091,0.0836284,-0,0.0836573,-35641.6,-34005.5,-0,49261.5,20090
step02_gravity_refstate-crust.xmf,405,1.89232e-06,-9.30325e-07,0,4.72207e-06,-5.54049e+08,-5.54243e+08,-5.54179e+08,323934,-0.0309516,0.324095,-0,0.325569,-9198.44,-20176.9,-0,22174.8,323934
step02_gravity_refstate-crust.xmf,406,1.29389e-06,-4.27676e-07,0,7.09311e-06,-7.08932e+08,-7.09051e+08,-7.09021e+08,486587,-0.044732,0.321687,-0,0.324782,-9936.14,-25814,-0,27660.2,486587
step02_gravity_refstate-crust.xmf,407,1.52491e-06,-6.45164e-07,0,6.242e-06,-6.56729e+08,-6.56878e+08,-6.56833e+08,428201,-0.0400715,0.321066,-0,0.323557,-9898.33,-23914,-0,25881.6,428201
step02_gravity_refstate-crust.xmf,408,2.25702e-07,7.5095e-07,0,8.50086e-06,-7.88339e+08,-7.88303e+08,-7.88355e+08,583159,-0.0523601,0.314325,-0,0.318656,-10478,-28702.4,-0,30555.1,583159
step02_gravity_refstate-crust.xmf,409,-3.55231e-07,1.12663e-06,0,1.01522e-05,-8.59047e+08,-8.58945e+08,-8.59022e+08,696443,-0.0583639,0.322997,-0,0.328228,-9796.25,-31274.8,-0,32773.1,696443
step02_gravity_refstate-crust.xmf,410,3.76533e-07,3.67001e-07,0,9.1569e-06,-8.13343e+08,-8.13344e+08,-8.13369e+08,628163,-0.0543908,0.323163,-0,0.327708,-9859.26,-29612.7,-0,31210.8,628163
step02_gravity_refstate-crust.xmf,411,-1.39451e-06,2.31071e-06,0,1.10703e-05,-9.04037e+08,-9.03782e+08,-9.03941e+08,759424,-0.061557,0.320617,-0,0.326473,-9775.87,-32910.3,-0,34331.5,759424
step02_gravity_refstate-crust.xmf,412,4.19627e-06,-1.5929e-06,0,1.77136e-08,398590,1453.44,110726,1215.15,-0.0104372,0.328461,-0,0.328627,-2459.57,0,-0,2459.57,1215.15
step02_gravity_refstate-crust.xmf,413,2.47437e-06,-7.6774e-07,0,9.48789e-07,-1.50341e+08,-1.50564e+08,-1.50511e+08,65086.9,-0.0138989,0.329457,-0,0.32975,-5219.92,-5482.15,-0,7569.78,65086.9
step02_gravity_refstate-crust.xmf,414,2.08799e-06,-7.85842e-07,0,1.88204e-06,-2.89603e+08,-2.898e+08,-2.89746e+08,129108,-0.015259,0.329776,-0,0.330129,-6374.65,-10550.5,-0,12326.8,129108
step02_gravity_refstate-crust.xmf,415,-2.51969e-06,7.47222e-06,0,2.58778e-06,-9.0672e+08,-9.06035e+08,-9.06547e+08,177522,-0.0221194,0.142732,-0,0.144436,-22911.5,-33011.4,-0,40183.2,177522
step02_gravity_refstate-crust.xmf,416,-2.77496e-06,7.58006e-06,0,3.07238e-06,-9.06474e+08,-9.05764e+08,-9.06284e+08,210765,-0.0257845,0.153868,-0,0.156013,-21529.6,-33001.6,-0,39403.4,210765
step02_gravity_refstate-crust.xmf,417,-3.01875e-06,7.64204e-06,0,3.63532e-06,-9.06431e+08,-9.057e+08,-9.06224e+08,249383,-0.0297747,0.166369,-0,0.169012,-20148.3,-32999.1,-0,38663.9,249383
step02_gravity_refstate-crust.xmf,418,-3.23335e-06,7.63414e-06,0,4.28002e-06,-9.06506e+08,-9.05761e+08,-9.06285e+08,293609,-0.0340139,0.180207,-0,0.183389,-18785.6,-33001,-0,37973.2,293609
step02_gravity_refstate-crust.xmf,419,-3.38421e-06,7.51315e-06,0,4.99616e-06,-9.05346e+08,-9.04598e+08,-9.05114e+08,342736,-0.0383902,0.195291,-0,0.199028,-17486.9,-32958,-0,37309.8,342736
step02_gravity_refstate-crust.xmf,420,-3.43905e-06,6.90309e-06,0,6.5615e-06,-9.02527e+08,-9.01817e+08,-9.02291e+08,450119,-0.0466904,0.227262,-0,0.232009,-15119.6,-32854.2,-0,36166.2,450119
step02_gravity_refstate-crust.xmf,421,-3.45716e-06,7.26454e-06,0,5.77756e-06,-9.03886e+08,-9.0315e+08,-9.03648e+08,396340,-0.0427336,0.21134,-0,0.215617,-16245,-32904.1,-0,36695.8,396340
step02_gravity_refstate-crust.xmf,422,-1.52082e-06,2.17715e-06,0,1.19907e-05,-9.26285e+08,-9.26032e+08,-9.26181e+08,822561,-0.0635766,0.330209,-0,0.336274,-9242.82,-33719.6,-0,34963.4,822561
step02_gravity_refstate-crust.xmf,423,-2.64032e-06,3.89654e-06,0,1.18384e-05,-9.49165e+08,-9.48717e+08,-9.48984e+08,812115,-0.0634757,0.317329,-0,0.323615,-9696.79,-34550.7,-0,35885.6,812115
step02_gravity_refstate-crust.xmf,424,-3.32281e-06,5.30523e-06,0,1.06199e-05,-9.49577e+08,-9.48986e+08,-9.49349e+08,728527,-0.0604574,0.294769,-0,0.300905,-10700,-34565.1,-0,36183.4,728527
step02_gravity_refstate-crust.xmf,425,-3.75319e-06,6.34879e-06,0,9.49762e-06,-9.50911e+08,-9.50218e+08,-9.50654e+08,651536,-0.0570055,0.274446,-0,0.280304,-11660.3,-34613.5,-0,36524.8,651536
step02_gravity_refstate-crust.xmf,426,-1.15484e-06,6.30582e-06,0,7.48498e-07,-8.83709e+08,-8.83197e+08,-8.8363e+08,51347,-0.00663008,0.101084,-0,0.101301,-32668.1,-32177.4,-0,45854,51347
step02_gravity_refstate-crust.xmf,427,-1.35517e-06,6.47639e-06,0,1.00477e-06,-8.84364e+08,-8.83827e+08,-8.84271e+08,68927.2,-0.00894433,0.106653,-0,0.107027,-30776.5,-32200.7,-0,44543,68927.2
step02_gravity_refstate-crust.xmf,428,-2.13272e-06,7.0595e-06,0,2.04521e-06,-8.87385e+08,-8.86754e+08,-8.87239e+08,140302,-0.0180133,0.131288,-0,0.132518,-25354.4,-32308.4,-0,41069.3,140302
step02_gravity_refstate-crust.xmf,429,-1.59368e-06,6.65792e-06,0,1.30595e-06,-8.83892e+08,-8.83326e+08,-8.83783e+08,89588.1,-0.0116478,0.113779,-0,0.114373,-28941.3,-32182.8,-0,43282,89588.1
step02_gravity_refstate-crust.xmf,430,-1.84598e-06,6.84635e-06,0,1.63942e-06,-8.84512e+08,-8.83915e+08,-8.84385e+08,112464,-0.0145721,0.121726,-0,0.122595,-27201.4,-32204.7,-0,42155.2,112464
step02_gravity_refstate-crust.xmf,431,-7.80198e-07,6.36968e-06,0,4.75329e-07,-9.29302e+08,-9.28811e+08,-9.29248e+08,32607.5,-0.00375179,0.088255,-0,0.0883347,-33626.4,-33838.9,-0,47705.4,32607.5
step02_gravity_refstate-crust.xmf,432,-1.39175e-07,6.17462e-06,0,3.65947e-09,-9.76718e+08,-9.76285e+08,-9.76709e+08,251.04,2.8623e-21,0.0709746,0,0.0709746,-40000,-35567.4,-0,53526.1,251.04
step02_gravity_refstate-crust.xmf,433,2.13168e-06,-1.19206e-06,0,4.1083e-06,-5.18117e+08,-5.18345e+08,-5.18264e+08,281829,-0.0269805,0.32862,-0,0.329725,-8356.83,-18869.4,-0,20637.1,281829
step02_gravity_refstate-crust.xmf,434,2.36173e-06,-1.44365e-06,0,3.40445e-06,-4.79895e+08,-4.80156e+08,-4.80057e+08,233545,-0.0224031,0.333535,-0,0.334286,-7230.9,-17478.4,-0,18915.1,233545
step02_gravity_refstate-crust.xmf,435,2.34658e-06,-1.33996e-06,0,2.80178e-06,-4.31415e+08,-4.31667e+08,-4.31576e+08,192202,-0.018864,0.334276,-0,0.334807,-6590.81,-15713.5,-0,17039.7,192202
step02_gravity_refstate-crust.xmf,436,2.23766e-06,-1.42085e-06,0,4.99112e-06,-5.90309e+08,-5.9056e+08,-5.90463e+08,342391,-0.03205,0.331161,-0,0.332708,-8489.01,-21497.7,-0,23113,342391
step02_gravity_refstate-crust.xmf,437,1.91932e-06,-1.06028e-06,0,5.64051e-06,-6.24276e+08,-6.24481e+08,-6.24408e+08,386939,-0.0362062,0.326514,-0,0.328515,-9222.73,-22733.5,-0,24533.1,386939
step02_gravity_refstate-crust.xmf,438,1.86312e-06,-1.17834e-06,0,6.62004e-06,-6.8554e+08,-6.85749e+08,-6.85668e+08,454135,-0.0414068,0.329369,-0,0.331962,-9187.9,-24963.5,-0,26600.6,454135
step02_gravity_refstate-crust.xmf,439,9.37636e-07,-1.06817e-07,0,8.06318e-06,-7.60989e+08,-7.61061e+08,-7.61053e+08,553134,-0.049546,0.322498,-0,0.326282,-9917.92,-27708.2,-0,29429.7,553134
step02_gravity_refstate-crust.xmf,440,1.4073e-06,-6.77143e-07,0,7.56269e-06,-7.35517e+08,-7.3566e+08,-7.35613e+08,518800,-0.0466862,0.326917,-0,0.330234,-9548.32,-26781.9,-0,28433.1,518800
step02_gravity_refstate-crust.xmf,441,-3.59561e-07,9.38207e-07,0,1.09004e-05,-8.81191e+08,-8.81102e+08,-8.81166e+08,747765,-0.0603451,0.331394,-0,0.336843,-9304.3,-32080.6,-0,33402.6,747765
step02_gravity_refstate-crust.xmf,442,5.34913e-07,-4.92004e-08,0,9.84843e-06,-8.3658e+08,-8.3662e+08,-8.36616e+08,675603,-0.0563072,0.33229,-0,0.337027,-9291.41,-30458.6,-0,31844.3,675603
step02_gravity_refstate-crust.xmf,443,3.55767e-06,-1.23681e-06,0,1.10639e-07,-5.05258e+07,-5.08547e+07,-5.07699e+07,7589.85,-0.00427872,0.332115,-0,0.332142,-1202.45,-1851.92,-0,2208.06,7589.85
step02_gravity_refstate-crust.xmf,444,3.0296e-06,-9.98998e-07,0,3.28423e-07,-9.98333e+07,-1.0011e+08,-1.00041e+08,22529.8,-0.00711463,0.333166,-0,0.333242,-2323.97,-3645.24,-0,4323.04,22529.8
step02_gravity_refstate-crust.xmf,445,2.21672e-06,-7.8595e-07,0,1.42033e-06,-2.42343e+08,-2.42549e+08,-2.42495e+08,97434.6,-0.0131094,0.33148,-0,0.331739,-5417.19,-8830.48,-0,10359.7,97434.6
step02_gravity_refstate-crust.xmf,446,2.66106e-06,-8.68538e-07,0,6.2028e-07,-1.47604e+08,-1.47846e+08,-1.47787e+08,42551.2,-0.00909956,0.333383,-0,0.333507,-3329.18,-5383.1,-0,6329.39,42551.2
step02_gravity_refstate-crust.xmf,447,2.40221e-06,-8.03256e-07,0,9.90707e-07,-1.93495e+08,-1.93715e+08,-1.9366e+08,67962.5,-0.0111537,0.332663,-0,0.33285,-4407.67,-7052.85,-0,8316.87,67962.5
step02_gravity_refstate-crust.xmf,448,2.2825e-06,-1.07706e-06,0,1.84823e-06,-3.35196e+08,-3.35426e+08,-3.35352e+08,126788,-0.0136295,0.334701,-0,0.334978,-5382.54,-12210.7,-0,13344.4,126788
step02_gravity_refstate-crust.xmf,449,2.27538e-06,-1.16974e-06,0,2.35069e-06,-3.8236e+08,-3.82597e+08,-3.82516e+08,161257,-0.016402,0.333774,-0,0.334176,-6180.15,-13927.6,-0,15237.2,161257
step02_gravity_refstate-crust.xmf,450,-1.60234e-06,1.88453e-06,0,1.31565e-05,-9.49251e+08,-9.49012e+08,-9.49141e+08,902533,-0.0657599,0.342855,-0,0.349105,-8632.71,-34554.9,-0,35616.9,902533
step02_gravity_refstate-crust.xmf,451,-2.2942e-06,7.36128e-06,0,2.21129e-06,-9.08066e+08,-9.07404e+08,-9.07909e+08,151694,-0.0191077,0.133756,-0,0.135114,-24120.7,-33061.2,-0,40924.9,151694
step02_gravity_refstate-crust.xmf,452,-3.76328e-06,6.95928e-06,0,7.72885e-06,-9.31611e+08,-9.30875e+08,-9.31352e+08,530199,-0.0510235,0.245275,-0,0.250526,-13496.7,-33911.8,-0,36498.9,530199
step02_gravity_refstate-crust.xmf,453,-3.68195e-06,7.17416e-06,0,6.90281e-06,-9.22497e+08,-9.21753e+08,-9.22245e+08,473533,-0.0477263,0.231011,-0,0.235889,-14525.9,-33580.6,-0,36587.7,473533
step02_gravity_refstate-crust.xmf,454,-4.05979e-06,7.20035e-06,0,8.4076e-06,-9.54223e+08,-9.5345e+08,-9.53944e+08,576762,-0.0529493,0.254417,-0,0.259868,-12652.9,-34734.2,-0,36967,576762
step02_gravity_refstate-crust.xmf,455,-3.77031e-07,6.39089e-06,0,2.49836e-07,-9.73847e+08,-9.73383e+08,-9.73821e+08,17138.8,-0.00127854,0.076092,-0,0.0761027,-34570.1,-35462.3,-0,49524.3,17138.8
step02_gravity_refstate-crust.xmf,456,7.7662e-08,6.21495e-06,0,4.63115e-08,-1.00625e+09,-1.00583e+09,-1.00625e+09,3176.97,0.000164058,0.0647375,0,0.0647377,-38283.6,-36643.3,-0,52994,3176.97
step02_gravity_refstate-crust.xmf,457,-1.9578e-07,6.26519e-06,0,1.37972e-07,-9.81288e+08,-9.80845e+08,-9.81275e+08,9464.86,-0.000443011,0.0716362,-0,0.0716376,-36620.1,-35733.7,-0,51165.7,9464.86
step02_gravity_refstate-crust.xmf,458,-2.99477e-06,4.06332e-06,0,1.27567e-05,-9.70469e+08,-9.69985e+08,-9.70264e+08,875113,-0.065076,0.326086,-0,0.332516,-9209.49,-35325.1,-0,36505.8,875113
step02_gravity_refstate-crust.xmf,459,-2.09247e-06,2.42304e-06,0,1.38393e-05,-9.69169e+08,-9.6886e+08,-9.69026e+08,949375,-0.0670115,0.346239,-0,0.352664,-8440.17,-35278.9,-0,36274.4,949375
step02_gravity_refstate-crust.xmf,460,-1.0268e-06,6.99185e-07,0,1.43488e-05,-9.61123e+08,-9.61005e+08,-9.61053e+08,984326,-0.0674479,0.361181,-0,0.367424,-7898.01,-34987.6,-0,35867.9,984326
step02_gravity_refstate-crust.xmf,461,-1.33589e-06,8.55339e-07,0,1.51571e-05,-9.76735e+08,-9.76585e+08,-9.76643e+08,1.03978e+06,-0.0687196,0.367223,-0,0.373598,-7663.59,-35554.9,-0,36371.5,1.03978e+06
step02_gravity_refstate-crust.xmf,462,2.46546e-06,-1.66059e-06,0,4.33184e-06,-5.56133e+08,-5.56416e+08,-5.56303e+08,297164,-0.0278797,0.334862,-0,0.33602,-7723.89,-20254,-0,21676.8,297164
step02_gravity_refstate-crust.xmf,463,2.15116e-06,-1.6191e-06,0,7.13388e-06,-7.18112e+08,-7.18371e+08,-7.1826e+08,489384,-0.0433902,0.337069,-0,0.33985,-8643.55,-26149.8,-0,27541.3,489384
step02_gravity_refstate-crust.xmf,464,2.29816e-06,-1.68936e-06,0,5.99272e-06,-6.57182e+08,-6.57456e+08,-6.5734e+08,411100,-0.0374765,0.334713,-0,0.336804,-8516.4,-23932.1,-0,25402.2,411100
step02_gravity_refstate-crust.xmf,465,1.16224e-06,-6.27179e-07,0,8.68914e-06,-7.87487e+08,-7.8761e+08,-7.87567e+08,596075,-0.0514837,0.331259,-0,0.335236,-9318.48,-28673,-0,30149.2,596075
step02_gravity_refstate-crust.xmf,466,6.75274e-07,-4.67841e-07,0,1.05982e-05,-8.59179e+08,-8.59258e+08,-8.59226e+08,727040,-0.0582209,0.341545,-0,0.346472,-8778.19,-31281.3,-0,32489.6,727040
step02_gravity_refstate-crust.xmf,467,1.39937e-06,-1.14375e-06,0,9.35585e-06,-8.12754e+08,-8.12929e+08,-8.1285e+08,641812,-0.0533588,0.340572,-0,0.344726,-8754.93,-29593,-0,30860.9,641812
step02_gravity_refstate-crust.xmf,468,-3.74267e-07,6.30617e-07,0,1.17752e-05,-9.02731e+08,-9.02662e+08,-9.02705e+08,807782,-0.0623046,0.340501,-0,0.346154,-8826.12,-32864.3,-0,34028.8,807782
step02_gravity_refstate-crust.xmf,469,-3.23185e-07,2.01912e-07,0,1.28035e-05,-9.24399e+08,-9.24363e+08,-9.24377e+08,878319,-0.0643208,0.35201,-0,0.357839,-8290.57,-33652.7,-0,34658.9,878319
step02_gravity_refstate-crust.xmf,470,4.29047e-06,-1.62873e-06,0,1.22294e-08,407536,1478.68,113209,838.936,2.12944e-07,0.329818,0,0.329818,7.12462e-08,0,0,7.12462e-08,838.936
step02_gravity_refstate-crust.xmf,471,2.324e-06,-1.00207e-06,0,1.37182e-06,-2.89253e+08,-2.89481e+08,-2.89412e+08,94106.9,-0.0110034,0.335661,-0,0.335841,-4446.43,-10538.4,-0,11438,94106.9
step02_gravity_refstate-crust.xmf,472,-2.32487e-06,7.67684e-06,0,2.11143e-06,-9.37611e+08,-9.36925e+08,-9.37452e+08,144844,-0.0177008,0.129568,-0,0.130772,-23551.3,-34137.2,-0,41473,144844
step02_gravity_refstate-crust.xmf,473,-2.61345e-06,7.85521e-06,0,2.53177e-06,-9.37901e+08,-9.37183e+08,-9.37722e+08,173679,-0.0210094,0.139583,-0,0.141156,-22192.6,-34146.8,-0,40724.9,173679
step02_gravity_refstate-crust.xmf,474,-2.91299e-06,8.00388e-06,0,3.04083e-06,-9.37852e+08,-9.37103e+08,-9.37652e+08,208601,-0.0248156,0.151258,-0,0.15328,-20810.6,-34144,-0,39986.2,208601
step02_gravity_refstate-crust.xmf,475,-3.20735e-06,8.10426e-06,0,3.64305e-06,-9.37858e+08,-9.37082e+08,-9.37638e+08,249914,-0.029019,0.164464,-0,0.167004,-19430.3,-34143.2,-0,39284.8,249914
step02_gravity_refstate-crust.xmf,476,-3.47031e-06,8.1705e-06,0,4.3193e-06,-9.40588e+08,-9.39789e+08,-9.40349e+08,296304,-0.0333996,0.178831,-0,0.181924,-18029.8,-34241.6,-0,38698.4,296304
step02_gravity_refstate-crust.xmf,477,-3.65527e-06,7.96957e-06,0,5.183e-06,-9.33452e+08,-9.32655e+08,-9.33201e+08,355554,-0.0386945,0.196638,-0,0.200409,-16742.4,-33980.8,-0,37881.4,355554
step02_gravity_refstate-crust.xmf,478,-3.78186e-06,7.73112e-06,0,6.04598e-06,-9.32534e+08,-9.31744e+08,-9.32275e+08,414754,-0.0432832,0.213396,-0,0.217741,-15527.9,-33946.5,-0,37329.4,414754
step02_gravity_refstate-crust.xmf,479,-3.66727e-06,5.54585e-06,0,1.14135e-05,-9.71095e+08,-9.70463e+08,-9.70843e+08,782969,-0.0619325,0.303,-0,0.309264,-10148.4,-35347.4,-0,36775.4,782969
step02_gravity_refstate-crust.xmf,480,-4.09588e-06,6.64478e-06,0,1.01614e-05,-9.72035e+08,-9.71298e+08,-9.71754e+08,697075,-0.0582966,0.281818,-0,0.287784,-11071.4,-35381.6,-0,37073.4,697075
step02_gravity_refstate-crust.xmf,481,-4.33064e-06,7.44414e-06,0,9.0356e-06,-9.73522e+08,-9.72714e+08,-9.73225e+08,619842,-0.0544329,0.26267,-0,0.268251,-11963,-35436,-0,37400.9,619842
step02_gravity_refstate-crust.xmf,482,-1.01006e-06,6.55028e-06,0,6.80455e-07,-9.27169e+08,-9.26651e+08,-9.271e+08,46679.2,-0.00556264,0.0935695,-0,0.0937347,-31704.5,-33760.6,-0,46313.6,46679.2
step02_gravity_refstate-crust.xmf,483,-1.26126e-06,6.75921e-06,0,9.22811e-07,-9.26265e+08,-9.25715e+08,-9.26179e+08,63304.8,-0.0077231,0.099928,-0,0.100226,-29824,-33727,-0,45022,63304.8
step02_gravity_refstate-crust.xmf,484,-2.04105e-06,7.46812e-06,0,1.75857e-06,-9.34415e+08,-9.33762e+08,-9.34274e+08,120638,-0.0149684,0.121319,-0,0.122239,-24950,-34021.6,-0,42189.7,120638
step02_gravity_refstate-crust.xmf,485,-1.52568e-06,6.98144e-06,0,1.18944e-06,-9.26725e+08,-9.26142e+08,-9.2662e+08,81595.7,-0.0100796,0.106855,-0,0.107329,-28087.8,-33743,-0,43903.5,81595.7
step02_gravity_refstate-crust.xmf,486,-1.8089e-06,7.20793e-06,0,1.49834e-06,-9.27346e+08,-9.26727e+08,-9.27222e+08,102786,-0.0127736,0.114807,-0,0.115515,-26423.8,-33764.8,-0,42875.2,102786
step02_gravity_refstate-crust.xmf,487,-5.84651e-07,6.55715e-06,0,3.97791e-07,-9.71041e+08,-9.70551e+08,-9.71001e+08,27288.5,-0.00233776,0.0805864,-0,0.0806203,-32660.7,-35359.5,-0,48135.4,27288.5
step02_gravity_refstate-crust.xmf,488,3.77418e-07,6.19419e-06,0,2.15776e-09,-1.03764e+09,-1.03724e+09,-1.03767e+09,148.022,1.39616e-19,0.0572426,0,0.0572426,-40000,-37787.4,-0,55026.3,148.022
step02_gravity_refstate-crust.xmf,489,-3.48216e-06,4.52007e-06,0,1.35715e-05,-9.92107e+08,-9.91558e+08,-9.91868e+08,931004,-0.0661289,0.332382,-0,0.338896,-8844.57,-36111.6,-0,37178.9,931004
step02_gravity_refstate-crust.xmf,490,-2.68488e-06,2.88864e-06,0,1.49544e-05,-9.93736e+08,-9.93354e+08,-9.93552e+08,1.02587e+06,-0.0685511,0.354438,-0,0.361006,-8063.77,-36171.6,-0,37059.5,1.02587e+06
step02_gravity_refstate-crust.xmf,491,-1.45174e-07,-4.27344e-07,0,1.39015e-05,-9.43312e+08,-9.43331e+08,-9.43302e+08,953640,-0.066109,0.365114,-0,0.37105,-7750.62,-34341,-0,35204.7,953640
step02_gravity_refstate-crust.xmf,492,5.90121e-08,-1.12459e-06,0,1.50776e-05,-9.60897e+08,-9.60979e+08,-9.60901e+08,1.03433e+06,-0.0677483,0.378693,-0,0.384706,-7252.33,-34980.9,-0,35724.8,1.03433e+06
step02_gravity_refstate-crust.xmf,493,2.64785e-06,-1.84527e-06,0,3.67386e-06,-5.24212e+08,-5.2452e+08,-5.24394e+08,252027,-0.0237079,0.338378,-0,0.339208,-6842.07,-19092.3,-0,20281.3,252027
step02_gravity_refstate-crust.xmf,494,2.72932e-06,-1.85214e-06,0,2.69091e-06,-4.67504e+08,-4.67819e+08,-4.67691e+08,184596,-0.0176173,0.340954,-0,0.341408,-5562.61,-17028.1,-0,17913.7,184596
step02_gravity_refstate-crust.xmf,495,2.63902e-06,-1.66375e-06,0,2.19562e-06,-4.25021e+08,-4.25316e+08,-4.25202e+08,150619,-0.0146845,0.340445,-0,0.340762,-4997.55,-15481.4,-0,16268.1,150619
step02_gravity_refstate-crust.xmf,496,2.87412e-06,-2.24066e-06,0,4.52451e-06,-5.91798e+08,-5.92149e+08,-5.91995e+08,310381,-0.0284884,0.342102,-0,0.343286,-7052.38,-21553.2,-0,22677.6,310381
step02_gravity_refstate-crust.xmf,497,2.64079e-06,-2.00815e-06,0,5.26144e-06,-6.24797e+08,-6.25116e+08,-6.24978e+08,360935,-0.0330003,0.33896,-0,0.340563,-7796.24,-22753.9,-0,24052.5,360935
step02_gravity_refstate-crust.xmf,498,2.67291e-06,-2.27777e-06,0,6.34576e-06,-6.86693e+08,-6.87032e+08,-6.86876e+08,435319,-0.0386553,0.342612,-0,0.344786,-7925.38,-25007,-0,26232.8,435319
step02_gravity_refstate-crust.xmf,499,1.91074e-06,-1.47584e-06,0,7.95693e-06,-7.56136e+08,-7.56369e+08,-7.56267e+08,545845,-0.0473514,0.338366,-0,0.341664,-8716.21,-27533.3,-0,28880.1,545845
step02_gravity_refstate-crust.xmf,500,7.31646e-07,-7.50916e-07,0,1.13876e-05,-8.81104e+08,-8.81206e+08,-8.81154e+08,781192,-0.0601638,0.350151,-0,0.355282,-8353.47,-32079.3,-0,33149.1,781192
step02_gravity_refstate-crust.xmf,501,1.64892e-06,-1.70687e-06,0,1.00954e-05,-8.37264e+08,-8.37494e+08,-8.37377e+08,692542,-0.0552328,0.350368,-0,0.354695,-8231.97,-30485.5,-0,31577.3,692542
step02_gravity_refstate-crust.xmf,502,3.56061e-06,-1.24007e-06,0,-7.06454e-08,-5.0483e+07,-5.08123e+07,-5.07272e+07,-4846.27,0.00407259,0.332145,0,0.33217,1144.15,-1850.37,0,2175.53,4846.27
step02_gravity_refstate-crust.xmf,503,3.09043e-06,-1.02895e-06,0,2.09763e-08,-1.00051e+08,-1.00334e+08,-1.00263e+08,1438.98,-0.000180346,0.334494,-0,0.334494,-58.5238,-3653.38,-0,3653.85,1438.98
step02_gravity_refstate-crust.xmf,504,2.77578e-06,-9.29842e-07,0,2.29879e-07,-1.45732e+08,-1.45987e+08,-1.45923e+08,15769.7,-0.00329469,0.335766,-0,0.335782,-1186.22,-5315.33,-0,5446.08,15769.7
step02_gravity_refstate-crust.xmf,505,2.40478e-06,-9.36559e-07,0,9.31742e-07,-2.41864e+08,-2.42093e+08,-2.42029e+08,63917.5,-0.00851284,0.336237,-0,0.336344,-3427.33,-8813.58,-0,9456.52,63917.5
step02_gravity_refstate-crust.xmf,506,2.55003e-06,-9.04311e-07,0,5.38719e-07,-1.93341e+08,-1.93578e+08,-1.93516e+08,36956.1,-0.00597469,0.336328,-0,0.336381,-2315.62,-7047.67,-0,7418.34,36956.1
step02_gravity_refstate-crust.xmf,507,2.50313e-06,-1.30319e-06,0,1.24497e-06,-3.34982e+08,-3.35243e+08,-3.35154e+08,85405,-0.00910117,0.339848,-0,0.33997,-3490.81,-12203.5,-0,12692.9,85405
step02_gravity_refstate-crust.xmf,508,2.55701e-06,-1.47674e-06,0,1.72413e-06,-3.80993e+08,-3.81269e+08,-3.81168e+08,118276,-0.0119295,0.340037,-0,0.340246,-4341.16,-13878.5,-0,14541.6,118276
step02_gravity_refstate-crust.xmf,509,-4.00927e-06,7.83982e-06,0,6.68991e-06,-9.47781e+08,-9.46968e+08,-9.47506e+08,458927,-0.0459241,0.224231,-0,0.228886,-14517.5,-34500.8,-0,37430.8,458927
step02_gravity_refstate-crust.xmf,510,-4.29368e-06,8.08361e-06,0,7.30392e-06,-9.66742e+08,-9.65893e+08,-9.66447e+08,501049,-0.047815,0.233264,-0,0.238114,-13636.9,-35190.3,-0,37740.2,501049
step02_gravity_refstate-crust.xmf,511,-4.44244e-06,8.0173e-06,0,8.08335e-06,-9.76425e+08,-9.7557e+08,-9.7612e+08,554518,-0.0506557,0.24616,-0,0.251318,-12765.6,-35542.2,-0,37765.1,554518
step02_gravity_refstate-crust.xmf,512,-1.5354e-07,6.52037e-06,0,1.77759e-07,-1.01371e+09,-1.01325e+09,-1.0137e+09,12194.2,0.000395583,0.0684175,0,0.0684186,-33610.3,-36914.5,-0,49923.3,12194.2
step02_gravity_refstate-crust.xmf,513,1.08301e-08,6.36348e-06,0,1.08852e-07,-1.0148e+09,-1.01437e+09,-1.01481e+09,7467.24,0.000561131,0.0653716,0,0.065374,-35376.2,-36954.9,-0,51158,7467.24
step02_gravity_refstate-crust.xmf,514,5.16833e-07,6.20626e-06,0,-3.39655e-09,-1.05516e+09,-1.05477e+09,-1.0552e+09,-233.003,0.000833275,0.0536025,0,0.053609,-38427.4,-38425.8,-0,54343.5,233.003
step02_gravity_refstate-crust.xmf,515,3.55599e-07,6.28083e-06,0,1.74083e-08,-1.04525e+09,-1.04484e+09,-1.04527e+09,1194.21,0.00136928,0.0569141,0,0.0569306,-36719.6,-38064.5,-0,52888.9,1194.21
step02_gravity_refstate-crust.xmf,516,-4.11005e-06,5.93769e-06,0,1.21794e-05,-9.92264e+08,-9.91575e+08,-9.91983e+08,835505,-0.0629896,0.310422,-0,0.316748,-9668.26,-36116.9,-0,37388.6,835505
step02_gravity_refstate-crust.xmf,517,-1.62176e-06,8.57254e-07,0,1.63048e-05,-9.95196e+08,-9.95025e+08,-9.95084e+08,1.11851e+06,-0.0702364,0.377292,-0,0.383773,-7308.18,-36225.9,-0,36955.7,1.11851e+06
step02_gravity_refstate-crust.xmf,518,-3.24088e-08,-1.39364e-06,0,1.62155e-05,-9.78256e+08,-9.78349e+08,-9.78254e+08,1.11238e+06,-0.0693489,0.388929,-0,0.395063,-6921.93,-35612.1,-0,36278.6,1.11238e+06
step02_gravity_refstate-crust.xmf,519,2.79588e-06,-1.99284e-06,0,3.10618e-06,-5.00424e+08,-5.00753e+08,-5.00616e+08,213084,-0.0200829,0.341466,-0,0.342056,-5953.68,-18226.7,-0,19174.4,213084
step02_gravity_refstate-crust.xmf,520,3.02295e-06,-2.36881e-06,0,3.80857e-06,-5.59527e+08,-5.59897e+08,-5.59735e+08,261268,-0.0240893,0.344501,-0,0.345343,-6265.14,-20378.7,-0,21320,261268
step02_gravity_refstate-crust.xmf,521,3.06186e-06,-2.83986e-06,0,6.69517e-06,-7.13614e+08,-7.14019e+08,-7.13824e+08,459288,-0.0397291,0.350527,-0,0.352772,-7404.15,-25987.8,-0,27022,459288
step02_gravity_refstate-crust.xmf,522,3.07823e-06,-2.72053e-06,0,5.54185e-06,-6.56986e+08,-6.57383e+08,-6.57197e+08,380171,-0.0338481,0.347048,-0,0.348695,-7170.06,-23926.5,-0,24977.7,380171
step02_gravity_refstate-crust.xmf,523,2.70432e-06,-2.47802e-06,0,7.38416e-06,-7.38036e+08,-7.38391e+08,-7.38221e+08,506553,-0.0434903,0.347803,-0,0.350511,-7855.96,-26876,-0,28000.7,506553
step02_gravity_refstate-crust.xmf,524,2.19885e-06,-2.11106e-06,0,8.69165e-06,-7.87879e+08,-7.88175e+08,-7.8803e+08,596247,-0.0496169,0.347771,-0,0.351292,-8179.12,-28689.2,-0,29832.3,596247
step02_gravity_refstate-crust.xmf,525,1.77481e-06,-2.11392e-06,0,1.0882e-05,-8.60848e+08,-8.61115e+08,-8.6097e+08,746502,-0.0572677,0.358865,-0,0.363406,-7844.25,-31343.9,-0,32310.6,746502
step02_gravity_refstate-crust.xmf,526,2.56946e-06,-2.82777e-06,0,9.35678e-06,-8.13409e+08,-8.13779e+08,-8.13585e+08,641875,-0.0512322,0.357996,-0,0.361643,-7642.46,-29619,-0,30589.1,641875
step02_gravity_refstate-crust.xmf,527,8.58291e-07,-1.29466e-06,0,1.23141e-05,-9.02145e+08,-9.02293e+08,-9.02204e+08,844749,-0.0620263,0.360392,-0,0.365691,-7896.85,-32845,-0,33780.9,844749
step02_gravity_refstate-crust.xmf,528,1.09963e-06,-1.99927e-06,0,1.3359e-05,-9.22652e+08,-9.22864e+08,-9.22727e+08,916429,-0.0638042,0.372905,-0,0.378324,-7394.32,-33591.4,-0,34395.6,916429
step02_gravity_refstate-crust.xmf,529,4.18869e-06,-1.59109e-06,0,5.85772e-09,397825,1332.25,110481,401.84,0.0104366,0.328461,0,0.328627,2459.57,0,0,2459.57,401.84
step02_gravity_refstate-crust.xmf,530,2.48552e-06,-1.14953e-06,0,7.88874e-07,-2.88324e+08,-2.88574e+08,-2.88495e+08,54116.8,-0.00627872,0.339583,-0,0.339641,-2483.56,-10505,-0,10794.6,54116.8
step02_gravity_refstate-crust.xmf,531,-2.01499e-06,7.7861e-06,0,1.619e-06,-9.69172e+08,-9.685e+08,-9.69034e+08,111063,-0.0127546,0.115784,-0,0.116485,-24286.6,-35287.6,-0,42837.5,111063
step02_gravity_refstate-crust.xmf,532,-2.3587e-06,8.03747e-06,0,2.00271e-06,-9.69278e+08,-9.68565e+08,-9.69116e+08,137386,-0.0158539,0.125428,-0,0.126426,-22860.1,-35290.4,-0,42047.6,137386
step02_gravity_refstate-crust.xmf,533,-2.69659e-06,8.26213e-06,0,2.44769e-06,-9.69481e+08,-9.68729e+08,-9.69296e+08,167912,-0.0193258,0.136187,-0,0.137552,-21469.1,-35296.8,-0,41313.3,167912
step02_gravity_refstate-crust.xmf,534,-3.03205e-06,8.44188e-06,0,2.97144e-06,-9.68834e+08,-9.68047e+08,-9.68626e+08,203841,-0.0232211,0.148248,-0,0.150056,-20130.7,-35272.2,-0,40612.5,203841
step02_gravity_refstate-crust.xmf,535,-3.33661e-06,8.56792e-06,0,3.53444e-06,-9.68482e+08,-9.67666e+08,-9.68253e+08,242463,-0.0271458,0.160606,-0,0.162884,-18906.9,-35258.3,-0,40007.8,242463
step02_gravity_refstate-crust.xmf,536,-3.76621e-06,8.56279e-06,0,4.67735e-06,-9.6305e+08,-9.62204e+08,-9.62791e+08,320867,-0.0346303,0.184571,-0,0.187792,-16989.5,-35058.8,-0,38958.5,320867
step02_gravity_refstate-crust.xmf,537,-3.87163e-06,8.35931e-06,0,5.31009e-06,-9.55718e+08,-9.54879e+08,-9.55452e+08,364272,-0.038573,0.197502,-0,0.201234,-16178.4,-34791.1,-0,38368.8,364272
step02_gravity_refstate-crust.xmf,538,-4.08332e-06,8.44638e-06,0,5.81881e-06,-9.63987e+08,-9.63127e+08,-9.63706e+08,399171,-0.0408694,0.206454,-0,0.21046,-15368.4,-35091.5,-0,38309.2,399171
step02_gravity_refstate-crust.xmf,539,-4.50279e-06,7.0337e-06,0,1.08433e-05,-9.93056e+08,-9.92265e+08,-9.92748e+08,743851,-0.0592587,0.289097,-0,0.295108,-10523.4,-36145.9,-0,37646.6,743851
step02_gravity_refstate-crust.xmf,540,-4.7032e-06,7.86464e-06,0,9.54364e-06,-9.93686e+08,-9.92824e+08,-9.93364e+08,654694,-0.0550458,0.268337,-0,0.273925,-11426.9,-36169.3,-0,37931.4,654694
step02_gravity_refstate-crust.xmf,541,-4.75048e-06,8.45162e-06,0,8.36582e-06,-9.9463e+08,-9.93724e+08,-9.94304e+08,573895,-0.0506487,0.249052,-0,0.25415,-12336.3,-36204.4,-0,38248.4,573895
step02_gravity_refstate-crust.xmf,542,-8.44626e-07,6.78129e-06,0,5.71938e-07,-9.69533e+08,-9.6901e+08,-9.69475e+08,39234.9,-0.00376574,0.086044,-0,0.0861264,-30775.9,-35303.9,-0,46835.1,39234.9
step02_gravity_refstate-crust.xmf,543,-1.69426e-06,7.56958e-06,0,1.27293e-06,-9.71011e+08,-9.70376e+08,-9.70895e+08,87323.2,-0.00986895,0.106769,-0,0.107224,-25734.7,-35355.5,-0,43729.7,87323.2
step02_gravity_refstate-crust.xmf,544,-1.11042e-06,7.03118e-06,0,7.71137e-07,-9.70192e+08,-9.69634e+08,-9.70116e+08,52900,-0.00542908,0.0920004,-0,0.0921604,-28994.1,-35327.2,-0,45701.9,52900
step02_gravity_refstate-crust.xmf,545,-1.39731e-06,7.30104e-06,0,1.00197e-06,-9.71904e+08,-9.71307e+08,-9.71808e+08,68735.1,-0.00736285,0.0986456,-0,0.09892,-27306.6,-35388.8,-0,44699.1,68735.1
step02_gravity_refstate-crust.xmf,546,-3.6143e-07,6.73408e-06,0,2.80568e-07,-1.01286e+09,-1.01237e+09,-1.01284e+09,19247,-0.000130347,0.0727025,-0,0.0727027,-31732.8,-36883.1,-0,48655.3,19247
step02_gravity_refstate-crust.xmf,547,3.00688e-07,6.43412e-06,0,2.02882e-08,-1.05429e+09,-1.05387e+09,-1.05431e+09,1391.77,0.00244096,0.0571874,0,0.0572395,-34622.1,-38393.6,-0,51698.7,1391.77
step02_gravity_refstate-crust.xmf,548,-4.58445e-06,6.4212e-06,0,1.29227e-05,-1.01247e+09,-1.01171e+09,-1.01215e+09,886495,-0.0635999,0.317266,-0,0.323578,-9243.6,-36851.3,-0,37993,886495
step02_gravity_refstate-crust.xmf,549,-4.00633e-06,4.99239e-06,0,1.44744e-05,-1.01254e+09,-1.01192e+09,-1.01226e+09,992941,-0.0669916,0.340087,-0,0.346623,-8455.12,-36853.9,-0,37811.4,992941
step02_gravity_refstate-crust.xmf,550,-3.12107e-06,3.14181e-06,0,1.60717e-05,-1.01278e+09,-1.01235e+09,-1.01257e+09,1.10252e+06,-0.0697374,0.363961,-0,0.370582,-7687.9,-36863.6,-0,37656.7,1.10252e+06
step02_gravity_refstate-crust.xmf,551,-1.34176e-07,-1.66817e-06,0,1.75135e-05,-9.95783e+08,-9.95889e+08,-9.95774e+08,1.20143e+06,-0.07092,0.400653,-0,0.406881,-6577.72,-36249.4,-0,36841.3,1.20143e+06
step02_gravity_refstate-crust.xmf,552,1.39129e-06,-2.82428e-06,0,1.44981e-05,-9.41888e+08,-9.42177e+08,-9.41984e+08,994569,-0.0654443,0.386357,-0,0.391861,-6912.97,-34291.6,-0,34981.5,994569
step02_gravity_refstate-crust.xmf,553,1.67678e-06,-3.68745e-06,0,1.57256e-05,-9.59983e+08,-9.60351e+08,-9.60098e+08,1.07877e+06,-0.0669908,0.399895,-0,0.405467,-6484.51,-34950.2,-0,35546.7,1.07877e+06
step02_gravity_refstate-crust.xmf,554,2.88334e-06,-1.94066e-06,0,1.49835e-06,-4.22795e+08,-4.23126e+08,-4.22993e+08,102787,-0.00994995,0.345408,-0,0.345551,-3302.49,-15400.9,-0,15751,102787
step02_gravity_refstate-crust.xmf,555,3.11475e-06,-2.42912e-06,0,3.14753e-06,-5.30326e+08,-5.30706e+08,-5.3054e+08,215920,-0.0199975,0.346397,-0,0.346973,-5443.83,-19315.9,-0,20068.4,215920
step02_gravity_refstate-crust.xmf,556,3.11681e-06,-2.37579e-06,0,2.55038e-06,-5.00183e+08,-5.0056e+08,-5.00397e+08,174956,-0.0163355,0.347112,-0,0.347496,-4688.99,-18218.6,-0,18812.3,174956
step02_gravity_refstate-crust.xmf,557,3.02509e-06,-2.19444e-06,0,2.00056e-06,-4.64192e+08,-4.6455e+08,-4.644e+08,137238,-0.0129891,0.346603,-0,0.346846,-3992.75,-16908.2,-0,17373.3,137238
step02_gravity_refstate-crust.xmf,558,3.47576e-06,-3.01054e-06,0,3.89383e-06,-5.93537e+08,-5.93982e+08,-5.93775e+08,267117,-0.0240913,0.351665,-0,0.35249,-5630.35,-21617.7,-0,22338.9,267117
step02_gravity_refstate-crust.xmf,559,3.35421e-06,-2.93375e-06,0,4.69793e-06,-6.26022e+08,-6.26453e+08,-6.26252e+08,322278,-0.0288425,0.350226,-0,0.351411,-6376.58,-22800,-0,23674.9,322278
step02_gravity_refstate-crust.xmf,560,3.4866e-06,-3.35485e-06,0,5.84009e-06,-6.86252e+08,-6.86721e+08,-6.86491e+08,400630,-0.0347968,0.354603,-0,0.356306,-6683.47,-24992.6,-0,25870.8,400630
step02_gravity_refstate-crust.xmf,561,2.87133e-06,-2.82352e-06,0,7.91594e-06,-7.62859e+08,-7.6325e+08,-7.63056e+08,543034,-0.0453777,0.353476,-0,0.356377,-7592.07,-27779.9,-0,28798.6,543034
step02_gravity_refstate-crust.xmf,562,3.45628e-06,-3.48462e-06,0,7.06749e-06,-7.38113e+08,-7.38589e+08,-7.3835e+08,484830,-0.0406787,0.358462,-0,0.360763,-6939.17,-26880.3,-0,27761.5,484830
step02_gravity_refstate-crust.xmf,563,1.96079e-06,-2.58334e-06,0,1.16916e-05,-8.81889e+08,-8.82201e+08,-8.82024e+08,802042,-0.0590355,0.368324,-0,0.373025,-7446.02,-32110,-0,32962,802042
step02_gravity_refstate-crust.xmf,564,3.06032e-06,-3.65912e-06,0,1.01481e-05,-8.40333e+08,-8.40794e+08,-8.40543e+08,696160,-0.0528824,0.370415,-0,0.374171,-7067.62,-30599.9,-0,31405.5,696160
step02_gravity_refstate-crust.xmf,565,3.41872e-06,-1.1862e-06,0,-2.47535e-07,-4.99833e+07,-5.02992e+07,-5.02178e+07,-16980.9,0.0124274,0.329513,0,0.329747,3534.47,-1831.69,0,3980.9,16980.9
step02_gravity_refstate-crust.xmf,566,3.03371e-06,-1.00496e-06,0,-2.86086e-07,-1.00154e+08,-1.00431e+08,-1.00362e+08,-19625.5,0.00673005,0.333316,0,0.333384,2198.48,-3656.92,0,4266.89,19625.5
step02_gravity_refstate-crust.xmf,567,2.78234e-06,-9.34537e-07,0,-1.7397e-07,-1.45503e+08,-1.45758e+08,-1.45694e+08,-11934.4,0.00278382,0.335861,0,0.335872,1001.31,-5306.99,0,5400.63,11934.4
step02_gravity_refstate-crust.xmf,568,2.60827e-06,-9.46348e-07,0,4.50231e-08,-1.93307e+08,-1.93551e+08,-1.93486e+08,3088.58,-0.000409524,0.337742,-0,0.337742,-157.473,-7046.63,-0,7048.39,3088.58
step02_gravity_refstate-crust.xmf,569,2.51516e-06,-1.02514e-06,0,3.81008e-07,-2.41159e+08,-2.41402e+08,-2.41331e+08,26137.1,-0.00343286,0.338953,-0,0.33897,-1361.86,-8788.22,-0,8893.11,26137.1
step02_gravity_refstate-crust.xmf,570,2.6328e-06,-1.43595e-06,0,5.94729e-07,-3.34342e+08,-3.34621e+08,-3.34522e+08,40798.4,-0.00431299,0.342817,-0,0.342844,-1627.92,-12180.5,-0,12288.8,40798.4
step02_gravity_refstate-crust.xmf,571,2.74493e-06,-1.68007e-06,0,1.0389e-06,-3.79244e+08,-3.79547e+08,-3.79432e+08,71268.5,-0.00714193,0.344104,-0,0.344178,-2545.14,-13815.3,-0,14047.7,71268.5
step02_gravity_refstate-crust.xmf,572,-3.5715e-06,8.66471e-06,0,4.02621e-06,-9.70175e+08,-9.69335e+08,-9.6993e+08,276198,-0.030318,0.171004,-0,0.173671,-17922.5,-35319.1,-0,39606.3,276198
step02_gravity_refstate-crust.xmf,573,-4.26173e-06,8.48392e-06,0,6.39355e-06,-9.71409e+08,-9.70535e+08,-9.71117e+08,438597,-0.0434098,0.216648,-0,0.220954,-14553.4,-35361,-0,38238.8,438597
step02_gravity_refstate-crust.xmf,574,-4.66258e-06,8.78088e-06,0,7.33951e-06,-9.93597e+08,-9.92674e+08,-9.93277e+08,503491,-0.0464534,0.231781,-0,0.23639,-13257.1,-36167.6,-0,38520.7,503491
step02_gravity_refstate-crust.xmf,575,-1.62682e-06,7.8606e-06,0,1.13258e-06,-1.00452e+09,-1.00387e+09,-1.00441e+09,77695,-0.00728704,0.101386,-0,0.101648,-25007.7,-36576.2,-0,44308,77695
step02_gravity_refstate-crust.xmf,576,-1.9923e-06,8.12316e-06,0,1.4811e-06,-1.00166e+09,-1.00096e+09,-1.00152e+09,101604,-0.0102652,0.111007,-0,0.111481,-23565.1,-36470.9,-0,43421.6,101604
step02_gravity_refstate-crust.xmf,577,1.23833e-07,6.64305e-06,0,5.7969e-08,-1.0554e+09,-1.05495e+09,-1.05541e+09,3976.67,0.00293538,0.0601643,0,0.0602358,-32699.8,-38433.6,-0,50462.1,3976.67
step02_gravity_refstate-crust.xmf,578,-4.96535e-06,7.60936e-06,0,1.13862e-05,-1.0137e+09,-1.01284e+09,-1.01336e+09,781094,-0.0595035,0.294641,-0,0.300589,-10077.5,-36896.5,-0,38247.9,781094
step02_gravity_refstate-crust.xmf,579,-1.88793e-06,7.8111e-07,0,1.7632e-05,-1.01282e+09,-1.01264e+09,-1.01269e+09,1.20956e+06,-0.0716209,0.388807,-0,0.395348,-6940.87,-36866.3,-0,37514,1.20956e+06
step02_gravity_refstate-crust.xmf,580,1.55504e-06,-3.87991e-06,0,1.70257e-05,-9.79742e+08,-9.80114e+08,-9.79848e+08,1.16796e+06,-0.0689776,0.410542,-0,0.416296,-6213.45,-35668.8,-0,36205.9,1.16796e+06
step02_gravity_refstate-crust.xmf,581,3.53944e-06,-3.02304e-06,0,3.13193e-06,-5.63167e+08,-5.63617e+08,-5.63409e+08,214851,-0.019509,0.352786,-0,0.353325,-4807.7,-20512.3,-0,21068.2,214851
step02_gravity_refstate-crust.xmf,582,3.83445e-06,-3.86747e-06,0,6.20068e-06,-7.12557e+08,-7.13085e+08,-7.1282e+08,425367,-0.035999,0.361206,-0,0.362995,-6350.65,-25950.9,-0,26716.6,425367
step02_gravity_refstate-crust.xmf,583,3.92656e-06,-3.78446e-06,0,4.89495e-06,-6.60968e+08,-6.61496e+08,-6.61237e+08,335794,-0.0291155,0.359398,-0,0.360575,-5722.27,-24073.2,-0,24744,335794
step02_gravity_refstate-crust.xmf,584,3.31659e-06,-3.66947e-06,0,8.46466e-06,-7.88506e+08,-7.88985e+08,-7.88733e+08,580676,-0.046649,0.363354,-0,0.366336,-7074.4,-28714.1,-0,29572.7,580676
step02_gravity_refstate-crust.xmf,585,2.86036e-06,-3.66475e-06,0,1.10398e-05,-8.64525e+08,-8.64973e+08,-8.64722e+08,757331,-0.0558094,0.374545,-0,0.37868,-7018.44,-31479.8,-0,32252.7,757331
step02_gravity_refstate-crust.xmf,586,3.85788e-06,-4.61008e-06,0,9.0204e-06,-8.12713e+08,-8.13294e+08,-8.12978e+08,618799,-0.0476274,0.374458,-0,0.377475,-6544,-29596.1,-0,30310.9,618799
step02_gravity_refstate-crust.xmf,587,2.30728e-06,-3.4671e-06,0,1.26153e-05,-9.01932e+08,-9.02328e+08,-9.0209e+08,865410,-0.0605647,0.380121,-0,0.384915,-6984.06,-32839.7,-0,33574.1,865410
step02_gravity_refstate-crust.xmf,588,2.71174e-06,-4.42134e-06,0,1.36703e-05,-9.22436e+08,-9.22925e+08,-9.22622e+08,937785,-0.0621256,0.393428,-0,0.398303,-6521.75,-33586.3,-0,34213.7,937785
step02_gravity_refstate-crust.xmf,589,3.89893e-06,-1.4841e-06,0,8.8314e-10,370173,897.688,102707,60.5834,0.0203958,0.324461,0,0.325102,4919.33,0,0,4919.33,60.5834
step02_gravity_refstate-crust.xmf,590,2.55665e-06,-1.21573e-06,0,1.73281e-07,-2.87979e+08,-2.88237e+08,-2.88154e+08,11887.1,-0.0013432,0.34131,-0,0.341313,-526.513,-10492.6,-0,10505.8,11887.1
step02_gravity_refstate-crust.xmf,591,-2.37149e-06,8.42416e-06,0,1.86322e-06,-1.00211e+09,-1.00137e+09,-1.00194e+09,127817,-0.0133009,0.120919,-0,0.121649,-22141.9,-36486.2,-0,42679.1,127817
step02_gravity_refstate-crust.xmf,592,-2.75394e-06,8.67982e-06,0,2.33712e-06,-1.00076e+09,-9.99977e+08,-1.00057e+09,160326,-0.0170142,0.132571,-0,0.133658,-20760,-36436,-0,41935.2,160326
step02_gravity_refstate-crust.xmf,593,-3.1181e-06,8.88569e-06,0,2.86067e-06,-9.99064e+08,-9.9824e+08,-9.9885e+08,196242,-0.0209392,0.144774,-0,0.146281,-19503,-36373.1,-0,41271.8,196242
step02_gravity_refstate-crust.xmf,594,-3.42613e-06,8.98752e-06,0,3.41342e-06,-9.94728e+08,-9.93876e+08,-9.94493e+08,234160,-0.0250318,0.157166,-0,0.159147,-18448.3,-36214.1,-0,40642.3,234160
step02_gravity_refstate-crust.xmf,595,-3.72641e-06,9.03931e-06,0,4.0576e-06,-9.90929e+08,-9.90053e+08,-9.90674e+08,278351,-0.0293916,0.170713,-0,0.173225,-17385.1,-36074.7,-0,40045.3,278351
step02_gravity_refstate-crust.xmf,596,-4.02127e-06,8.98667e-06,0,4.8642e-06,-9.85566e+08,-9.84673e+08,-9.8529e+08,333684,-0.0344965,0.186913,-0,0.190069,-16263.8,-35878.1,-0,39392.3,333684
step02_gravity_refstate-crust.xmf,597,-4.50653e-06,8.99692e-06,0,6.39044e-06,-9.93043e+08,-9.92117e+08,-9.92734e+08,438384,-0.0421116,0.21514,-0,0.219223,-14223.2,-36148.4,-0,38845.9,438384
step02_gravity_refstate-crust.xmf,598,-4.29957e-06,9.06717e-06,0,5.59447e-06,-9.91314e+08,-9.90397e+08,-9.91019e+08,383781,-0.0381957,0.200672,-0,0.204275,-15172.3,-36086.4,-0,39146.2,383781
step02_gravity_refstate-crust.xmf,599,-5.14051e-06,8.44685e-06,0,9.96733e-06,-1.01487e+09,-1.01394e+09,-1.01452e+09,683759,-0.0549159,0.27264,-0,0.278116,-10959.8,-36939.6,-0,38531.2,683759
step02_gravity_refstate-crust.xmf,600,-5.11108e-06,8.98055e-06,0,8.67639e-06,-1.01471e+09,-1.01375e+09,-1.01436e+09,595200,-0.0503147,0.252437,-0,0.257403,-11864.6,-36934.9,-0,38793.8,595200
step02_gravity_refstate-crust.xmf,601,-4.9774e-06,9.33098e-06,0,7.51639e-06,-1.01485e+09,-1.01387e+09,-1.01451e+09,515624,-0.0456179,0.233481,-0,0.237895,-12794.5,-36941.1,-0,39094,515624
step02_gravity_refstate-crust.xmf,602,-1.63778e-06,8.13743e-06,0,1.07245e-06,-1.02866e+09,-1.02799e+09,-1.02855e+09,73569.8,-0.00546739,0.0990068,-0,0.0991577,-24203.6,-37455.4,-0,44595,73569.8
step02_gravity_refstate-crust.xmf,603,-6.28036e-07,6.99714e-06,0,4.12739e-07,-1.01317e+09,-1.01265e+09,-1.01313e+09,28313.9,-0.000987255,0.0777439,-0,0.0777502,-29926.9,-36893.9,-0,47505.6,28313.9
step02_gravity_refstate-crust.xmf,604,-1.19755e-06,7.63272e-06,0,7.5292e-07,-1.0208e+09,-1.02019e+09,-1.02072e+09,51650.3,-0.00329331,0.0892885,-0,0.0893492,-26460.1,-37170.2,-0,45626.3,51650.3
step02_gravity_refstate-crust.xmf,605,-9.05323e-07,7.29094e-06,0,5.72335e-07,-1.01523e+09,-1.01466e+09,-1.01516e+09,39262.2,-0.00210346,0.0833584,-0,0.083385,-28190,-36967.9,-0,46489.9,39262.2
step02_gravity_refstate-crust.xmf,606,-9.52915e-08,6.89624e-06,0,1.25653e-07,-1.05571e+09,-1.05523e+09,-1.0557e+09,8619.79,0.00299478,0.064275,0,0.0643447,-30860.6,-38444.3,-0,49298.5,8619.79
step02_gravity_refstate-crust.xmf,607,-5.38237e-06,8.06631e-06,0,1.20602e-05,-1.03172e+09,-1.0308e+09,-1.03135e+09,827331,-0.0597796,0.301933,-0,0.307794,-9612.56,-37551.6,-0,38762.4,827331
step02_gravity_refstate-crust.xmf,608,-5.06737e-06,6.93076e-06,0,1.36707e-05,-1.03072e+09,-1.0299e+09,-1.03037e+09,937810,-0.0639364,0.32456,-0,0.330797,-8839.76,-37514.6,-0,38542,937810
step02_gravity_refstate-crust.xmf,609,-4.52398e-06,5.45769e-06,0,1.54327e-05,-1.03106e+09,-1.03037e+09,-1.03075e+09,1.05869e+06,-0.0675987,0.348666,-0,0.355158,-8070.49,-37526.8,-0,38384.8,1.05869e+06
step02_gravity_refstate-crust.xmf,610,-3.61483e-06,3.46455e-06,0,1.728e-05,-1.03114e+09,-1.03066e+09,-1.0309e+09,1.18541e+06,-0.0706559,0.374175,-0,0.380788,-7320.89,-37530.6,-0,38237.9,1.18541e+06
step02_gravity_refstate-crust.xmf,611,1.78349e-06,-4.71487e-06,0,1.84224e-05,-9.95747e+08,-9.96193e+08,-9.95869e+08,1.26378e+06,-0.0703385,0.424243,-0,0.430035,-5864.68,-36251.1,-0,36722.4,1.26378e+06
step02_gravity_refstate-crust.xmf,612,-1.71693e-07,-2.13793e-06,0,1.90076e-05,-1.01246e+09,-1.0126e+09,-1.01245e+09,1.30392e+06,-0.0723433,0.413967,-0,0.420241,-6222.81,-36855.8,-0,37377.4,1.30392e+06
step02_gravity_refstate-crust.xmf,613,3.26642e-06,-5.63213e-06,0,1.47817e-05,-9.4117e+08,-9.4178e+08,-9.41394e+08,1.01403e+06,-0.0633526,0.408318,-0,0.413203,-6050.78,-34268.7,-0,34798.8,1.01403e+06
step02_gravity_refstate-crust.xmf,614,4.09774e-06,-7.24461e-06,0,1.58981e-05,-9.57916e+08,-9.58694e+08,-9.58197e+08,1.09061e+06,-0.0640477,0.425268,-0,0.430064,-5555.58,-34879.2,-0,35318.9,1.09061e+06
step02_gravity_refstate-crust.xmf,615,3.58638e-06,-6.98202e-06,0,1.74316e-05,-9.79027e+08,-9.79752e+08,-9.79273e+08,1.19581e+06,-0.0670361,0.432457,-0,0.437622,-5496.1,-35646.1,-0,36067.4,1.19581e+06
step02_gravity_refstate-crust.xmf,616,3.03583e-06,-2.11572e-06,0,7.28077e-07,-4.21422e+08,-4.21776e+08,-4.21631e+08,49946.1,-0.00480538,0.348437,-0,0.34847,-1571.2,-15351.3,-0,15431.5,49946.1
step02_gravity_refstate-crust.xmf,617,3.24971e-06,-2.4635e-06,0,1.22431e-06,-4.6356e+08,-4.63951e+08,-4.63782e+08,83987.4,-0.00789322,0.35071,-0,0.350798,-2373.18,-16885.7,-0,17051.6,83987.4
step02_gravity_refstate-crust.xmf,618,3.5348e-06,-2.94969e-06,0,2.409e-06,-5.32948e+08,-5.33393e+08,-5.33191e+08,165258,-0.0150906,0.353232,-0,0.353554,-3932.64,-19412.3,-0,19806.6,165258
step02_gravity_refstate-crust.xmf,619,3.43386e-06,-2.7623e-06,0,1.76875e-06,-5.0087e+08,-5.01295e+08,-5.01105e+08,121336,-0.0112091,0.352527,-0,0.352705,-3116.72,-18244.3,-0,18508.6,121336
step02_gravity_refstate-crust.xmf,620,4.01249e-06,-3.69722e-06,0,3.1025e-06,-5.95794e+08,-5.96323e+08,-5.96069e+08,212832,-0.0189126,0.359665,-0,0.360162,-4212.45,-21701,-0,22106.1,212832
step02_gravity_refstate-crust.xmf,621,4.00921e-06,-3.77657e-06,0,3.94617e-06,-6.27109e+08,-6.27643e+08,-6.27384e+08,270707,-0.0237949,0.359761,-0,0.360548,-4983.95,-22840.9,-0,23378.3,270707
step02_gravity_refstate-crust.xmf,622,4.08237e-06,-4.09467e-06,0,5.34388e-06,-6.86794e+08,-6.87355e+08,-6.87074e+08,366590,-0.0312898,0.362932,-0,0.364279,-5744.89,-25013.6,-0,25664.8,366590
step02_gravity_refstate-crust.xmf,623,3.89794e-06,-4.20964e-06,0,7.48747e-06,-7.62938e+08,-7.63494e+08,-7.63206e+08,513641,-0.0416717,0.36714,-0,0.369497,-6492.74,-27784.8,-0,28533.3,513641
step02_gravity_refstate-crust.xmf,624,4.3086e-06,-4.61161e-06,0,6.50452e-06,-7.37315e+08,-7.37927e+08,-7.3761e+08,446210,-0.0365966,0.369482,-0,0.37129,-5907.36,-26853,-0,27495.1,446210
step02_gravity_refstate-crust.xmf,625,3.37677e-06,-4.60218e-06,0,1.16838e-05,-8.814e+08,-8.81947e+08,-8.81631e+08,801508,-0.0566052,0.385917,-0,0.390047,-6555.59,-32094.8,-0,32757.4,801508
step02_gravity_refstate-crust.xmf,626,4.21378e-06,-5.48662e-06,0,1.05998e-05,-8.59204e+08,-8.5987e+08,-8.59493e+08,727146,-0.0520676,0.389124,-0,0.392592,-6158.87,-31288.7,-0,31889.1,727146
step02_gravity_refstate-crust.xmf,627,4.49928e-06,-5.58033e-06,0,9.52941e-06,-8.34328e+08,-8.35019e+08,-8.34637e+08,653717,-0.0481609,0.386365,-0,0.389355,-6018.38,-30384.1,-0,30974.4,653717
step02_gravity_refstate-crust.xmf,628,3.1396e-06,-1.07891e-06,0,-3.96685e-07,-4.6896e+07,-4.71854e+07,-4.71114e+07,-27212.6,0.0208223,0.323935,0,0.324604,6040.24,-1718.33,0,6279.9,27212.6
step02_gravity_refstate-crust.xmf,629,2.85844e-06,-9.25268e-07,0,-5.86473e-07,-9.94597e+07,-9.97192e+07,-9.96558e+07,-40232,0.0136802,0.32947,0,0.329754,4550.65,-3631.06,0,5821.77,40232
step02_gravity_refstate-crust.xmf,630,2.66803e-06,-8.80444e-07,0,-5.82882e-07,-1.48151e+08,-1.48394e+08,-1.48334e+08,-39985.7,0.00879442,0.333584,0,0.3337,3217.43,-5403,0,6288.43,39985.7
step02_gravity_refstate-crust.xmf,631,2.55877e-06,-9.19219e-07,0,-4.65379e-07,-1.94762e+08,-1.95001e+08,-1.94938e+08,-31925,0.00531187,0.336673,0,0.336715,2057.97,-7099.44,0,7391.7,31925
step02_gravity_refstate-crust.xmf,632,2.52797e-06,-1.02906e-06,0,-2.33692e-07,-2.39371e+08,-2.39615e+08,-2.39545e+08,-16031.3,0.00221363,0.339187,0,0.339195,876.451,-8723.19,0,8767.11,16031.3
step02_gravity_refstate-crust.xmf,633,2.67128e-06,-1.4799e-06,0,-6.05177e-08,-3.34652e+08,-3.34937e+08,-3.34835e+08,-4151.52,0.000479192,0.343667,0,0.343667,180.107,-12191.9,0,12193.2,4151.52
step02_gravity_refstate-crust.xmf,634,2.83707e-06,-1.78147e-06,0,3.04653e-07,-3.78259e+08,-3.78576e+08,-3.78454e+08,20899.2,-0.00206781,0.346078,-0,0.346084,-729.645,-13779.6,-0,13798.9,20899.2
step02_gravity_refstate-crust.xmf,635,-4.77077e-06,9.54693e-06,0,6.46813e-06,-1.01567e+09,-1.01469e+09,-1.01535e+09,443713,-0.0408097,0.215472,-0,0.219303,-13756.3,-36972.1,-0,39448.4,443713
step02_gravity_refstate-crust.xmf,636,-1.34593e-06,7.94931e-06,0,8.27369e-07,-1.03587e+09,-1.03523e+09,-1.03578e+09,56757.5,-0.00301213,0.0913096,-0,0.0913593,-25199.4,-37718.8,-0,45362.1,56757.5
step02_gravity_refstate-crust.xmf,637,-1.91201e-06,8.49502e-06,0,1.27309e-06,-1.03815e+09,-1.03744e+09,-1.03802e+09,87334,-0.00644638,0.10458,-0,0.104778,-22870.8,-37800.3,-0,44180.8,87334
step02_gravity_refstate-crust.xmf,638,-5.64279e-06,9.20549e-06,0,1.03343e-05,-1.03793e+09,-1.03691e+09,-1.03754e+09,708931,-0.05392,0.27628,-0,0.281493,-10507,-37778.3,-0,39212.2,708931
step02_gravity_refstate-crust.xmf,639,-2.18439e-06,7.30369e-07,0,1.90968e-05,-1.02969e+09,-1.02949e+09,-1.02954e+09,1.31004e+06,-0.0728092,0.40126,-0,0.407813,-6582.03,-37479.2,-0,38052.7,1.31004e+06
step02_gravity_refstate-crust.xmf,640,5.02295e-06,-8.80813e-06,0,1.6612e-05,-9.69225e+08,-9.70174e+08,-9.6957e+08,1.13959e+06,-0.063969,0.44021,-0,0.444834,-5140.7,-35292.3,-0,35664.7,1.13959e+06
step02_gravity_refstate-crust.xmf,641,3.97338e-06,-3.57932e-06,0,2.31297e-06,-5.67256e+08,-5.67774e+08,-5.67529e+08,158670,-0.0142625,0.359409,-0,0.359692,-3362.51,-20662.1,-0,20933.9,158670
step02_gravity_refstate-crust.xmf,642,4.52974e-06,-4.76908e-06,0,5.56352e-06,-7.10918e+08,-7.11556e+08,-7.11229e+08,381658,-0.0317203,0.370096,-0,0.371453,-5362.55,-25892.6,-0,26442.1,381658
step02_gravity_refstate-crust.xmf,643,4.6231e-06,-4.77432e-06,0,4.70927e-06,-6.84927e+08,-6.85572e+08,-6.85245e+08,323056,-0.0271946,0.36974,-0,0.370738,-4837.83,-24946.8,-0,25411.5,323056
step02_gravity_refstate-crust.xmf,644,4.47006e-06,-5.23132e-06,0,7.92759e-06,-7.88001e+08,-7.88667e+08,-7.88308e+08,543833,-0.0423792,0.377608,-0,0.379978,-5990.46,-28698,-0,29316.5,543833
step02_gravity_refstate-crust.xmf,645,5.1747e-06,-6.39149e-06,0,8.34061e-06,-8.12042e+08,-8.12836e+08,-8.12397e+08,572166,-0.0426457,0.389568,-0,0.391896,-5456.75,-29574.2,-0,30073.4,572166
step02_gravity_refstate-crust.xmf,646,3.94358e-06,-5.83766e-06,0,1.25774e-05,-9.01657e+08,-9.02328e+08,-9.01928e+08,862809,-0.0577396,0.399249,-0,0.403402,-6088.24,-32832.6,-0,33392.4,862809
step02_gravity_refstate-crust.xmf,647,4.5621e-06,-7.11737e-06,0,1.36096e-05,-9.22499e+08,-9.233e+08,-9.22812e+08,933617,-0.0589785,0.413741,-0,0.417924,-5649.36,-33591.9,-0,34063.7,933617
step02_gravity_refstate-crust.xmf,648,3.43215e-06,-1.30757e-06,0,-3.9254e-10,325808,662.72,90362.3,-26.9282,0.0294543,0.318012,0,0.319373,7383.26,0,0,7383.26,26.9282
step02_gravity_refstate-crust.xmf,649,2.54626e-06,-1.21357e-06,0,-3.99449e-07,-2.90021e+08,-2.90279e+08,-2.90195e+08,-27402.2,0.0032049,0.341015,0,0.34103,1257.71,-10566.9,0,10641.5,27402.2
step02_gravity_refstate-crust.xmf,650,-3.20481e-06,9.37277e-06,0,2.77542e-06,-1.02978e+09,-1.02892e+09,-1.02956e+09,190394,-0.0182838,0.142258,-0,0.143428,-18744.9,-37491.8,-0,41916.7,190394
step02_gravity_refstate-crust.xmf,651,-2.38635e-06,8.82606e-06,0,1.75189e-06,-1.03334e+09,-1.03257e+09,-1.03318e+09,120180,-0.0104928,0.117401,-0,0.117869,-21332.2,-37623.8,-0,43250.5,120180
step02_gravity_refstate-crust.xmf,652,-2.79062e-06,9.12795e-06,0,2.20801e-06,-1.03261e+09,-1.03179e+09,-1.03242e+09,151470,-0.0139953,0.128866,-0,0.129624,-20017.7,-37596.1,-0,42593.1,151470
step02_gravity_refstate-crust.xmf,653,-3.54704e-06,9.35155e-06,0,3.44855e-06,-1.01534e+09,-1.01446e+09,-1.0151e+09,236570,-0.0239386,0.15743,-0,0.15924,-17814,-36964.7,-0,41033.2,236570
step02_gravity_refstate-crust.xmf,654,-3.86629e-06,9.50912e-06,0,3.99623e-06,-1.01627e+09,-1.01535e+09,-1.016e+09,274142,-0.027309,0.168701,-0,0.170897,-16860.4,-36997.3,-0,40658,274142
step02_gravity_refstate-crust.xmf,655,-4.50489e-06,9.64542e-06,0,5.51822e-06,-1.01682e+09,-1.01585e+09,-1.01651e+09,378550,-0.0359654,0.198332,-0,0.201566,-14761.9,-37015.1,-0,39850.1,378550
step02_gravity_refstate-crust.xmf,656,-4.19748e-06,9.6099e-06,0,4.71173e-06,-1.01653e+09,-1.01559e+09,-1.01624e+09,323225,-0.0315494,0.182987,-0,0.185687,-15792.4,-37005.8,-0,40234.7,323225
step02_gravity_refstate-crust.xmf,657,-5.48551e-06,9.64016e-06,0,8.86681e-06,-1.03593e+09,-1.03489e+09,-1.03555e+09,608263,-0.0489984,0.254153,-0,0.258833,-11460.3,-37706.6,-0,39409.8,608263
step02_gravity_refstate-crust.xmf,658,-5.00637e-06,1.00816e-05,0,6.5529e-06,-1.0364e+09,-1.03537e+09,-1.03606e+09,449529,-0.0392898,0.216348,-0,0.219887,-13296.7,-37726.5,-0,40001.2,449529
step02_gravity_refstate-crust.xmf,659,-5.27441e-06,9.90804e-06,0,7.6619e-06,-1.03539e+09,-1.03435e+09,-1.03503e+09,525606,-0.0443006,0.235027,-0,0.239166,-12356.4,-37688.5,-0,39662.3,525606
step02_gravity_refstate-crust.xmf,660,-1.30675e-06,8.2521e-06,0,7.28981e-07,-1.06393e+09,-1.06328e+09,-1.06384e+09,50008.1,-0.000249421,0.0879416,-0,0.087942,-24295,-38741.1,-0,45728.7,50008.1
step02_gravity_refstate-crust.xmf,661,-3.72228e-07,7.19775e-06,0,2.25349e-07,-1.05662e+09,-1.0561e+09,-1.05659e+09,15458.9,0.00267768,0.069168,0,0.0692198,-29099.9,-38476.9,-0,48241.8,15458.9
step02_gravity_refstate-crust.xmf,662,-9.43322e-07,7.87475e-06,0,4.99218e-07,-1.06311e+09,-1.06251e+09,-1.06305e+09,34246.4,0.00138893,0.0801038,0,0.0801159,-25871.2,-38712,-0,46561.1,34246.4
step02_gravity_refstate-crust.xmf,663,-6.64352e-07,7.53161e-06,0,3.55903e-07,-1.05879e+09,-1.05823e+09,-1.05874e+09,24414.9,0.0020552,0.0747055,0,0.0747338,-27400.5,-38555.2,-0,47300,24414.9
step02_gravity_refstate-crust.xmf,664,-5.86324e-06,9.31615e-06,0,1.12076e-05,-1.04861e+09,-1.04757e+09,-1.04821e+09,768839,-0.0554817,0.288502,-0,0.293789,-9905.98,-38166.5,-0,39431.1,768839
step02_gravity_refstate-crust.xmf,665,-5.80381e-06,8.59044e-06,0,1.26646e-05,-1.04812e+09,-1.04713e+09,-1.04772e+09,868793,-0.0596349,0.308647,-0,0.314355,-9206.7,-38147.7,-0,39243,868793
step02_gravity_refstate-crust.xmf,666,-5.58348e-06,7.53721e-06,0,1.44221e-05,-1.04841e+09,-1.04751e+09,-1.04802e+09,989354,-0.0638451,0.331895,-0,0.33798,-8458.02,-38157.4,-0,39083.6,989354
step02_gravity_refstate-crust.xmf,667,-5.12132e-06,6.07792e-06,0,1.64034e-05,-1.04916e+09,-1.0484e+09,-1.04881e+09,1.12528e+06,-0.0677228,0.357082,-0,0.363447,-7714.07,-38184.6,-0,38956,1.12528e+06
step02_gravity_refstate-crust.xmf,668,-4.22606e-06,3.82939e-06,0,1.8837e-05,-1.05072e+09,-1.05017e+09,-1.05043e+09,1.29222e+06,-0.0713147,0.38674,-0,0.39326,-6914.62,-38241.4,-0,38861.5,1.29222e+06
step02_gravity_refstate-crust.xmf,669,4.05367e-06,-8.16568e-06,0,1.8907e-05,-9.95687e+08,-9.96525e+08,-9.95965e+08,1.29702e+06,-0.0683265,0.447436,-0,0.452623,-5173.42,-36252.7,-0,36620,1.29702e+06
step02_gravity_refstate-crust.xmf,670,2.03918e-06,-5.6626e-06,0,2.00585e-05,-1.01212e+09,-1.01265e+09,-1.01226e+09,1.37602e+06,-0.0716622,0.439473,-0,0.445277,-5519.36,-36846.8,-0,37257.9,1.37602e+06
step02_gravity_refstate-crust.xmf,671,-1.4481e-07,-2.75988e-06,0,2.0724e-05,-1.02862e+09,-1.0288e+09,-1.02861e+09,1.42167e+06,-0.0736055,0.429066,-0,0.435334,-5860.31,-37443.2,-0,37899,1.42167e+06
step02_gravity_refstate-crust.xmf,672,-2.2212e-06,1.21124e-07,0,2.09256e-05,-1.04503e+09,-1.04487e+09,-1.04488e+09,1.43549e+06,-0.0739144,0.417551,-0,0.424043,-6164.39,-38036.6,-0,38532.9,1.43549e+06
step02_gravity_refstate-crust.xmf,673,5.47236e-06,-8.8307e-06,0,1.45892e-05,-9.4096e+08,-9.41941e+08,-9.41335e+08,1.00082e+06,-0.0594679,0.430547,-0,0.434634,-5164.02,-34265,-0,34652,1.00082e+06
step02_gravity_refstate-crust.xmf,674,5.76738e-06,-1.01547e-05,0,1.74652e-05,-9.79769e+08,-9.80861e+08,-9.80164e+08,1.19811e+06,-0.0640571,0.453,-0,0.457507,-4830.59,-35677.1,-0,36002.6,1.19811e+06
step02_gravity_refstate-crust.xmf,675,6.59762e-06,-1.07241e-05,0,1.5693e-05,-9.60188e+08,-9.61377e+08,-9.60641e+08,1.07654e+06,-0.0597839,0.449742,-0,0.453698,-4680.53,-34966.7,-0,35278.6,1.07654e+06
step02_gravity_refstate-crust.xmf,676,3.07279e-06,-2.15712e-06,0,-7.03143e-08,-4.19785e+08,-4.20144e+08,-4.19996e+08,-4823.56,0.000493828,0.349224,0,0.349224,161.198,-15291.8,0,15292.6,4823.56
step02_gravity_refstate-crust.xmf,677,3.34944e-06,-2.58141e-06,0,3.67263e-07,-4.61148e+08,-4.61555e+08,-4.61378e+08,25194.3,-0.0023512,0.352594,-0,0.352602,-702.344,-16798.1,-0,16812.8,25194.3
step02_gravity_refstate-crust.xmf,678,3.6475e-06,-3.03821e-06,0,8.68827e-07,-5.02151e+08,-5.02609e+08,-5.02401e+08,59601.5,-0.00547771,0.356026,-0,0.356068,-1489.93,-18291.4,-0,18351.9,59601.5
step02_gravity_refstate-crust.xmf,679,3.92942e-06,-3.48204e-06,0,1.4221e-06,-5.39903e+08,-5.40411e+08,-5.40172e+08,97555.8,-0.00877727,0.359267,-0,0.359374,-2183.49,-19666.2,-0,19787,97555.8
step02_gravity_refstate-crust.xmf,680,4.43631e-06,-4.24526e-06,0,2.19712e-06,-5.98553e+08,-5.99148e+08,-5.98857e+08,150722,-0.0132346,0.365693,-0,0.365932,-2839.66,-21802.3,-0,21986.4,150722
step02_gravity_refstate-crust.xmf,681,4.55955e-06,-4.48265e-06,0,3.00491e-06,-6.27621e+08,-6.28241e+08,-6.27933e+08,206137,-0.0178568,0.367344,-0,0.367777,-3590.24,-22860.7,-0,23140.9,206137
step02_gravity_refstate-crust.xmf,682,4.61572e-06,-4.65265e-06,0,3.87871e-06,-6.57125e+08,-6.57761e+08,-6.57441e+08,266079,-0.0227328,0.368576,-0,0.369276,-4290.23,-23934.8,-0,24316.2,266079
step02_gravity_refstate-crust.xmf,683,4.8953e-06,-5.53426e-06,0,6.81626e-06,-7.62697e+08,-7.63412e+08,-7.63033e+08,467596,-0.0369556,0.379259,-0,0.381055,-5424.43,-27778,-0,28302.7,467596
step02_gravity_refstate-crust.xmf,684,5.12906e-06,-5.67951e-06,0,5.72912e-06,-7.36267e+08,-7.37008e+08,-7.36619e+08,393017,-0.0315776,0.37933,-0,0.380642,-4863.83,-26816.5,-0,27254,393017
step02_gravity_refstate-crust.xmf,685,4.95022e-06,-6.79333e-06,0,1.13128e-05,-8.80556e+08,-8.81361e+08,-8.80895e+08,776059,-0.0527253,0.403109,-0,0.406542,-5649.05,-32067,-0,32560.8,776059
step02_gravity_refstate-crust.xmf,686,5.55716e-06,-7.30956e-06,0,1.00241e-05,-8.58041e+08,-8.58924e+08,-8.58422e+08,687654,-0.047749,0.403261,-0,0.406078,-5304.94,-31249,-0,31696.1,687654
step02_gravity_refstate-crust.xmf,687,6.05562e-06,-7.70985e-06,0,8.7126e-06,-8.35537e+08,-8.36482e+08,-8.35953e+08,597684,-0.04237,0.403319,-0,0.405538,-4889,-30431.1,-0,30821.4,597684
step02_gravity_refstate-crust.xmf,688,2.57254e-06,-8.44598e-07,0,-6.17765e-07,-5.68178e+07,-5.70522e+07,-5.69943e+07,-42378.7,0.0276425,0.315768,0,0.316975,8698.32,-2077.61,0,8943,42378.7
step02_gravity_refstate-crust.xmf,689,2.54831e-06,-7.84626e-07,0,-8.726e-07,-1.02467e+08,-1.02696e+08,-1.02642e+08,-59860.3,0.0197667,0.323445,0,0.324048,6850.12,-3739.51,0,7804.36,59860.3
step02_gravity_refstate-crust.xmf,690,2.46113e-06,-7.70291e-07,0,-9.67763e-07,-1.491e+08,-1.49322e+08,-1.49269e+08,-66388.5,0.0145328,0.328785,0,0.329106,5463.2,-5436.92,0,7707.57,66388.5
step02_gravity_refstate-crust.xmf,691,2.40766e-06,-8.31537e-07,0,-9.61178e-07,-1.97386e+08,-1.97608e+08,-1.97551e+08,-65936.8,0.0107551,0.333111,0,0.333284,4259.54,-7194.5,0,8360.89,65936.8
step02_gravity_refstate-crust.xmf,692,2.42578e-06,-1.0017e-06,0,-8.50925e-07,-2.5068e+08,-2.50915e+08,-2.50846e+08,-58373.4,0.00766771,0.337173,0,0.33726,3079.69,-9134.51,0,9639.7,58373.4
step02_gravity_refstate-crust.xmf,693,2.61563e-06,-1.42875e-06,0,-7.28667e-07,-3.35073e+08,-3.3535e+08,-3.35252e+08,-49986.6,0.00536054,0.342393,0,0.342434,2027.13,-12207,0,12374.2,49986.6
step02_gravity_refstate-crust.xmf,694,2.82329e-06,-1.76842e-06,0,-4.42448e-07,-3.77685e+08,-3.78e+08,-3.77878e+08,-30351.9,0.0030843,0.345815,0,0.345828,1090.83,-13758.7,0,13801.9,30351.9
step02_gravity_refstate-crust.xmf,695,-3.50294e-06,9.78441e-06,0,3.14909e-06,-1.04445e+09,-1.04354e+09,-1.04421e+09,216028,-0.0195753,0.15047,-0,0.151738,-17539.4,-38025.2,-0,41875.4,216028
step02_gravity_refstate-crust.xmf,696,-4.69148e-06,1.01553e-05,0,5.57095e-06,-1.03863e+09,-1.03761e+09,-1.0383e+09,382167,-0.0342447,0.198822,-0,0.20175,-14247.6,-37809,-0,40404.3,382167
step02_gravity_refstate-crust.xmf,697,-1.58352e-06,8.64762e-06,0,9.12277e-07,-1.07286e+09,-1.07216e+09,-1.07275e+09,62582.2,-0.000856174,0.0936268,-0,0.0936307,-22887.7,-39065.5,-0,45276.5,62582.2
step02_gravity_refstate-crust.xmf,698,-6.02463e-06,1.0229e-05,0,1.00929e-05,-1.06067e+09,-1.05956e+09,-1.06026e+09,692375,-0.0503687,0.272073,-0,0.276696,-10358.2,-38606.3,-0,39971.8,692375
step02_gravity_refstate-crust.xmf,699,-6.21136e-06,9.92668e-06,0,1.15225e-05,-1.06412e+09,-1.06302e+09,-1.0637e+09,790446,-0.0543444,0.292222,-0,0.297233,-9581.75,-38730.7,-0,39898.3,790446
step02_gravity_refstate-crust.xmf,700,-3.89119e-06,2.83094e-06,0,2.06628e-05,-1.05994e+09,-1.05948e+09,-1.05968e+09,1.41747e+06,-0.0727925,0.406744,-0,0.413206,-6400.85,-38577,-0,39104.4,1.41747e+06
step02_gravity_refstate-crust.xmf,701,4.29168e-06,-4.01642e-06,0,1.57437e-06,-5.7494e+08,-5.7551e+08,-5.75234e+08,108002,-0.00961974,0.364042,-0,0.364169,-2180.08,-20942.4,-0,21055.6,108002
step02_gravity_refstate-crust.xmf,702,5.24824e-06,-5.69735e-06,0,4.70596e-06,-7.10613e+08,-7.11364e+08,-7.10973e+08,322829,-0.0263386,0.378822,-0,0.379737,-4265.97,-25883,-0,26232.2,322829
step02_gravity_refstate-crust.xmf,703,5.25526e-06,-5.58361e-06,0,3.72645e-06,-6.8439e+08,-6.85134e+08,-6.84751e+08,255634,-0.0211835,0.377552,-0,0.378145,-3627.47,-24928.5,-0,25191.1,255634
step02_gravity_refstate-crust.xmf,704,5.61269e-06,-6.76014e-06,0,7.11479e-06,-7.88377e+08,-7.89226e+08,-7.88762e+08,488075,-0.0369931,0.390617,-0,0.392365,-4911.82,-28713.9,-0,29131,488075
step02_gravity_refstate-crust.xmf,705,6.45491e-06,-8.10397e-06,0,7.34542e-06,-8.12615e+08,-8.13613e+08,-8.13057e+08,503896,-0.0364843,0.403141,-0,0.404789,-4383.86,-29597.6,-0,29920.5,503896
step02_gravity_refstate-crust.xmf,706,5.72979e-06,-8.34688e-06,0,1.21111e-05,-9.01379e+08,-9.02345e+08,-9.01772e+08,830819,-0.0533908,0.417588,-0,0.420987,-5194.59,-32825.9,-0,33234.3,830819
step02_gravity_refstate-crust.xmf,707,6.6544e-06,-1.00422e-05,0,1.29345e-05,-9.21448e+08,-9.22593e+08,-9.21904e+08,887304,-0.0537868,0.433425,-0,0.43675,-4749.59,-33557.6,-0,33892.1,887304
step02_gravity_refstate-crust.xmf,708,2.83684e-06,-1.08541e-06,0,-7.74696e-09,269099,32.809,74491.9,-531.441,0.0372261,0.309403,0,0.311635,9858.69,0,0,9858.69,531.441
step02_gravity_refstate-crust.xmf,709,2.46578e-06,-1.18309e-06,0,-9.64828e-07,-3.00129e+08,-3.00379e+08,-3.00298e+08,-66187.2,0.00755043,0.339289,0,0.339373,2977.11,-10934.6,0,11332.7,66187.2
step02_gravity_refstate-crust.xmf,710,-5.79348e-06,1.05079e-05,0,8.73705e-06,-1.0597e+09,-1.05858e+09,-1.0593e+09,599361,-0.0456968,0.251735,-0,0.255849,-11188.6,-38572.3,-0,40162.3,599361
step02_gravity_refstate-crust.xmf,711,-1.99237e-06,8.96032e-06,0,1.2634e-06,-1.06766e+09,-1.06691e+09,-1.06752e+09,86669.1,-0.0039685,0.103894,-0,0.10397,-21641.7,-38875,-0,44493,86669.1
step02_gravity_refstate-crust.xmf,712,-2.76063e-06,9.5313e-06,0,2.06636e-06,-1.06138e+09,-1.06054e+09,-1.06119e+09,141753,-0.0104963,0.125086,-0,0.125525,-19374.2,-38644.2,-0,43228.9,141753
step02_gravity_refstate-crust.xmf,713,-2.34076e-06,9.32436e-06,0,1.58609e-06,-1.07106e+09,-1.07026e+09,-1.0709e+09,108806,-0.00603932,0.112654,-0,0.112816,-20390.4,-38998,-0,44006.9,108806
step02_gravity_refstate-crust.xmf,714,-3.12129e-06,9.71248e-06,0,2.5422e-06,-1.05535e+09,-1.05447e+09,-1.05514e+09,174395,-0.0144196,0.136533,-0,0.137292,-18443.2,-38423.6,-0,42620.7,174395
step02_gravity_refstate-crust.xmf,715,-3.97694e-06,1.00369e-05,0,3.91929e-06,-1.04372e+09,-1.04276e+09,-1.04344e+09,268863,-0.0244863,0.166737,-0,0.168525,-16263.6,-37997,-0,41331.3,268863
step02_gravity_refstate-crust.xmf,716,-4.32512e-06,1.0164e-05,0,4.62489e-06,-1.04265e+09,-1.04166e+09,-1.04236e+09,317267,-0.0287682,0.181018,-0,0.18329,-15281.7,-37957.1,-0,40917.8,317267
step02_gravity_refstate-crust.xmf,717,-5.51249e-06,1.05596e-05,0,7.65473e-06,-1.05642e+09,-1.05532e+09,-1.05604e+09,525115,-0.0418383,0.23455,-0,0.238253,-12006,-38454,-0,40284.7,525115
step02_gravity_refstate-crust.xmf,718,-4.8492e-06,1.06206e-05,0,5.62814e-06,-1.05715e+09,-1.05609e+09,-1.05681e+09,386090,-0.0324634,0.199669,-0,0.20229,-13788.1,-38483.3,-0,40878.8,386090
step02_gravity_refstate-crust.xmf,719,-5.20157e-06,1.0633e-05,0,6.59463e-06,-1.05653e+09,-1.05544e+09,-1.05617e+09,452391,-0.0371913,0.216804,-0,0.219971,-12872.4,-38459.4,-0,40556.4,452391
step02_gravity_refstate-crust.xmf,720,-6.25655e-06,9.28513e-06,0,1.31875e-05,-1.06511e+09,-1.06404e+09,-1.06468e+09,904663,-0.0587324,0.314382,-0,0.319821,-8842.13,-38765.3,-0,39760.9,904663
step02_gravity_refstate-crust.xmf,721,-6.13246e-06,8.31194e-06,0,1.51074e-05,-1.06598e+09,-1.06499e+09,-1.06556e+09,1.03637e+06,-0.0630629,0.33852,-0,0.344344,-8113.45,-38796,-0,39635.3,1.03637e+06
step02_gravity_refstate-crust.xmf,722,-5.80374e-06,7.01421e-06,0,1.72113e-05,-1.0675e+09,-1.06663e+09,-1.06711e+09,1.18069e+06,-0.0669051,0.363539,-0,0.369644,-7423.38,-38851,-0,39553.8,1.18069e+06
step02_gravity_refstate-crust.xmf,723,-2.36732e-06,-3.76916e-08,0,2.26282e-05,-1.05916e+09,-1.059e+09,-1.059e+09,1.55229e+06,-0.0745794,0.431603,-0,0.438,-5841.4,-38550.3,-0,38990.3,1.55229e+06
step02_gravity_refstate-crust.xmf,724,-5.41376e-06,5.73807e-06,0,1.93714e-05,-1.07245e+09,-1.07169e+09,-1.07208e+09,1.32888e+06,-0.069675,0.387818,-0,0.394027,-6796.75,-39030.7,-0,39618.1,1.32888e+06
step02_gravity_refstate-crust.xmf,725,-3.07787e-08,-3.70307e-06,0,2.27432e-05,-1.0442e+09,-1.04446e+09,-1.0442e+09,1.56018e+06,-0.0746423,0.445745,-0,0.451952,-5502.73,-38009.4,-0,38405.7,1.56018e+06
step02_gravity_refstate-crust.xmf,726,6.64343e-06,-1.19682e-05,0,1.87879e-05,-9.95577e+08,-9.96853e+08,-9.96032e+08,1.28885e+06,-0.064694,0.469998,-0,0.47443,-4493.46,-36253.3,-0,36530.7,1.28885e+06
step02_gravity_refstate-crust.xmf,727,4.72505e-06,-9.74078e-06,0,2.05672e-05,-1.01183e+09,-1.01282e+09,-1.01215e+09,1.41091e+06,-0.0693057,0.464821,-0,0.469959,-4829.45,-36840.6,-0,37155.8,1.41091e+06
step02_gravity_refstate-crust.xmf,728,2.44623e-06,-6.91099e-06,0,2.1981e-05,-1.02836e+09,-1.029e+09,-1.02853e+09,1.5079e+06,-0.0727886,0.457078,-0,0.462838,-5161.05,-37437.6,-0,37791.7,1.5079e+06
step02_gravity_refstate-crust.xmf,729,7.79628e-06,-1.21054e-05,0,1.3759e-05,-9.40952e+08,-9.42317e+08,-9.41486e+08,943867,-0.053739,0.451197,-0,0.454386,-4297.14,-34269.1,-0,34537.5,943867
step02_gravity_refstate-crust.xmf,730,8.16502e-06,-1.35701e-05,0,1.67815e-05,-9.78975e+08,-9.80466e+08,-9.79535e+08,1.15121e+06,-0.0592622,0.472476,-0,0.476178,-4158.31,-35652.6,-0,35894.3,1.15121e+06
step02_gravity_refstate-crust.xmf,731,2.99907e-06,-2.07133e-06,0,-8.57985e-07,-4.18838e+08,-4.19186e+08,-4.19044e+08,-58857.8,0.00573864,0.347828,0,0.347875,1890.44,-15257.1,0,15373.8,58857.8
step02_gravity_refstate-crust.xmf,732,3.3184e-06,-2.54017e-06,0,-4.60874e-07,-4.58176e+08,-4.58578e+08,-4.58403e+08,-31615.9,0.0030111,0.352183,0,0.352195,906.467,-16689.8,0,16714.4,31615.9
step02_gravity_refstate-crust.xmf,733,3.66443e-06,-3.05135e-06,0,-7.08106e-08,-4.97625e+08,-4.98086e+08,-4.97876e+08,-4857.61,0.000473353,0.356523,0,0.356523,129.553,-18126.6,0,18127.1,4857.61
step02_gravity_refstate-crust.xmf,734,4.01752e-06,-3.57417e-06,0,3.4975e-07,-5.34528e+08,-5.35049e+08,-5.34803e+08,23992.8,-0.00213611,0.360823,-0,0.36083,-532.4,-19470.7,-0,19478,23992.8
step02_gravity_refstate-crust.xmf,735,4.37321e-06,-4.10055e-06,0,7.17503e-07,-5.68878e+08,-5.6946e+08,-5.69178e+08,49220.7,-0.00434465,0.365239,-0,0.365265,-990.035,-20721.9,-0,20745.6,49220.7
step02_gravity_refstate-crust.xmf,736,4.70678e-06,-4.59746e-06,0,1.21787e-06,-6.0011e+08,-6.00748e+08,-6.00433e+08,83546,-0.00726556,0.369398,-0,0.369469,-1524.7,-21859.5,-0,21912.6,83546
step02_gravity_refstate-crust.xmf,737,4.96878e-06,-5.00939e-06,0,1.93656e-06,-6.28734e+08,-6.29419e+08,-6.29075e+08,132848,-0.0113691,0.372753,-0,0.372926,-2218.51,-22902,-0,23009.2,132848
step02_gravity_refstate-crust.xmf,738,5.15603e-06,-5.34512e-06,0,2.80222e-06,-6.57085e+08,-6.57806e+08,-6.57439e+08,192232,-0.016189,0.375476,-0,0.375825,-2950.55,-23934.4,-0,24115.6,192232
step02_gravity_refstate-crust.xmf,739,5.86508e-06,-6.80993e-06,0,5.87306e-06,-7.62855e+08,-7.63725e+08,-7.63258e+08,402892,-0.0310924,0.390222,-0,0.391459,-4330.45,-27785.7,-0,28121.1,402892
step02_gravity_refstate-crust.xmf,740,5.94977e-06,-6.75172e-06,0,4.70524e-06,-7.37179e+08,-7.3805e+08,-7.37587e+08,322779,-0.0253996,0.388735,-0,0.389564,-3733.7,-26851.4,-0,27109.7,322779
step02_gravity_refstate-crust.xmf,741,6.53868e-06,-8.96642e-06,0,1.05829e-05,-8.80289e+08,-8.81352e+08,-8.80737e+08,725984,-0.0476406,0.418845,-0,0.421546,-4768.06,-32060.4,-0,32413,725984
step02_gravity_refstate-crust.xmf,742,7.42237e-06,-9.54693e-06,0,7.5353e-06,-8.3627e+08,-8.37434e+08,-8.3678e+08,516921,-0.0355753,0.416812,-0,0.418327,-3865.84,-30460.5,-0,30704.8,516921
step02_gravity_refstate-crust.xmf,743,7.06058e-06,-9.34837e-06,0,9.05574e-06,-8.58336e+08,-8.59461e+08,-8.5882e+08,621223,-0.0417543,0.41813,-0,0.42021,-4346.31,-31262.7,-0,31563.3,621223
step02_gravity_refstate-crust.xmf,744,2.18952e-06,-6.22067e-07,0,-1.12981e-06,-1.11495e+08,-1.11688e+08,-1.11645e+08,-77504.7,0.0238121,0.316941,0,0.317834,8768.47,-4066.99,0,9665.74,77504.7
step02_gravity_refstate-crust.xmf,745,2.14227e-06,-7.06629e-07,0,-5.73029e-07,-4.19204e+07,-4.21158e+07,-4.20673e+07,-39309.8,0.0348907,0.305645,0,0.30763,11105.9,-1533.73,0,11211.3,39309.8
step02_gravity_refstate-crust.xmf,746,2.11133e-06,-8.10103e-07,0,-1.21618e-08,200181,-229.245,55343.9,-834.301,0.0434281,0.298993,0,0.30213,12353.1,0,0,12353.1,834.301
step02_gravity_refstate-crust.xmf,747,2.16924e-06,-6.1436e-07,0,-1.30316e-06,-1.51394e+08,-1.51585e+08,-1.51543e+08,-89397.1,0.0195015,0.322022,0,0.322612,7640.94,-5519.49,0,9425.96,89397.1
step02_gravity_refstate-crust.xmf,748,2.1672e-06,-6.7249e-07,0,-1.40108e-06,-1.97506e+08,-1.97701e+08,-1.97655e+08,-96114.3,0.0158338,0.327036,0,0.327419,6480.62,-7198.13,0,9685.63,96114.3
step02_gravity_refstate-crust.xmf,749,2.21306e-06,-8.12776e-07,0,-1.42263e-06,-2.45343e+08,-2.45551e+08,-2.45495e+08,-97592.6,0.0131182,0.331545,0,0.331804,5424.97,-8939.67,0,10457,97592.6
step02_gravity_refstate-crust.xmf,750,2.30646e-06,-1.01573e-06,0,-1.41927e-06,-2.91953e+08,-2.92181e+08,-2.92111e+08,-97362.2,0.011412,0.335319,0,0.335513,4615.67,-10636.6,0,11594.9,97362.2
step02_gravity_refstate-crust.xmf,751,2.46732e-06,-1.28849e-06,0,-1.36321e-06,-3.3601e+08,-3.36268e+08,-3.36179e+08,-93516.4,0.0100311,0.339049,0,0.339197,3861.22,-12240.8,0,12835.3,93516.4
step02_gravity_refstate-crust.xmf,752,2.7042e-06,-1.64415e-06,0,-1.18048e-06,-3.78101e+08,-3.784e+08,-3.78287e+08,-80981.1,0.00819988,0.3433,0,0.343398,2939.87,-13773.6,0,14083.8,80981.1
step02_gravity_refstate-crust.xmf,753,-3.19796e-06,1.00908e-05,0,2.56983e-06,-1.07463e+09,-1.07372e+09,-1.07441e+09,176291,-0.0125203,0.13691,-0,0.137482,-17767.9,-39125.7,-0,42971.1,176291
step02_gravity_refstate-crust.xmf,754,-2.83856e-06,9.86206e-06,0,2.1266e-06,-1.07773e+09,-1.07686e+09,-1.07753e+09,145885,-0.00913644,0.126219,-0,0.126549,-18668.9,-39239.5,-0,43454.2,145885
step02_gravity_refstate-crust.xmf,755,-4.47564e-06,1.05024e-05,0,4.80963e-06,-1.0565e+09,-1.05547e+09,-1.05619e+09,329940,-0.0282186,0.184246,-0,0.186394,-14731.2,-38461.1,-0,41185.8,329940
step02_gravity_refstate-crust.xmf,756,-6.03781e-06,1.12305e-05,0,8.85182e-06,-1.07967e+09,-1.07849e+09,-1.07926e+09,607235,-0.0431152,0.253585,-0,0.257224,-10788.8,-39299.5,-0,40753.5,607235
step02_gravity_refstate-crust.xmf,757,-6.34001e-06,1.10406e-05,0,1.02684e-05,-1.08055e+09,-1.07936e+09,-1.08012e+09,704415,-0.0478531,0.274555,-0,0.278694,-9982.13,-39330,-0,40577,704415
step02_gravity_refstate-crust.xmf,758,-6.57253e-06,1.06934e-05,0,1.18678e-05,-1.0816e+09,-1.08041e+09,-1.08115e+09,814130,-0.0525085,0.296647,-0,0.301259,-9215.28,-39366.6,-0,40430.8,814130
step02_gravity_refstate-crust.xmf,759,-4.34072e-06,3.2817e-06,0,2.19123e-05,-1.07283e+09,-1.07231e+09,-1.07254e+09,1.50318e+06,-0.072728,0.415968,-0,0.422278,-6163.06,-39045.1,-0,39528.5,1.50318e+06
step02_gravity_refstate-crust.xmf,760,-2.72968e-06,1.15279e-07,0,2.43919e-05,-1.07303e+09,-1.07284e+09,-1.07285e+09,1.67328e+06,-0.0747823,0.443963,-0,0.450218,-5583.13,-39054,-0,39451,1.67328e+06
step02_gravity_refstate-crust.xmf,761,-2.62814e-07,-3.87793e-06,0,2.47036e-05,-1.0594e+09,-1.05965e+09,-1.05938e+09,1.69467e+06,-0.075374,0.459462,-0,0.465604,-5249.89,-38561.4,-0,38917.1,1.69467e+06
step02_gravity_refstate-crust.xmf,762,9.15048e-06,-1.43333e-05,0,1.45792e-05,-9.59976e+08,-9.61587e+08,-9.60604e+08,1.00013e+06,-0.0533169,0.470629,-0,0.47364,-3860.24,-34963.7,-0,35176.2,1.00013e+06
step02_gravity_refstate-crust.xmf,763,5.92569e-06,-6.57526e-06,0,3.58775e-06,-7.11528e+08,-7.12386e+08,-7.11935e+08,246120,-0.0197321,0.386698,-0,0.387201,-3071.44,-25917.7,-0,26099,246120
step02_gravity_refstate-crust.xmf,764,5.78593e-06,-6.26603e-06,0,2.5287e-06,-6.85073e+08,-6.859e+08,-6.8547e+08,173469,-0.0141636,0.383856,-0,0.384118,-2348.79,-24954.5,-0,25064.8,173469
step02_gravity_refstate-crust.xmf,765,6.68435e-06,-8.17555e-06,0,5.9754e-06,-7.88627e+08,-7.89646e+08,-7.89085e+08,409912,-0.0303426,0.401909,-0,0.403053,-3824.62,-28725.1,-0,28978.6,409912
step02_gravity_refstate-crust.xmf,766,7.59827e-06,-9.62119e-06,0,6.02158e-06,-8.13302e+08,-8.14483e+08,-8.13823e+08,413081,-0.0292025,0.414424,-0,0.415452,-3335.92,-29624.9,-0,29812.1,413081
step02_gravity_refstate-crust.xmf,767,7.55871e-06,-1.08659e-05,0,1.1169e-05,-9.01301e+08,-9.02565e+08,-9.01819e+08,766192,-0.0475142,0.434503,-0,0.437093,-4309.32,-32826.5,-0,33108.2,766192
step02_gravity_refstate-crust.xmf,768,8.70103e-06,-1.28688e-05,0,1.17626e-05,-9.21603e+08,-9.23083e+08,-9.222e+08,806917,-0.0471794,0.451149,-0,0.453609,-3883.1,-33567.2,-0,33791,806917
step02_gravity_refstate-crust.xmf,769,1.8428e-06,-4.77025e-07,0,-1.1783e-06,-9.75189e+07,-9.7678e+07,-9.76453e+07,-80831.6,0.029214,0.307448,0,0.308833,10966.6,-3556.99,0,11529,80831.6
step02_gravity_refstate-crust.xmf,770,1.46531e-06,-3.96931e-07,0,-8.45438e-07,-5.97506e+07,-5.98783e+07,-5.98511e+07,-57997.1,0.0369477,0.295478,0,0.297779,13383.7,-2180.59,0,13560.2,57997.1
step02_gravity_refstate-crust.xmf,771,1.32928e-06,-5.08291e-07,0,-1.46445e-08,126107,49.6321,34918.4,-1004.61,0.0477924,0.287218,0,0.291168,14873.9,0,0,14873.9,1004.61
step02_gravity_refstate-crust.xmf,772,7.90435e-07,-1.34008e-07,0,-8.28265e-07,-5.58133e+07,-5.58767e+07,-5.58675e+07,-56819,0.0405831,0.281538,0,0.284448,16130.7,-2034.93,0,16258.5,56819
step02_gravity_refstate-crust.xmf,773,5.23118e-07,-1.99872e-07,0,-1.40196e-08,49634.2,37.0513,13748.3,-961.742,0.050164,0.274542,0,0.279087,17428.6,0,0,17428.6,961.742
step02_gravity_refstate-crust.xmf,774,-5.69213e-06,1.12913e-05,0,7.61398e-06,-1.07892e+09,-1.07776e+09,-1.07853e+09,522319,-0.0384426,0.234038,-0,0.237175,-11622.9,-39273.8,-0,40957.5,522319
step02_gravity_refstate-crust.xmf,775,-3.60936e-06,1.03264e-05,0,3.17489e-06,-1.07168e+09,-1.07073e+09,-1.07143e+09,217798,-0.0168412,0.150784,-0,0.151721,-16691.1,-39017,-0,42437.3,217798
step02_gravity_refstate-crust.xmf,776,-4.12803e-06,1.06131e-05,0,3.98954e-06,-1.07e+09,-1.06899e+09,-1.06972e+09,273682,-0.0219567,0.167944,-0,0.169373,-15466.8,-38954.3,-0,41912.5,273682
step02_gravity_refstate-crust.xmf,777,-5.31909e-06,1.12376e-05,0,6.53233e-06,-1.07764e+09,-1.07651e+09,-1.07728e+09,448118,-0.0339776,0.215811,-0,0.21847,-12498.9,-39228.5,-0,41171.5,448118
step02_gravity_refstate-crust.xmf,778,-4.51908e-06,1.09498e-05,0,4.69911e-06,-1.07644e+09,-1.07538e+09,-1.07613e+09,322359,-0.0250836,0.182125,-0,0.183844,-14377.1,-39187.7,-0,41741.8,322359
step02_gravity_refstate-crust.xmf,779,-4.92541e-06,1.11355e-05,0,5.55994e-06,-1.07743e+09,-1.07632e+09,-1.07709e+09,381412,-0.0293978,0.198435,-0,0.200601,-13407.2,-39222.1,-0,41450.2,381412
step02_gravity_refstate-crust.xmf,780,-6.69611e-06,1.01109e-05,0,1.36851e-05,-1.0824e+09,-1.08125e+09,-1.08194e+09,938796,-0.0571264,0.320085,-0,0.325143,-8485.55,-39394.4,-0,40297.9,938796
step02_gravity_refstate-crust.xmf,781,-6.66067e-06,9.22926e-06,0,1.57444e-05,-1.08319e+09,-1.0821e+09,-1.08274e+09,1.08007e+06,-0.0615723,0.344907,-0,0.35036,-7788.56,-39422.1,-0,40184.1,1.08007e+06
step02_gravity_refstate-crust.xmf,782,-6.42317e-06,8.0209e-06,0,1.80383e-05,-1.08452e+09,-1.08353e+09,-1.08408e+09,1.23743e+06,-0.0655938,0.370849,-0,0.376605,-7126.81,-39469.4,-0,40107.6,1.23743e+06
step02_gravity_refstate-crust.xmf,783,-5.86374e-06,6.29316e-06,0,2.06178e-05,-1.08571e+09,-1.08488e+09,-1.08531e+09,1.41438e+06,-0.0692365,0.398345,-0,0.404318,-6494.69,-39512.4,-0,40042.6,1.41438e+06
step02_gravity_refstate-crust.xmf,784,-5.69129e-07,-3.84426e-06,0,2.67352e-05,-1.07343e+09,-1.07366e+09,-1.07339e+09,1.83404e+06,-0.0756803,0.47211,-0,0.478138,-5040.44,-39071.2,-0,39395,1.83404e+06
step02_gravity_refstate-crust.xmf,785,9.42256e-06,-1.59735e-05,0,1.792e-05,-9.95472e+08,-9.97214e+08,-9.96119e+08,1.22931e+06,-0.0592663,0.491517,-0,0.495077,-3816.52,-36254.6,-0,36454.9,1.22931e+06
step02_gravity_refstate-crust.xmf,786,3.09258e-06,-8.55674e-06,0,2.44274e-05,-1.04563e+09,-1.04643e+09,-1.04585e+09,1.67572e+06,-0.073706,0.478259,-0,0.483905,-4784.37,-38066.6,-0,38366.1,1.67572e+06
step02_gravity_refstate-crust.xmf,787,7.80234e-06,-1.42825e-05,0,2.0277e-05,-1.0116e+09,-1.01311e+09,-1.01213e+09,1.391e+06,-0.0650139,0.489561,-0,0.493859,-4145.9,-36837.7,-0,37070.3,1.391e+06
step02_gravity_refstate-crust.xmf,788,5.70713e-06,-1.18494e-05,0,2.24524e-05,-1.0277e+09,-1.02891e+09,-1.02809e+09,1.54024e+06,-0.0699023,0.484992,-0,0.490004,-4470.08,-37419.2,-0,37685.3,1.54024e+06
step02_gravity_refstate-crust.xmf,789,1.0026e-05,-1.51968e-05,0,1.23015e-05,-9.41167e+08,-9.42897e+08,-9.41854e+08,843885,-0.0464088,0.469219,-0,0.471508,-3467.97,-34281.1,-0,34456.1,843885
step02_gravity_refstate-crust.xmf,790,1.06513e-05,-1.70599e-05,0,1.53809e-05,-9.7817e+08,-9.80071e+08,-9.78901e+08,1.05513e+06,-0.0526135,0.490998,-0,0.493809,-3464.03,-35627.9,-0,35795.9,1.05513e+06
step02_gravity_refstate-crust.xmf,791,2.11551e-06,-7.81807e-06,0,2.62374e-05,-1.06007e+09,-1.06075e+09,-1.06021e+09,1.79989e+06,-0.074953,0.483802,-0,0.489573,-4760.21,-38589.3,-0,38881.8,1.79989e+06
step02_gravity_refstate-crust.xmf,792,2.80459e-06,-1.85265e-06,0,-1.65646e-06,-4.2015e+08,-4.20469e+08,-4.20342e+08,-113633,0.0111634,0.34407,0,0.344252,3749.31,-15304.5,0,15757,113633
step02_gravity_refstate-crust.xmf,793,3.19654e-06,-2.39211e-06,0,-1.20498e-06,-4.56343e+08,-4.56726e+08,-4.56562e+08,-82661.5,0.00786247,0.350013,0,0.350101,2403.67,-16622.8,0,16795.7,82661.5
step02_gravity_refstate-crust.xmf,794,3.56837e-06,-2.93166e-06,0,-9.16466e-07,-4.94752e+08,-4.95198e+08,-4.94997e+08,-62869.6,0.00584696,0.35504,0,0.355088,1621.51,-18021.8,0,18094.6,62869.6
step02_gravity_refstate-crust.xmf,795,3.96526e-06,-3.50477e-06,0,-6.15685e-07,-5.3163e+08,-5.32143e+08,-5.31903e+08,-42236,0.0038609,0.360124,0,0.360145,971.297,-19365.2,0,19389.5,42236
step02_gravity_refstate-crust.xmf,796,4.38454e-06,-4.11261e-06,0,-2.73158e-07,-5.6694e+08,-5.67523e+08,-5.67241e+08,-18738.6,0.00169766,0.365408,0,0.365412,387.832,-20651.4,0,20655,18738.6
step02_gravity_refstate-crust.xmf,797,4.80868e-06,-4.73065e-06,0,1.48717e-07,-5.99862e+08,-6.00516e+08,-6.00191e+08,10202,-0.000857402,0.370759,-0,0.370759,-178.848,-21850.7,-0,21851.4,10202
step02_gravity_refstate-crust.xmf,798,5.21101e-06,-5.32764e-06,0,7.57591e-07,-6.30256e+08,-6.30979e+08,-6.30613e+08,51970.8,-0.00439089,0.37588,-0,0.375906,-841.041,-22957.9,-0,22973.3,51970.8
step02_gravity_refstate-crust.xmf,799,5.54653e-06,-5.85033e-06,0,1.57614e-06,-6.58381e+08,-6.59162e+08,-6.58761e+08,108123,-0.00899044,0.38029,-0,0.380396,-1595.97,-23982.4,-0,24035.4,108123
step02_gravity_refstate-crust.xmf,800,6.66404e-06,-7.68488e-06,0,3.4027e-06,-7.38636e+08,-7.3962e+08,-7.39093e+08,233426,-0.0180367,0.39655,-0,0.39696,-2550.01,-26905.8,-0,27026.4,233426
step02_gravity_refstate-crust.xmf,801,6.75792e-06,-7.9802e-06,0,4.63852e-06,-7.63843e+08,-7.64854e+08,-7.64306e+08,318202,-0.0240325,0.399778,-0,0.4005,-3197.68,-27823.4,-0,28006.6,318202
step02_gravity_refstate-crust.xmf,802,8.59045e-06,-1.11013e-05,0,6.01523e-06,-8.36896e+08,-8.38247e+08,-8.37485e+08,412645,-0.0277625,0.427596,-0,0.428496,-2880.58,-30485.6,-0,30621.4,412645
step02_gravity_refstate-crust.xmf,803,8.14774e-06,-1.11501e-05,0,9.41286e-06,-8.80587e+08,-8.81911e+08,-8.81146e+08,645722,-0.0410573,0.43359,-0,0.43553,-3863.8,-32074.3,-0,32306.2,645722
step02_gravity_refstate-crust.xmf,804,8.46667e-06,-1.12387e-05,0,7.68612e-06,-8.58936e+08,-8.60288e+08,-8.59517e+08,527268,-0.0344755,0.431046,-0,0.432422,-3397.66,-31287.3,-0,31471.2,527268
step02_gravity_refstate-crust.xmf,805,1.46209e-07,1.29012e-07,0,-8.24552e-07,-5.61715e+07,-5.61727e+07,-5.61816e+07,-56564.3,0.041702,0.268373,0,0.271593,18637,-2045.77,0,18748.9,56564.3
step02_gravity_refstate-crust.xmf,806,-2.79477e-07,1.07152e-07,0,-1.63189e-08,-26501.5,21.2507,-7329.35,-1119.48,0.0504353,0.261466,0,0.266285,20024.7,0,0,20024.7,1119.48
step02_gravity_refstate-crust.xmf,807,1.82024e-06,-4.2631e-07,0,-1.56164e-06,-1.51706e+08,-1.5186e+08,-1.51831e+08,-107129,0.0237865,0.313488,0,0.314389,9793.85,-5529.7,0,11247.1,107129
step02_gravity_refstate-crust.xmf,808,1.85981e-06,-4.71564e-07,0,-1.76376e-06,-1.9843e+08,-1.9859e+08,-1.98558e+08,-120994,0.0201443,0.319138,0,0.319773,8629.88,-7230.84,0,11258.8,120994
step02_gravity_refstate-crust.xmf,809,1.9366e-06,-5.91861e-07,0,-1.87485e-06,-2.44643e+08,-2.44817e+08,-2.44776e+08,-128615,0.0175247,0.324317,0,0.32479,7547.21,-8913.4,0,11679.4,128615
step02_gravity_refstate-crust.xmf,810,2.05935e-06,-7.8652e-07,0,-1.92473e-06,-2.90145e+08,-2.9034e+08,-2.90286e+08,-132036,0.0156802,0.329068,0,0.329442,6576.22,-10570.1,0,12448.9,132036
step02_gravity_refstate-crust.xmf,811,2.23345e-06,-1.05291e-06,0,-1.93129e-06,-3.34314e+08,-3.3454e+08,-3.34468e+08,-132486,0.0143524,0.333574,0,0.333883,5709.72,-12178.5,0,13450.5,132486
step02_gravity_refstate-crust.xmf,812,2.47373e-06,-1.39527e-06,0,-1.88081e-06,-3.79825e+08,-3.8009e+08,-3.79994e+08,-129024,0.0131634,0.338452,0,0.338708,4841.79,-13835.7,0,14658.5,129024
step02_gravity_refstate-crust.xmf,813,-4.78253e-06,3.75041e-06,0,2.3489e-05,-1.08618e+09,-1.08559e+09,-1.08585e+09,1.61134e+06,-0.0724022,0.42767,-0,0.433755,-5887.61,-39529.9,-0,39965.9,1.61134e+06
step02_gravity_refstate-crust.xmf,814,-3.00641e-06,2.80196e-07,0,2.64243e-05,-1.08621e+09,-1.08598e+09,-1.086e+09,1.81271e+06,-0.0746227,0.457468,-0,0.463514,-5325.08,-39532.8,-0,39889.9,1.81271e+06
step02_gravity_refstate-crust.xmf,815,1.14847e-05,-1.76017e-05,0,1.28561e-05,-9.60436e+08,-9.62431e+08,-9.61224e+08,881930,-0.0455102,0.488447,-0,0.490562,-3093.43,-34984.8,-0,35121.3,881930
step02_gravity_refstate-crust.xmf,816,2.26511e-06,-8.4449e-06,0,2.83626e-05,-1.0719e+09,-1.07263e+09,-1.07205e+09,1.94567e+06,-0.075237,0.497538,-0,0.503195,-4567.3,-39019.5,-0,39285.9,1.94567e+06
step02_gravity_refstate-crust.xmf,817,6.45938e-06,-7.2696e-06,0,2.22466e-06,-7.13065e+08,-7.14007e+08,-7.13508e+08,152612,-0.0120552,0.392689,-0,0.392874,-1819.05,-25974.7,-0,26038.3,152612
step02_gravity_refstate-crust.xmf,818,6.14529e-06,-6.73216e-06,0,1.11734e-06,-6.86795e+08,-6.87678e+08,-6.87217e+08,76649.7,-0.00614661,0.388036,-0,0.388085,-995.856,-25017.9,-0,25037.7,76649.7
step02_gravity_refstate-crust.xmf,819,7.63825e-06,-9.43012e-06,0,4.50414e-06,-7.89876e+08,-7.91047e+08,-7.904e+08,308984,-0.0224214,0.411512,-0,0.412122,-2703.05,-28772.5,-0,28899.2,308984
step02_gravity_refstate-crust.xmf,820,8.57999e-06,-1.09146e-05,0,4.29792e-06,-8.14575e+08,-8.15913e+08,-8.15164e+08,294837,-0.020454,0.423766,-0,0.424259,-2241.09,-29673.2,-0,29757.8,294837
step02_gravity_refstate-crust.xmf,821,9.30286e-06,-1.32343e-05,0,9.73936e-06,-9.01505e+08,-9.03051e+08,-9.02143e+08,668120,-0.0402145,0.449391,-0,0.451187,-3438.04,-32837.3,-0,33016.8,668120
step02_gravity_refstate-crust.xmf,822,1.06136e-05,-1.54748e-05,0,1.00036e-05,-9.21837e+08,-9.23626e+08,-9.22565e+08,686245,-0.0389774,0.466455,-0,0.468081,-3028.23,-33579.4,-0,33715.6,686245
step02_gravity_refstate-crust.xmf,823,-5.64679e-07,4.30338e-07,0,-9.00039e-07,-6.6167e+07,-6.60987e+07,-6.61282e+07,-61742.7,0.0398243,0.253732,0,0.256838,21416.7,-2407.26,0,21551.5,61742.7
step02_gravity_refstate-crust.xmf,824,-1.06746e-06,4.08209e-07,0,-1.03814e-08,-101267,-36.0478,-28039.2,-712.165,0.0485924,0.248513,0,0.253219,22669.8,0,0,22669.8,712.165
step02_gravity_refstate-crust.xmf,825,1.41046e-06,-2.05578e-07,0,-1.77487e-06,-1.53994e+08,-1.54105e+08,-1.54091e+08,-121756,0.0272162,0.303336,0,0.304554,11984.1,-5611.69,0,13232.9,121756
step02_gravity_refstate-crust.xmf,826,1.32124e-06,-2.12747e-07,0,-1.46155e-06,-1.15405e+08,-1.1551e+08,-1.15496e+08,-100262,0.0312064,0.297465,0,0.299098,13105.8,-4206.46,0,13764.3,100262
step02_gravity_refstate-crust.xmf,827,9.08528e-07,-3.60309e-08,0,-1.455e-06,-1.09224e+08,-1.09289e+08,-1.09286e+08,-99813.1,0.0338907,0.287378,0,0.289369,15049.8,-3980.03,0,15567.1,99813.1
step02_gravity_refstate-crust.xmf,828,4.08852e-07,1.9566e-07,0,-1.49422e-06,-1.11497e+08,-1.11512e+08,-1.11525e+08,-102504,0.0351639,0.275324,0,0.27756,17283.2,-4061.13,0,17753.9,102504
step02_gravity_refstate-crust.xmf,829,-1.21638e-06,6.45898e-07,0,-6.5936e-07,-5.23309e+07,-5.22031e+07,-5.22474e+07,-45232.1,0.0391278,0.240525,0,0.243687,24139.5,-1901.24,0,24214.3,45232.1
step02_gravity_refstate-crust.xmf,830,-1.77862e-06,6.80284e-07,0,-9.38765e-09,-168727,-46.7723,-46714.3,-643.993,0.0446626,0.236196,0,0.240382,25371.6,0,0,25371.6,643.993
step02_gravity_refstate-crust.xmf,831,-1.75562e-06,8.78885e-07,0,-6.00152e-07,-5.69196e+07,-5.67389e+07,-5.67992e+07,-41170.4,0.0344101,0.228044,0,0.230626,26908.6,-2066.47,0,26987.8,41170.4
step02_gravity_refstate-crust.xmf,832,-2.45508e-06,9.2911e-07,0,-2.03361e-08,-233321,-1165.53,-64902.5,-1395.06,0.0387668,0.225042,0,0.228357,28137.7,0,0,28137.7,1395.06
step02_gravity_refstate-crust.xmf,833,-4.59373e-07,-4.37587e-06,0,2.92024e-05,-1.08601e+09,-1.08627e+09,-1.08597e+09,2.00329e+06,-0.0755829,0.487943,-0,0.493763,-4793.16,-39528.5,-0,39818,2.00329e+06
step02_gravity_refstate-crust.xmf,834,1.22502e-05,-2.00247e-05,0,1.61239e-05,-9.95337e+08,-9.97551e+08,-9.96178e+08,1.1061e+06,-0.0517191,0.511796,-0,0.514403,-3119.45,-36254.8,-0,36388.8,1.1061e+06
step02_gravity_refstate-crust.xmf,835,1.10018e-05,-1.89523e-05,0,1.9003e-05,-1.01155e+09,-1.0136e+09,-1.0123e+09,1.30361e+06,-0.0586993,0.512762,-0,0.516111,-3471.72,-36841.6,-0,37004.8,1.30361e+06
step02_gravity_refstate-crust.xmf,836,5.05596e-06,-1.22109e-05,0,2.66766e-05,-1.05716e+09,-1.05835e+09,-1.05751e+09,1.83002e+06,-0.073121,0.50481,-0,0.510078,-4321.66,-38488.7,-0,38730.6,1.83002e+06
step02_gravity_refstate-crust.xmf,837,9.33576e-06,-1.72411e-05,0,2.18138e-05,-1.02726e+09,-1.02908e+09,-1.0279e+09,1.49642e+06,-0.0648028,0.511557,-0,0.515645,-3797.13,-37409.6,-0,37601.8,1.49642e+06
step02_gravity_refstate-crust.xmf,838,7.21862e-06,-1.48007e-05,0,2.44776e-05,-1.04288e+09,-1.04439e+09,-1.04338e+09,1.67916e+06,-0.0698512,0.508251,-0,0.513028,-4098.23,-37973.4,-0,38194,1.67916e+06
step02_gravity_refstate-crust.xmf,839,1.20639e-05,-1.79946e-05,0,1.01736e-05,-9.41523e+08,-9.43585e+08,-9.42351e+08,697912,-0.0373742,0.484653,-0,0.486092,-2643.33,-34298,-0,34399.7,697912
step02_gravity_refstate-crust.xmf,840,1.3113e-05,-2.05415e-05,0,1.32283e-05,-9.78515e+08,-9.80824e+08,-9.79415e+08,907460,-0.0440347,0.508794,-0,0.510696,-2734.83,-35645.1,-0,35749.8,907460
step02_gravity_refstate-crust.xmf,841,2.59787e-06,-1.61082e-06,0,-2.11631e-06,-4.15345e+08,-4.15634e+08,-4.15523e+08,-145179,0.0143039,0.340018,0,0.340318,4955.21,-15129.1,0,15919.9,145179
step02_gravity_refstate-crust.xmf,842,3.02738e-06,-2.21328e-06,0,-1.87403e-06,-4.61169e+08,-4.61528e+08,-4.61377e+08,-128558,0.0122457,0.347033,0,0.347249,3775.76,-16798.1,0,17217.3,128558
step02_gravity_refstate-crust.xmf,843,3.37742e-06,-2.70162e-06,0,-1.70217e-06,-4.93149e+08,-4.93566e+08,-4.93381e+08,-116769,0.0108875,0.351852,0,0.35202,3082.76,-17963.1,0,18225.7,116769
step02_gravity_refstate-crust.xmf,844,3.79774e-06,-3.30098e-06,0,-1.50429e-06,-5.30186e+08,-5.30673e+08,-5.30447e+08,-103194,0.00942654,0.357558,0,0.357682,2411.51,-19312.2,0,19462.2,103194
step02_gravity_refstate-crust.xmf,845,4.25256e-06,-3.95041e-06,0,-1.27369e-06,-5.65759e+08,-5.66322e+08,-5.66051e+08,-87374.9,0.00782444,0.363524,0,0.363608,1809.77,-20608.1,0,20687.4,87374.9
step02_gravity_refstate-crust.xmf,846,4.74432e-06,-4.65529e-06,0,-9.54183e-07,-5.99841e+08,-6.00486e+08,-6.00167e+08,-65456.9,0.00574356,0.369888,0,0.369933,1202.58,-21849.8,0,21882.9,65456.9
step02_gravity_refstate-crust.xmf,847,5.24885e-06,-5.38551e-06,0,-4.55672e-07,-6.31179e+08,-6.31909e+08,-6.31539e+08,-31259.1,0.00270235,0.376361,0,0.376371,515.267,-22991.6,0,22997.4,31259.1
step02_gravity_refstate-crust.xmf,848,5.74269e-06,-6.11899e-06,0,2.26631e-07,-6.60907e+08,-6.6172e+08,-6.61301e+08,15546.9,-0.00124471,0.382738,-0,0.38274,-217.465,-24074.7,-0,24075.7,15546.9
step02_gravity_refstate-crust.xmf,849,7.18389e-06,-8.3742e-06,0,1.86442e-06,-7.40892e+08,-7.41959e+08,-7.41385e+08,127899,-0.0097363,0.402134,-0,0.402251,-1336.53,-26989,-0,27022.1,127899
step02_gravity_refstate-crust.xmf,850,7.49097e-06,-8.94882e-06,0,3.13654e-06,-7.65908e+08,-7.67036e+08,-7.66422e+08,215167,-0.0159521,0.407364,-0,0.407676,-2044.24,-27900.1,-0,27974.9,215167
step02_gravity_refstate-crust.xmf,851,9.50767e-06,-1.23295e-05,0,4.26238e-06,-8.38357e+08,-8.39855e+08,-8.39009e+08,292400,-0.0193134,0.435867,-0,0.436294,-1932.95,-30540.6,-0,30601.7,292400
step02_gravity_refstate-crust.xmf,852,9.64462e-06,-1.28104e-05,0,5.97771e-06,-8.59575e+08,-8.61115e+08,-8.60236e+08,410071,-0.0262328,0.441267,-0,0.442046,-2478.97,-31312.9,-0,31410.8,410071
step02_gravity_refstate-crust.xmf,853,9.60835e-06,-1.31077e-05,0,7.78959e-06,-8.80715e+08,-8.82273e+08,-8.81374e+08,534366,-0.033113,0.446019,-0,0.447247,-2965.76,-32081.9,-0,32218.7,534366
step02_gravity_refstate-crust.xmf,854,-6.01646e-08,4.25019e-07,0,-1.52059e-06,-1.17312e+08,-1.17278e+08,-1.17307e+08,-104312,0.035001,0.263642,0,0.265955,19403.4,-4271.26,0,19867.9,104312
step02_gravity_refstate-crust.xmf,855,1.49319e-06,-2.33901e-07,0,-2.05558e-06,-2.0019e+08,-2.00309e+08,-2.00293e+08,-141013,0.0237343,0.309476,0,0.310385,10795.5,-7293.81,0,13028.5,141013
step02_gravity_refstate-crust.xmf,856,1.60343e-06,-3.33939e-07,0,-2.24303e-06,-2.45857e+08,-2.4599e+08,-2.45967e+08,-153872,0.0212119,0.315421,0,0.316133,9633.79,-8956.64,0,13154.1,153872
step02_gravity_refstate-crust.xmf,857,1.74894e-06,-5.079e-07,0,-2.35855e-06,-2.90409e+08,-2.90564e+08,-2.90529e+08,-161796,0.0194477,0.321014,0,0.321603,8553.5,-10578.9,0,13604.3,161796
step02_gravity_refstate-crust.xmf,858,1.93021e-06,-7.48536e-07,0,-2.43163e-06,-3.34025e+08,-3.34209e+08,-3.34157e+08,-166810,0.0182796,0.326203,0,0.326714,7598.05,-12167.2,0,14344.7,166810
step02_gravity_refstate-crust.xmf,859,2.1504e-06,-1.05156e-06,0,-2.46823e-06,-3.75319e+08,-3.75539e+08,-3.75466e+08,-169321,0.0174738,0.331163,0,0.331623,6748.24,-13670.9,0,15245.8,169321
step02_gravity_refstate-crust.xmf,860,-2.23278e-06,1.05981e-06,0,-5.29075e-07,-6.0346e+07,-6.01201e+07,-6.01928e+07,-36294.6,0.0286338,0.217552,0,0.219428,29615.7,-2189.56,0,29696.5,36294.6
step02_gravity_refstate-crust.xmf,861,-2.97614e-06,1.12636e-06,0,-1.988e-08,-282839,-1407.03,-78675.1,-1363.77,0.0310749,0.215555,0,0.217784,30975.9,0,0,30975.9,1363.77
step02_gravity_refstate-crust.xmf,862,1.36127e-05,-2.05558e-05,0,1.0275e-05,-9.60467e+08,-9.62811e+08,-9.61401e+08,704867,-0.0355353,0.503715,-0,0.504967,-2296.52,-34990,-0,35065.3,704867
step02_gravity_refstate-crust.xmf,863,1.48206e-05,-2.3735e-05,0,1.34796e-05,-9.95796e+08,-9.98441e+08,-9.96813e+08,924700,-0.042312,0.529883,-0,0.53157,-2417.01,-36276.2,-0,36356.6,924700
step02_gravity_refstate-crust.xmf,864,6.52529e-06,-1.49055e-05,0,2.96739e-05,-1.07134e+09,-1.07281e+09,-1.07179e+09,2.03563e+06,-0.0728377,0.527699,-0,0.532702,-4025.35,-39006.6,-0,39213.7,2.03563e+06
step02_gravity_refstate-crust.xmf,865,3.24754e-06,-1.03564e-05,0,3.15559e-05,-1.08538e+09,-1.08631e+09,-1.0856e+09,2.16473e+06,-0.0748347,0.519486,-0,0.524848,-4274.91,-39511.3,-0,39741.9,2.16473e+06
step02_gravity_refstate-crust.xmf,866,2.37866e-06,-1.36496e-06,0,-2.51123e-06,-4.14493e+08,-4.1475e+08,-4.14656e+08,-172271,0.0171472,0.335563,0,0.336001,6106.03,-15097.5,0,16285.5,172271
step02_gravity_refstate-crust.xmf,867,2.72118e-06,-1.82936e-06,0,-2.37054e-06,-4.46915e+08,-4.47227e+08,-4.47101e+08,-162619,0.0156935,0.341365,0,0.341726,5123.69,-16278.6,0,17065.9,162619
step02_gravity_refstate-crust.xmf,868,6.77286e-06,-7.69332e-06,0,7.25626e-07,-7.15897e+08,-7.1689e+08,-7.16362e+08,49777.9,-0.00389037,0.396281,-0,0.3963,-574.188,-26078.4,-0,26084.8,49777.9
step02_gravity_refstate-crust.xmf,869,6.31057e-06,-6.99145e-06,0,-3.96749e-07,-6.92888e+08,-6.938e+08,-6.93321e+08,-27217,0.00234287,0.390294,0,0.390301,371.284,-25240,0,25242.7,27217
step02_gravity_refstate-crust.xmf,870,8.3714e-06,-1.04023e-05,0,2.77685e-06,-7.92233e+08,-7.93521e+08,-7.92808e+08,190492,-0.0135975,0.418717,-0,0.418938,-1582.7,-28859.8,-0,28903.2,190492
step02_gravity_refstate-crust.xmf,871,9.23482e-06,-1.18098e-05,0,2.56315e-06,-8.17275e+08,-8.18719e+08,-8.17909e+08,175832,-0.0120792,0.430024,-0,0.430193,-1283.67,-29772.8,-0,29800.5,175832
step02_gravity_refstate-crust.xmf,872,1.08736e-05,-1.53355e-05,0,7.75169e-06,-9.01578e+08,-9.03376e+08,-9.02324e+08,531766,-0.0312784,0.46194,-0,0.462997,-2550.11,-32843.1,-0,32942,531766
step02_gravity_refstate-crust.xmf,873,1.2276e-05,-1.77123e-05,0,7.60189e-06,-9.2203e+08,-9.24087e+08,-9.22872e+08,521490,-0.0289924,0.47906,-0,0.479936,-2152.63,-33589.7,-0,33658.6,521490
step02_gravity_refstate-crust.xmf,874,-9.09091e-07,7.69441e-07,0,-1.30444e-06,-1.12882e+08,-1.12766e+08,-1.12819e+08,-89484.3,0.0333196,0.241833,0,0.244118,23550.7,-4107.08,0,23906.1,89484.3
step02_gravity_refstate-crust.xmf,875,-4.93313e-07,6.40103e-07,0,-1.51297e-06,-1.24333e+08,-1.24255e+08,-1.24299e+08,-103790,0.0337965,0.252202,0,0.254456,21491.6,-4525.45,0,21962.9,103790
step02_gravity_refstate-crust.xmf,876,9.78233e-07,3.12772e-08,0,-1.9386e-06,-1.59078e+08,-1.59143e+08,-1.59145e+08,-132988,0.0294683,0.292472,0,0.293952,14092.4,-5795.4,0,15237.5,132988
step02_gravity_refstate-crust.xmf,877,1.07658e-06,3.615e-08,0,-2.28391e-06,-2.04443e+08,-2.04514e+08,-2.04517e+08,-156676,0.0264531,0.298241,0,0.299412,13001.3,-7447.35,0,14983.2,156676
step02_gravity_refstate-crust.xmf,878,5.52283e-07,2.76444e-07,0,-2.0226e-06,-1.63705e+08,-1.63724e+08,-1.63743e+08,-138750,0.0307916,0.281103,0,0.282784,16157.5,-5962.5,0,17222.6,138750
step02_gravity_refstate-crust.xmf,879,1.22947e-07,5.14368e-07,0,-2.0448e-06,-1.6767e+08,-1.67643e+08,-1.67679e+08,-140273,0.0312805,0.268936,0,0.270749,18299.4,-6105.5,0,19291,140273
step02_gravity_refstate-crust.xmf,880,-1.32132e-06,9.4334e-07,0,-1.15716e-06,-1.12216e+08,-1.12061e+08,-1.12126e+08,-79381.4,0.0308026,0.230949,0,0.232994,25825.3,-4081.46,0,26145.8,79381.4
step02_gravity_refstate-crust.xmf,881,-1.70535e-06,1.10994e-06,0,-9.89517e-07,-1.13645e+08,-1.13452e+08,-1.13528e+08,-67880.9,0.0268684,0.220283,0,0.221916,28313.4,-4132.18,0,28613.4,67880.9
step02_gravity_refstate-crust.xmf,882,-2.58112e-06,1.20605e-06,0,-4.19396e-07,-6.38003e+07,-6.35405e+07,-6.36232e+07,-28770.6,0.0215261,0.208735,0,0.209842,32456.1,-2314.14,0,32538.5,28770.6
step02_gravity_refstate-crust.xmf,883,1.39629e-05,-2.34925e-05,0,1.66303e-05,-1.01199e+09,-1.01456e+09,-1.01295e+09,1.14084e+06,-0.0504776,0.533817,-0,0.536199,-2805.62,-36862.8,-0,36969.4,1.14084e+06
step02_gravity_refstate-crust.xmf,884,1.29035e-05,-2.25582e-05,0,1.99667e-05,-1.02742e+09,-1.02986e+09,-1.02831e+09,1.36971e+06,-0.0575513,0.536133,-0,0.539213,-3139.21,-37421.6,-0,37553.1,1.36971e+06
step02_gravity_refstate-crust.xmf,885,9.23237e-06,-1.85507e-05,0,2.65663e-05,-1.05708e+09,-1.05899e+09,-1.05772e+09,1.82245e+06,-0.0691053,0.532995,-0,0.537457,-3755.88,-38492.8,-0,38675.6,1.82245e+06
step02_gravity_refstate-crust.xmf,886,1.13157e-05,-2.09854e-05,0,2.32662e-05,-1.04243e+09,-1.04464e+09,-1.0432e+09,1.59606e+06,-0.0639077,0.535757,-0,0.539555,-3460.28,-37963.8,-0,38121.2,1.59606e+06
step02_gravity_refstate-crust.xmf,887,1.3742e-05,-2.02826e-05,0,7.39596e-06,-9.41926e+08,-9.4426e+08,-9.42868e+08,507363,-0.0266645,0.496905,-0,0.49762,-1808.65,-34315.9,-0,34363.6,507363
step02_gravity_refstate-crust.xmf,888,1.5232e-05,-2.35513e-05,0,1.02983e-05,-9.79021e+08,-9.81682e+08,-9.80066e+08,706460,-0.0336297,0.523778,-0,0.524856,-1994.11,-35667.4,-0,35723.1,706460
step02_gravity_refstate-crust.xmf,889,2.05245e-06,-9.99671e-07,0,-2.97543e-06,-4.11838e+08,-4.12048e+08,-4.11979e+08,-204115,0.0205022,0.328338,0,0.328977,7657.99,-15000.1,0,16841.9,204115
step02_gravity_refstate-crust.xmf,890,3.07097e-06,-2.32317e-06,0,-2.37707e-06,-4.89286e+08,-4.89656e+08,-4.89497e+08,-163067,0.0154057,0.34684,0,0.347182,4519.38,-17821.8,0,18385.9,163067
step02_gravity_refstate-crust.xmf,891,3.50198e-06,-2.93629e-06,0,-2.32064e-06,-5.2746e+08,-5.27902e+08,-5.27701e+08,-159196,0.0146424,0.352901,0,0.353205,3863.39,-19212.3,0,19596.9,159196
step02_gravity_refstate-crust.xmf,892,3.98187e-06,-3.61691e-06,0,-2.20967e-06,-5.64799e+08,-5.6532e+08,-5.65072e+08,-151584,0.0136407,0.359554,0,0.359812,3228.96,-20572.6,0,20824.4,151584
step02_gravity_refstate-crust.xmf,893,4.51443e-06,-4.37578e-06,0,-2.02917e-06,-6.00349e+08,-6.00958e+08,-6.00658e+08,-139201,0.0122322,0.36675,0,0.366954,2600.9,-21867.8,0,22021.9,139201
step02_gravity_refstate-crust.xmf,894,5.0992e-06,-5.2088e-06,0,-1.65533e-06,-6.32743e+08,-6.3345e+08,-6.33093e+08,-113555,0.00973953,0.374459,0,0.374586,1869.42,-23048.2,0,23123.9,113555
step02_gravity_refstate-crust.xmf,895,5.69947e-06,-6.07248e-06,0,-1.06552e-06,-6.62223e+08,-6.63031e+08,-6.62614e+08,-73094.7,0.00611266,0.382191,0,0.38224,1067.27,-24122.5,0,24146.1,73094.7
step02_gravity_refstate-crust.xmf,896,7.43393e-06,-8.73127e-06,0,2.75768e-07,-7.43752e+08,-7.44861e+08,-7.44262e+08,18917.7,-0.00140313,0.404911,-0,0.404913,-189.213,-27093.6,-0,27094.2,18917.7
step02_gravity_refstate-crust.xmf,897,7.97281e-06,-9.60037e-06,0,1.39395e-06,-7.68434e+08,-7.69639e+08,-7.68981e+08,95624.9,-0.00697203,0.412319,-0,0.412378,-870.508,-27993,-0,28006.5,95624.9
step02_gravity_refstate-crust.xmf,898,1.01239e-05,-1.31745e-05,0,2.34622e-06,-8.40174e+08,-8.41772e+08,-8.40868e+08,160950,-0.0104896,0.441408,-0,0.441533,-1023.82,-30607.9,-0,30625,160950
step02_gravity_refstate-crust.xmf,899,1.05516e-05,-1.40308e-05,0,3.95361e-06,-8.60608e+08,-8.62294e+08,-8.61332e+08,271218,-0.0170589,0.448941,-0,0.449265,-1561.92,-31352.3,-0,31391.1,271218
step02_gravity_refstate-crust.xmf,900,1.08356e-05,-1.47547e-05,0,5.74441e-06,-8.81276e+08,-8.83031e+08,-8.82019e+08,394067,-0.0239168,0.456047,-0,0.456674,-2059.67,-32104.7,-0,32170.7,394067
step02_gravity_refstate-crust.xmf,901,-2.78935e-07,7.33507e-07,0,-2.00052e-06,-1.70899e+08,-1.7083e+08,-1.7088e+08,-137236,0.0309156,0.257022,0,0.258874,20396.1,-6221.77,0,21324,137236
step02_gravity_refstate-crust.xmf,902,1.22465e-06,-4.4144e-08,0,-2.53455e-06,-2.49249e+08,-2.49336e+08,-2.49333e+08,-173870,0.0241513,0.304992,0,0.305947,11729.7,-9079.06,0,14832.9,173870
step02_gravity_refstate-crust.xmf,903,1.39105e-06,-1.9189e-07,0,-2.70795e-06,-2.92219e+08,-2.92327e+08,-2.92314e+08,-185766,0.0225915,0.311349,0,0.312168,10547,-10643.8,0,14984.4,185766
step02_gravity_refstate-crust.xmf,904,1.58086e-06,-4.03751e-07,0,-2.84335e-06,-3.3523e+08,-3.35366e+08,-3.35338e+08,-195054,0.0216139,0.317269,0,0.318005,9484.11,-12210.2,0,15460.8,195054
step02_gravity_refstate-crust.xmf,905,1.80687e-06,-6.79233e-07,0,-2.9321e-06,-3.76109e+08,-3.76279e+08,-3.76233e+08,-201142,0.020973,0.323028,0,0.323708,8504.72,-13698.9,0,16124.2,201142
step02_gravity_refstate-crust.xmf,906,-3.36858e-06,1.27568e-06,0,-1.75603e-08,-320099,-1503.39,-89015,-1204.63,0.0218299,0.208227,0,0.209368,33894,0,0,33894,1204.63
step02_gravity_refstate-crust.xmf,907,-2.0752e-06,1.25728e-06,0,-8.0331e-07,-1.1673e+08,-1.16502e+08,-1.16588e+08,-55107,0.0215152,0.21049,0,0.211587,31025.9,-4243.23,0,31314.8,55107
step02_gravity_refstate-crust.xmf,908,1.52607e-05,-2.28753e-05,0,7.22266e-06,-9.61508e+08,-9.64124e+08,-9.62555e+08,495474,-0.0245171,0.515657,-0,0.516239,-1524.01,-35031,-0,35064.1,495474
step02_gravity_refstate-crust.xmf,909,1.66365e-05,-2.75377e-05,0,1.35078e-05,-1.013e+09,-1.01603e+09,-1.01414e+09,926636,-0.0402243,0.55263,-0,0.554092,-2125.06,-36903.8,-0,36964.9,926636
step02_gravity_refstate-crust.xmf,910,1.68997e-05,-2.68105e-05,0,1.01699e-05,-9.96987e+08,-9.99986e+08,-9.98146e+08,697654,-0.0314815,0.544927,-0,0.545836,-1722.97,-36323.2,-0,36364,697654
step02_gravity_refstate-crust.xmf,911,1.17977e-05,-2.32555e-05,0,2.85189e-05,-1.07117e+09,-1.07357e+09,-1.07198e+09,1.9564e+06,-0.0678271,0.558273,-0,0.562378,-3475.88,-39008.6,-0,39163.2,1.9564e+06
step02_gravity_refstate-crust.xmf,912,9.62097e-06,-1.97775e-05,0,3.33633e-05,-1.08512e+09,-1.08714e+09,-1.08578e+09,2.28872e+06,-0.0715657,0.553135,-0,0.557746,-3751.16,-39513.3,-0,39691,2.28872e+06
step02_gravity_refstate-crust.xmf,913,2.33557e-06,-1.37329e-06,0,-3.015e-06,-4.49009e+08,-4.49264e+08,-4.49169e+08,-206829,0.0202147,0.333773,0,0.334385,6879.87,-16354,0,17742.2,206829
step02_gravity_refstate-crust.xmf,914,2.69143e-06,-1.86795e-06,0,-3.02833e-06,-4.85406e+08,-4.85719e+08,-4.8559e+08,-207744,0.0197548,0.339797,0,0.340371,6080.37,-17679.7,0,18696,207744
step02_gravity_refstate-crust.xmf,915,6.07909e-06,-6.66979e-06,0,-1.55966e-06,-6.87865e+08,-6.8874e+08,-6.88282e+08,-106993,0.00876484,0.387427,0,0.387526,1421.45,-25056.7,0,25097,106993
step02_gravity_refstate-crust.xmf,916,6.91526e-06,-7.95522e-06,0,-5.24696e-07,-7.22265e+08,-7.23285e+08,-7.22739e+08,-35994.2,0.00276856,0.398263,0,0.398273,400.304,-26310.4,0,26313.5,35994.2
step02_gravity_refstate-crust.xmf,917,8.88918e-06,-1.11024e-05,0,7.48391e-07,-7.97477e+08,-7.98849e+08,-7.98087e+08,51339.6,-0.00351442,0.424018,-0,0.424033,-396.38,-29051.7,-0,29054.4,51339.6
step02_gravity_refstate-crust.xmf,918,9.57205e-06,-1.22233e-05,0,9.5391e-07,-8.20151e+08,-8.21646e+08,-8.20808e+08,65438.3,-0.00443178,0.433546,-0,0.433568,-462.209,-29878.2,-0,29881.8,65438.3
step02_gravity_refstate-crust.xmf,919,1.21205e-05,-1.69915e-05,0,5.30369e-06,-9.0213e+08,-9.04127e+08,-9.02961e+08,363833,-0.021062,0.471616,-0,0.472086,-1656.34,-32865.7,-0,32907.4,363833
step02_gravity_refstate-crust.xmf,920,1.3485e-05,-1.93332e-05,0,4.77566e-06,-9.22626e+08,-9.24878e+08,-9.23552e+08,327610,-0.0179607,0.488055,-0,0.488386,-1291.71,-33613.8,-0,33638.6,327610
step02_gravity_refstate-crust.xmf,921,-6.68275e-07,9.19743e-07,0,-1.85866e-06,-1.69087e+08,-1.68978e+08,-1.69041e+08,-127504,0.0299629,0.245096,0,0.24692,22585.6,-6154.5,0,23409.1,127504
step02_gravity_refstate-crust.xmf,922,-1.03429e-06,1.09309e-06,0,-1.68047e-06,-1.68504e+08,-1.68358e+08,-1.68433e+08,-115280,0.0280516,0.233568,0,0.235247,24834.1,-6132.06,0,25579.9,115280
step02_gravity_refstate-crust.xmf,923,6.63157e-07,3.16049e-07,0,-2.46739e-06,-2.14462e+08,-2.14486e+08,-2.14507e+08,-169263,0.027953,0.286742,0,0.288102,15061.3,-7810.87,0,16966.2,169263
step02_gravity_refstate-crust.xmf,924,8.01518e-07,2.89094e-07,0,-2.76783e-06,-2.57525e+08,-2.5756e+08,-2.5758e+08,-189873,0.0262725,0.292973,0,0.294149,13890.5,-9379.16,0,16760.5,189873
step02_gravity_refstate-crust.xmf,925,2.6033e-07,6.01359e-07,0,-2.52171e-06,-2.20295e+08,-2.20272e+08,-2.20313e+08,-172989,0.0287451,0.274453,0,0.275954,17159.2,-8022.06,0,18941.8,172989
step02_gravity_refstate-crust.xmf,926,-1.29612e-07,8.57263e-07,0,-2.48718e-06,-2.23304e+08,-2.23236e+08,-2.23295e+08,-170620,0.0287808,0.261749,0,0.263327,19305,-8130.41,0,20947.2,170620
step02_gravity_refstate-crust.xmf,927,-2.83e-06,1.31051e-06,0,-2.65735e-07,-6.48709e+07,-6.45869e+07,-6.46768e+07,-18229.4,0.0136244,0.202485,0,0.202943,35354,-2352.27,0,35432.2,18229.4
step02_gravity_refstate-crust.xmf,928,-3.61408e-06,1.37017e-06,0,-7.15965e-09,-343363,-1443.71,-95437.7,-491.152,0.0113422,0.203525,0,0.203841,36899.5,0,0,36899.5,491.152
step02_gravity_refstate-crust.xmf,929,-1.3727e-06,1.25311e-06,0,-1.46452e-06,-1.69021e+08,-1.68841e+08,-1.68927e+08,-100466,0.0251268,0.222512,0,0.223926,27205.4,-6149.76,0,27891.9,100466
step02_gravity_refstate-crust.xmf,930,-1.65956e-06,1.39005e-06,0,-1.22114e-06,-1.70515e+08,-1.70306e+08,-1.70401e+08,-83770.5,0.0213414,0.212704,0,0.213772,29620.6,-6203.2,0,30263.2,83770.5
step02_gravity_refstate-crust.xmf,931,-2.19543e-06,1.41621e-06,0,-6.35521e-07,-1.36879e+08,-1.36631e+08,-1.36728e+08,-43596.7,0.0145157,0.201846,0,0.202368,33848.9,-4976.51,0,34212.8,43596.7
step02_gravity_refstate-crust.xmf,932,1.60021e-05,-2.75279e-05,0,1.68578e-05,-1.0284e+09,-1.03139e+09,-1.0295e+09,1.15644e+06,-0.0482248,0.558518,-0,0.560596,-2482.86,-37462,-0,37544.2,1.15644e+06
step02_gravity_refstate-crust.xmf,933,1.51223e-05,-2.68781e-05,0,2.05662e-05,-1.04295e+09,-1.04583e+09,-1.04399e+09,1.41084e+06,-0.0555733,0.561654,-0,0.564397,-2821.27,-37989.3,-0,38093.9,1.41084e+06
step02_gravity_refstate-crust.xmf,934,1.37712e-05,-2.56275e-05,0,2.446e-05,-1.05749e+09,-1.0602e+09,-1.05844e+09,1.67796e+06,-0.0622933,0.561954,-0,0.565396,-3154.28,-38515.1,-0,38644.1,1.67796e+06
step02_gravity_refstate-crust.xmf,935,1.49355e-05,-2.17932e-05,0,4.33177e-06,-9.4367e+08,-9.4619e+08,-9.44695e+08,297159,-0.0152906,0.505907,-0,0.506138,-1004.72,-34381.9,-0,34396.6,297159
step02_gravity_refstate-crust.xmf,936,1.68239e-05,-2.58885e-05,0,6.91716e-06,-9.80651e+08,-9.83581e+08,-9.81805e+08,474517,-0.0222631,0.5356,-0,0.536062,-1273.36,-35729.6,-0,35752.2,474517
step02_gravity_refstate-crust.xmf,937,1.72501e-06,-6.16423e-07,0,-3.31729e-06,-4.11075e+08,-4.11235e+08,-4.11193e+08,-227566,0.0231639,0.320768,0,0.321603,9083.2,-14971.6,0,17511.5,227566
step02_gravity_refstate-crust.xmf,938,1.92319e-06,-8.92848e-07,0,-3.46681e-06,-4.45055e+08,-4.45248e+08,-4.45187e+08,-237823,0.023509,0.324955,0,0.325804,8504.75,-16209.1,0,18304.8,237823
step02_gravity_refstate-crust.xmf,939,3.09458e-06,-2.42049e-06,0,-3.03107e-06,-5.24469e+08,-5.24847e+08,-5.24681e+08,-207931,0.0194367,0.346319,0,0.346864,5353.09,-19102.6,0,19838.4,207931
step02_gravity_refstate-crust.xmf,940,3.58388e-06,-3.12185e-06,0,-3.05805e-06,-5.63784e+08,-5.64244e+08,-5.6403e+08,-209782,0.019058,0.353507,0,0.354021,4672.23,-20534.8,0,21059.6,209782
step02_gravity_refstate-crust.xmf,941,4.12976e-06,-3.90024e-06,0,-3.01004e-06,-6.00768e+08,-6.01318e+08,-6.01051e+08,-206489,0.0182939,0.361361,0,0.361823,3998.94,-21882.2,0,22244.6,206489
step02_gravity_refstate-crust.xmf,942,4.74602e-06,-4.78063e-06,0,-2.8188e-06,-6.34042e+08,-6.34696e+08,-6.34368e+08,-193370,0.0166611,0.369879,0,0.370254,3265.65,-23094.7,0,23324.5,193370
step02_gravity_refstate-crust.xmf,943,5.47808e-06,-5.85435e-06,0,-2.44003e-06,-6.67774e+08,-6.68551e+08,-6.68149e+08,-167386,0.0139733,0.379689,0,0.379946,2443.64,-24324.1,0,24446.5,167386
step02_gravity_refstate-crust.xmf,944,6.6291e-06,-7.53246e-06,0,-1.76851e-06,-7.15862e+08,-7.16834e+08,-7.16317e+08,-121320,0.00963221,0.394626,0,0.394744,1432.9,-26076.8,0,26116.2,121320
step02_gravity_refstate-crust.xmf,945,7.37556e-06,-8.6831e-06,0,-1.30443e-06,-7.45161e+08,-7.46263e+08,-7.45667e+08,-89484,0.00684233,0.404469,0,0.404526,922.053,-27144.7,0,27160.4,89484
step02_gravity_refstate-crust.xmf,946,8.10153e-06,-9.79774e-06,0,-4.62682e-07,-7.69982e+08,-7.71209e+08,-7.70537e+08,-31740,0.0023603,0.413691,0,0.413698,292.132,-28049.6,0,28051.1,31740
step02_gravity_refstate-crust.xmf,947,1.0364e-05,-1.35114e-05,0,3.56436e-07,-8.40717e+08,-8.42355e+08,-8.41428e+08,24451.5,-0.00155245,0.443507,-0,0.44351,-150.218,-30628.2,-0,30628.5,24451.5
step02_gravity_refstate-crust.xmf,948,1.1087e-05,-1.47627e-05,0,1.71505e-06,-8.61487e+08,-8.6326e+08,-8.62247e+08,117653,-0.00730585,0.453422,-0,0.453481,-656.627,-31385.3,-0,31392.2,117653
step02_gravity_refstate-crust.xmf,949,1.16956e-05,-1.59166e-05,0,3.35756e-06,-8.81901e+08,-8.83795e+08,-8.82704e+08,230329,-0.0137725,0.4629,-0,0.463105,-1155.03,-32129.2,-0,32149.9,230329
step02_gravity_refstate-crust.xmf,950,-4.91111e-07,1.07471e-06,0,-2.35722e-06,-2.22846e+08,-2.22738e+08,-2.22812e+08,-161705,0.0281102,0.249329,0,0.250909,21459.9,-8112.6,0,22942.1,161705
step02_gravity_refstate-crust.xmf,951,1.00126e-06,1.59745e-07,0,-2.95437e-06,-2.95521e+08,-2.95579e+08,-2.9559e+08,-202670,0.0250112,0.300375,0,0.301414,12548.3,-10763,0,16531.9,202670
step02_gravity_refstate-crust.xmf,952,1.18714e-06,-1.87945e-08,0,-3.16002e-06,-3.36968e+08,-3.37051e+08,-3.37049e+08,-216778,0.0243475,0.306638,0,0.307603,11435.7,-12272.4,0,16774.6,216778
step02_gravity_refstate-crust.xmf,953,1.40123e-06,-2.61252e-07,0,-3.39506e-06,-3.87303e+08,-3.87417e+08,-3.87399e+08,-232901,0.0243448,0.312942,0,0.313888,10384.6,-14105.4,0,17515.8,232901
step02_gravity_refstate-crust.xmf,954,-3.00055e-06,1.36416e-06,0,-1.04721e-07,-5.95539e+07,-5.92545e+07,-5.93481e+07,-7183.88,0.00659698,0.19975,0,0.199859,37819.8,-2158.09,0,37881.3,7183.88
step02_gravity_refstate-crust.xmf,955,-3.64106e-06,1.37669e-06,0,1.19885e-08,-346085,-1867.71,-96308.3,822.411,4.88718e-19,0.201868,0,0.201868,40000,0,0,40000,822.411
step02_gravity_refstate-crust.xmf,956,-1.86895e-06,1.49539e-06,0,-9.85371e-07,-1.73772e+08,-1.73541e+08,-1.73644e+08,-67596.5,0.0173068,0.205213,0,0.205942,31811.6,-6321.11,0,32433.5,67596.5
step02_gravity_refstate-crust.xmf,957,1.84967e-05,-3.14169e-05,0,1.29818e-05,-1.02951e+09,-1.03293e+09,-1.03078e+09,890553,-0.0370015,0.577266,-0,0.578451,-1825.07,-37506.4,-0,37550.8,890553
step02_gravity_refstate-crust.xmf,958,1.85731e-05,-3.04759e-05,0,9.7009e-06,-1.01416e+09,-1.01753e+09,-1.01544e+09,665481,-0.0287089,0.567236,-0,0.567962,-1462.53,-36949.6,-0,36978.5,665481
step02_gravity_refstate-crust.xmf,959,1.64346e-05,-2.46287e-05,0,3.90597e-06,-9.64553e+08,-9.6737e+08,-9.6568e+08,267950,-0.0129878,0.525076,-0,0.525236,-781.515,-35143.9,-0,35152.6,267950
step02_gravity_refstate-crust.xmf,960,1.83374e-05,-2.90206e-05,0,6.52939e-06,-9.98711e+08,-1.00196e+09,-9.99969e+08,447916,-0.0200339,0.556043,-0,0.556404,-1063.41,-36388.3,-0,36403.9,447916
step02_gravity_refstate-crust.xmf,961,1.61586e-05,-3.06462e-05,0,2.46544e-05,-1.07087e+09,-1.07408e+09,-1.07198e+09,1.69129e+06,-0.0598188,0.587393,-0,0.590431,-2903.04,-39003.9,-0,39111.8,1.69129e+06
step02_gravity_refstate-crust.xmf,962,1.50618e-05,-2.98123e-05,0,2.9098e-05,-1.08498e+09,-1.08805e+09,-1.08601e+09,1.99612e+06,-0.0651255,0.585635,-0,0.589245,-3228.22,-39514.4,-0,39646.1,1.99612e+06
step02_gravity_refstate-crust.xmf,963,1.40126e-05,-2.90035e-05,0,3.3216e-05,-1.0984e+09,-1.10135e+09,-1.09936e+09,2.27862e+06,-0.0676401,0.5824,-0,0.586315,-3497.18,-40000,-0,40152.6,2.27862e+06
step02_gravity_refstate-crust.xmf,964,2.23098e-06,-1.29331e-06,0,-3.5718e-06,-4.8355e+08,-4.83791e+08,-4.83703e+08,-245025,0.0237186,0.330929,0,0.331777,7726.69,-17611.1,0,19231.6,245025
step02_gravity_refstate-crust.xmf,965,2.61686e-06,-1.83542e-06,0,-3.67473e-06,-5.21506e+08,-5.21811e+08,-5.21685e+08,-252087,0.0237573,0.337763,0,0.338597,6916.79,-18993.7,0,20213.9,252087
step02_gravity_refstate-crust.xmf,966,6.01365e-06,-6.65984e-06,0,-2.53578e-06,-6.97358e+08,-6.98227e+08,-6.97771e+08,-173955,0.0140772,0.387152,0,0.387408,2245.14,-25402,0,25501.1,173955
step02_gravity_refstate-crust.xmf,967,9.54637e-06,-1.21678e-05,0,-6.86172e-07,-8.18417e+08,-8.19906e+08,-8.19071e+08,-47071.4,0.00325356,0.432927,0,0.432939,340.873,-29815.1,0,29817,47071.4
step02_gravity_refstate-crust.xmf,968,1.2867e-05,-1.79546e-05,0,2.5801e-06,-9.02301e+08,-9.04415e+08,-9.03184e+08,176995,-0.0102357,0.477205,-0,0.477315,-788.992,-32873.4,-0,32882.9,176995
step02_gravity_refstate-crust.xmf,969,1.41886e-05,-2.01963e-05,0,1.35585e-06,-9.23558e+08,-9.25917e+08,-9.24531e+08,93011,-0.00525542,0.49333,-0,0.493358,-370.7,-33649.2,-0,33651.2,93011
step02_gravity_refstate-crust.xmf,970,1.56582e-05,-2.29547e-05,0,1.14991e-06,-9.47923e+08,-9.50572e+08,-9.48997e+08,78883.7,-0.00393612,0.512732,-0,0.512747,-251.714,-34537.9,-0,34538.8,78883.7
step02_gravity_refstate-crust.xmf,971,-8.34512e-07,1.27279e-06,0,-2.16504e-06,-2.22723e+08,-2.22578e+08,-2.22666e+08,-148522,0.0265933,0.236946,0,0.238434,23716.4,-8107.05,0,25063.8,148522
step02_gravity_refstate-crust.xmf,972,-1.14721e-06,1.44912e-06,0,-1.92187e-06,-2.23505e+08,-2.23327e+08,-2.23427e+08,-131840,0.0242077,0.225067,0,0.226365,26061.1,-8134.54,0,27301.1,131840
step02_gravity_refstate-crust.xmf,973,6.61855e-07,4.60679e-07,0,-3.10277e-06,-2.99495e+08,-2.99508e+08,-2.9954e+08,-212850,0.0264869,0.289986,0,0.291193,14297.4,-10906.8,0,17982.6,212850
step02_gravity_refstate-crust.xmf,974,3.94978e-07,6.46907e-07,0,-2.97221e-06,-2.76656e+08,-2.76639e+08,-2.76684e+08,-203894,0.0273284,0.280784,0,0.282111,15886.2,-10074.6,0,18811.4,203894
step02_gravity_refstate-crust.xmf,975,-2.3531e-08,9.72584e-07,0,-2.93199e-06,-2.76358e+08,-2.7629e+08,-2.76357e+08,-201134,0.0277577,0.266412,0,0.267854,18231.7,-10062.5,0,20824.2,201134
step02_gravity_refstate-crust.xmf,976,-3.84086e-07,1.24282e-06,0,-2.81293e-06,-2.76774e+08,-2.76662e+08,-2.76747e+08,-192967,0.0272931,0.253183,0,0.25465,20406.8,-10076.6,0,22759.1,192967
step02_gravity_refstate-crust.xmf,977,1.51402e-06,-3.91729e-07,0,-3.73401e-06,-4.3823e+08,-4.38361e+08,-4.38334e+08,-256153,0.0258277,0.31564,0,0.316695,10034.3,-15959.7,0,18852,256153
step02_gravity_refstate-crust.xmf,978,-2.44229e-06,1.4645e-06,0,-2.82188e-07,-1.28768e+08,-1.285e+08,-1.28601e+08,-19358.1,0.00693038,0.196763,0,0.196885,37194.9,-4680.32,0,37488.3,19358.1
step02_gravity_refstate-crust.xmf,979,-2.80682e-06,1.38151e-06,0,6.80804e-09,-8.33322e+07,-8.30448e+07,-8.31396e+07,467.032,4.99652e-19,0.197688,0,0.197688,40000,-3024.57,0,40114.2,467.032
step02_gravity_refstate-crust.xmf,980,-1.41766e-06,1.59421e-06,0,-1.63245e-06,-2.24166e+08,-2.2396e+08,-2.24069e+08,-111986,0.0210512,0.214278,0,0.215309,28471.2,-8157.73,0,29616.8,111986
step02_gravity_refstate-crust.xmf,981,-1.63647e-06,1.71203e-06,0,-1.31685e-06,-2.25729e+08,-2.25499e+08,-2.25617e+08,-90335.7,0.0172602,0.205099,0,0.205824,30892.4,-8213.92,0,31965.7,90335.7
step02_gravity_refstate-crust.xmf,982,-1.82488e-06,1.78147e-06,0,-9.34741e-07,-2.22687e+08,-2.2244e+08,-2.22562e+08,-64123.2,0.0126806,0.19757,0,0.197977,33548.1,-8102.53,0,34512.7,64123.2
step02_gravity_refstate-crust.xmf,983,2.01485e-05,-3.40234e-05,0,8.76843e-06,-1.03049e+09,-1.03421e+09,-1.03187e+09,601514,-0.0249407,0.590687,-0,0.591213,-1196.56,-37544.8,-0,37563.9,601514
step02_gravity_refstate-crust.xmf,984,1.82306e-05,-3.22114e-05,0,1.64131e-05,-1.04471e+09,-1.04817e+09,-1.04596e+09,1.12594e+06,-0.0446934,0.586057,-0,0.587758,-2155.55,-38057.5,-0,38118.5,1.12594e+06
step02_gravity_refstate-crust.xmf,985,1.76713e-05,-3.26573e-05,0,2.05296e-05,-1.06077e+09,-1.06422e+09,-1.06198e+09,1.40833e+06,-0.0525623,0.592676,-0,0.595002,-2511.93,-38639.3,-0,38720.9,1.40833e+06
step02_gravity_refstate-crust.xmf,986,1.78131e-05,-2.74426e-05,0,3.44046e-06,-9.83286e+08,-9.8639e+08,-9.84508e+08,236016,-0.0109736,0.543894,-0,0.544005,-611.456,-35827.1,-0,35832.3,236016
step02_gravity_refstate-crust.xmf,987,1.7575e-06,-7.32341e-07,0,-3.95207e-06,-4.77956e+08,-4.78127e+08,-4.78077e+08,-271112,0.0265632,0.3211,0,0.322196,9297.8,-17406.5,0,19734.1,271112
step02_gravity_refstate-crust.xmf,988,3.08069e-06,-2.4746e-06,0,-3.7395e-06,-5.61471e+08,-5.61852e+08,-5.61683e+08,-256530,0.0237527,0.34555,0,0.346366,6117.27,-20449.6,0,21344.9,256530
step02_gravity_refstate-crust.xmf,989,3.61675e-06,-3.25448e-06,0,-3.84251e-06,-6.00137e+08,-6.00608e+08,-6.00385e+08,-263596,0.0236574,0.353848,0,0.354638,5392.67,-21858.2,0,22513.6,263596
step02_gravity_refstate-crust.xmf,990,4.2109e-06,-4.11072e-06,0,-3.8491e-06,-6.3496e+08,-6.35531e+08,-6.35249e+08,-264049,0.0230395,0.362731,0,0.363462,4678.46,-23127,0,23595.5,264049
step02_gravity_refstate-crust.xmf,991,4.8775e-06,-5.07299e-06,0,-3.71575e-06,-6.65868e+08,-6.66551e+08,-6.66203e+08,-254901,0.0215813,0.372222,0,0.372847,3931.55,-24253.5,0,24570.1,254901
step02_gravity_refstate-crust.xmf,992,5.56397e-06,-6.07621e-06,0,-3.53397e-06,-6.9468e+08,-6.95479e+08,-6.95062e+08,-242430,0.0198877,0.381722,0,0.38224,3272.22,-25303.6,0,25514.3,242430
step02_gravity_refstate-crust.xmf,993,6.27553e-06,-7.12023e-06,0,-3.25469e-06,-7.20611e+08,-7.2153e+08,-7.21042e+08,-223272,0.0177198,0.391154,0,0.391555,2655.51,-26248.9,0,26382.9,223272
step02_gravity_refstate-crust.xmf,994,7.05503e-06,-8.28225e-06,0,-2.83348e-06,-7.4621e+08,-7.47262e+08,-7.46694e+08,-194377,0.0148931,0.401237,0,0.401514,2032.77,-27182.2,0,27258.1,194377
step02_gravity_refstate-crust.xmf,995,7.8966e-06,-9.55732e-06,0,-2.23102e-06,-7.71502e+08,-7.72699e+08,-7.72044e+08,-153048,0.0112876,0.411904,0,0.412059,1403.8,-28104.4,0,28139.5,153048
step02_gravity_refstate-crust.xmf,996,8.75342e-06,-1.08896e-05,0,-1.42851e-06,-7.95723e+08,-7.9707e+08,-7.96323e+08,-97995.5,0.0069721,0.422651,0,0.422709,793.352,-28987.6,0,28998.5,97995.5
step02_gravity_refstate-crust.xmf,997,1.02575e-05,-1.33891e-05,0,-1.71567e-06,-8.40903e+08,-8.42526e+08,-8.41607e+08,-117695,0.00770322,0.442635,0,0.442702,747.315,-30634.7,0,30643.8,117695
step02_gravity_refstate-crust.xmf,998,1.12155e-05,-1.49613e-05,0,-6.25146e-07,-8.62301e+08,-8.64097e+08,-8.63071e+08,-42885,0.0027169,0.454621,0,0.454629,242.622,-31415.1,0,31416.1,42885
step02_gravity_refstate-crust.xmf,999,1.20969e-05,-1.64618e-05,0,8.23325e-07,-8.82336e+08,-8.84295e+08,-8.83166e+08,56480.1,-0.00330977,0.466046,-0,0.466057,-274.164,-32145.8,-0,32147,56480.1
step02_gravity_refstate-crust.xmf,1000,1.47962e-05,-2.13788e-05,0,-9.79822e-07,-9.34259e+08,-9.3674e+08,-9.35274e+08,-67215.8,0.00345994,0.501703,0,0.501715,233.235,-34039.4,0,34040.2,67215.8
step02_gravity_refstate-crust.xmf,1001,-7.07898e-07,1.47217e-06,0,-2.61914e-06,-2.76604e+08,-2.76455e+08,-2.76556e+08,-179673,0.0260826,0.240435,0,0.241845,22589.9,-10069.5,0,24732.5,179673
step02_gravity_refstate-crust.xmf,1002,7.82953e-07,3.92303e-07,0,-3.33996e-06,-3.37668e+08,-3.37695e+08,-3.37722e+08,-229121,0.0262838,0.294942,0,0.296111,13389.8,-12296.9,0,18179.7,229121
step02_gravity_refstate-crust.xmf,1003,9.36092e-07,2.41906e-07,0,-3.61882e-06,-3.82112e+08,-3.8216e+08,-3.82176e+08,-248251,0.0265765,0.300366,0,0.30154,12438.5,-13915.3,0,18664.2,248251
step02_gravity_refstate-crust.xmf,1004,1.08879e-06,8.001e-08,0,-3.92493e-06,-4.29988e+08,-4.30057e+08,-4.30062e+08,-269250,0.0275721,0.305135,0,0.306378,11655,-15658.7,0,19520,269250
step02_gravity_refstate-crust.xmf,1005,-2.07649e-06,1.65842e-06,0,-5.7975e-07,-1.87211e+08,-1.86955e+08,-1.87069e+08,-39770.8,0.00943059,0.195621,0,0.195849,35581.2,-6809.78,0,36227,39770.8
step02_gravity_refstate-crust.xmf,1006,1.97966e-05,-3.24244e-05,0,5.72715e-06,-1.01579e+09,-1.01937e+09,-1.01714e+09,392882,-0.0168911,0.577469,-0,0.577716,-839.825,-37010.6,-0,37020.1,392882
step02_gravity_refstate-crust.xmf,1007,2.02476e-05,-3.55783e-05,0,1.18781e-05,-1.0453e+09,-1.04913e+09,-1.04669e+09,814841,-0.032654,0.603218,-0,0.604101,-1527.28,-38082.1,-0,38112.8,814841
step02_gravity_refstate-crust.xmf,1008,1.71731e-05,-2.59993e-05,0,1.82186e-07,-9.6992e+08,-9.72882e+08,-9.71098e+08,12497.9,-0.000540631,0.532556,-0,0.532556,-31.6161,-35340.1,-0,35340.2,12497.9
step02_gravity_refstate-crust.xmf,1009,1.91461e-05,-3.03663e-05,0,2.8948e-06,-1.00079e+09,-1.00418e+09,-1.0021e+09,198583,-0.0088192,0.563141,-0,0.56321,-459.062,-36465.1,-0,36467.9,198583
step02_gravity_refstate-crust.xmf,1010,1.83063e-05,-3.55233e-05,0,2.18648e-05,-1.07623e+09,-1.07992e+09,-1.07749e+09,1.49993e+06,-0.0536533,0.610709,-0,0.613061,-2535.98,-39200.3,-0,39282.3,1.49993e+06
step02_gravity_refstate-crust.xmf,1011,1.78729e-05,-3.58745e-05,0,2.44062e-05,-1.08619e+09,-1.08988e+09,-1.08742e+09,1.67427e+06,-0.0571027,0.613681,-0,0.616332,-2744.53,-39560.8,-0,39655.8,1.67427e+06
step02_gravity_refstate-crust.xmf,1012,1.68886e-05,-3.60318e-05,0,2.74626e-05,-1.09838e+09,-1.10201e+09,-1.09953e+09,1.88393e+06,-0.0599043,0.615405,-0,0.618314,-2997.53,-40000,-0,40112.2,1.88393e+06
step02_gravity_refstate-crust.xmf,1013,2.06064e-06,-1.12711e-06,0,-4.24753e-06,-5.24399e+08,-5.24617e+08,-5.2454e+08,-291381,0.0279318,0.327039,0,0.328229,8632.52,-19097.9,0,20958.3,291381
step02_gravity_refstate-crust.xmf,1014,2.54946e-06,-1.80798e-06,0,-4.30855e-06,-5.59547e+08,-5.59846e+08,-5.59722e+08,-295567,0.027675,0.336242,0,0.337379,7553.36,-20378.4,0,21733.2,295567
step02_gravity_refstate-crust.xmf,1015,9.31962e-06,-1.18846e-05,0,-2.51975e-06,-8.19271e+08,-8.20725e+08,-8.1991e+08,-172855,0.0118095,0.431032,0,0.431194,1245.59,-29845.7,0,29871.6,172855
step02_gravity_refstate-crust.xmf,1016,1.30258e-05,-1.81714e-05,0,1.15675e-07,-9.00885e+08,-9.03025e+08,-9.01779e+08,7935.32,-0.000479617,0.4779,-0,0.4779,-36.4486,-32822.2,-0,32822.2,7935.32
step02_gravity_refstate-crust.xmf,1017,1.58056e-05,-2.33158e-05,0,-2.02649e-06,-9.51238e+08,-9.53922e+08,-9.52323e+08,-139017,0.00705174,0.515035,0,0.515083,445.458,-34658.6,0,34661.5,139017
step02_gravity_refstate-crust.xmf,1018,1.35497e-05,-1.91951e-05,0,-1.96328e-06,-9.13405e+08,-9.15651e+08,-9.14334e+08,-134681,0.00738892,0.48558,0,0.485636,543.415,-33278.5,0,33282.9,134681
step02_gravity_refstate-crust.xmf,1019,4.90923e-06,-5.23792e-06,0,-4.69015e-06,-6.9677e+08,-6.97467e+08,-6.97107e+08,-321744,0.0267674,0.373935,0,0.374892,4558.61,-25378.4,0,25784.5,321744
step02_gravity_refstate-crust.xmf,1020,-1.0017e-06,1.67322e-06,0,-2.36311e-06,-2.77205e+08,-2.77021e+08,-2.77136e+08,-162110,0.0241006,0.227992,0,0.229263,24864.7,-10090.5,0,26834.1,162110
step02_gravity_refstate-crust.xmf,1021,-1.25634e-06,1.84647e-06,0,-2.05763e-06,-2.79071e+08,-2.78858e+08,-2.78985e+08,-141154,0.0213821,0.216328,0,0.217383,27213.3,-10157.6,0,29047.2,141154
step02_gravity_refstate-crust.xmf,1022,4.02519e-07,7.36838e-07,0,-3.40381e-06,-3.34157e+08,-3.34134e+08,-3.34185e+08,-233501,0.0273606,0.282925,0,0.284245,15307.9,-12168.1,0,19554.9,233501
step02_gravity_refstate-crust.xmf,1023,3.47536e-08,1.08935e-06,0,-3.3514e-06,-3.31182e+08,-3.3111e+08,-3.31185e+08,-229906,0.0277567,0.270143,0,0.271565,17310.4,-12058.8,0,21096.5,229906
step02_gravity_refstate-crust.xmf,1024,-3.12968e-07,1.39532e-06,0,-3.23207e-06,-3.29481e+08,-3.29364e+08,-3.29459e+08,-221720,0.0274438,0.25706,0,0.258521,19365.8,-11996,0,22780.2,221720
step02_gravity_refstate-crust.xmf,1025,-6.35182e-07,1.67223e-06,0,-3.04e-06,-3.29385e+08,-3.29227e+08,-3.29342e+08,-208544,0.0264118,0.243806,0,0.245232,21500.6,-11991.6,0,24618.5,208544
step02_gravity_refstate-crust.xmf,1026,1.27493e-06,-1.19876e-07,0,-4.20243e-06,-4.74023e+08,-4.74119e+08,-4.74111e+08,-288287,0.028847,0.309972,0,0.311311,10944.6,-17262.3,0,20439.4,288287
step02_gravity_refstate-crust.xmf,1027,-2.06232e-06,1.76928e-06,0,-3.11438e-07,-2.06017e+08,-2.05754e+08,-2.05876e+08,-21364.6,0.00466214,0.191678,0,0.191735,37760.7,-7494.65,0,38497.2,21364.6
step02_gravity_refstate-crust.xmf,1028,-2.2695e-06,1.59282e-06,0,2.18603e-09,-1.63519e+08,-1.63254e+08,-1.63363e+08,149.962,3.31439e-19,0.193334,0,0.193334,40000,-5946.36,0,40439.6,149.962
step02_gravity_refstate-crust.xmf,1029,-1.46953e-06,1.99909e-06,0,-1.70356e-06,-2.83027e+08,-2.82789e+08,-2.82926e+08,-116864,0.0178949,0.205557,0,0.206334,29692.4,-10301,0,31428.5,116864
step02_gravity_refstate-crust.xmf,1030,-1.89567e-06,1.91641e-06,0,-6.18779e-07,-2.39011e+08,-2.38749e+08,-2.38881e+08,-42448.2,0.00795598,0.191692,0,0.191857,35921.5,-8696.72,0,36959.2,42448.2
step02_gravity_refstate-crust.xmf,1031,-1.63938e-06,2.08676e-06,0,-1.30298e-06,-2.81944e+08,-2.81688e+08,-2.81831e+08,-89384.5,0.0139976,0.197094,0,0.19759,32188.1,-10261,0,33784.1,89384.5
step02_gravity_refstate-crust.xmf,1032,2.10821e-05,-3.57084e-05,0,4.48417e-06,-1.03211e+09,-1.036e+09,-1.03356e+09,307614,-0.0127915,0.599811,-0,0.599947,-602.898,-37605,-0,37609.8,307614
step02_gravity_refstate-crust.xmf,1033,2.14252e-05,-3.77153e-05,0,7.24445e-06,-1.04617e+09,-1.05023e+09,-1.04764e+09,496970,-0.0200862,0.615133,-0,0.61546,-921.778,-38115.2,-0,38126.3,496970
step02_gravity_refstate-crust.xmf,1034,2.01424e-05,-3.68579e-05,0,1.50693e-05,-1.05961e+09,-1.06352e+09,-1.06099e+09,1.03375e+06,-0.0397409,0.614164,-0,0.615449,-1836.58,-38600.5,-0,38644.2,1.03375e+06
step02_gravity_refstate-crust.xmf,1035,1.83525e-05,-2.85361e-05,0,5.98324e-07,-9.87907e+08,-9.91124e+08,-9.89166e+08,41045,-0.00191302,0.550341,-0,0.550344,-104.385,-35995.8,-0,35996,41045
step02_gravity_refstate-crust.xmf,1036,2.03813e-05,-3.33935e-05,0,1.68783e-06,-1.01708e+09,-1.02077e+09,-1.01848e+09,115785,-0.00498021,0.582883,-0,0.582904,-244.534,-37058.5,-0,37059.3,115785
step02_gravity_refstate-crust.xmf,1037,1.98866e-05,-3.83553e-05,0,1.76893e-05,-1.07375e+09,-1.07775e+09,-1.07512e+09,1.21348e+06,-0.0448535,0.625707,-0,0.627313,-2075.25,-39112.1,-0,39167.1,1.21348e+06
step02_gravity_refstate-crust.xmf,1038,1.95285e-05,-3.97745e-05,0,1.98378e-05,-1.08661e+09,-1.09068e+09,-1.08795e+09,1.36087e+06,-0.0482686,0.636103,-0,0.637931,-2274.01,-39576.5,-0,39641.8,1.36087e+06
step02_gravity_refstate-crust.xmf,1039,1.49817e-06,-4.37492e-07,0,-4.46863e-06,-5.11961e+08,-5.12093e+08,-5.12063e+08,-306548,0.0299712,0.315571,0,0.316991,10208.8,-18643.8,0,21255.8,306548
step02_gravity_refstate-crust.xmf,1040,3.01918e-06,-2.47058e-06,0,-4.49691e-06,-5.99654e+08,-6.00031e+08,-5.99861e+08,-308488,0.0282906,0.34458,0,0.34574,6798.65,-21839.4,0,22873.2,308488
step02_gravity_refstate-crust.xmf,1041,3.56037e-06,-3.28454e-06,0,-4.69666e-06,-6.36031e+08,-6.365e+08,-6.36275e+08,-322191,0.0285646,0.35352,0,0.354672,6081.73,-23164.7,0,23949.7,322191
step02_gravity_refstate-crust.xmf,1042,4.17261e-06,-4.16578e-06,0,-4.7721e-06,-6.67775e+08,-6.68347e+08,-6.68061e+08,-327366,0.0281673,0.363126,0,0.364217,5357.34,-24321.4,0,24904.5,327366
step02_gravity_refstate-crust.xmf,1043,5.68159e-06,-6.37073e-06,0,-4.50278e-06,-7.22548e+08,-7.23375e+08,-7.22938e+08,-308891,0.0247976,0.384633,0,0.385431,3818.93,-26318.2,0,26593.8,308891
step02_gravity_refstate-crust.xmf,1044,6.50701e-06,-7.60065e-06,0,-4.26501e-06,-7.48311e+08,-7.49278e+08,-7.48757e+08,-292580,0.022597,0.395694,0,0.396338,3150.94,-27257.6,0,27439.1,292580
step02_gravity_refstate-crust.xmf,1045,7.41528e-06,-8.96464e-06,0,-3.89384e-06,-7.73715e+08,-7.74839e+08,-7.74224e+08,-267117,0.0197962,0.40744,0,0.407921,2500.5,-28184,0,28294.7,267117
step02_gravity_refstate-crust.xmf,1046,8.3859e-06,-1.04225e-05,0,-3.26631e-06,-7.97345e+08,-7.98635e+08,-7.9792e+08,-224069,0.0159464,0.419478,0,0.419781,1833.52,-29045.9,0,29103.7,224069
step02_gravity_refstate-crust.xmf,1047,9.84605e-06,-1.28883e-05,0,-3.72193e-06,-8.42221e+08,-8.4378e+08,-8.42896e+08,-255324,0.0167423,0.439459,0,0.439778,1641.01,-30681.8,0,30725.6,255324
step02_gravity_refstate-crust.xmf,1048,1.08886e-05,-1.45597e-05,0,-3.00511e-06,-8.62323e+08,-8.64069e+08,-8.6307e+08,-206151,0.0129136,0.451993,0,0.452177,1165.43,-31415.2,0,31436.8,206151
step02_gravity_refstate-crust.xmf,1049,1.21626e-05,-1.67276e-05,0,-1.90804e-06,-8.86107e+08,-8.88089e+08,-8.86941e+08,-130891,0.00779163,0.467544,0,0.467609,638.078,-32282.9,0,32289.2,130891
step02_gravity_refstate-crust.xmf,1050,1.45109e-05,-2.1024e-05,0,-3.58498e-06,-9.34556e+08,-9.36994e+08,-9.35552e+08,-245930,0.0129907,0.49956,0,0.499729,883.173,-34049.6,0,34061.1,245930
step02_gravity_refstate-crust.xmf,1051,-9.17881e-07,1.90613e-06,0,-2.78105e-06,-3.29656e+08,-3.29462e+08,-3.29593e+08,-190780,0.0246978,0.231014,0,0.232331,23678.2,-12000.7,0,26545.7,190780
step02_gravity_refstate-crust.xmf,1052,5.14829e-07,7.11481e-07,0,-3.71476e-06,-3.80751e+08,-3.80737e+08,-3.80786e+08,-254832,0.027937,0.287738,0,0.289091,14378.6,-13864.8,0,19974.4,254832
step02_gravity_refstate-crust.xmf,1053,7.90161e-07,4.41734e-07,0,-4.36874e-06,-4.70967e+08,-4.70991e+08,-4.71021e+08,-299696,0.0304237,0.297928,0,0.299477,12629.9,-17149.9,0,21298.7,299696
step02_gravity_refstate-crust.xmf,1054,6.32917e-07,6.04144e-07,0,-4.05524e-06,-4.27287e+08,-4.27289e+08,-4.27331e+08,-278190,0.0290446,0.292598,0,0.294036,13497.8,-15559.3,0,20598.2,278190
step02_gravity_refstate-crust.xmf,1055,-1.76004e-06,2.15456e-06,0,-8.76573e-07,-2.82592e+08,-2.82323e+08,-2.82471e+08,-60132.9,0.0095517,0.190519,0,0.190759,34781.5,-10284.3,0,36270.1,60132.9
step02_gravity_refstate-crust.xmf,1056,2.15025e-05,-3.94424e-05,0,1.01204e-05,-1.05978e+09,-1.06396e+09,-1.06126e+09,694263,-0.0272349,0.629016,-0,0.629605,-1234.26,-38608.4,-0,38628.1,694263
step02_gravity_refstate-crust.xmf,1057,1.67519e-05,-2.53684e-05,0,-3.85504e-06,-9.69154e+08,-9.72043e+08,-9.70303e+08,-264456,0.0127893,0.529429,0,0.529583,755.387,-35311.5,0,35319.6,264456
step02_gravity_refstate-crust.xmf,1058,1.81184e-05,-2.80741e-05,0,-2.42084e-06,-9.85733e+08,-9.88902e+08,-9.86976e+08,-166070,0.00770819,0.547281,0,0.547336,424.393,-35916.4,0,35918.9,166070
step02_gravity_refstate-crust.xmf,1059,1.93807e-05,-3.0815e-05,0,-6.91329e-07,-1.00202e+09,-1.00546e+09,-1.00334e+09,-47425.2,0.00211451,0.565579,0,0.565583,109.24,-36510.1,0,36510.2,47425.2
step02_gravity_refstate-crust.xmf,1060,2.13986e-05,-3.63058e-05,0,-1.31351e-09,-1.03282e+09,-1.03678e+09,-1.03429e+09,-90.1067,-1.26907e-05,0.60318,-0,0.60318,-0.585559,-37631.1,-0,37631.1,90.1067
step02_gravity_refstate-crust.xmf,1061,1.86802e-05,-4.05529e-05,0,2.2181e-05,-1.09837e+09,-1.10243e+09,-1.09965e+09,1.52161e+06,-0.051001,0.642883,-0,0.644903,-2497.35,-40000,-0,40077.9,1.52161e+06
step02_gravity_refstate-crust.xmf,1062,1.64727e-06,-6.41797e-07,0,-4.75853e-06,-5.45426e+08,-5.45583e+08,-5.45539e+08,-326435,0.0314898,0.319032,0,0.320582,9830.41,-19862.4,0,22162,326435
step02_gravity_refstate-crust.xmf,1063,2.03572e-06,-1.17426e-06,0,-4.87239e-06,-5.72161e+08,-5.72381e+08,-5.72301e+08,-334246,0.0316287,0.327026,0,0.328552,8906.51,-20836.5,0,22660.2,334246
step02_gravity_refstate-crust.xmf,1064,2.40249e-06,-1.70293e-06,0,-5.06712e-06,-6.02455e+08,-6.02737e+08,-6.0262e+08,-347605,0.0322438,0.3343,0,0.335852,8182.15,-21940.1,0,23416.1,347605
step02_gravity_refstate-crust.xmf,1065,8.85269e-06,-1.12901e-05,0,-4.21127e-06,-8.2075e+08,-8.22132e+08,-8.21357e+08,-288893,0.019824,0.427058,0,0.427518,2119.92,-29898.6,0,29973.6,288893
step02_gravity_refstate-crust.xmf,1066,1.52998e-05,-2.269e-05,0,-5.14497e-06,-9.52563e+08,-9.55169e+08,-9.53613e+08,-352945,0.0179038,0.512084,0,0.512397,1139.37,-34705.8,0,34724.5,352945
step02_gravity_refstate-crust.xmf,1067,1.32144e-05,-1.8881e-05,0,-5.00298e-06,-9.19362e+08,-9.21563e+08,-9.20268e+08,-343205,0.0188919,0.485109,0,0.485477,1379.29,-33494.5,0,33522.9,343205
step02_gravity_refstate-crust.xmf,1068,4.93013e-06,-5.41147e-06,0,-5.58038e-06,-7.25264e+08,-7.25974e+08,-7.25602e+08,-382814,0.0312027,0.376037,0,0.37733,4985.14,-26415.5,0,26881.8,382814
step02_gravity_refstate-crust.xmf,1069,4.18025e-06,-4.29424e-06,0,-5.59375e-06,-6.99824e+08,-7.00405e+08,-7.0011e+08,-383732,0.0324728,0.364792,0,0.366235,5759.86,-25488,0,26130.8,383732
step02_gravity_refstate-crust.xmf,1070,-1.16375e-06,2.10731e-06,0,-2.463e-06,-3.31233e+08,-3.31008e+08,-3.31153e+08,-168962,0.0222933,0.218662,0,0.219796,25955.7,-12057.4,0,28619.6,168962
step02_gravity_refstate-crust.xmf,1071,-1.36826e-06,2.28347e-06,0,-2.09794e-06,-3.35104e+08,-3.34853e+08,-3.3501e+08,-143919,0.0192435,0.20714,0,0.208032,28321.3,-12197.8,0,30836.4,143919
step02_gravity_refstate-crust.xmf,1072,1.08327e-07,1.11444e-06,0,-3.72724e-06,-3.79523e+08,-3.79454e+08,-3.7953e+08,-255689,0.0285082,0.274626,0,0.276102,16334.8,-13819.1,0,21396.1,255689
step02_gravity_refstate-crust.xmf,1073,-2.54757e-07,1.5096e-06,0,-3.61758e-06,-3.79328e+08,-3.79207e+08,-3.7931e+08,-248166,0.0283465,0.261073,0,0.262607,18344.7,-13811.1,0,22962.5,248166
step02_gravity_refstate-crust.xmf,1074,-8.78829e-07,2.136e-06,0,-3.1779e-06,-3.80935e+08,-3.80728e+08,-3.80875e+08,-218004,0.0259005,0.233997,0,0.235426,22526.9,-13868.1,0,26453.4,218004
step02_gravity_refstate-crust.xmf,1075,-5.89324e-07,1.84866e-06,0,-3.43616e-06,-3.8002e+08,-3.79852e+08,-3.79979e+08,-235721,0.0274666,0.247406,0,0.248926,20408.2,-13835.5,0,24655.9,235721
step02_gravity_refstate-crust.xmf,1076,9.9325e-07,2.22723e-07,0,-4.63928e-06,-5.09615e+08,-5.09667e+08,-5.09683e+08,-318255,0.0317992,0.303709,0,0.305369,11793,-18557.4,0,21987.5,318255
step02_gravity_refstate-crust.xmf,1077,-1.84415e-06,2.17207e-06,0,-4.3357e-07,-2.80497e+08,-2.80221e+08,-2.8037e+08,-29742.9,0.00474905,0.186631,0,0.186692,37444.6,-10207.7,0,38811,29742.9
step02_gravity_refstate-crust.xmf,1078,-1.96199e-06,1.95608e-06,0,3.07981e-09,-2.41106e+08,-2.40837e+08,-2.40971e+08,211.275,3.34785e-19,0.188321,0,0.188321,40000,-8772.79,0,40950.7,211.275
step02_gravity_refstate-crust.xmf,1079,-1.54817e-06,2.45025e-06,0,-1.66368e-06,-3.42843e+08,-3.42569e+08,-3.42737e+08,-114128,0.0152921,0.195983,0,0.196579,30979.3,-12479.1,0,33398.3,114128
step02_gravity_refstate-crust.xmf,1080,-1.66583e-06,2.43991e-06,0,-1.16235e-06,-3.30071e+08,-3.2979e+08,-3.29957e+08,-79737.2,0.0111321,0.189192,0,0.189519,33618.6,-12013.6,0,35700.7,79737.2
step02_gravity_refstate-crust.xmf,1081,2.19899e-05,-3.88148e-05,0,2.57556e-06,-1.0469e+09,-1.05107e+09,-1.0484e+09,176683,-0.00719581,0.621598,-0,0.621639,-327.108,-38142.1,-0,38143.5,176683
step02_gravity_refstate-crust.xmf,1082,2.2168e-05,-4.09149e-05,0,5.31923e-06,-1.06013e+09,-1.06446e+09,-1.06166e+09,364899,-0.0145324,0.638258,-0,0.638424,-651.498,-38621.6,-0,38627.1,364899
step02_gravity_refstate-crust.xmf,1083,2.12838e-05,-4.1e-05,0,1.28566e-05,-1.07326e+09,-1.07754e+09,-1.07472e+09,881965,-0.0334691,0.642094,-0,0.642966,-1520.95,-39095.9,-0,39125.4,881965
step02_gravity_refstate-crust.xmf,1084,2.03891e-05,-3.34529e-05,0,-2.48096e-06,-1.01794e+09,-1.02163e+09,-1.01934e+09,-170194,0.00726207,0.583526,0,0.583571,355.869,-37089.9,0,37091.6,170194
step02_gravity_refstate-crust.xmf,1085,2.06708e-05,-4.24465e-05,0,1.51653e-05,-1.08614e+09,-1.09047e+09,-1.08756e+09,1.04034e+06,-0.0382126,0.654099,-0,0.655214,-1772.05,-39559.9,-0,39599.6,1.04034e+06
step02_gravity_refstate-crust.xmf,1086,1.97953e-05,-4.35945e-05,0,1.72778e-05,-1.09837e+09,-1.10272e+09,-1.09973e+09,1.18526e+06,-0.0413807,0.664972,-0,0.666258,-1997.54,-40000,-0,40049.8,1.18526e+06
step02_gravity_refstate-crust.xmf,1087,1.19158e-06,-6.41263e-08,0,-4.92621e-06,-5.43613e+08,-5.43699e+08,-5.43695e+08,-337938,0.033124,0.309293,0,0.311062,11066.6,-19795.5,0,22678.9,337938
step02_gravity_refstate-crust.xmf,1088,2.8408e-06,-2.31737e-06,0,-5.30828e-06,-6.36876e+08,-6.37229e+08,-6.3707e+08,-364148,0.0331124,0.34253,0,0.344126,7483.92,-23194,0,24371.5,364148
step02_gravity_refstate-crust.xmf,1089,3.35673e-06,-3.14477e-06,0,-5.68507e-06,-6.74113e+08,-6.74559e+08,-6.74344e+08,-389996,0.034119,0.352139,0,0.353788,6798.22,-24550.5,0,25474.3,389996
step02_gravity_refstate-crust.xmf,1090,5.74355e-06,-6.63276e-06,0,-5.53095e-06,-7.50614e+08,-7.51463e+08,-7.51008e+08,-379423,0.029722,0.387632,0,0.38877,4284.89,-27339.8,0,27673.6,379423
step02_gravity_refstate-crust.xmf,1091,6.6479e-06,-8.00572e-06,0,-5.41246e-06,-7.75771e+08,-7.76776e+08,-7.76227e+08,-371295,0.0278413,0.399934,0,0.400902,3623.23,-28257.2,0,28488.5,371295
step02_gravity_refstate-crust.xmf,1092,7.72741e-06,-9.69127e-06,0,-5.1792e-06,-8.02817e+08,-8.04012e+08,-8.03348e+08,-355293,0.0253281,0.414126,0,0.414899,2950.85,-29243.6,0,29392.1,355293
step02_gravity_refstate-crust.xmf,1093,9.14956e-06,-1.20128e-05,0,-5.54025e-06,-8.43739e+08,-8.45191e+08,-8.44367e+08,-380061,0.0251265,0.43381,0,0.434537,2512.57,-30735.6,0,30838.1,380061
step02_gravity_refstate-crust.xmf,1094,1.01776e-05,-1.36565e-05,0,-5.20298e-06,-8.63e+08,-8.64635e+08,-8.63698e+08,-356925,0.02258,0.446431,0,0.447002,2079.24,-31438.4,0,31507.1,356925
step02_gravity_refstate-crust.xmf,1095,1.13544e-05,-1.55507e-05,0,-4.58742e-06,-8.8242e+08,-8.84266e+08,-8.83199e+08,-314697,0.0190266,0.460351,0,0.460744,1609.25,-32147.2,0,32187.5,314697
step02_gravity_refstate-crust.xmf,1096,1.24407e-05,-1.7343e-05,0,-3.98735e-06,-9.00651e+08,-9.02694e+08,-9.01505e+08,-273532,0.0157465,0.473828,0,0.47409,1230.99,-32812.6,0,32835.7,273532
step02_gravity_refstate-crust.xmf,1097,1.39202e-05,-2.03494e-05,0,-6.40368e-06,-9.38495e+08,-9.40845e+08,-9.3945e+08,-439292,0.023195,0.496911,0,0.497452,1581.28,-34191.6,0,34228.2,439292
step02_gravity_refstate-crust.xmf,1098,-1.12078e-06,2.3673e-06,0,-2.85151e-06,-3.81495e+08,-3.81255e+08,-3.81418e+08,-195613,0.0236928,0.221162,0,0.222428,24716.7,-13887.8,0,28351.1,195613
step02_gravity_refstate-crust.xmf,1099,2.06599e-07,1.11659e-06,0,-4.06275e-06,-4.26289e+08,-4.26226e+08,-4.26303e+08,-278704,0.029788,0.279327,0,0.280911,15381.3,-15522,0,21852.1,278704
step02_gravity_refstate-crust.xmf,1100,4.74698e-07,8.54755e-07,0,-4.75276e-06,-5.10888e+08,-5.10862e+08,-5.10921e+08,-326039,0.0330885,0.290684,0,0.292561,13454.7,-18602.6,0,22958.4,326039
step02_gravity_refstate-crust.xmf,1101,3.15937e-07,1.02054e-06,0,-4.43259e-06,-4.71642e+08,-4.71594e+08,-4.71664e+08,-304076,0.0314432,0.284622,0,0.286354,14414.8,-17173.5,0,22421.3,304076
step02_gravity_refstate-crust.xmf,1102,-1.74333e-06,2.44684e-06,0,-7.37612e-07,-3.25033e+08,-3.24746e+08,-3.24914e+08,-50600.2,0.00722286,0.184874,0,0.185015,35927,-11829.9,0,37824.5,50600.2
step02_gravity_refstate-crust.xmf,1103,2.20641e-05,-4.27061e-05,0,8.03541e-06,-1.07302e+09,-1.07747e+09,-1.07454e+09,551229,-0.0213662,0.653621,-0,0.65397,-960.103,-39087.6,-0,39099.4,551229
step02_gravity_refstate-crust.xmf,1104,1.58206e-05,-2.41172e-05,0,-7.31876e-06,-9.69526e+08,-9.72266e+08,-9.70612e+08,-502067,0.0243407,0.523237,0,0.523803,1463.27,-35323.2,0,35353.5,502067
step02_gravity_refstate-crust.xmf,1105,1.7447e-05,-2.71325e-05,0,-6.16322e-06,-9.85917e+08,-9.88976e+08,-9.87114e+08,-422797,0.019595,0.542656,0,0.543009,1092.31,-35921.9,0,35938.5,422797
step02_gravity_refstate-crust.xmf,1106,1.90285e-05,-3.03121e-05,0,-4.53924e-06,-1.0022e+09,-1.00559e+09,-1.00351e+09,-311392,0.0138331,0.563059,0,0.563229,719.184,-36516.3,0,36523.3,311392
step02_gravity_refstate-crust.xmf,1107,2.11569e-05,-3.5976e-05,0,-4.54946e-06,-1.0336e+09,-1.03752e+09,-1.03505e+09,-312093,0.0129276,0.601717,0,0.601856,606.994,-37659.1,0,37664,312093
step02_gravity_refstate-crust.xmf,1108,2.2046e-05,-3.90209e-05,0,-2.15052e-06,-1.04776e+09,-1.05195e+09,-1.04927e+09,-147526,0.00594744,0.62307,0,0.623098,269.855,-38173.5,0,38174.5,147526
step02_gravity_refstate-crust.xmf,1109,1.44296e-06,-4.12931e-07,0,-5.18753e-06,-5.74996e+08,-5.75123e+08,-5.75095e+08,-355865,0.0343164,0.315516,0,0.317377,10337.6,-20938.5,0,23351.4,355865
step02_gravity_refstate-crust.xmf,1110,1.75464e-06,-8.63055e-07,0,-5.45814e-06,-6.05976e+08,-6.06155e+08,-6.06096e+08,-374429,0.0354094,0.322724,0,0.324661,9576.64,-22066.9,0,24055.4,374429
step02_gravity_refstate-crust.xmf,1111,2.10702e-06,-1.39037e-06,0,-5.77277e-06,-6.38218e+08,-6.38458e+08,-6.38363e+08,-396012,0.0366053,0.330508,0,0.332528,8853.32,-23241.3,0,24870.5,396012
step02_gravity_refstate-crust.xmf,1112,8.31632e-06,-1.07054e-05,0,-5.73322e-06,-8.26576e+08,-8.2788e+08,-8.27146e+08,-393299,0.0269343,0.423365,0,0.424221,2895.35,-30109.4,0,30248.3,393299
step02_gravity_refstate-crust.xmf,1113,1.4489e-05,-2.16979e-05,0,-7.76925e-06,-9.54513e+08,-9.56996e+08,-9.55507e+08,-532970,0.0270898,0.507259,0,0.507982,1745.7,-34775,0,34818.8,532970
step02_gravity_refstate-crust.xmf,1114,1.26541e-05,-1.82523e-05,0,-7.40651e-06,-9.26311e+08,-9.28431e+08,-9.27179e+08,-508087,0.027784,0.483485,0,0.484282,2018.2,-33746.2,0,33806.5,508087
step02_gravity_refstate-crust.xmf,1115,1.17567e-05,-1.66563e-05,0,-6.68661e-06,-9.06097e+08,-9.08046e+08,-9.06903e+08,-458701,0.0263947,0.470045,0,0.470785,2074.28,-33009.1,0,33074.2,458701
step02_gravity_refstate-crust.xmf,1116,4.1092e-06,-4.34749e-06,0,-6.40644e-06,-7.28112e+08,-7.28692e+08,-7.28394e+08,-439482,0.0364837,0.36606,0,0.367873,6096.08,-26517.5,0,27209.2,439482
step02_gravity_refstate-crust.xmf,1117,4.83217e-06,-5.45293e-06,0,-6.54487e-06,-7.52678e+08,-7.53384e+08,-7.5301e+08,-448978,0.0358709,0.37739,0,0.379091,5411.63,-27413.1,0,27942.2,448978
step02_gravity_refstate-crust.xmf,1118,3.52566e-06,-3.46764e-06,0,-6.27964e-06,-7.06352e+08,-7.06832e+08,-7.06594e+08,-430783,0.0368683,0.356459,0,0.358361,6748.15,-25724.3,0,26594.7,430783
step02_gravity_refstate-crust.xmf,1119,-1.3174e-06,2.56542e-06,0,-2.48676e-06,-3.84865e+08,-3.84599e+08,-3.84775e+08,-170592,0.0209702,0.209176,0,0.210225,26940.2,-14010.1,0,30365.4,170592
step02_gravity_refstate-crust.xmf,1120,-1.46695e-06,2.72442e-06,0,-2.09042e-06,-3.89472e+08,-3.89185e+08,-3.89371e+08,-143403,0.0178328,0.198504,0,0.199303,29179.7,-14177.4,0,32441.6,143403
step02_gravity_refstate-crust.xmf,1121,-2.07378e-07,1.56451e-06,0,-4.00113e-06,-4.26706e+08,-4.26585e+08,-4.26692e+08,-274477,0.0297933,0.265398,0,0.267065,17331.6,-15536.2,0,23275.7,274477
step02_gravity_refstate-crust.xmf,1122,-5.61199e-07,1.99974e-06,0,-3.8194e-06,-4.29279e+08,-4.29103e+08,-4.2924e+08,-262011,0.0290771,0.251021,0,0.252699,19352.5,-15629.1,0,24875.5,262011
step02_gravity_refstate-crust.xmf,1123,-1.12088e-06,2.62836e-06,0,-3.21469e-06,-4.30396e+08,-4.30139e+08,-4.30319e+08,-220528,0.025428,0.223317,0,0.22476,23579.7,-15668.5,0,28310.9,220528
step02_gravity_refstate-crust.xmf,1124,-8.73123e-07,2.35566e-06,0,-3.55889e-06,-4.30895e+08,-4.30673e+08,-4.30835e+08,-244140,0.0276085,0.236909,0,0.238512,21421.5,-15687.3,0,26551.3,244140
step02_gravity_refstate-crust.xmf,1125,6.95642e-07,6.02852e-07,0,-5.02409e-06,-5.4417e+08,-5.44176e+08,-5.44218e+08,-344653,0.0345228,0.297399,0,0.299396,12518.2,-19814.8,0,23437.8,344653
step02_gravity_refstate-crust.xmf,1126,-1.79803e-06,2.40825e-06,0,1.05582e-09,-3.16285e+08,-3.15996e+08,-3.16161e+08,72.4294,2.83363e-19,0.182345,0,0.182345,40000,-11511.1,0,41623.4,72.4294
step02_gravity_refstate-crust.xmf,1127,-1.62722e-06,2.81448e-06,0,-1.37023e-06,-3.84837e+08,-3.84533e+08,-3.84726e+08,-93997.4,0.0119834,0.185759,0,0.186145,32940.5,-14008.2,0,35795.4,93997.4
step02_gravity_refstate-crust.xmf,1128,-1.74375e-06,2.64612e-06,0,-4.36221e-07,-3.52305e+08,-3.52004e+08,-3.52185e+08,-29924.7,0.00405418,0.180099,0,0.180144,37687.2,-12823.1,0,39808.9,29924.7
step02_gravity_refstate-crust.xmf,1129,-1.68949e-06,2.78524e-06,0,-9.01988e-07,-3.7501e+08,-3.74703e+08,-3.74894e+08,-61876.4,0.0080628,0.18118,0,0.181359,35318.2,-13650.1,0,37864.2,61876.4
step02_gravity_refstate-crust.xmf,1130,2.25003e-05,-4.15432e-05,0,4.79392e-07,-1.06064e+09,-1.06503e+09,-1.06219e+09,32886.3,-0.00133259,0.642386,-0,0.642388,-59.4923,-38640.4,-0,38640.5,32886.3
step02_gravity_refstate-crust.xmf,1131,2.23552e-05,-4.36303e-05,0,3.25038e-06,-1.07321e+09,-1.07774e+09,-1.07474e+09,222976,-0.00878721,0.660443,-0,0.660501,-392.66,-39094.2,-0,39096.1,222976
step02_gravity_refstate-crust.xmf,1132,2.15245e-05,-4.42849e-05,0,1.05326e-05,-1.08589e+09,-1.09041e+09,-1.08737e+09,722535,-0.0271455,0.668228,-0,0.668779,-1245.41,-39551.5,-0,39571.1,722535
step02_gravity_refstate-crust.xmf,1133,1.97946e-05,-3.26144e-05,0,-6.8381e-06,-1.019e+09,-1.02259e+09,-1.02035e+09,-469094,0.0199914,0.579646,0,0.579991,987.084,-37127.1,0,37140.3,469094
step02_gravity_refstate-crust.xmf,1134,2.04749e-05,-4.56267e-05,0,1.26875e-05,-1.09839e+09,-1.10292e+09,-1.09979e+09,870362,-0.031328,0.681881,-0,0.682601,-1498.34,-40000,-0,40028.1,870362
step02_gravity_refstate-crust.xmf,1135,8.87416e-07,3.16489e-07,0,-5.32772e-06,-5.74963e+08,-5.75002e+08,-5.75024e+08,-365482,0.0359494,0.303471,0,0.305593,11743.1,-20936.2,0,24004.7,365482
step02_gravity_refstate-crust.xmf,1136,2.5088e-06,-1.95574e-06,0,-6.10386e-06,-6.70514e+08,-6.70821e+08,-6.70686e+08,-418725,0.037884,0.338688,0,0.340801,8195.72,-24417.9,0,25756.6,418725
step02_gravity_refstate-crust.xmf,1137,5.65011e-06,-6.71343e-06,0,-6.64808e-06,-7.7699e+08,-7.77838e+08,-7.77377e+08,-456058,0.0349235,0.389522,0,0.391085,4756.9,-28299.6,0,28696.6,456058
step02_gravity_refstate-crust.xmf,1138,6.56972e-06,-8.15162e-06,0,-6.70116e-06,-8.0116e+08,-8.0217e+08,-8.01611e+08,-459700,0.0336237,0.402544,0,0.403946,4133.22,-29181,0,29472.3,459700
step02_gravity_refstate-crust.xmf,1139,7.41164e-06,-9.50477e-06,0,-6.85617e-06,-8.23877e+08,-8.25037e+08,-8.24385e+08,-470333,0.0329011,0.414529,0,0.415833,3688.14,-30009.3,0,30235.1,470333
step02_gravity_refstate-crust.xmf,1140,8.20344e-06,-1.07989e-05,0,-7.0746e-06,-8.44467e+08,-8.45771e+08,-8.4503e+08,-485317,0.0325596,0.425662,0,0.426905,3361.8,-30760.1,0,30943.3,485317
step02_gravity_refstate-crust.xmf,1141,9.1731e-06,-1.23731e-05,0,-7.1253e-06,-8.64398e+08,-8.65876e+08,-8.65028e+08,-488796,0.031326,0.438405,0,0.439523,2970.05,-31487.2,0,31627,488796
step02_gravity_refstate-crust.xmf,1142,1.03373e-05,-1.42719e-05,0,-6.9958e-06,-8.84335e+08,-8.86023e+08,-8.85044e+08,-479912,0.029251,0.452853,0,0.453796,2537.07,-32214.8,0,32314.6,479912
step02_gravity_refstate-crust.xmf,1143,1.28653e-05,-1.9197e-05,0,-9.35076e-06,-9.44692e+08,-9.46892e+08,-9.45575e+08,-641462,0.0337917,0.491914,0,0.493073,2320.95,-34414.8,0,34493,641462
step02_gravity_refstate-crust.xmf,1144,2.7969e-06,-2.49479e-06,0,-6.58563e-06,-7.01749e+08,-7.02112e+08,-7.01941e+08,-451774,0.0395893,0.345724,0,0.347983,7748.94,-25555.3,0,26704.3,451774
step02_gravity_refstate-crust.xmf,1145,-1.56278e-06,2.85019e-06,0,-1.74644e-06,-3.96478e+08,-3.96176e+08,-3.96371e+08,-119806,0.0149658,0.190526,0,0.191113,31058.9,-14432.3,0,34248.3,119806
step02_gravity_refstate-crust.xmf,1146,-1.31463e-06,2.84997e-06,0,-2.8375e-06,-4.32439e+08,-4.32153e+08,-4.32349e+08,-194652,0.0228157,0.210764,0,0.211996,25728.1,-15742.5,0,30162.2,194652
step02_gravity_refstate-crust.xmf,1147,-1.24061e-07,1.58807e-06,0,-4.35264e-06,-4.72006e+08,-4.71889e+08,-4.71998e+08,-298591,0.0316312,0.270317,0,0.272161,16303.7,-17185.8,0,23688.9,298591
step02_gravity_refstate-crust.xmf,1148,2.55936e-07,1.17716e-06,0,-5.03985e-06,-5.45293e+08,-5.4523e+08,-5.45311e+08,-345734,0.0352237,0.286069,0,0.28823,13862.4,-19854.8,0,24215.3,345734
step02_gravity_refstate-crust.xmf,1149,-2.03315e-08,1.52074e-06,0,-4.78542e-06,-5.20448e+08,-5.20342e+08,-5.20447e+08,-328280,0.0339919,0.276414,0,0.278496,15174.7,-18949.7,0,24276.8,328280
step02_gravity_refstate-crust.xmf,1150,2.19244e-05,-4.54418e-05,0,5.98108e-06,-1.08598e+09,-1.0906e+09,-1.08748e+09,410302,-0.0156948,0.677774,-0,0.677956,-715.846,-39554.4,-0,39560.9,410302
step02_gravity_refstate-crust.xmf,1151,1.4116e-05,-2.16148e-05,0,-1.04307e-05,-9.67316e+08,-9.69767e+08,-9.68284e+08,-715546,0.035447,0.510211,0,0.511441,2223.61,-35239.7,0,35309.8,715546
step02_gravity_refstate-crust.xmf,1152,1.61057e-05,-2.52665e-05,0,-9.81079e-06,-9.86255e+08,-9.89093e+08,-9.8736e+08,-673021,0.0313768,0.533577,0,0.534499,1792.82,-35931.6,0,35976.3,673021
step02_gravity_refstate-crust.xmf,1153,1.80326e-05,-2.89216e-05,0,-8.67495e-06,-1.00317e+09,-1.00639e+09,-1.00441e+09,-595101,0.0263919,0.556486,0,0.557111,1393.17,-36549.6,0,36576.2,595101
step02_gravity_refstate-crust.xmf,1154,2.04713e-05,-3.50095e-05,0,-8.83178e-06,-1.03545e+09,-1.03926e+09,-1.03685e+09,-605860,0.0248486,0.597236,0,0.597753,1175.76,-37725.2,0,37743.5,605860
step02_gravity_refstate-crust.xmf,1155,2.16158e-05,-3.83606e-05,0,-6.79298e-06,-1.04873e+09,-1.05284e+09,-1.05021e+09,-465998,0.0187195,0.619543,0,0.619825,853.98,-38208,0,38217.5,465998
step02_gravity_refstate-crust.xmf,1156,2.22735e-05,-4.13394e-05,0,-4.42187e-06,-1.06154e+09,-1.0659e+09,-1.06307e+09,-303341,0.0119807,0.641447,0,0.641559,535.935,-38672.6,0,38676.3,303341
step02_gravity_refstate-crust.xmf,1157,2.2509e-05,-4.37499e-05,0,-1.8407e-06,-1.07317e+09,-1.07772e+09,-1.07472e+09,-126272,0.00484931,0.66132,0,0.661338,216.504,-39093.3,0,39093.9,126272
step02_gravity_refstate-crust.xmf,1158,1.11184e-06,-1.04414e-08,0,-5.66573e-06,-6.07758e+08,-6.07835e+08,-6.07834e+08,-388669,0.0375734,0.309989,0,0.312258,10992.8,-22130.5,0,24710.3,388669
step02_gravity_refstate-crust.xmf,1159,1.37938e-06,-4.18378e-07,0,-6.03755e-06,-6.40372e+08,-6.40495e+08,-6.40466e+08,-414176,0.0392119,0.317291,0,0.319705,10247.5,-23318.3,0,25470.7,414176
step02_gravity_refstate-crust.xmf,1160,1.71183e-06,-9.39754e-07,0,-6.43822e-06,-6.72315e+08,-6.72497e+08,-6.72432e+08,-441662,0.0407535,0.325729,0,0.328268,9485.95,-24481.8,0,26255.3,441662
step02_gravity_refstate-crust.xmf,1161,1.13247e-05,-1.63933e-05,0,-9.48161e-06,-9.25652e+08,-9.27553e+08,-9.26429e+08,-650439,0.0362364,0.47337,0,0.474755,2729.88,-33719.7,0,33830,650439
step02_gravity_refstate-crust.xmf,1162,3.25929e-06,-3.23223e-06,0,-6.973e-06,-7.29743e+08,-7.30188e+08,-7.29966e+08,-478348,0.0405823,0.354903,0,0.357215,7165.84,-26575.2,0,27524.4,478348
step02_gravity_refstate-crust.xmf,1163,3.87579e-06,-4.19827e-06,0,-7.28109e-06,-7.54761e+08,-7.55315e+08,-7.55027e+08,-499482,0.0408076,0.365838,0,0.368107,6497.1,-27487,0,28244.4,499482
step02_gravity_refstate-crust.xmf,1164,4.55808e-06,-5.27686e-06,0,-7.58386e-06,-7.789e+08,-7.79575e+08,-7.79213e+08,-520253,0.0408183,0.377339,0,0.37954,5872.58,-28366.9,0,28968.4,520253
step02_gravity_refstate-crust.xmf,1165,3.57875e-07,1.05634e-06,0,-5.3408e-06,-5.75899e+08,-5.75852e+08,-5.75924e+08,-366379,0.0369259,0.290337,0,0.292676,13227.5,-20969.3,0,24792.7,366379
step02_gravity_refstate-crust.xmf,1166,-1.45917e-06,3.02274e-06,0,-2.43099e-06,-4.35629e+08,-4.35321e+08,-4.35529e+08,-166766,0.0198195,0.199423,0,0.200406,27891,-15858.3,0,32084.2,166766
step02_gravity_refstate-crust.xmf,1167,-1.55918e-06,3.14631e-06,0,-2.01523e-06,-4.38809e+08,-4.38486e+08,-4.38702e+08,-138245,0.0166153,0.189832,0,0.190558,30011.9,-15973.8,0,33998.2,138245
step02_gravity_refstate-crust.xmf,1168,-1.62335e-06,3.19792e-06,0,-1.58435e-06,-4.37264e+08,-4.36933e+08,-4.37153e+08,-108686,0.0132079,0.182394,0,0.182872,32146.1,-15917.4,0,35871.1,108686
step02_gravity_refstate-crust.xmf,1169,-5.45012e-07,2.08367e-06,0,-4.20335e-06,-4.74218e+08,-4.74038e+08,-4.74181e+08,-288350,0.0310437,0.255255,0,0.257136,18293,-17265.4,0,25154.1,288350
step02_gravity_refstate-crust.xmf,1170,-1.34956e-06,3.14121e-06,0,-3.16169e-06,-4.79072e+08,-4.78764e+08,-4.78979e+08,-216892,0.0248159,0.211902,0,0.21335,24632.4,-17440.5,0,30181.5,216892
step02_gravity_refstate-crust.xmf,1171,-9.16561e-07,2.59767e-06,0,-3.95908e-06,-4.84566e+08,-4.84325e+08,-4.84503e+08,-271593,0.029834,0.23908,0,0.240934,20395.2,-17641.4,0,26966.4,271593
step02_gravity_refstate-crust.xmf,1172,-1.15324e-06,2.88175e-06,0,-3.55988e-06,-4.77313e+08,-4.77037e+08,-4.77234e+08,-244208,0.027441,0.225266,0,0.226931,22522.8,-17376.9,0,28447,244208
step02_gravity_refstate-crust.xmf,1173,-1.72669e-06,2.91538e-06,0,1.08609e-09,-3.89247e+08,-3.88928e+08,-3.89128e+08,74.506,3.23791e-19,0.175274,0,0.175274,40000,-14168.4,0,42435.2,74.506
step02_gravity_refstate-crust.xmf,1174,-1.66757e-06,3.19837e-06,0,-1.09964e-06,-4.31807e+08,-4.31474e+08,-4.31693e+08,-75435,0.00927529,0.176606,0,0.176849,34532,-15718.6,0,37941.2,75435
step02_gravity_refstate-crust.xmf,1175,-1.69682e-06,3.19481e-06,0,-5.45927e-07,-4.28059e+08,-4.27724e+08,-4.27943e+08,-37450.6,0.00464731,0.172464,0,0.172527,37277.4,-15582,0,40403,37450.6
step02_gravity_refstate-crust.xmf,1176,2.1992e-05,-4.59381e-05,0,1.47211e-06,-1.08605e+09,-1.09071e+09,-1.08755e+09,100987,-0.00395357,0.682205,-0,0.682216,-179.839,-39556.4,-0,39556.8,100987
step02_gravity_refstate-crust.xmf,1177,2.08656e-05,-4.69225e-05,0,8.33719e-06,-1.0984e+09,-1.10305e+09,-1.09983e+09,571931,-0.0210166,0.693817,-0,0.694135,-999.46,-40000,-0,40012.5,571931
step02_gravity_refstate-crust.xmf,1178,1.85362e-05,-3.10142e-05,0,-1.16215e-05,-1.02245e+09,-1.02585e+09,-1.02373e+09,-797233,0.0336404,0.572357,0,0.573345,1683.81,-37250.4,0,37288.5,797233
step02_gravity_refstate-crust.xmf,1179,2.21001e-05,-4.37373e-05,0,-6.7062e-06,-1.07658e+09,-1.0811e+09,-1.0781e+09,-460045,0.0177903,0.661572,0,0.661812,799.887,-39215.8,0,39224,460045
step02_gravity_refstate-crust.xmf,1180,5.03817e-07,8.14515e-07,0,-5.71549e-06,-6.08687e+08,-6.08666e+08,-6.08721e+08,-392083,0.0388118,0.2964,0,0.298931,12443.5,-22163.2,0,25417.4,392083
step02_gravity_refstate-crust.xmf,1181,1.98813e-06,-1.36067e-06,0,-6.87255e-06,-7.03181e+08,-7.03411e+08,-7.03318e+08,-471457,0.0425679,0.332877,0,0.335588,8940.91,-25606,0,27122,471457
step02_gravity_refstate-crust.xmf,1182,5.33911e-06,-6.51034e-06,0,-7.82647e-06,-8.01336e+08,-8.02148e+08,-8.01702e+08,-536896,0.0403539,0.389595,0,0.391679,5260.92,-29184.9,0,29655.3,536896
step02_gravity_refstate-crust.xmf,1183,6.17248e-06,-7.84018e-06,0,-8.04941e-06,-8.22748e+08,-8.2371e+08,-8.23172e+08,-552190,0.0397056,0.402094,0,0.40405,4709.28,-29965.8,0,30333.6,552190
step02_gravity_refstate-crust.xmf,1184,6.99247e-06,-9.1885e-06,0,-8.3598e-06,-8.44044e+08,-8.45154e+08,-8.44524e+08,-573482,0.0394064,0.414365,0,0.416235,4270.17,-30742.3,0,31037.5,573482
step02_gravity_refstate-crust.xmf,1185,7.88432e-06,-1.06731e-05,0,-8.68088e-06,-8.64763e+08,-8.66036e+08,-8.65304e+08,-595508,0.0390124,0.427261,0,0.429038,3867.11,-31497.9,0,31734.4,595508
step02_gravity_refstate-crust.xmf,1186,8.95815e-06,-1.24577e-05,0,-8.90732e-06,-8.85138e+08,-8.86608e+08,-8.85753e+08,-611042,0.0380197,0.441804,0,0.443437,3437.04,-32241.3,0,32424,611042
step02_gravity_refstate-crust.xmf,1187,1.01489e-05,-1.44764e-05,0,-9.11734e-06,-9.05533e+08,-9.07222e+08,-9.06229e+08,-625450,0.0368648,0.457497,0,0.45898,3036.59,-32985.5,0,33124.9,625450
step02_gravity_refstate-crust.xmf,1188,1.2254e-05,-1.85917e-05,0,-1.16195e-05,-9.56852e+08,-9.58968e+08,-9.57692e+08,-797097,0.0410858,0.492665,0,0.494375,2766.66,-34855.9,0,34965.6,797097
step02_gravity_refstate-crust.xmf,1189,1.09106e-05,-1.64727e-05,0,-1.16745e-05,-9.43368e+08,-9.45247e+08,-9.44117e+08,-800870,0.0433037,0.476987,0,0.478949,3137.04,-34362.9,0,34505.8,800870
step02_gravity_refstate-crust.xmf,1190,2.37407e-06,-2.03914e-06,0,-7.33408e-06,-7.30633e+08,-7.30936e+08,-7.30796e+08,-503118,0.0438217,0.342097,0,0.344892,8285.11,-26605.9,0,27866,503118
step02_gravity_refstate-crust.xmf,1191,-1.54475e-07,1.72762e-06,0,-5.21264e-06,-5.7159e+08,-5.71461e+08,-5.71579e+08,-357587,0.0368128,0.275802,0,0.278248,14888.9,-20811.3,0,25588.9,357587
step02_gravity_refstate-crust.xmf,1192,-1.4877e-06,3.33289e-06,0,-2.75089e-06,-4.81669e+08,-4.81339e+08,-4.81567e+08,-188711,0.0219122,0.200085,0,0.201281,26690.4,-17534.8,0,31935,188711
step02_gravity_refstate-crust.xmf,1193,-4.69895e-07,2.10378e-06,0,-4.5482e-06,-5.13821e+08,-5.13644e+08,-5.13788e+08,-312007,0.0331608,0.260661,0,0.262762,17190.4,-18707.5,0,25406.3,312007
step02_gravity_refstate-crust.xmf,1194,2.10665e-05,-4.76534e-05,0,4.14837e-06,-1.09841e+09,-1.10312e+09,-1.09985e+09,284578,-0.0105473,0.700933,-0,0.701013,-500.036,-40000,-0,40003.1,284578
step02_gravity_refstate-crust.xmf,1195,2.20157e-05,-4.5983e-05,0,-2.61741e-06,-1.08675e+09,-1.09142e+09,-1.08826e+09,-179554,0.00687302,0.68279,0,0.682825,313.364,-39582.1,0,39583.4,179554
step02_gravity_refstate-crust.xmf,1196,1.41854e-05,-2.26049e-05,0,-1.30939e-05,-9.87355e+08,-9.89879e+08,-9.88328e+08,-898239,0.0422775,0.520817,0,0.52253,2503.86,-35968,0,36055.1,898239
step02_gravity_refstate-crust.xmf,1197,1.62741e-05,-2.64744e-05,0,-1.26831e-05,-1.00444e+09,-1.00737e+09,-1.00556e+09,-870062,0.0386265,0.544861,0,0.546229,2098.49,-36592.5,0,36652.6,870062
step02_gravity_refstate-crust.xmf,1198,1.94809e-05,-3.36589e-05,0,-1.24174e-05,-1.03813e+09,-1.04177e+09,-1.03946e+09,-851832,0.0346669,0.591299,0,0.592315,1657.42,-37820.8,0,37857.1,851832
step02_gravity_refstate-crust.xmf,1199,2.07373e-05,-3.69661e-05,0,-1.12634e-05,-1.05007e+09,-1.05403e+09,-1.0515e+09,-772669,0.0306352,0.611923,0,0.612689,1414.15,-38255.7,0,38281.8,772669
step02_gravity_refstate-crust.xmf,1200,2.16841e-05,-4.02983e-05,0,-9.30678e-06,-1.06254e+09,-1.06679e+09,-1.06402e+09,-638445,0.0249679,0.635013,0,0.635504,1126.28,-38708,0,38724.4,638445
step02_gravity_refstate-crust.xmf,1201,6.93913e-07,5.20133e-07,0,-6.11634e-06,-6.4158e+08,-6.41592e+08,-6.41628e+08,-419581,0.0407702,0.303225,0,0.305954,11659.7,-23361,0,26109.1,419581
step02_gravity_refstate-crust.xmf,1202,9.33008e-07,1.32172e-07,0,-6.55643e-06,-6.73713e+08,-6.73767e+08,-6.73777e+08,-449771,0.042697,0.311091,0,0.314008,10865.8,-24531.2,0,26829.9,449771
step02_gravity_refstate-crust.xmf,1203,1.1973e-06,-3.13872e-07,0,-7.02877e-06,-7.04268e+08,-7.04372e+08,-7.0435e+08,-482174,0.0445549,0.319358,0,0.322451,10131.4,-25643.9,0,27572.8,482174
step02_gravity_refstate-crust.xmf,1204,1.21388e-05,-1.89787e-05,0,-1.35015e-05,-9.72347e+08,-9.74482e+08,-9.7318e+08,-926206,0.0461137,0.498883,0,0.501009,2979.72,-35419,0,35544.1,926206
step02_gravity_refstate-crust.xmf,1205,9.59519e-06,-1.40333e-05,0,-1.13559e-05,-9.25715e+08,-9.27336e+08,-9.26373e+08,-779013,0.0445314,0.459961,0,0.462112,3522.75,-33718.7,0,33902.2,779013
step02_gravity_refstate-crust.xmf,1206,2.85444e-06,-2.83149e-06,0,-7.78953e-06,-7.57067e+08,-7.57457e+08,-7.57262e+08,-534362,0.0448603,0.352405,0,0.355249,7629.55,-27568.9,0,28605.2,534362
step02_gravity_refstate-crust.xmf,1207,3.42562e-06,-3.77572e-06,0,-8.2678e-06,-7.82682e+08,-7.83176e+08,-7.82917e+08,-567171,0.0456698,0.363823,0,0.366678,6982.14,-28502.3,0,29345.1,567171
step02_gravity_refstate-crust.xmf,1208,4.08778e-06,-4.84062e-06,0,-8.6869e-06,-8.05439e+08,-8.06051e+08,-8.05719e+08,-595921,0.0460054,0.375893,0,0.378698,6357.28,-29331.8,0,30012.9,595921
step02_gravity_refstate-crust.xmf,1209,-3.50625e-08,1.59855e-06,0,-5.61129e-06,-6.09122e+08,-6.0901e+08,-6.0912e+08,-384934,0.0391804,0.282124,0,0.284831,13947.1,-22178,0,26199,384934
step02_gravity_refstate-crust.xmf,1210,-1.58453e-06,3.48575e-06,0,-2.31291e-06,-4.85897e+08,-4.85549e+08,-4.85788e+08,-158666,0.0186604,0.189196,0,0.190114,28818.2,-17688.6,0,33813.8,158666
step02_gravity_refstate-crust.xmf,1211,-1.64243e-06,3.57792e-06,0,-1.86115e-06,-4.88113e+08,-4.87755e+08,-4.88e+08,-127675,0.0151751,0.180109,0,0.180748,30977.6,-17769.1,0,35712.1,127675
step02_gravity_refstate-crust.xmf,1212,-1.67357e-06,3.61871e-06,0,-1.39098e-06,-4.87767e+08,-4.87404e+08,-4.87652e+08,-95421.5,0.011441,0.172918,0,0.173296,33227.2,-17756.5,0,37674.1,95421.5
step02_gravity_refstate-crust.xmf,1213,-8.43147e-07,2.59468e-06,0,-4.33788e-06,-5.19669e+08,-5.19433e+08,-5.19611e+08,-297579,0.0322035,0.246117,0,0.248215,18991,-18919.7,0,26806.9,297579
step02_gravity_refstate-crust.xmf,1214,-4.62328e-07,2.15085e-06,0,-4.89659e-06,-5.52148e+08,-5.51969e+08,-5.52116e+08,-335906,0.0353021,0.264114,0,0.266463,16404,-20103,0,25946.5,335906
step02_gravity_refstate-crust.xmf,1215,-1.54848e-06,3.65348e-06,0,-3.03979e-06,-5.27107e+08,-5.2675e+08,-5.27e+08,-208530,0.0240278,0.200243,0,0.20168,25611.3,-19189.2,0,32002.6,208530
step02_gravity_refstate-crust.xmf,1216,-1.42106e-06,3.44982e-06,0,-3.46007e-06,-5.25626e+08,-5.25292e+08,-5.25528e+08,-237361,0.0269203,0.212346,0,0.214046,23656.4,-19135.5,0,30426.9,237361
step02_gravity_refstate-crust.xmf,1217,-1.2546e-06,3.20905e-06,0,-3.84811e-06,-5.26936e+08,-5.26629e+08,-5.2685e+08,-263980,0.0294362,0.224633,0,0.226553,21804.9,-19183.5,0,29042.4,263980
step02_gravity_refstate-crust.xmf,1218,-1.70045e-06,3.44252e-06,0,-2.41287e-10,-4.60181e+08,-4.59828e+08,-4.60064e+08,-16.5523,2.5488e-19,0.167061,0,0.167061,40000,-16751.8,0,43366.1,16.5523
step02_gravity_refstate-crust.xmf,1219,-1.68838e-06,3.6421e-06,0,-9.12694e-07,-4.87857e+08,-4.87492e+08,-4.87741e+08,-62610.8,0.00755495,0.167585,0,0.167755,35538,-17759.7,0,39728.6,62610.8
step02_gravity_refstate-crust.xmf,1220,2.11277e-05,-4.78962e-05,0,3.72393e-08,-1.09841e+09,-1.10314e+09,-1.09986e+09,2554.62,-3.8067e-07,0.703299,-0,0.703299,-4.01542e-10,-40000,-0,40000,2554.62
step02_gravity_refstate-crust.xmf,1221,2.16068e-05,-4.59051e-05,0,-6.41088e-06,-1.08941e+09,-1.09404e+09,-1.09089e+09,-439787,0.016636,0.68271,0,0.682913,765.553,-39677.3,0,39684.6,439787
step02_gravity_refstate-crust.xmf,1222,1.79944e-05,-3.09345e-05,0,-1.4781e-05,-1.03391e+09,-1.03726e+09,-1.03514e+09,-1.01398e+06,0.0415972,0.576648,0,0.578147,2050.29,-37665.3,0,37721.1,1.01398e+06
step02_gravity_refstate-crust.xmf,1223,2.13762e-05,-4.17453e-05,0,-1.20732e-05,-1.07528e+09,-1.07961e+09,-1.07675e+09,-828220,0.031445,0.647476,0,0.648239,1427.14,-39168.7,0,39194.7,828220
step02_gravity_refstate-crust.xmf,1224,6.69944e-08,1.40065e-06,0,-6.04063e-06,-6.42376e+08,-6.42284e+08,-6.4238e+08,-414387,0.0413818,0.288428,0,0.291381,13117.4,-23388.8,0,26816,414387
step02_gravity_refstate-crust.xmf,1225,1.50679e-06,-7.9845e-07,0,-7.49526e-06,-7.32634e+08,-7.32793e+08,-7.32738e+08,-514175,0.0462781,0.327984,0,0.331233,9456.07,-26677.2,0,28303.5,514175
step02_gravity_refstate-crust.xmf,1226,1.02274e-05,-1.58218e-05,0,-1.36883e-05,-9.58267e+08,-9.60054e+08,-9.58968e+08,-939017,0.0495244,0.478224,0,0.480781,3497.73,-34903.5,0,35078.4,939017
step02_gravity_refstate-crust.xmf,1227,4.87419e-06,-6.07895e-06,0,-8.96081e-06,-8.2414e+08,-8.24891e+08,-8.24474e+08,-614712,0.0455242,0.388462,0,0.391121,5732.89,-30013.9,0,30556.5,614712
step02_gravity_refstate-crust.xmf,1228,5.64697e-06,-7.3662e-06,0,-9.33548e-06,-8.43977e+08,-8.4487e+08,-8.44365e+08,-640414,0.0453489,0.400938,0,0.403494,5213.08,-30737.3,0,31176.2,640414
step02_gravity_refstate-crust.xmf,1229,6.41907e-06,-8.69761e-06,0,-9.84727e-06,-8.64694e+08,-8.65731e+08,-8.65134e+08,-675523,0.0455497,0.413573,0,0.416074,4783.84,-31492.5,0,31853.8,675523
step02_gravity_refstate-crust.xmf,1230,7.35031e-06,-1.02978e-05,0,-1.03603e-05,-8.85625e+08,-8.86835e+08,-8.86129e+08,-710718,0.045464,0.427923,0,0.430332,4343.04,-32255.8,0,32546.9,710718
step02_gravity_refstate-crust.xmf,1231,8.42497e-06,-1.215e-05,0,-1.08521e-05,-9.05923e+08,-9.07335e+08,-9.06501e+08,-744457,0.045048,0.443516,0,0.445798,3912.91,-32996.3,0,33227.5,744457
step02_gravity_refstate-crust.xmf,1232,8.78349e-06,-1.35709e-05,0,-1.3499e-05,-9.44693e+08,-9.46226e+08,-9.45295e+08,-926029,0.0514333,0.460967,0,0.463828,3941.79,-34407,0,34632.1,926029
step02_gravity_refstate-crust.xmf,1233,1.85402e-06,-1.45924e-06,0,-8.05066e-06,-7.59432e+08,-7.59659e+08,-7.59559e+08,-552275,0.0477978,0.337795,0,0.34116,8773.01,-27653.1,0,29011.4,552275
step02_gravity_refstate-crust.xmf,1234,-5.24432e-07,2.26777e-06,0,-5.46006e-06,-6.12108e+08,-6.11916e+08,-6.12072e+08,-374560,0.0389379,0.268086,0,0.270899,15412.4,-22285.8,0,27096.1,374560
step02_gravity_refstate-crust.xmf,1235,-1.63418e-06,3.81793e-06,0,-2.59384e-06,-5.30753e+08,-5.30379e+08,-5.3064e+08,-177938,0.0207992,0.188757,0,0.1899,27653.6,-19321.9,0,33735.1,177938
step02_gravity_refstate-crust.xmf,1236,-7.68013e-07,2.55824e-06,0,-4.61928e-06,-5.44434e+08,-5.44206e+08,-5.44381e+08,-316883,0.0339808,0.251785,0,0.254067,17976,-19821.5,0,26758.7,316883
step02_gravity_refstate-crust.xmf,1237,-1.09831e-06,3.00729e-06,0,-4.15899e-06,-5.34053e+08,-5.33771e+08,-5.33977e+08,-285307,0.0313959,0.234618,0,0.236709,20314.7,-19442.9,0,28119.7,285307
step02_gravity_refstate-crust.xmf,1238,-5.79185e-07,2.34609e-06,0,-5.14896e-06,-5.861e+08,-5.85899e+08,-5.8606e+08,-353218,0.037118,0.263152,0,0.265757,16193.8,-21338.8,0,26787.8,353218
step02_gravity_refstate-crust.xmf,1239,-1.69167e-06,3.75317e-06,0,-4.42371e-07,-5.0126e+08,-5.00886e+08,-5.01144e+08,-30346.6,0.00366923,0.162648,0,0.16269,37832.3,-18247.8,0,42003.2,30346.6
step02_gravity_refstate-crust.xmf,1240,2.10643e-05,-4.76636e-05,0,-4.08672e-06,-1.09841e+09,-1.10312e+09,-1.09985e+09,-280349,0.0105474,0.700932,0,0.701012,500.036,-40000,0,40003.1,280349
step02_gravity_refstate-crust.xmf,1241,2.13957e-05,-4.46501e-05,0,-1.01962e-05,-1.08744e+09,-1.09197e+09,-1.08891e+09,-699456,0.0262267,0.671554,0,0.672066,1206.68,-39606.9,0,39625.3,699456
step02_gravity_refstate-crust.xmf,1242,1.18194e-05,-1.93576e-05,0,-1.57209e-05,-9.89171e+08,-9.9131e+08,-9.89982e+08,-1.07845e+06,0.0515682,0.505271,0,0.507896,3197.3,-36029.6,0,36171.2,1.07845e+06
step02_gravity_refstate-crust.xmf,1243,1.37896e-05,-2.29644e-05,0,-1.60048e-05,-1.00516e+09,-1.00768e+09,-1.0061e+09,-1.09793e+06,0.049299,0.52814,0,0.530436,2802.85,-36614,0,36721.1,1.09793e+06
step02_gravity_refstate-crust.xmf,1244,1.6006e-05,-2.73629e-05,0,-1.62567e-05,-1.02378e+09,-1.02675e+09,-1.02488e+09,-1.11521e+06,0.0468836,0.55515,0,0.557126,2440.83,-37294,0,37373.8,1.11521e+06
step02_gravity_refstate-crust.xmf,1245,1.89855e-05,-3.37809e-05,0,-1.57486e-05,-1.04868e+09,-1.0523e+09,-1.04998e+09,-1.08036e+06,0.0424284,0.595044,0,0.596554,2012.95,-38202.7,0,38255.7,1.08036e+06
step02_gravity_refstate-crust.xmf,1246,2.055e-05,-3.81358e-05,0,-1.4209e-05,-1.06304e+09,-1.06707e+09,-1.06445e+09,-974740,0.0373981,0.622273,0,0.623395,1714.31,-38725.3,0,38763.2,974740
step02_gravity_refstate-crust.xmf,1247,2.30379e-07,1.12684e-06,0,-6.49928e-06,-6.74733e+08,-6.74671e+08,-6.74749e+08,-445850,0.0435882,0.295922,0,0.299115,12260.5,-24567,0,27456.5,445850
step02_gravity_refstate-crust.xmf,1248,4.37023e-07,7.64301e-07,0,-6.99439e-06,-7.05596e+08,-7.05574e+08,-7.05626e+08,-479815,0.04572,0.304327,0,0.307742,11419.9,-25690.9,0,28114.7,479815
step02_gravity_refstate-crust.xmf,1249,6.57582e-07,3.53945e-07,0,-7.52915e-06,-7.34979e+08,-7.35e+08,-7.35024e+08,-516500,0.0477771,0.313022,0,0.316647,10653.1,-26760.9,0,28803.3,516500
step02_gravity_refstate-crust.xmf,1250,9.872e-06,-1.59188e-05,0,-1.55924e-05,-9.75558e+08,-9.77327e+08,-9.76235e+08,-1.06964e+06,0.0543351,0.483832,0,0.486873,3678.22,-35531.4,0,35721.3,1.06964e+06
step02_gravity_refstate-crust.xmf,1251,7.60648e-06,-1.13243e-05,0,-1.28006e-05,-9.26594e+08,-9.27892e+08,-9.27116e+08,-878124,0.0518026,0.443857,0,0.44687,4353.27,-33746.8,0,34026.4,878124
step02_gravity_refstate-crust.xmf,1252,3.67323e-06,-4.48467e-06,0,-9.72234e-06,-8.32425e+08,-8.32984e+08,-8.32676e+08,-666952,0.0504769,0.376112,0,0.379484,6647.83,-30313.2,0,31033.6,666952
step02_gravity_refstate-crust.xmf,1253,2.26859e-06,-2.2006e-06,0,-8.64107e-06,-7.86064e+08,-7.86371e+08,-7.8622e+08,-592777,0.0492856,0.348468,0,0.351936,8120.38,-28623.2,0,29752.8,592777
step02_gravity_refstate-crust.xmf,1254,2.74893e-06,-3.08896e-06,0,-9.38627e-06,-8.15026e+08,-8.15426e+08,-8.15214e+08,-643898,0.0509585,0.360858,0,0.364439,7468.26,-29678.2,0,30603.4,643898
step02_gravity_refstate-crust.xmf,1255,-4.72812e-07,2.22408e-06,0,-5.83475e-06,-6.44693e+08,-6.44508e+08,-6.44661e+08,-400264,0.0412124,0.27307,0,0.276162,14622.5,-23472.2,0,27654.3,400264
step02_gravity_refstate-crust.xmf,1256,-1.70309e-06,4.04844e-06,0,-1.19131e-06,-5.40768e+08,-5.40374e+08,-5.40651e+08,-81723.6,0.00982993,0.163065,0,0.163361,34176.1,-19686.6,0,39440.7,81723.6
step02_gravity_refstate-crust.xmf,1257,-1.68454e-06,3.95771e-06,0,-2.13717e-06,-5.37556e+08,-5.37169e+08,-5.37441e+08,-146610,0.0173494,0.178172,0,0.179015,29744.4,-19569.6,0,35604.8,146610
step02_gravity_refstate-crust.xmf,1258,-1.70434e-06,4.03596e-06,0,-1.66025e-06,-5.41567e+08,-5.41173e+08,-5.4145e+08,-113893,0.0136132,0.169305,0,0.169852,31950.7,-19715.6,0,37544,113893
step02_gravity_refstate-crust.xmf,1259,-1.09646e-06,3.08871e-06,0,-4.50336e-06,-5.67838e+08,-5.67551e+08,-5.67763e+08,-308931,0.0337091,0.239237,0,0.241601,19233.7,-20673.1,0,28236.7,308931
step02_gravity_refstate-crust.xmf,1260,-8.53219e-07,2.74826e-06,0,-4.88101e-06,-5.80011e+08,-5.79764e+08,-5.79953e+08,-334838,0.0358478,0.251882,0,0.25442,17551.6,-21116.7,0,27458.6,334838
step02_gravity_refstate-crust.xmf,1261,-1.70496e-06,4.13805e-06,0,-2.87844e-06,-5.73506e+08,-5.73105e+08,-5.73389e+08,-197461,0.023122,0.188977,0,0.190386,26439.6,-20878.6,0,33689.3,197461
step02_gravity_refstate-crust.xmf,1262,-1.63662e-06,3.98335e-06,0,-3.30962e-06,-5.71954e+08,-5.71568e+08,-5.71842e+08,-227040,0.0262004,0.200134,0,0.201842,24592.6,-20822.1,0,32223.5,227040
step02_gravity_refstate-crust.xmf,1263,-1.35457e-06,3.49514e-06,0,-4.12648e-06,-5.70883e+08,-5.70551e+08,-5.7079e+08,-283077,0.0315692,0.224815,0,0.227021,21041.3,-20783.5,0,29575.2,283077
step02_gravity_refstate-crust.xmf,1264,-1.51884e-06,3.76418e-06,0,-3.73626e-06,-5.70683e+08,-5.7032e+08,-5.70578e+08,-256307,0.0290817,0.212417,0,0.214399,22760.3,-20776,0,30816.7,256307
step02_gravity_refstate-crust.xmf,1265,-9.25921e-07,2.87514e-06,0,-5.20051e-06,-6.15143e+08,-6.14882e+08,-6.15079e+08,-356755,0.0379949,0.253836,0,0.256664,16922.3,-22395.6,0,28070,356755
step02_gravity_refstate-crust.xmf,1266,-1.68645e-06,3.96695e-06,0,-7.75809e-10,-5.29273e+08,-5.28885e+08,-5.29158e+08,-53.2205,2.33591e-19,0.15774,0,0.15774,40000,-19268,0,44398.8,53.2205
step02_gravity_refstate-crust.xmf,1267,-1.69362e-06,4.02892e-06,0,-7.7408e-07,-5.37709e+08,-5.37317e+08,-5.37593e+08,-53101.9,0.00640525,0.159497,0,0.159625,36199.5,-19575.2,0,41153.3,53101.9
step02_gravity_refstate-crust.xmf,1268,2.08689e-05,-4.69447e-05,0,-8.2752e-06,-1.0984e+09,-1.10305e+09,-1.09983e+09,-567679,0.0210162,0.693817,0,0.694135,999.46,-40000,0,40012.5,567679
step02_gravity_refstate-crust.xmf,1269,2.07371e-05,-4.27251e-05,0,-1.48488e-05,-1.08693e+09,-1.09129e+09,-1.08835e+09,-1.01862e+06,0.0372934,0.656655,0,0.657713,1730.45,-39588.6,0,39626.4,1.01862e+06
step02_gravity_refstate-crust.xmf,1270,1.68918e-05,-2.96939e-05,0,-1.76733e-05,-1.03958e+09,-1.04278e+09,-1.04074e+09,-1.21239e+06,0.0485228,0.572454,0,0.574507,2407.95,-37869.5,0,37946,1.21239e+06
step02_gravity_refstate-crust.xmf,1271,2.01979e-05,-3.91522e-05,0,-1.69761e-05,-1.07527e+09,-1.07934e+09,-1.07666e+09,-1.16456e+06,0.0430438,0.630989,0,0.632455,1985.21,-39167.5,0,39217.8,1.16456e+06
step02_gravity_refstate-crust.xmf,1272,-4.22116e-07,2.08967e-06,0,-6.26321e-06,-6.74445e+08,-6.74272e+08,-6.74416e+08,-429656,0.043416,0.279063,0,0.28242,13818.9,-24555.4,0,28176.7,429656
step02_gravity_refstate-crust.xmf,1273,9.25185e-07,-9.18329e-08,0,-8.05887e-06,-7.61952e+08,-7.62021e+08,-7.62015e+08,-552838,0.0496697,0.322032,0,0.32584,9952.76,-27743.2,0,29474.5,552838
step02_gravity_refstate-crust.xmf,1274,9.2473e-06,-1.57538e-05,0,-1.74818e-05,-9.90653e+08,-9.92368e+08,-9.91288e+08,-1.19925e+06,0.0588085,0.48735,0,0.490885,3862.12,-36078.7,0,36284.9,1.19925e+06
step02_gravity_refstate-crust.xmf,1275,7.74809e-06,-1.26507e-05,0,-1.55698e-05,-9.63513e+08,-9.64912e+08,-9.64044e+08,-1.06809e+06,0.0576159,0.4613,0,0.464884,4296.94,-35089.4,0,35351.5,1.06809e+06
step02_gravity_refstate-crust.xmf,1276,4.51793e-06,-5.76825e-06,0,-9.90655e-06,-8.45104e+08,-8.4581e+08,-8.45414e+08,-679590,0.0495071,0.388811,0,0.39195,6004.79,-30776.2,0,31356.5,679590
step02_gravity_refstate-crust.xmf,1277,4.89432e-06,-6.59539e-06,0,-1.06177e-05,-8.64679e+08,-8.65467e+08,-8.65015e+08,-728377,0.0508213,0.397984,0,0.401215,5718.97,-31489.1,0,32004.2,728377
step02_gravity_refstate-crust.xmf,1278,5.66539e-06,-7.99383e-06,0,-1.13263e-05,-8.86062e+08,-8.86999e+08,-8.86451e+08,-776983,0.0513922,0.412086,0,0.415278,5245.92,-32268.5,0,32692.2,776983
step02_gravity_refstate-crust.xmf,1279,6.5772e-06,-9.63198e-06,0,-1.20717e-05,-9.06942e+08,-9.08054e+08,-9.07393e+08,-828118,0.0517321,0.427553,0,0.430671,4784.75,-33029.8,0,33374.6,828118
step02_gravity_refstate-crust.xmf,1280,6.59853e-06,-1.05242e-05,0,-1.45649e-05,-9.45318e+08,-9.46492e+08,-9.4577e+08,-999149,0.0575382,0.442887,0,0.446609,4723.43,-34425.6,0,34748.2,999149
step02_gravity_refstate-crust.xmf,1281,1.19123e-06,-6.74107e-07,0,-8.70295e-06,-7.88081e+08,-7.88209e+08,-7.88163e+08,-597023,0.0514871,0.331951,0,0.33592,9271.93,-28694.6,0,30155.5,597023
step02_gravity_refstate-crust.xmf,1282,-9.50957e-07,2.91806e-06,0,-5.56049e-06,-6.47543e+08,-6.47277e+08,-6.47477e+08,-381449,0.0402827,0.257872,0,0.261,16130.7,-23575.1,0,28565.4,381449
step02_gravity_refstate-crust.xmf,1283,-1.74305e-06,4.28447e-06,0,-2.43333e-06,-5.79891e+08,-5.79477e+08,-5.79771e+08,-166927,0.0198346,0.178052,0,0.179153,28359.3,-21111.1,0,35354.3,166927
step02_gravity_refstate-crust.xmf,1284,-1.6755e-06,4.23481e-06,0,-4.03757e-07,-5.65029e+08,-5.64624e+08,-5.64914e+08,-27697.7,0.00336347,0.153237,0,0.153274,37989.7,-20570.2,0,43201.3,27697.7
step02_gravity_refstate-crust.xmf,1285,2.04814e-05,-4.56853e-05,0,-1.26225e-05,-1.09839e+09,-1.10293e+09,-1.09979e+09,-865900,0.0313272,0.681881,0,0.682601,1498.34,-40000,0,40028.1,865900
step02_gravity_refstate-crust.xmf,1286,1.08599e-05,-1.8765e-05,0,-1.83155e-05,-1.00541e+09,-1.00744e+09,-1.00616e+09,-1.25644e+06,0.0577966,0.507918,0,0.511196,3491.21,-36617.9,0,36784,1.25644e+06
step02_gravity_refstate-crust.xmf,1287,1.26467e-05,-2.22632e-05,0,-1.93829e-05,-1.02235e+09,-1.02475e+09,-1.02322e+09,-1.32967e+06,0.0569764,0.531196,0,0.534243,3162.23,-37236.5,0,37370.6,1.32967e+06
step02_gravity_refstate-crust.xmf,1288,1.44956e-05,-2.59872e-05,0,-2.03326e-05,-1.03872e+09,-1.0415e+09,-1.03972e+09,-1.39481e+06,0.0560444,0.554859,0,0.557682,2895,-37834.2,0,37944.8,1.39481e+06
step02_gravity_refstate-crust.xmf,1289,1.67965e-05,-3.05026e-05,0,-2.00957e-05,-1.05204e+09,-1.05528e+09,-1.05319e+09,-1.37857e+06,0.0528844,0.580134,0,0.58254,2579.18,-38321.1,0,38407.8,1.37857e+06
step02_gravity_refstate-crust.xmf,1290,1.88369e-05,-3.50545e-05,0,-1.88704e-05,-1.06408e+09,-1.06778e+09,-1.06538e+09,-1.29451e+06,0.0483969,0.605828,0,0.607758,2270.85,-38760.9,0,38827.4,1.29451e+06
step02_gravity_refstate-crust.xmf,1291,-2.40044e-07,1.75896e-06,0,-6.80899e-06,-7.07296e+08,-7.07159e+08,-7.0728e+08,-467096,0.0459785,0.288764,0,0.292402,12743.1,-25751.6,0,28732,467096
step02_gravity_refstate-crust.xmf,1292,-9.6503e-08,1.45665e-06,0,-7.37678e-06,-7.3801e+08,-7.37903e+08,-7.38003e+08,-506047,0.0483699,0.297407,0,0.301314,11880.3,-26869.9,0,29379.1,506047
step02_gravity_refstate-crust.xmf,1293,6.7701e-08,1.10941e-06,0,-7.93408e-06,-7.64352e+08,-7.6428e+08,-7.64356e+08,-544278,0.0504489,0.306031,0,0.310162,11126.5,-27829,0,29970.8,544278
step02_gravity_refstate-crust.xmf,1294,7.89978e-06,-1.33492e-05,0,-1.69083e-05,-9.79328e+08,-9.80786e+08,-9.7987e+08,-1.15991e+06,0.0599359,0.470434,0,0.474237,4235.46,-35664.7,0,35915.3,1.15991e+06
step02_gravity_refstate-crust.xmf,1295,3.42373e-06,-4.41435e-06,0,-1.07911e-05,-8.60823e+08,-8.61361e+08,-8.61058e+08,-740272,0.0543014,0.38,0,0.383861,6689.94,-31346.1,0,32052.1,740272
step02_gravity_refstate-crust.xmf,1296,5.61518e-06,-8.57694e-06,0,-1.36782e-05,-9.27944e+08,-9.28918e+08,-9.2833e+08,-938321,0.0573895,0.426356,0,0.430201,5167.3,-33792.2,0,34185,938321
step02_gravity_refstate-crust.xmf,1297,2.70493e-06,-3.2543e-06,0,-1.02734e-05,-8.42777e+08,-8.43186e+08,-8.42963e+08,-704753,0.053918,0.366375,0,0.370321,7324.08,-30688,0,31549.9,704753
step02_gravity_refstate-crust.xmf,1298,1.47906e-06,-1.27539e-06,0,-9.40989e-06,-8.14567e+08,-8.14756e+08,-8.14669e+08,-645518,0.0533992,0.342317,0,0.346457,8649.2,-29659.1,0,30894.5,645518
step02_gravity_refstate-crust.xmf,1299,-9.86089e-07,2.96559e-06,0,-5.99788e-06,-6.83152e+08,-6.82881e+08,-6.83084e+08,-411454,0.0428671,0.26239,0,0.265869,15308.3,-24871.4,0,29205,411454
step02_gravity_refstate-crust.xmf,1300,-1.68521e-06,4.47874e-06,0,-8.53187e-07,-5.96858e+08,-5.96435e+08,-5.96743e+08,-58528.6,0.00715717,0.151184,0,0.151353,35693,-21729.3,0,41787,58528.6
step02_gravity_refstate-crust.xmf,1301,-1.72614e-06,4.48327e-06,0,-1.40432e-06,-5.96501e+08,-5.96075e+08,-5.96383e+08,-96336.1,0.011731,0.157518,0,0.157954,33002.6,-21716.2,0,39506.5,96336.1
step02_gravity_refstate-crust.xmf,1302,-1.76657e-06,4.48517e-06,0,-1.95012e-06,-5.98118e+08,-5.97689e+08,-5.97997e+08,-133779,0.0161373,0.16592,0,0.166703,30466.7,-21774.9,0,37448.2,133779
step02_gravity_refstate-crust.xmf,1303,-1.22372e-06,3.36244e-06,0,-4.82615e-06,-6.13028e+08,-6.12714e+08,-6.12944e+08,-331074,0.0361502,0.239671,0,0.242382,18544.8,-22318.2,0,29017.4,331074
step02_gravity_refstate-crust.xmf,1304,-1.81789e-06,4.58256e-06,0,-2.68795e-06,-6.1759e+08,-6.17151e+08,-6.17465e+08,-184393,0.0220505,0.178105,0,0.179465,27149.7,-22483.7,0,35250.9,184393
step02_gravity_refstate-crust.xmf,1305,-1.79973e-06,4.46721e-06,0,-3.12316e-06,-6.15242e+08,-6.14812e+08,-6.15118e+08,-214249,0.0252556,0.188641,0,0.190324,25375,-22398.1,0,33846.2,214249
step02_gravity_refstate-crust.xmf,1306,-1.45856e-06,3.75082e-06,0,-4.43684e-06,-6.12601e+08,-6.12244e+08,-6.12501e+08,-304367,0.0339505,0.226177,0,0.228711,20162.5,-22302.3,0,30065.2,304367
step02_gravity_refstate-crust.xmf,1307,-1.7436e-06,4.30544e-06,0,-3.56659e-06,-6.14307e+08,-6.13892e+08,-6.14187e+08,-244668,0.0283803,0.20017,0,0.202172,23609.9,-22364.1,0,32520.5,244668
step02_gravity_refstate-crust.xmf,1308,-1.6334e-06,4.06976e-06,0,-4.01086e-06,-6.13442e+08,-6.13051e+08,-6.1333e+08,-275145,0.031327,0.212794,0,0.215087,21862.8,-22332.7,0,31252.7,275145
step02_gravity_refstate-crust.xmf,1309,-1.3304e-06,3.53486e-06,0,-5.19756e-06,-6.52058e+08,-6.51725e+08,-6.51967e+08,-356552,0.0386862,0.242347,0,0.245415,17700.7,-23738.9,0,29611.7,356552
step02_gravity_refstate-crust.xmf,1310,-1.65393e-06,4.46559e-06,0,-1.28631e-09,-5.96709e+08,-5.96289e+08,-5.96595e+08,-88.2411,1.97682e-19,0.147386,0,0.147386,40000,-21724,0,45518.5,88.2411
step02_gravity_refstate-crust.xmf,1311,1.96107e-05,-3.9869e-05,0,-1.9665e-05,-1.08659e+09,-1.09067e+09,-1.08794e+09,-1.34902e+06,0.0477592,0.637174,0,0.638962,2247.9,-39576,0,39639.8,1.34902e+06
step02_gravity_refstate-crust.xmf,1312,1.98056e-05,-4.36956e-05,0,-1.72096e-05,-1.09838e+09,-1.10273e+09,-1.09974e+09,-1.18058e+06,0.0413805,0.664972,0,0.666258,1997.54,-40000,0,40049.8,1.18058e+06
step02_gravity_refstate-crust.xmf,1313,1.8449e-05,-3.5648e-05,0,-2.16388e-05,-1.07573e+09,-1.07944e+09,-1.077e+09,-1.48442e+06,0.0530632,0.611468,0,0.613766,2503.9,-39182.5,0,39262.5,1.48442e+06
step02_gravity_refstate-crust.xmf,1314,-7.71239e-07,2.56522e-06,0,-6.56491e-06,-7.10685e+08,-7.10456e+08,-7.10632e+08,-450353,0.0455988,0.274693,0,0.278452,13935.6,-25874.1,0,29388.2,450353
step02_gravity_refstate-crust.xmf,1315,2.86068e-07,7.11815e-07,0,-8.52216e-06,-7.90096e+08,-7.90067e+08,-7.90115e+08,-584620,0.0524943,0.315361,0,0.3197,10403.8,-28766.5,0,30590,584620
step02_gravity_refstate-crust.xmf,1316,7.83029e-06,-1.43192e-05,0,-1.95023e-05,-1.00485e+09,-1.00637e+09,-1.00539e+09,-1.33786e+06,0.063941,0.48549,0,0.489682,4161.79,-36592.1,0,36828,1.33786e+06
step02_gravity_refstate-crust.xmf,1317,6.62176e-06,-1.19804e-05,0,-1.83844e-05,-9.91216e+08,-9.92493e+08,-9.91671e+08,-1.26117e+06,0.0641396,0.467076,0,0.47146,4525.02,-36094.5,0,36377,1.26117e+06
step02_gravity_refstate-crust.xmf,1318,5.9103e-06,-1.03749e-05,0,-1.70967e-05,-9.7571e+08,-9.76827e+08,-9.76116e+08,-1.17283e+06,0.0632772,0.451951,0,0.456359,4815,-35529.6,0,35854.3,1.17283e+06
step02_gravity_refstate-crust.xmf,1319,3.97585e-06,-5.65302e-06,0,-1.18809e-05,-8.87088e+08,-8.87749e+08,-8.87361e+08,-815027,0.0559639,0.394643,0,0.398592,6166.26,-32302.7,0,32885.9,815027
step02_gravity_refstate-crust.xmf,1320,4.72642e-06,-7.07382e-06,0,-1.28122e-05,-9.08742e+08,-9.09551e+08,-9.09066e+08,-878915,0.0568913,0.410212,0,0.414138,5649.98,-33091.8,0,33570.7,878915
step02_gravity_refstate-crust.xmf,1321,5.49669e-06,-9.24561e-06,0,-1.58777e-05,-9.60245e+08,-9.61256e+08,-9.60622e+08,-1.08921e+06,0.0619599,0.440079,0,0.444419,5039.72,-34966.6,0,35327.9,1.08921e+06
step02_gravity_refstate-crust.xmf,1322,4.54818e-06,-7.6211e-06,0,-1.51743e-05,-9.48047e+08,-9.48882e+08,-9.48359e+08,-1.04096e+06,0.0621424,0.424876,0,0.429396,5471.22,-34521.2,0,34952.1,1.04096e+06
step02_gravity_refstate-crust.xmf,1323,1.69767e-06,-1.81218e-06,0,-1.021e-05,-8.40854e+08,-8.41095e+08,-8.40971e+08,-700403,0.055486,0.352138,0,0.356483,8142.01,-30616.2,0,31680.3,700403
step02_gravity_refstate-crust.xmf,1324,4.2755e-07,2.70402e-07,0,-9.24134e-06,-8.16003e+08,-8.16014e+08,-8.16032e+08,-633956,0.0545902,0.324852,0,0.329407,9750.38,-29709.6,0,31268.6,633956
step02_gravity_refstate-crust.xmf,1325,-1.34679e-06,3.55441e-06,0,-5.55817e-06,-6.79026e+08,-6.7869e+08,-6.78934e+08,-381290,0.0409322,0.247512,0,0.250874,16805,-24720.7,0,29891.8,381290
step02_gravity_refstate-crust.xmf,1326,-1.81379e-06,4.66235e-06,0,-2.31509e-06,-6.21604e+08,-6.2116e+08,-6.2148e+08,-158815,0.0192182,0.169598,0,0.170683,28709.4,-22630,0,36556.1,158815
step02_gravity_refstate-crust.xmf,1327,-1.62738e-06,4.70185e-06,0,-3.34515e-07,-6.2969e+08,-6.29256e+08,-6.29579e+08,-22947.8,0.00284249,0.142513,0,0.142541,38249.1,-22925.2,0,44593.3,22947.8
step02_gravity_refstate-crust.xmf,1328,9.00394e-06,-1.67502e-05,0,-2.12654e-05,-1.02241e+09,-1.02418e+09,-1.02303e+09,-1.45881e+06,0.064687,0.505475,0,0.509597,3877.58,-37232.4,0,37433.7,1.45881e+06
step02_gravity_refstate-crust.xmf,1329,1.12161e-05,-2.10534e-05,0,-2.26506e-05,-1.03867e+09,-1.04088e+09,-1.03944e+09,-1.55383e+06,0.063362,0.532637,0,0.536393,3465.91,-37826.6,0,37985.1,1.55383e+06
step02_gravity_refstate-crust.xmf,1330,1.3547e-05,-2.54659e-05,0,-2.36418e-05,-1.05306e+09,-1.05574e+09,-1.05399e+09,-1.62183e+06,0.0616521,0.558055,0,0.561451,3148.96,-38353.2,0,38482.2,1.62183e+06
step02_gravity_refstate-crust.xmf,1331,1.62333e-05,-3.05451e-05,0,-2.32037e-05,-1.06488e+09,-1.06808e+09,-1.06599e+09,-1.59178e+06,0.0580226,0.58468,0,0.587552,2816.62,-38786.2,0,38888.4,1.59178e+06
step02_gravity_refstate-crust.xmf,1332,1.79283e-05,-3.612e-05,0,-2.45073e-05,-1.087e+09,-1.09071e+09,-1.08823e+09,-1.6812e+06,0.0569713,0.614924,0,0.617557,2740.61,-39589.8,0,39684.6,1.6812e+06
step02_gravity_refstate-crust.xmf,1333,-7.41547e-07,2.44641e-06,0,-7.07422e-06,-7.40306e+08,-7.40088e+08,-7.40255e+08,-485291,0.0480012,0.281424,0,0.285488,13143.2,-26952.4,0,29986.2,485291
step02_gravity_refstate-crust.xmf,1334,-5.0834e-07,1.84754e-06,0,-8.26155e-06,-7.91936e+08,-7.91774e+08,-7.91901e+08,-566742,0.0525131,0.299602,0,0.304169,11478.6,-28832,0,31033,566742
step02_gravity_refstate-crust.xmf,1335,-6.91096e-07,2.26613e-06,0,-7.62597e-06,-7.6794e+08,-7.67737e+08,-7.67892e+08,-523142,0.0503216,0.288908,0,0.293258,12377.1,-27958.3,0,30575.5,523142
step02_gravity_refstate-crust.xmf,1336,1.93924e-06,-2.41564e-06,0,-1.10459e-05,-8.6476e+08,-8.65058e+08,-8.64893e+08,-757747,0.0574085,0.362382,0,0.366901,7672.35,-31486.5,0,32407.8,757747
step02_gravity_refstate-crust.xmf,1337,3.79513e-06,-6.04993e-06,0,-1.41543e-05,-9.31522e+08,-9.32198e+08,-9.31783e+08,-970983,0.0614892,0.409432,0,0.414023,5923.56,-33919,0,34432.3,970983
step02_gravity_refstate-crust.xmf,1338,5.92492e-07,-1.82114e-07,0,-1.00063e-05,-8.4122e+08,-8.41273e+08,-8.4126e+08,-686433,0.0566761,0.334734,0,0.339498,9149.68,-30627.6,0,31965,686433
step02_gravity_refstate-crust.xmf,1339,-1.61885e-06,3.97469e-06,0,-5.76836e-06,-7.16606e+08,-7.16222e+08,-7.16495e+08,-395709,0.042584,0.244144,0,0.24783,16631.8,-26088.4,0,30939,395709
step02_gravity_refstate-crust.xmf,1340,-1.69021e-06,4.87636e-06,0,-1.13168e-06,-6.49238e+08,-6.48787e+08,-6.49122e+08,-77633.4,0.00969205,0.145749,0,0.146071,34043.5,-23636.9,0,41444.7,77633.4
step02_gravity_refstate-crust.xmf,1341,-1.75907e-06,4.90265e-06,0,-1.5984e-06,-6.49433e+08,-6.48976e+08,-6.49312e+08,-109650,0.0136065,0.152375,0,0.152981,31763.6,-23643.7,0,39597.4,109650
step02_gravity_refstate-crust.xmf,1342,-1.82562e-06,4.94848e-06,0,-2.03887e-06,-6.53872e+08,-6.53407e+08,-6.53747e+08,-139866,0.0172528,0.159491,0,0.160421,29702.7,-23805.1,0,38064.8,139866
step02_gravity_refstate-crust.xmf,1343,-1.59716e-06,4.03484e-06,0,-4.76048e-06,-6.5548e+08,-6.55094e+08,-6.55371e+08,-326569,0.0364474,0.22738,0,0.230283,19300.1,-23863.2,0,30691.2,326569
step02_gravity_refstate-crust.xmf,1344,-1.88254e-06,4.97074e-06,0,-2.45551e-06,-6.57887e+08,-6.57417e+08,-6.57758e+08,-168448,0.020608,0.167325,0,0.16859,27872.7,-23951.1,0,36749.7,168448
step02_gravity_refstate-crust.xmf,1345,-1.9155e-06,4.91918e-06,0,-2.88309e-06,-6.57329e+08,-6.5686e+08,-6.57198e+08,-197780,0.0238912,0.176867,0,0.178473,26143,-23930.6,0,35441.9,197780
step02_gravity_refstate-crust.xmf,1346,-1.91715e-06,4.80987e-06,0,-3.34188e-06,-6.56288e+08,-6.55827e+08,-6.56157e+08,-229253,0.0272523,0.187971,0,0.189937,24389.5,-23892.5,0,34142.3,229253
step02_gravity_refstate-crust.xmf,1347,-1.77093e-06,4.38149e-06,0,-4.2877e-06,-6.55067e+08,-6.54645e+08,-6.54946e+08,-294136,0.0336025,0.213306,0,0.215937,20975.4,-23848,0,31759.9,294136
step02_gravity_refstate-crust.xmf,1348,-1.87422e-06,4.63793e-06,0,-3.81109e-06,-6.55678e+08,-6.55232e+08,-6.5555e+08,-261441,0.03051,0.20009,0,0.202402,22671.5,-23870.2,0,32920.9,261441
step02_gravity_refstate-crust.xmf,1349,-1.74572e-06,4.27731e-06,0,-5.16161e-06,-6.96205e+08,-6.95792e+08,-6.96085e+08,-354087,0.0392269,0.230643,0,0.233955,18275.5,-25345.6,0,31247.3,354087
step02_gravity_refstate-crust.xmf,1350,-1.57823e-06,4.92025e-06,0,-2.13127e-09,-6.6267e+08,-6.62225e+08,-6.62562e+08,-146.205,2.02323e-19,0.136111,0,0.136111,40000,-24126.4,0,46712.8,146.205
step02_gravity_refstate-crust.xmf,1351,-1.62596e-06,4.92204e-06,0,-6.98775e-07,-6.59269e+08,-6.5882e+08,-6.59158e+08,-47936,0.00603057,0.139624,0,0.139754,36221.5,-24002.4,0,43452.4,47936
step02_gravity_refstate-crust.xmf,1352,1.86926e-05,-4.06731e-05,0,-2.21109e-05,-1.09837e+09,-1.10245e+09,-1.09965e+09,-1.51681e+06,0.051002,0.642882,0,0.644902,2497.35,-40000,0,40077.9,1.51681e+06
step02_gravity_refstate-crust.xmf,1353,1.63214e-05,-3.17589e-05,0,-2.55519e-05,-1.07662e+09,-1.07992e+09,-1.07774e+09,-1.75286e+06,0.0606396,0.59203,0,0.595128,2940.66,-39212.2,0,39322.3,1.75286e+06
step02_gravity_refstate-crust.xmf,1354,6.21007e-06,-1.22745e-05,0,-2.10612e-05,-1.017e+09,-1.01827e+09,-1.01743e+09,-1.4448e+06,0.0680772,0.481007,0,0.485801,4450.69,-37031.1,0,37297.6,1.4448e+06
step02_gravity_refstate-crust.xmf,1355,-1.26289e-06,3.38532e-06,0,-6.25685e-06,-7.20142e+08,-7.19823e+08,-7.20055e+08,-429220,0.0448159,0.259439,0,0.263281,15186.8,-26217.6,0,30298.6,429220
step02_gravity_refstate-crust.xmf,1356,-1.271e-06,3.30454e-06,0,-6.67886e-06,-7.43083e+08,-7.42769e+08,-7.42996e+08,-458170,0.0468721,0.265531,0,0.269636,14421.3,-27052.6,0,30656.5,458170
step02_gravity_refstate-crust.xmf,1357,-4.46706e-07,1.67092e-06,0,-8.86504e-06,-8.1786e+08,-8.17715e+08,-8.17829e+08,-608142,0.0547177,0.307194,0,0.312029,10863.6,-29775.8,0,31695.7,608142
step02_gravity_refstate-crust.xmf,1358,2.38653e-06,-3.26426e-06,0,-1.19273e-05,-8.87627e+08,-8.88015e+08,-8.87791e+08,-818210,0.0590666,0.375368,0,0.379987,7127.6,-32319.6,0,33096.2,818210
step02_gravity_refstate-crust.xmf,1359,4.70941e-06,-9.72836e-06,0,-2.01412e-05,-1.00751e+09,-1.0085e+09,-1.00783e+09,-1.38169e+06,0.0688335,0.461754,0,0.466857,4871.53,-36683.4,0,37005.4,1.38169e+06
step02_gravity_refstate-crust.xmf,1360,3.67791e-06,-6.96741e-06,0,-1.67648e-05,-9.69985e+08,-9.70715e+08,-9.70237e+08,-1.15006e+06,0.0659642,0.427826,0,0.432882,5574.21,-35317.4,0,35754.5,1.15006e+06
step02_gravity_refstate-crust.xmf,1361,4.08774e-06,-8.1939e-06,0,-1.84283e-05,-9.90078e+08,-9.9092e+08,-9.90358e+08,-1.26418e+06,0.0676724,0.444086,0,0.449213,5224.29,-36048.6,0,36425.2,1.26418e+06
step02_gravity_refstate-crust.xmf,1362,2.76458e-06,-4.32248e-06,0,-1.32398e-05,-9.13913e+08,-9.14399e+08,-9.14102e+08,-908249,0.0611395,0.390613,0,0.395369,6585.55,-33276.4,0,33921.8,908249
step02_gravity_refstate-crust.xmf,1363,2.80939e-06,-5.20162e-06,0,-1.55047e-05,-9.53532e+08,-9.54082e+08,-9.53725e+08,-1.06362e+06,0.0652751,0.409355,0,0.414527,6103.15,-34717.6,0,35250,1.06362e+06
step02_gravity_refstate-crust.xmf,1364,7.36658e-07,-6.39999e-07,0,-1.08437e-05,-8.65588e+08,-8.65683e+08,-8.65639e+08,-743878,0.058753,0.34477,0,0.34974,8611.34,-31514.6,0,32669.9,743878
step02_gravity_refstate-crust.xmf,1365,-4.18012e-07,1.36488e-06,0,-9.62624e-06,-8.4321e+08,-8.43088e+08,-8.43181e+08,-660360,0.0569441,0.316358,0,0.321442,10216.6,-30698.3,0,32353.8,660360
step02_gravity_refstate-crust.xmf,1366,6.16766e-06,-1.27784e-05,0,-2.25544e-05,-1.02943e+09,-1.03073e+09,-1.02985e+09,-1.54723e+06,0.0696023,0.489664,0,0.494586,4374.44,-37482.5,0,37736.9,1.54723e+06
step02_gravity_refstate-crust.xmf,1367,-1.5416e-06,5.10409e-06,0,-3.34129e-07,-6.89847e+08,-6.89391e+08,-6.89741e+08,-22921.2,0.00291367,0.131883,0,0.131915,38099.8,-25116.2,0,45633.6,22921.2
step02_gravity_refstate-crust.xmf,1368,7.63377e-06,-1.57002e-05,0,-2.40184e-05,-1.04012e+09,-1.04172e+09,-1.04064e+09,-1.64766e+06,0.0690457,0.508949,0,0.513612,4047.46,-37873.2,0,38088.8,1.64766e+06
step02_gravity_refstate-crust.xmf,1369,9.55351e-06,-1.95315e-05,0,-2.5998e-05,-1.05461e+09,-1.0566e+09,-1.05526e+09,-1.78346e+06,0.0683714,0.533293,0,0.537658,3714.25,-38402.4,0,38581.6,1.78346e+06
step02_gravity_refstate-crust.xmf,1370,1.25933e-05,-2.53331e-05,0,-2.76772e-05,-1.06967e+09,-1.07228e+09,-1.07054e+09,-1.89865e+06,0.0664149,0.562587,0,0.566493,3370.2,-38954.3,0,39099.8,1.89865e+06
step02_gravity_refstate-crust.xmf,1371,1.49941e-05,-3.02316e-05,0,-2.96659e-05,-1.08645e+09,-1.08956e+09,-1.08748e+09,-2.03508e+06,0.0653675,0.586078,0,0.589712,3247.35,-39567.3,0,39700.3,2.03508e+06
step02_gravity_refstate-crust.xmf,1372,1.69302e-05,-3.61514e-05,0,-2.73827e-05,-1.09838e+09,-1.10202e+09,-1.09954e+09,-1.87845e+06,0.0599058,0.615403,0,0.618312,2997.53,-40000,0,40112.2,1.87845e+06
step02_gravity_refstate-crust.xmf,1373,-1.69235e-06,4.079e-06,0,-6.19161e-06,-7.47749e+08,-7.47353e+08,-7.47633e+08,-424744,0.0450635,0.249146,0,0.253189,15763.2,-27222,0,31456.6,424744
step02_gravity_refstate-crust.xmf,1374,-1.30253e-06,3.27019e-06,0,-7.14605e-06,-7.69167e+08,-7.68853e+08,-7.69078e+08,-490219,0.0490843,0.271487,0,0.275889,13691.3,-28002.1,0,31170,490219
step02_gravity_refstate-crust.xmf,1375,-1.24654e-06,2.89099e-06,0,-8.39853e-06,-8.21026e+08,-8.20742e+08,-8.2094e+08,-576139,0.0539422,0.289245,0,0.294232,12006.5,-29889.7,0,32211,576139
step02_gravity_refstate-crust.xmf,1376,-1.37364e-06,3.25863e-06,0,-7.71325e-06,-7.983e+08,-7.97982e+08,-7.98206e+08,-529129,0.0514909,0.277723,0,0.282456,12969.8,-29062.4,0,31825.1,529129
step02_gravity_refstate-crust.xmf,1377,9.22041e-07,-1.20129e-06,0,-1.17624e-05,-8.88548e+08,-8.88694e+08,-8.88612e+08,-806898,0.0607241,0.35592,0,0.361063,8080.82,-32350.4,0,33344.3,806898
step02_gravity_refstate-crust.xmf,1378,2.34997e-06,-4.11782e-06,0,-1.44352e-05,-9.37589e+08,-9.38033e+08,-9.37751e+08,-990254,0.0641679,0.395752,0,0.40092,6522.03,-34137,0,34754.5,990254
step02_gravity_refstate-crust.xmf,1379,-3.56524e-07,1.04172e-06,0,-1.04192e-05,-8.67032e+08,-8.66936e+08,-8.67008e+08,-714756,0.0590756,0.325996,0,0.331306,9614.76,-31565.3,0,32997.2,714756
step02_gravity_refstate-crust.xmf,1380,3.83488e-06,-9.18255e-06,0,-2.20854e-05,-1.02618e+09,-1.02707e+09,-1.02644e+09,-1.51506e+06,0.0716247,0.467818,0,0.473269,4880.09,-37360.4,0,37677.8,1.51506e+06
step02_gravity_refstate-crust.xmf,1381,-1.99609e-06,4.71664e-06,0,-5.30032e-06,-7.3459e+08,-7.34129e+08,-7.34453e+08,-363602,0.0405012,0.226761,0,0.23035,18033,-26742.7,0,32254.7,363602
step02_gravity_refstate-crust.xmf,1382,-1.6162e-06,5.20556e-06,0,-9.21497e-07,-6.98054e+08,-6.97586e+08,-6.97943e+08,-63214.7,0.00808696,0.135138,0,0.135379,34766.3,-25414.9,0,43065.2,63214.7
step02_gravity_refstate-crust.xmf,1383,-1.69883e-06,5.22939e-06,0,-1.30765e-06,-6.95157e+08,-6.94682e+08,-6.95041e+08,-89705,0.0114167,0.14075,0,0.141212,32766.2,-25309.1,0,41402.6,89705
step02_gravity_refstate-crust.xmf,1384,-1.79721e-06,5.28729e-06,0,-1.73691e-06,-6.9681e+08,-6.96324e+08,-6.96687e+08,-119152,0.0150741,0.147628,0,0.148395,30650.5,-25369,0,39787.4,119152
step02_gravity_refstate-crust.xmf,1385,-1.89275e-06,5.32791e-06,0,-2.16179e-06,-6.98303e+08,-6.97808e+08,-6.98174e+08,-148299,0.018598,0.155594,0,0.156701,28720.8,-25423,0,38356.4,148299
step02_gravity_refstate-crust.xmf,1386,-1.93549e-06,4.70675e-06,0,-4.57014e-06,-6.9574e+08,-6.95284e+08,-6.95607e+08,-313511,0.0358543,0.213962,0,0.216945,20099.8,-25328.6,0,32334.8,313511
step02_gravity_refstate-crust.xmf,1387,-1.97618e-06,5.33308e-06,0,-2.59673e-06,-6.98855e+08,-6.98353e+08,-6.98719e+08,-178136,0.0220804,0.164744,0,0.166217,26911.4,-25442.8,0,37034.6,178136
step02_gravity_refstate-crust.xmf,1388,-2.03524e-06,5.28295e-06,0,-3.05506e-06,-6.97968e+08,-6.97466e+08,-6.97828e+08,-209577,0.0255826,0.175269,0,0.177126,25167.2,-25410.2,0,35764,209577
step02_gravity_refstate-crust.xmf,1389,-2.05895e-06,5.17502e-06,0,-3.53932e-06,-6.97237e+08,-6.96741e+08,-6.97096e+08,-242798,0.0290979,0.186994,0,0.189245,23451.6,-25383.3,0,34558.5,242798
step02_gravity_refstate-crust.xmf,1390,-2.031e-06,4.98919e-06,0,-4.04345e-06,-6.96353e+08,-6.95871e+08,-6.96214e+08,-277381,0.0325301,0.199843,0,0.202474,21774.7,-25350.9,0,33418.7,277381
step02_gravity_refstate-crust.xmf,1391,-1.44277e-06,5.3181e-06,0,-3.59318e-09,-7.2734e+08,-7.26876e+08,-7.27241e+08,-246.492,2.16069e-19,0.124048,0,0.124048,40000,-26481.9,0,47971.8,246.492
step02_gravity_refstate-crust.xmf,1392,-1.54564e-06,5.24235e-06,0,-6.04072e-07,-7.08812e+08,-7.08347e+08,-7.08706e+08,-41439.3,0.00535235,0.130126,0,0.130236,36444.4,-25806.9,0,44656.3,41439.3
step02_gravity_refstate-crust.xmf,1393,-2.05456e-06,4.72874e-06,0,-5.6944e-06,-7.55266e+08,-7.548e+08,-7.55125e+08,-390636,0.0427527,0.233035,0,0.236924,17096.5,-27495.2,0,32377.1,390636
step02_gravity_refstate-crust.xmf,1394,-1.78186e-06,4.10568e-06,0,-6.63225e-06,-7.73049e+08,-7.72645e+08,-7.72927e+08,-454973,0.0472356,0.254515,0,0.258862,14994.4,-28142.8,0,31888.1,454973
step02_gravity_refstate-crust.xmf,1395,-1.22656e-06,2.7393e-06,0,-9.04585e-06,-8.44898e+08,-8.44626e+08,-8.44814e+08,-620546,0.0561304,0.297596,0,0.302843,11325.8,-30758.7,0,32777.5,620546
step02_gravity_refstate-crust.xmf,1396,1.17554e-06,-1.80989e-06,0,-1.27704e-05,-9.11314e+08,-9.11519e+08,-9.11395e+08,-876051,0.0627103,0.368214,0,0.373516,7564.66,-33179.3,0,34030.7,876051
step02_gravity_refstate-crust.xmf,1397,2.13985e-06,-5.77165e-06,0,-1.95729e-05,-1.00652e+09,-1.00707e+09,-1.00667e+09,-1.3427e+06,0.0710977,0.436215,0,0.441971,5577.17,-36643.2,0,37065.2,1.3427e+06
step02_gravity_refstate-crust.xmf,1398,1.8153e-06,-4.71216e-06,0,-1.7965e-05,-9.89822e+08,-9.9027e+08,-9.89947e+08,-1.2324e+06,0.0697588,0.420531,0,0.426278,5946.51,-36035.5,0,36522.9,1.2324e+06
step02_gravity_refstate-crust.xmf,1399,1.49273e-06,-3.68741e-06,0,-1.64801e-05,-9.72243e+08,-9.72599e+08,-9.72346e+08,-1.13053e+06,0.0682979,0.405015,0,0.410734,6362.5,-35395.8,0,35963.1,1.13053e+06
step02_gravity_refstate-crust.xmf,1400,1.2233e-06,-2.79688e-06,0,-1.51471e-05,-9.53945e+08,-9.54221e+08,-9.54029e+08,-1.03909e+06,0.0667162,0.390611,0,0.396267,6797.41,-34729.9,0,35388.9,1.03909e+06
step02_gravity_refstate-crust.xmf,1401,1.16717e-06,-2.28879e-06,0,-1.39626e-05,-9.33883e+08,-9.3412e+08,-9.33963e+08,-957835,0.0648302,0.379253,0,0.384754,7166.6,-34000.1,0,34747.2,957835
step02_gravity_refstate-crust.xmf,1402,-2.85017e-07,6.63922e-07,0,-1.13008e-05,-8.90056e+08,-8.89991e+08,-8.90036e+08,-775236,0.06117,0.336463,0,0.341978,9036.11,-32403.2,0,33639.6,775236
step02_gravity_refstate-crust.xmf,1403,-1.29796e-06,2.56783e-06,0,-9.80808e-06,-8.68998e+08,-8.68733e+08,-8.68909e+08,-672834,0.0583257,0.306321,0,0.311825,10684,-31635.5,0,33390.9,672834
step02_gravity_refstate-crust.xmf,1404,4.32054e-06,-1.04683e-05,0,-2.40443e-05,-1.0418e+09,-1.04282e+09,-1.0421e+09,-1.64944e+06,0.0726072,0.4848,0,0.490207,4610.18,-37929.1,0,38208.2,1.64944e+06
step02_gravity_refstate-crust.xmf,1405,-2.13829e-06,5.07184e-06,0,-4.81996e-06,-7.35183e+08,-7.34689e+08,-7.35036e+08,-330649,0.0378108,0.213889,0,0.217205,19337.8,-26764.3,0,33019.3,330649
step02_gravity_refstate-crust.xmf,1406,-1.40035e-06,5.48588e-06,0,-3.48738e-07,-7.54177e+08,-7.53705e+08,-7.54081e+08,-23923.4,0.00311318,0.119778,0,0.119819,37735.4,-27459.4,0,46668.9,23923.4
step02_gravity_refstate-crust.xmf,1407,-1.48413e-06,5.49906e-06,0,-7.08241e-07,-7.48466e+08,-7.47987e+08,-7.48364e+08,-48585.4,0.00636451,0.123877,0,0.124041,35501.6,-27251.2,0,44754.8,48585.4
step02_gravity_refstate-crust.xmf,1408,5.30577e-06,-1.2952e-05,0,-2.64261e-05,-1.05554e+09,-1.05679e+09,-1.0559e+09,-1.81283e+06,0.0728005,0.505296,0,0.510514,4296.91,-38429.4,0,38668.9,1.81283e+06
step02_gravity_refstate-crust.xmf,1409,6.90052e-06,-1.62615e-05,0,-2.91793e-05,-1.06967e+09,-1.07126e+09,-1.07015e+09,-2.0017e+06,0.0724303,0.528838,0,0.533775,3987.58,-38945.3,0,39148.9,2.0017e+06
step02_gravity_refstate-crust.xmf,1410,9.36606e-06,-2.09519e-05,0,-3.26762e-05,-1.08312e+09,-1.0852e+09,-1.08376e+09,-2.24159e+06,0.0713834,0.55238,0,0.556973,3738.97,-39437.4,0,39614.2,2.24159e+06
step02_gravity_refstate-crust.xmf,1411,1.41683e-05,-2.88027e-05,0,-3.3474e-05,-1.09837e+09,-1.10132e+09,-1.09934e+09,-2.29632e+06,0.0676463,0.582399,0,0.586314,3497.18,-40000,0,40152.6,2.29632e+06
step02_gravity_refstate-crust.xmf,1412,2.36001e-06,-6.56317e-06,0,-2.09328e-05,-1.01912e+09,-1.01973e+09,-1.01928e+09,-1.43599e+06,0.0720748,0.44842,0,0.454175,5322.79,-37101.5,0,37481.4,1.43599e+06
step02_gravity_refstate-crust.xmf,1413,-2.13148e-06,4.81585e-06,0,-6.10093e-06,-7.80776e+08,-7.80299e+08,-7.8063e+08,-418524,0.0450462,0.23864,0,0.242854,16208.2,-28423.8,0,32720.3,418524
step02_gravity_refstate-crust.xmf,1414,-2.35747e-06,5.41982e-06,0,-5.12865e-06,-7.7316e+08,-7.72626e+08,-7.72998e+08,-351825,0.0398416,0.215047,0,0.218707,18484.2,-28146.5,0,33673.3,351825
step02_gravity_refstate-crust.xmf,1415,-1.79123e-06,4.03863e-06,0,-7.0667e-06,-7.92471e+08,-7.92071e+08,-7.92348e+08,-484775,0.0492329,0.261228,0,0.265827,14241.2,-28849.7,0,32173.2,484775
step02_gravity_refstate-crust.xmf,1416,-1.89795e-06,3.85596e-06,0,-8.41647e-06,-8.469e+08,-8.46505e+08,-8.46769e+08,-577370,0.0544888,0.279554,0,0.284814,12426.1,-30830.5,0,33240.5,577370
step02_gravity_refstate-crust.xmf,1417,-1.79927e-06,3.86317e-06,0,-7.91011e-06,-8.26425e+08,-8.26037e+08,-8.26302e+08,-542633,0.0526901,0.273753,0,0.278778,12992.8,-30085.5,0,32771.2,542633
step02_gravity_refstate-crust.xmf,1418,-2.03489e-07,2.22975e-07,0,-1.22728e-05,-9.11891e+08,-9.11862e+08,-9.11877e+08,-841911,0.0631861,0.347802,0,0.353495,8481.43,-33197.8,0,34264.1,841911
step02_gravity_refstate-crust.xmf,1419,-1.2514e-06,2.22208e-06,0,-1.06694e-05,-8.90847e+08,-8.90608e+08,-8.90761e+08,-731919,0.0605057,0.317561,0,0.323274,9982.89,-32430.5,0,33932.3,731919
step02_gravity_refstate-crust.xmf,1420,1.41017e-06,-6.03581e-06,0,-2.33652e-05,-1.04278e+09,-1.04329e+09,-1.04288e+09,-1.60285e+06,0.0743038,0.459879,0,0.465843,5175.82,-37959.9,0,38311.1,1.60285e+06
step02_gravity_refstate-crust.xmf,1421,-1.58791e-06,5.52877e-06,0,-1.05315e-06,-7.43109e+08,-7.42621e+08,-7.43e+08,-72245.9,0.00941561,0.129176,0,0.129518,33554.3,-27055.8,0,43103.4,72245.9
step02_gravity_refstate-crust.xmf,1422,-1.7068e-06,5.59087e-06,0,-1.42684e-06,-7.41669e+08,-7.41169e+08,-7.41552e+08,-97881.5,0.0126892,0.135393,0,0.135987,31570.8,-27003,0,41543.6,97881.5
step02_gravity_refstate-crust.xmf,1423,-1.84047e-06,5.66277e-06,0,-1.83476e-06,-7.41857e+08,-7.41342e+08,-7.41731e+08,-125864,0.016192,0.143,0,0.143914,29582,-27009.4,0,40057.5,125864
step02_gravity_refstate-crust.xmf,1424,-1.97183e-06,5.71219e-06,0,-2.26188e-06,-7.41617e+08,-7.4109e+08,-7.41482e+08,-155165,0.0197436,0.15186,0,0.153138,27712.9,-27000.2,0,38691.2,155165
step02_gravity_refstate-crust.xmf,1425,-2.21499e-06,5.36565e-06,0,-4.25675e-06,-7.36144e+08,-7.35624e+08,-7.35992e+08,-292013,0.0343329,0.199299,0,0.202235,20935.4,-26799.4,0,34007.3,292013
step02_gravity_refstate-crust.xmf,1426,-2.08794e-06,5.71587e-06,0,-2.71822e-06,-7.40056e+08,-7.3952e+08,-7.39913e+08,-186470,0.0233775,0.162104,0,0.163781,25933.5,-26942.9,0,37396.1,186470
step02_gravity_refstate-crust.xmf,1427,-2.17556e-06,5.66943e-06,0,-3.20135e-06,-7.38509e+08,-7.37971e+08,-7.3836e+08,-219613,0.0270425,0.17342,0,0.175516,24224.5,-26886.1,0,36189.6,219613
step02_gravity_refstate-crust.xmf,1428,-2.22161e-06,5.55144e-06,0,-3.7223e-06,-7.36703e+08,-7.3617e+08,-7.36551e+08,-255350,0.0307598,0.186058,0,0.188583,22543.9,-26820,0,35036.3,255350
step02_gravity_refstate-crust.xmf,1429,-1.23976e-06,5.65082e-06,0,-2.73782e-09,-7.90899e+08,-7.90427e+08,-7.90814e+08,-187.814,1.46203e-19,0.111351,0,0.111351,40000,-28797.2,0,49287.7,187.814
step02_gravity_refstate-crust.xmf,1430,1.30619e-06,-5.24519e-06,0,-2.17513e-05,-1.03093e+09,-1.03138e+09,-1.03102e+09,-1.49214e+06,0.0735375,0.447406,0,0.45341,5412.18,-37529.1,0,37917.4,1.49214e+06
step02_gravity_refstate-crust.xmf,1431,1.19814e-07,-3.08303e-06,0,-2.04593e-05,-1.02456e+09,-1.02478e+09,-1.02457e+09,-1.40351e+06,0.0733039,0.427974,0,0.434206,5877.15,-37295.9,0,37756.1,1.40351e+06
step02_gravity_refstate-crust.xmf,1432,-2.36456e-06,5.32262e-06,0,-5.60718e-06,-7.87263e+08,-7.86735e+08,-7.871e+08,-384652,0.0426221,0.224821,0,0.228826,17311.2,-28659.8,0,33482.2,384652
step02_gravity_refstate-crust.xmf,1433,-2.06652e-06,4.41534e-06,0,-7.32139e-06,-8.19405e+08,-8.1896e+08,-8.19263e+08,-502247,0.0505055,0.260277,0,0.265132,14005.6,-29829.7,0,32954,502247
step02_gravity_refstate-crust.xmf,1434,-2.28385e-06,4.93952e-06,0,-6.61246e-06,-8.09765e+08,-8.09269e+08,-8.09608e+08,-453615,0.0475154,0.244767,0,0.249336,15289.8,-29478.7,0,33208,453615
step02_gravity_refstate-crust.xmf,1435,-2.02006e-06,3.89566e-06,0,-9.03134e-06,-8.71018e+08,-8.70612e+08,-8.7088e+08,-619550,0.0565416,0.286365,0,0.291894,11806.1,-31708.2,0,33834.8,619550
step02_gravity_refstate-crust.xmf,1436,-1.1883e-07,-1.61956e-07,0,-1.3292e-05,-9.33024e+08,-9.33027e+08,-9.33016e+08,-911832,0.0651493,0.359148,0,0.36501,7988.12,-33966.9,0,34893.6,911832
step02_gravity_refstate-crust.xmf,1437,-1.42499e-08,-2.24754e-06,0,-1.86716e-05,-1.00799e+09,-1.00814e+09,-1.00798e+09,-1.28087e+06,0.0719752,0.412285,0,0.41852,6259.92,-36693.2,0,37223.3,1.28087e+06
step02_gravity_refstate-crust.xmf,1438,-1.59778e-07,-1.57982e-06,0,-1.71595e-05,-9.91287e+08,-9.91384e+08,-9.91276e+08,-1.17714e+06,0.0705208,0.396906,0,0.403123,6685.61,-36085.7,0,36699.8,1.17714e+06
step02_gravity_refstate-crust.xmf,1439,-2.06757e-07,-9.93334e-07,0,-1.57404e-05,-9.73e+08,-9.73054e+08,-9.72986e+08,-1.07979e+06,0.0688579,0.382908,0,0.38905,7119.06,-35420.7,0,36129,1.07979e+06
step02_gravity_refstate-crust.xmf,1440,-1.79872e-07,-5.73055e-07,0,-1.44784e-05,-9.53493e+08,-9.5352e+08,-9.53481e+08,-993221,0.0670533,0.370678,0,0.376694,7541.8,-34711.2,0,35521.1,993221
step02_gravity_refstate-crust.xmf,1441,-1.27251e-06,1.96131e-06,0,-1.16164e-05,-9.14123e+08,-9.13902e+08,-9.14036e+08,-796886,0.0627078,0.328606,0,0.334536,9357.69,-33277.5,0,34568.1,796886
step02_gravity_refstate-crust.xmf,1442,-2.26103e-06,3.984e-06,0,-9.81794e-06,-8.97781e+08,-8.97352e+08,-8.97626e+08,-673511,0.0587879,0.294539,0,0.300349,11138.7,-32681.6,0,34527.7,673511
step02_gravity_refstate-crust.xmf,1443,1.89511e-06,-7.2548e-06,0,-2.54347e-05,-1.05661e+09,-1.05723e+09,-1.05674e+09,-1.74482e+06,0.0749165,0.477611,0,0.48345,4865.8,-38463.2,0,38769.8,1.74482e+06
step02_gravity_refstate-crust.xmf,1444,-2.42493e-06,5.77079e-06,0,-4.45483e-06,-7.74566e+08,-7.74003e+08,-7.74399e+08,-305601,0.0359211,0.198809,0,0.202028,20119.5,-28198,0,34639.8,305601
step02_gravity_refstate-crust.xmf,1445,-1.13482e-06,5.80099e-06,0,-2.31392e-07,-8.21316e+08,-8.2084e+08,-8.21238e+08,-15873.5,0.00207512,0.105658,0,0.105678,38141,-29905.2,0,48467.1,15873.5
step02_gravity_refstate-crust.xmf,1446,-1.28829e-06,5.74666e-06,0,-5.07667e-07,-7.99558e+08,-7.99075e+08,-7.99469e+08,-34826,0.00460269,0.112207,0,0.112301,36255.1,-29112.4,0,46496.9,34826
step02_gravity_refstate-crust.xmf,1447,-1.41639e-06,5.78215e-06,0,-8.11371e-07,-7.91816e+08,-7.91322e+08,-7.91719e+08,-55660,0.00737386,0.117376,0,0.117607,34293.2,-28830.1,0,44801.8,55660
step02_gravity_refstate-crust.xmf,1448,2.4925e-06,-9.06774e-06,0,-2.82031e-05,-1.07052e+09,-1.07132e+09,-1.07069e+09,-1.93473e+06,0.0751268,0.49802,0,0.503655,4550.47,-38969.5,0,39234.3,1.93473e+06
step02_gravity_refstate-crust.xmf,1449,3.53476e-06,-1.10964e-05,0,-3.14537e-05,-1.08459e+09,-1.08559e+09,-1.08483e+09,-2.15772e+06,0.0747719,0.520026,0,0.525374,4261.32,-39482.6,0,39711.9,2.15772e+06
step02_gravity_refstate-crust.xmf,1450,-2.55357e-06,5.59633e-06,0,-5.86418e-06,-8.1344e+08,-8.12881e+08,-8.13265e+08,-402283,0.0440273,0.226268,0,0.230511,16732.6,-29612.4,0,34012.9,402283
step02_gravity_refstate-crust.xmf,1451,-2.65263e-06,5.96688e-06,0,-5.23064e-06,-8.13667e+08,-8.13076e+08,-8.13485e+08,-358822,0.0406291,0.211422,0,0.215291,18034.2,-29620.9,0,34678.9,358822
step02_gravity_refstate-crust.xmf,1452,-2.33549e-06,4.72702e-06,0,-7.69771e-06,-8.46493e+08,-8.46009e+08,-8.46333e+08,-528063,0.0520837,0.262256,0,0.267378,13556.1,-30815.3,0,33665.3,528063
step02_gravity_refstate-crust.xmf,1453,-2.5719e-06,4.92966e-06,0,-8.22006e-06,-8.72472e+08,-8.71958e+08,-8.72296e+08,-563896,0.0539527,0.267242,0,0.272634,12941.1,-31760.5,0,34295.8,563896
step02_gravity_refstate-crust.xmf,1454,-1.36769e-06,1.79035e-06,0,-1.25242e-05,-9.34277e+08,-9.34061e+08,-9.34184e+08,-859159,0.0645621,0.338095,0,0.344204,8872.57,-34010.5,0,35148.8,859159
step02_gravity_refstate-crust.xmf,1455,-2.09735e-06,3.40472e-06,0,-1.07845e-05,-9.14774e+08,-9.14396e+08,-9.1463e+08,-739820,0.0612079,0.309364,0,0.315361,10269.1,-33300,0,34847.5,739820
step02_gravity_refstate-crust.xmf,1456,-1.04481e-06,-1.95397e-06,0,-2.18834e-05,-1.04333e+09,-1.04339e+09,-1.04326e+09,-1.5012e+06,0.0744477,0.432609,0,0.438968,5805.25,-37976.2,0,38417.4,1.5012e+06
step02_gravity_refstate-crust.xmf,1457,-8.18091e-07,-2.87177e-06,0,-2.39198e-05,-1.05722e+09,-1.05736e+09,-1.05717e+09,-1.6409e+06,0.0752233,0.450583,0,0.456819,5430.21,-38481.5,0,38862.8,1.6409e+06
step02_gravity_refstate-crust.xmf,1458,-6.20577e-07,-3.58497e-06,0,-2.61879e-05,-1.07117e+09,-1.07138e+09,-1.07113e+09,-1.79649e+06,0.0756418,0.468078,0,0.474151,5110.78,-38989,0,39322.6,1.79649e+06
step02_gravity_refstate-crust.xmf,1459,-2.66059e-06,6.20756e-06,0,-4.61575e-06,-8.12384e+08,-8.11776e+08,-8.12202e+08,-316640,0.0370002,0.197386,0,0.200824,19409.9,-29574.5,0,35375.1,316640
step02_gravity_refstate-crust.xmf,1460,-1.55648e-06,5.85811e-06,0,-1.13908e-06,-7.88642e+08,-7.88133e+08,-7.88535e+08,-78140.9,0.0103232,0.123116,0,0.123548,32343.5,-28714.1,0,43250.5,78140.9
step02_gravity_refstate-crust.xmf,1461,-1.71494e-06,5.9504e-06,0,-1.49536e-06,-7.86997e+08,-7.86471e+08,-7.86879e+08,-102582,0.0134786,0.130009,0,0.130706,30429.1,-28653.7,0,41796.7,102582
step02_gravity_refstate-crust.xmf,1462,-1.88779e-06,6.04271e-06,0,-1.89131e-06,-7.85951e+08,-7.85407e+08,-7.85822e+08,-129744,0.0168997,0.138306,0,0.139334,28536.8,-28615.1,0,40412.5,129744
step02_gravity_refstate-crust.xmf,1463,-2.0581e-06,6.10377e-06,0,-2.32447e-06,-7.83814e+08,-7.83254e+08,-7.83672e+08,-159458,0.0205052,0.148022,0,0.149436,26737.3,-28536.6,0,39105.3,159458
step02_gravity_refstate-crust.xmf,1464,-2.40666e-06,5.95633e-06,0,-3.87605e-06,-7.75601e+08,-7.75028e+08,-7.75436e+08,-265897,0.0320998,0.18474,0,0.187508,21694.4,-28236,0,35607.9,265897
step02_gravity_refstate-crust.xmf,1465,-2.2109e-06,6.11728e-06,0,-2.8006e-06,-7.8086e+08,-7.80288e+08,-7.80708e+08,-192121,0.0242874,0.159116,0,0.160959,25005.3,-28428.5,0,37860.8,192121
step02_gravity_refstate-crust.xmf,1466,-2.33188e-06,6.0714e-06,0,-3.32108e-06,-7.77871e+08,-7.77294e+08,-7.77711e+08,-227826,0.0281962,0.171464,0,0.173767,23320.3,-28319.1,0,36685.3,227826
step02_gravity_refstate-crust.xmf,1467,-9.5333e-07,5.90386e-06,0,-4.7834e-09,-8.53529e+08,-8.53058e+08,-8.53463e+08,-328.141,1.09254e-19,0.0981678,0,0.0981678,40000,-31078.8,0,50654.7,328.141
step02_gravity_refstate-crust.xmf,1468,-1.76126e-06,2.4057e-07,0,-1.87903e-05,-1.02351e+09,-1.02337e+09,-1.02339e+09,-1.28902e+06,0.0726157,0.400771,0,0.407296,6597.82,-37255,0,37834.8,1.28902e+06
step02_gravity_refstate-crust.xmf,1469,-2.6173e-06,5.40184e-06,0,-6.92815e-06,-8.44199e+08,-8.43649e+08,-8.4402e+08,-475271,0.0489944,0.244941,0,0.249793,14791.1,-30731.7,0,34105.9,475271
step02_gravity_refstate-crust.xmf,1470,-2.84263e-06,5.1963e-06,0,-8.76837e-06,-8.98546e+08,-8.97995e+08,-8.98351e+08,-601510,0.0556679,0.272204,0,0.277838,12360.9,-32709,0,34966.7,601510
step02_gravity_refstate-crust.xmf,1471,-1.43848e-06,1.61634e-06,0,-1.35298e-05,-9.54368e+08,-9.54158e+08,-9.54269e+08,-928145,0.0664114,0.348656,0,0.354925,8388.74,-34741.4,0,35739.8,928145
step02_gravity_refstate-crust.xmf,1472,-1.83821e-06,8.23813e-07,0,-1.73637e-05,-1.0094e+09,-1.00922e+09,-1.00927e+09,-1.19115e+06,0.0713682,0.386562,0,0.393095,7009.79,-36742,0,37404.7,1.19115e+06
step02_gravity_refstate-crust.xmf,1473,-1.81136e-06,1.19463e-06,0,-1.59853e-05,-9.92921e+08,-9.92715e+08,-9.92797e+08,-1.09659e+06,0.0698468,0.372176,0,0.378673,7476.18,-36142.8,0,36907.9,1.09659e+06
step02_gravity_refstate-crust.xmf,1474,-1.66249e-06,1.45064e-06,0,-1.46928e-05,-9.74212e+08,-9.73999e+08,-9.74098e+08,-1.00793e+06,0.0681763,0.35962,0,0.366025,7936.39,-35462.7,0,36339.9,1.00793e+06
step02_gravity_refstate-crust.xmf,1475,-2.29085e-06,3.42308e-06,0,-1.16033e-05,-9.35774e+08,-9.35382e+08,-9.35617e+08,-795985,0.0630129,0.317749,0,0.323937,9756.27,-34063.8,0,35433.5,795985
step02_gravity_refstate-crust.xmf,1476,-2.72357e-06,4.59235e-06,0,-1.008e-05,-9.20392e+08,-9.19891e+08,-9.20206e+08,-691488,0.0594566,0.292829,0,0.298804,11045.7,-33503.9,0,35277.7,691488
step02_gravity_refstate-crust.xmf,1477,-2.8669e-06,3.66613e-07,0,-2.39183e-05,-1.07104e+09,-1.07082e+09,-1.07084e+09,-1.64079e+06,0.0746565,0.439929,0,0.446218,5664.67,-38981.2,0,39390.7,1.64079e+06
step02_gravity_refstate-crust.xmf,1478,-2.60373e-06,6.38124e-06,0,-4.00275e-06,-8.12484e+08,-8.11867e+08,-8.12305e+08,-274589,0.0331278,0.1835,0,0.186466,20880.2,-29578.6,0,36206,274589
step02_gravity_refstate-crust.xmf,1479,-1.04102e-06,5.94529e-06,0,-3.55362e-07,-8.50401e+08,-8.49922e+08,-8.5033e+08,-24377.8,0.00319538,0.100709,0,0.100759,36773.1,-30964.7,0,48073.6,24377.8
step02_gravity_refstate-crust.xmf,1480,-7.89803e-07,6.01958e-06,0,-1.79697e-07,-8.86053e+08,-8.85586e+08,-8.85999e+08,-12327.2,0.00151311,0.0917659,0,0.0917784,38055.1,-32263.8,0,49891.3,12327.2
step02_gravity_refstate-crust.xmf,1481,-5.89552e-07,6.07988e-06,0,-2.27594e-09,-9.15409e+08,-9.14951e+08,-9.15368e+08,-156.129,3.95993e-20,0.0846619,0,0.0846619,40000,-33333.4,0,52068.4,156.129
step02_gravity_refstate-crust.xmf,1482,-1.17258e-06,5.9835e-06,0,-5.78309e-07,-8.41841e+08,-8.4135e+08,-8.4176e+08,-39672,0.00524406,0.105105,0,0.105236,35063.7,-30652.6,0,46573,39672
step02_gravity_refstate-crust.xmf,1483,-1.33244e-06,6.06614e-06,0,-8.55268e-07,-8.36238e+08,-8.3573e+08,-8.36146e+08,-58671.4,0.00777944,0.110542,0,0.110815,33143.5,-30448.1,0,45006.4,58671.4
step02_gravity_refstate-crust.xmf,1484,-4.58364e-07,-4.48235e-06,0,-2.90948e-05,-1.085e+09,-1.08528e+09,-1.08497e+09,-1.99591e+06,0.0756091,0.486962,0,0.492797,4807.01,-39491.7,0,39783.2,1.99591e+06
step02_gravity_refstate-crust.xmf,1485,-1.99526e-06,7.93656e-08,0,-2.01422e-05,-1.03709e+09,-1.03694e+09,-1.03695e+09,-1.38176e+06,0.0735046,0.411608,0,0.41812,6311.61,-37748.2,0,38272.2,1.38176e+06
step02_gravity_refstate-crust.xmf,1486,-2.82096e-06,5.96636e-06,0,-6.18207e-06,-8.4506e+08,-8.44457e+08,-8.44866e+08,-424090,0.0455613,0.228059,0,0.232566,16047.1,-30763.1,0,34696.9,424090
step02_gravity_refstate-crust.xmf,1487,-2.908e-06,6.36745e-06,0,-5.46464e-06,-8.45702e+08,-8.45065e+08,-8.45502e+08,-374874,0.0418419,0.212107,0,0.216195,17338.3,-30786.7,0,35333.2,374874
step02_gravity_refstate-crust.xmf,1488,-2.90277e-06,6.64021e-06,0,-4.78103e-06,-8.4649e+08,-8.45835e+08,-8.46291e+08,-327979,0.0379207,0.196947,0,0.200564,18678.1,-30815.8,0,36034.5,327979
step02_gravity_refstate-crust.xmf,1489,-2.91551e-06,5.73421e-06,0,-7.3671e-06,-8.73401e+08,-8.72807e+08,-8.73201e+08,-505383,0.0507019,0.248616,0,0.253733,14126.1,-31794.1,0,34791,505383
step02_gravity_refstate-crust.xmf,1490,-3.22898e-06,6.0922e-06,0,-7.81017e-06,-9.00676e+08,-9.00037e+08,-9.00455e+08,-535777,0.0521553,0.25243,0,0.257761,13507,-32786.4,0,35459.7,535777
step02_gravity_refstate-crust.xmf,1491,-3.14796e-06,5.45599e-06,0,-9.29376e-06,-9.20827e+08,-9.20237e+08,-9.20611e+08,-637552,0.0570678,0.277032,0,0.282849,11858,-33519.3,0,35555,637552
step02_gravity_refstate-crust.xmf,1492,-2.52741e-06,3.46442e-06,0,-1.24836e-05,-9.56106e+08,-9.55695e+08,-9.55933e+08,-856378,0.0647171,0.326599,0,0.332949,9267.4,-34803.1,0,36015.9,856378
step02_gravity_refstate-crust.xmf,1493,-3.29277e-06,2.57509e-06,0,-1.85475e-05,-1.03781e+09,-1.0374e+09,-1.03758e+09,-1.27236e+06,0.0719668,0.3892,0,0.395798,6889.48,-37773,0,38396.2,1.27236e+06
step02_gravity_refstate-crust.xmf,1494,-3.08589e-06,2.65993e-06,0,-1.72939e-05,-1.02418e+09,-1.02379e+09,-1.02397e+09,-1.18636e+06,0.0710587,0.377811,0,0.384436,7239,-37278,0,37974.3,1.18636e+06
step02_gravity_refstate-crust.xmf,1495,-2.97034e-06,4.72974e-06,0,-1.06737e-05,-9.38155e+08,-9.37627e+08,-9.37951e+08,-732215,0.0608198,0.298871,0,0.304997,10605.6,-34149.8,0,35758.7,732215
step02_gravity_refstate-crust.xmf,1496,-2.59786e-06,4.17423e-07,0,-2.21668e-05,-1.05804e+09,-1.05783e+09,-1.05786e+09,-1.52065e+06,0.0743553,0.427047,0,0.433472,5942.01,-38509,0,38964.7,1.52065e+06
step02_gravity_refstate-crust.xmf,1497,-3.00981e-06,3.30517e-07,0,-2.6184e-05,-1.08518e+09,-1.08495e+09,-1.08497e+09,-1.79622e+06,0.0746209,0.455818,0,0.461886,5355.27,-39495.4,0,39856.9,1.79622e+06
step02_gravity_refstate-crust.xmf,1498,-2.8212e-06,6.80483e-06,0,-4.13332e-06,-8.47493e+08,-8.46832e+08,-8.47299e+08,-283546,0.0338548,0.182485,0,0.185598,20084,-30852.9,0,36814,283546
step02_gravity_refstate-crust.xmf,1499,-1.51582e-06,6.18216e-06,0,-1.16559e-06,-8.33298e+08,-8.3277e+08,-8.33194e+08,-79959.5,0.0106001,0.11693,0,0.117409,31216.8,-30340.5,0,43532,79959.5
step02_gravity_refstate-crust.xmf,1500,-1.72078e-06,6.3049e-06,0,-1.51467e-06,-8.30558e+08,-8.30008e+08,-8.3044e+08,-103906,0.0137158,0.124658,0,0.12541,29346,-30240.1,0,42138.5,103906
step02_gravity_refstate-crust.xmf,1501,-1.93619e-06,6.41761e-06,0,-1.90741e-06,-8.27744e+08,-8.27171e+08,-8.27611e+08,-130848,0.0171231,0.133712,0,0.134804,27540.3,-30136.9,0,40825.3,130848
step02_gravity_refstate-crust.xmf,1502,-2.15121e-06,6.49624e-06,0,-2.35832e-06,-8.23823e+08,-8.2323e+08,-8.23676e+08,-161781,0.020884,0.144391,0,0.145894,25781.7,-29993.5,0,39551.3,161781
step02_gravity_refstate-crust.xmf,1503,-2.50152e-06,6.4813e-06,0,-3.42416e-06,-8.15188e+08,-8.14572e+08,-8.15016e+08,-234897,0.0290611,0.169742,0,0.172211,22434.8,-29677.6,0,37203.3,234897
step02_gravity_refstate-crust.xmf,1504,-2.34559e-06,6.52257e-06,0,-2.86643e-06,-8.19429e+08,-8.18821e+08,-8.19268e+08,-196637,0.0249103,0.1565,0,0.15847,24075.7,-29832.8,0,38335.8,196637
step02_gravity_refstate-crust.xmf,1505,-3.86797e-07,6.14566e-06,0,-8.16032e-08,-9.46065e+08,-9.45617e+08,-9.46039e+08,-5597.98,0.000515125,0.078141,0,0.0781427,38622.7,-34450.4,0,51754.6,5597.98
step02_gravity_refstate-crust.xmf,1506,-1.37068e-07,6.17125e-06,0,-5.42983e-09,-9.76718e+08,-9.76286e+08,-9.76709e+08,-372.486,-4.04269e-21,0.0709714,-0,0.0709714,40000,-35567.4,0,53526.1,372.486
step02_gravity_refstate-crust.xmf,1507,-3.47974e-06,2.29396e-06,0,-2.02959e-05,-1.05257e+09,-1.05217e+09,-1.05233e+09,-1.3923e+06,0.0729885,0.405367,0,0.411885,6449.11,-38309.3,0,38848.3,1.3923e+06
step02_gravity_refstate-crust.xmf,1508,-3.11157e-06,6.34522e-06,0,-6.53631e-06,-8.75104e+08,-8.74456e+08,-8.74891e+08,-448391,0.0470103,0.230756,0,0.235496,15339.1,-31856.3,0,35356.9,448391
step02_gravity_refstate-crust.xmf,1509,-3.61137e-06,6.5155e-06,0,-8.28465e-06,-9.28493e+08,-9.27799e+08,-9.28245e+08,-568327,0.0533036,0.256084,0,0.261573,12914.7,-33798.2,0,36181.6,568327
step02_gravity_refstate-crust.xmf,1510,-3.43361e-06,5.75511e-06,0,-9.76209e-06,-9.40823e+08,-9.40193e+08,-9.40588e+08,-669680,0.0581437,0.281256,0,0.287204,11432.1,-34246.6,0,36104.3,669680
step02_gravity_refstate-crust.xmf,1511,-2.7633e-06,3.53151e-06,0,-1.34431e-05,-9.76003e+08,-9.75571e+08,-9.75814e+08,-922200,0.0663291,0.336209,0,0.34269,8789.67,-35526.7,0,36597.8,922200
step02_gravity_refstate-crust.xmf,1512,-4.26363e-06,4.64429e-06,0,-1.66902e-05,-1.03642e+09,-1.03581e+09,-1.03612e+09,-1.14495e+06,0.0694258,0.364512,0,0.371064,7573.55,-37721.8,0,38474.5,1.14495e+06
step02_gravity_refstate-crust.xmf,1513,-3.51077e-06,3.75239e-06,0,-1.5884e-05,-1.01615e+09,-1.01565e+09,-1.01591e+09,-1.08964e+06,0.0693028,0.359677,0,0.366293,7807.87,-36985.5,0,37800.6,1.08964e+06
step02_gravity_refstate-crust.xmf,1514,-3.14765e-06,3.65449e-06,0,-1.45306e-05,-9.95899e+08,-9.95432e+08,-9.95683e+08,-996800,0.0678009,0.346466,0,0.353037,8327.31,-36249.6,0,37193.8,996800
step02_gravity_refstate-crust.xmf,1515,-3.27389e-06,4.94515e-06,0,-1.13641e-05,-9.58086e+08,-9.57522e+08,-9.57861e+08,-779576,0.0621945,0.305618,0,0.311883,10142,-34874.5,0,36319.3,779576
step02_gravity_refstate-crust.xmf,1516,-4.24897e-06,3.21432e-06,0,-2.15819e-05,-1.06994e+09,-1.06943e+09,-1.06965e+09,-1.48052e+06,0.0727596,0.41372,0,0.420069,6219.15,-38939.9,0,39433.4,1.48052e+06
step02_gravity_refstate-crust.xmf,1517,-4.78052e-06,3.76745e-06,0,-2.32582e-05,-1.08488e+09,-1.08429e+09,-1.08455e+09,-1.59551e+06,0.0724242,0.426175,0,0.432285,5920.65,-39482.6,0,39924,1.59551e+06
step02_gravity_refstate-crust.xmf,1518,-2.67644e-06,6.89928e-06,0,-3.50955e-06,-8.4985e+08,-8.49193e+08,-8.49666e+08,-240755,0.0296583,0.16847,0,0.171061,21566.6,-30939.5,0,37714.3,240755
step02_gravity_refstate-crust.xmf,1519,-8.737e-07,6.1095e-06,0,-3.66633e-07,-8.89251e+08,-8.88772e+08,-8.89191e+08,-25151,0.00317961,0.0932156,0,0.0932698,35963.6,-32380,0,48392.6,25151
step02_gravity_refstate-crust.xmf,1520,-4.85828e-07,6.18302e-06,0,-1.95752e-07,-9.39536e+08,-9.39078e+08,-9.39502e+08,-13428.6,0.0013899,0.0808673,0,0.0808793,36862.4,-34212.3,0,50292.4,13428.6
step02_gravity_refstate-crust.xmf,1521,-5.111e-09,6.21904e-06,0,-6.38064e-08,-9.97859e+08,-9.97432e+08,-9.97859e+08,-4377.12,-4.56126e-05,0.0667833,-0,0.0667833,38004.7,-36337.7,0,52581.2,4377.12
step02_gravity_refstate-crust.xmf,1522,-1.03641e-06,6.21217e-06,0,-5.92226e-07,-8.84405e+08,-8.83908e+08,-8.84334e+08,-40626.7,0.00521286,0.0978542,0,0.097993,33952.4,-32203.1,0,46795.4,40626.7
step02_gravity_refstate-crust.xmf,1523,-1.23522e-06,6.34391e-06,0,-8.46308e-07,-8.80017e+08,-8.79497e+08,-8.79932e+08,-58056.8,0.00753806,0.10369,0,0.103963,32035.4,-32042.7,0,45310.1,58056.8
step02_gravity_refstate-crust.xmf,1524,-3.19379e-06,6.79611e-06,0,-5.72554e-06,-8.77235e+08,-8.7655e+08,-8.77016e+08,-392772,0.0429391,0.2135,0,0.217775,16604.2,-31934.2,0,35993,392772
step02_gravity_refstate-crust.xmf,1525,-3.1585e-06,7.0743e-06,0,-4.96153e-06,-8.78123e+08,-8.77421e+08,-8.77906e+08,-340361,0.0386807,0.197309,0,0.201065,17930.9,-31967.1,0,36652.6,340361
step02_gravity_refstate-crust.xmf,1526,-3.04636e-06,7.23332e-06,0,-4.26533e-06,-8.79547e+08,-8.78842e+08,-8.79338e+08,-292601,0.0344074,0.182273,0,0.185492,19281.7,-32019.7,0,37377.1,292601
step02_gravity_refstate-crust.xmf,1527,-3.42864e-06,6.75614e-06,0,-6.88136e-06,-9.03139e+08,-9.0244e+08,-9.02904e+08,-472062,0.0481745,0.233591,0,0.238507,14678.4,-32876.3,0,36004.2,472062
step02_gravity_refstate-crust.xmf,1528,-3.73648e-06,7.12687e-06,0,-7.2659e-06,-9.2777e+08,-9.27025e+08,-9.27514e+08,-498441,0.0492281,0.237361,0,0.242412,14035.9,-33772.3,0,36572.9,498441
step02_gravity_refstate-crust.xmf,1529,-3.72824e-06,6.48734e-06,0,-8.91862e-06,-9.42077e+08,-9.41377e+08,-9.41822e+08,-611817,0.0552943,0.265626,0,0.27132,12217.3,-34292.2,0,36403.6,611817
step02_gravity_refstate-crust.xmf,1530,-3.61647e-06,5.18121e-06,0,-1.21568e-05,-9.78113e+08,-9.77509e+08,-9.77865e+08,-833959,0.0635347,0.313548,0,0.31992,9657.09,-35602.6,0,36889.1,833959
step02_gravity_refstate-crust.xmf,1531,-4.71868e-06,4.96948e-06,0,-1.79656e-05,-1.05298e+09,-1.05232e+09,-1.05266e+09,-1.23244e+06,0.069956,0.376019,0,0.382471,7181.4,-38323.6,0,38990.6,1.23244e+06
step02_gravity_refstate-crust.xmf,1532,-3.77489e-06,6.09628e-06,0,-1.02592e-05,-9.60244e+08,-9.59567e+08,-9.59985e+08,-703783,0.0590873,0.28588,0,0.291923,11009.6,-34952.8,0,36645.8,703783
step02_gravity_refstate-crust.xmf,1533,-2.87294e-06,7.30042e-06,0,-3.62157e-06,-8.81647e+08,-8.80949e+08,-8.81449e+08,-248440,0.0301022,0.168024,0,0.170699,20689.9,-32096.9,0,38187.5,248440
step02_gravity_refstate-crust.xmf,1534,-1.46956e-06,6.49653e-06,0,-1.14662e-06,-8.75803e+08,-8.75256e+08,-8.75702e+08,-78658.4,0.0102838,0.110958,0,0.111434,30137,-31888.6,0,43876.2,78658.4
step02_gravity_refstate-crust.xmf,1535,-1.72279e-06,6.65013e-06,0,-1.49183e-06,-8.71617e+08,-8.71043e+08,-8.71499e+08,-102339,0.0133858,0.119474,0,0.120221,28323.9,-31735.4,0,42536.8,102339
step02_gravity_refstate-crust.xmf,1536,-1.98534e-06,6.79705e-06,0,-1.88818e-06,-8.68068e+08,-8.67466e+08,-8.67932e+08,-129529,0.0168454,0.129192,0,0.130286,26561.2,-31605.4,0,41284.4,129529
step02_gravity_refstate-crust.xmf,1537,-2.25625e-06,6.90515e-06,0,-2.37353e-06,-8.62807e+08,-8.62178e+08,-8.62652e+08,-162824,0.0209086,0.141069,0,0.14261,24791.9,-31412.9,0,40017.6,162824
step02_gravity_refstate-crust.xmf,1538,-2.49341e-06,6.93503e-06,0,-2.92623e-06,-8.55807e+08,-8.5516e+08,-8.55636e+08,-200739,0.0252899,0.154483,0,0.156539,23124.2,-31157.2,0,38800.7,200739
step02_gravity_refstate-crust.xmf,1539,3.77846e-07,6.19469e-06,0,-1.17987e-09,-1.03764e+09,-1.03724e+09,-1.03767e+09,-80.9391,-6.01699e-20,0.0572433,-0,0.0572433,40000,-37787.4,0,55026.3,80.9391
step02_gravity_refstate-crust.xmf,1540,-3.48966e-06,7.22212e-06,0,-5.99502e-06,-9.05743e+08,-9.05009e+08,-9.05504e+08,-411258,0.0438099,0.215459,0,0.219868,15901.9,-32971.6,0,36605.9,411258
step02_gravity_refstate-crust.xmf,1541,-4.01353e-06,7.52595e-06,0,-7.47603e-06,-9.4852e+08,-9.47728e+08,-9.48244e+08,-512856,0.0494143,0.238545,0,0.243609,13630.6,-34527.2,0,37120.4,512856
step02_gravity_refstate-crust.xmf,1542,-4.0612e-06,6.94014e-06,0,-9.18722e-06,-9.61404e+08,-9.60649e+08,-9.61125e+08,-630243,0.0555246,0.267024,0,0.272736,11903.9,-34995.2,0,36964.4,630243
step02_gravity_refstate-crust.xmf,1543,-4.16775e-06,7.52104e-06,0,-8.12893e-06,-9.59707e+08,-9.58905e+08,-9.59421e+08,-557644,0.0516341,0.248778,0,0.25408,12878.4,-34933.9,0,37232.1,557644
step02_gravity_refstate-crust.xmf,1544,-3.98647e-06,5.47093e-06,0,-1.30217e-05,-9.97939e+08,-9.9729e+08,-9.97665e+08,-893291,0.0647048,0.322131,0,0.328566,9180.44,-36323.3,0,37465.5,893291
step02_gravity_refstate-crust.xmf,1545,-5.4592e-06,6.86752e-06,0,-1.58502e-05,-1.05352e+09,-1.05267e+09,-1.05314e+09,-1.08732e+06,0.0662723,0.349734,0,0.355958,7892.48,-38342.8,0,39146.7,1.08732e+06
step02_gravity_refstate-crust.xmf,1546,-4.98614e-06,6.40181e-06,0,-1.48382e-05,-1.03662e+09,-1.03584e+09,-1.03628e+09,-1.0179e+06,0.065983,0.339568,0,0.345919,8313.31,-37729,0,38634,1.0179e+06
step02_gravity_refstate-crust.xmf,1547,-4.46357e-06,5.85913e-06,0,-1.39535e-05,-1.01753e+09,-1.01682e+09,-1.01723e+09,-957211,0.0656256,0.331314,0,0.337751,8715.95,-37035.3,0,38047.1,957211
step02_gravity_refstate-crust.xmf,1548,-4.14319e-06,6.45111e-06,0,-1.08663e-05,-9.80237e+08,-9.79511e+08,-9.79953e+08,-745427,0.0600465,0.291958,0,0.298069,10534.9,-35679.7,0,37202.5,745427
step02_gravity_refstate-crust.xmf,1549,-5.23767e-06,5.49767e-06,0,-1.92188e-05,-1.06883e+09,-1.0681e+09,-1.06847e+09,-1.31841e+06,0.0699796,0.387122,0,0.393396,6830.56,-38899.3,0,39494.4,1.31841e+06
step02_gravity_refstate-crust.xmf,1550,-5.79886e-06,6.22968e-06,0,-2.05144e-05,-1.08443e+09,-1.0836e+09,-1.08403e+09,-1.40729e+06,0.0693801,0.397954,0,0.403956,6509.45,-39465.8,0,39999.1,1.40729e+06
step02_gravity_refstate-crust.xmf,1551,-2.64435e-06,7.30506e-06,0,-3.00397e-06,-8.85811e+08,-8.85129e+08,-8.8563e+08,-206072,0.025628,0.153888,0,0.156007,22202.4,-32249.5,0,39153.2,206072
step02_gravity_refstate-crust.xmf,1552,-6.75961e-07,6.29136e-06,0,-3.62051e-07,-9.32232e+08,-9.31754e+08,-9.32186e+08,-24836.7,0.00277149,0.0852815,0,0.0853265,34822.4,-33945.8,0,48630.4,24836.7
step02_gravity_refstate-crust.xmf,1553,-2.02662e-07,6.30831e-06,0,-1.66586e-07,-9.85757e+08,-9.8531e+08,-9.85743e+08,-11427.8,0.000486988,0.0716579,0,0.0716595,35706,-35896.4,0,50630.7,11427.8
step02_gravity_refstate-crust.xmf,1554,5.17228e-07,6.20582e-06,0,2.83747e-09,-1.05516e+09,-1.05477e+09,-1.0552e+09,194.65,-0.000833882,0.0536025,-0,0.053609,38427.4,-38425.8,0,54343.5,194.65
step02_gravity_refstate-crust.xmf,1555,-8.91303e-07,6.44001e-06,0,-5.64705e-07,-9.26454e+08,-9.25951e+08,-9.26393e+08,-38738.8,0.00456166,0.0907932,0,0.0909077,32810.4,-33734.8,0,47059.1,38738.8
step02_gravity_refstate-crust.xmf,1556,-1.14596e-06,6.61421e-06,0,-8.08705e-07,-9.20598e+08,-9.20065e+08,-9.20519e+08,-55477.2,0.00679499,0.0975974,0,0.0978337,30901.1,-33520.9,0,45590.9,55477.2
step02_gravity_refstate-crust.xmf,1557,-3.42312e-06,7.50723e-06,0,-5.15166e-06,-9.07013e+08,-9.06263e+08,-9.06778e+08,-353404,0.0392454,0.198327,0,0.202172,17199.2,-33018.5,0,37229.5,353404
step02_gravity_refstate-crust.xmf,1558,-3.27803e-06,7.65887e-06,0,-4.40054e-06,-9.08736e+08,-9.07986e+08,-9.08511e+08,-301877,0.0347378,0.182624,0,0.185899,18506.8,-33082.1,0,37906.8,301877
step02_gravity_refstate-crust.xmf,1559,-3.07726e-06,7.71034e-06,0,-3.73213e-06,-9.10869e+08,-9.10129e+08,-9.10657e+08,-256024,0.0303551,0.168207,0,0.170924,19831.8,-33160.6,0,38638.4,256024
step02_gravity_refstate-crust.xmf,1560,-3.84673e-06,7.75637e-06,0,-6.23139e-06,-9.36568e+08,-9.35772e+08,-9.36304e+08,-427473,0.0440853,0.216578,0,0.221019,15229.9,-34093.1,0,37340.2,427473
step02_gravity_refstate-crust.xmf,1561,-4.10289e-06,8.00784e-06,0,-6.73163e-06,-9.55496e+08,-9.54665e+08,-9.55215e+08,-461790,0.0457826,0.224182,0,0.228809,14380.7,-34781.6,0,37637.3,461790
step02_gravity_refstate-crust.xmf,1562,-5.92186e-06,7.35519e-06,0,-1.69248e-05,-1.06899e+09,-1.06808e+09,-1.06859e+09,-1.16104e+06,0.0662215,0.360202,0,0.366239,7499.96,-38905.2,0,39621.5,1.16104e+06
step02_gravity_refstate-crust.xmf,1563,-4.54955e-06,6.84952e-06,0,-1.15532e-05,-1.00024e+09,-9.99455e+08,-9.99925e+08,-792546,0.0608961,0.299145,0,0.305281,10038.9,-36406.8,0,37765.5,792546
step02_gravity_refstate-crust.xmf,1564,-4.43742e-06,7.3897e-06,0,-9.63691e-06,-9.82077e+08,-9.81266e+08,-9.81773e+08,-661092,0.0561069,0.271615,0,0.277349,11423.8,-35747,0,37528,661092
step02_gravity_refstate-crust.xmf,1565,-2.83585e-06,7.68174e-06,0,-3.13917e-06,-9.13077e+08,-9.12355e+08,-9.12882e+08,-215347,0.0261569,0.154981,0,0.157173,21188.2,-33241.9,0,39420.3,215347
step02_gravity_refstate-crust.xmf,1566,-1.42763e-06,6.80166e-06,0,-1.09949e-06,-9.1508e+08,-9.14515e+08,-9.14982e+08,-75424.9,0.0094696,0.105577,0,0.106001,29075.4,-33319.1,0,44221.5,75424.9
step02_gravity_refstate-crust.xmf,1567,-1.72143e-06,6.99732e-06,0,-1.43406e-06,-9.11154e+08,-9.10556e+08,-9.11036e+08,-98376.6,0.0124892,0.114415,0,0.115095,27320.2,-33175.4,0,42976.7,98376.6
step02_gravity_refstate-crust.xmf,1568,-2.041e-06,7.18277e-06,0,-1.84883e-06,-9.06407e+08,-9.05775e+08,-9.06267e+08,-126830,0.0161292,0.125087,0,0.126123,25566.8,-33001.5,0,41746.4,126830
step02_gravity_refstate-crust.xmf,1569,-2.39406e-06,7.35007e-06,0,-2.396e-06,-9.01747e+08,-9.01078e+08,-9.01582e+08,-164366,0.0206742,0.138523,0,0.140058,23674,-32830.7,0,40476.1,164366
step02_gravity_refstate-crust.xmf,1570,3.59907e-07,6.3028e-06,0,-1.83507e-08,-1.04664e+09,-1.04623e+09,-1.04666e+09,-1258.86,-0.00152782,0.0568811,-0,0.0569016,36400.9,-38115.1,0,52704.7,1258.86
step02_gravity_refstate-crust.xmf,1571,-3.69944e-06,7.95639e-06,0,-5.33515e-06,-9.34171e+08,-9.33372e+08,-9.33918e+08,-365991,0.0394907,0.199492,0,0.203363,16507.3,-34006.8,0,37801.5,365991
step02_gravity_refstate-crust.xmf,1572,-4.28627e-06,8.13738e-06,0,-7.19142e-06,-9.67329e+08,-9.66477e+08,-9.67035e+08,-493332,0.0473466,0.23144,0,0.236233,13732.9,-35211.8,0,37795.1,493332
step02_gravity_refstate-crust.xmf,1573,-4.562e-06,8.06676e-06,0,-8.47522e-06,-9.83687e+08,-9.8282e+08,-9.83374e+08,-581400,0.0517637,0.251939,0,0.257202,12356.3,-35806.1,0,37878.2,581400
step02_gravity_refstate-crust.xmf,1574,-6.27374e-06,8.71639e-06,0,-1.48278e-05,-1.06994e+09,-1.06891e+09,-1.06951e+09,-1.01719e+06,0.0619208,0.335063,0,0.340737,8177.01,-38940.2,0,39789.5,1.01719e+06
step02_gravity_refstate-crust.xmf,1575,-4.98576e-06,7.29894e-06,0,-1.22813e-05,-1.01957e+09,-1.01873e+09,-1.01923e+09,-842497,0.0614541,0.306697,0,0.312794,9562.43,-37109.7,0,38321.9,842497
step02_gravity_refstate-crust.xmf,1576,-5.8954e-06,8.29671e-06,0,-1.39284e-05,-1.0554e+09,-1.05442e+09,-1.05499e+09,-955488,0.0619099,0.324894,0,0.33074,8611.71,-38411.8,0,39365.3,955488
step02_gravity_refstate-crust.xmf,1577,-5.46658e-06,7.86046e-06,0,-1.301e-05,-1.03867e+09,-1.03776e+09,-1.0383e+09,-892483,0.0616274,0.31462,0,0.320599,9100.56,-37804,0,38884,892483
step02_gravity_refstate-crust.xmf,1578,-4.82837e-06,7.84324e-06,0,-1.01644e-05,-1.0022e+09,-1.00133e+09,-1.00186e+09,-697278,0.0566007,0.277383,0,0.283099,10917,-36478.5,0,38077.1,697278
step02_gravity_refstate-crust.xmf,1579,-6.3889e-06,8.04577e-06,0,-1.79678e-05,-1.08408e+09,-1.08309e+09,-1.08364e+09,-1.23259e+06,0.0656329,0.370629,0,0.376396,7135.09,-39453.5,0,40093.5,1.23259e+06
step02_gravity_refstate-crust.xmf,1580,-2.61015e-06,7.6302e-06,0,-2.67091e-06,-9.17229e+08,-9.16527e+08,-9.1705e+08,-183225,0.0225888,0.144066,0,0.145826,22362.9,-33393.9,0,40190.2,183225
step02_gravity_refstate-crust.xmf,1581,-4.70052e-07,6.47246e-06,0,-3.15831e-07,-9.74542e+08,-9.74065e+08,-9.74509e+08,-21666,0.00164615,0.0776636,0,0.0776811,33625,-35487.3,0,48887.5,21666
step02_gravity_refstate-crust.xmf,1582,1.09301e-08,6.45213e-06,0,-1.1702e-07,-1.02455e+09,-1.02411e+09,-1.02455e+09,-8027.59,-0.00101091,0.0646917,-0,0.0646996,34280,-37309.8,0,50666.9,8027.59
step02_gravity_refstate-crust.xmf,1583,-7.59395e-07,6.6682e-06,0,-5.10289e-07,-9.65575e+08,-9.65066e+08,-9.65523e+08,-35005.8,0.00336114,0.0845552,0,0.084622,31620.4,-35160,0,47287.2,35005.8
step02_gravity_refstate-crust.xmf,1584,-1.06441e-06,6.87697e-06,0,-7.44934e-07,-9.57752e+08,-9.57208e+08,-9.57679e+08,-51102.5,0.0055348,0.0921801,0,0.0923461,29803.3,-34874.3,0,45874.3,51102.5
step02_gravity_refstate-crust.xmf,1585,-6.69641e-06,9.37933e-06,0,-1.56253e-05,-1.08437e+09,-1.08327e+09,-1.08391e+09,-1.0719e+06,0.0611243,0.343539,0,0.348935,7814.22,-39465,0,40231.2,1.0719e+06
step02_gravity_refstate-crust.xmf,1586,-3.51462e-06,8.10276e-06,0,-4.51686e-06,-9.36534e+08,-9.35737e+08,-9.36293e+08,-309857,0.0346847,0.18294,0,0.186199,17780.3,-34093.8,0,38451.6,309857
step02_gravity_refstate-crust.xmf,1587,-3.27797e-06,8.13357e-06,0,-3.80993e-06,-9.38727e+08,-9.37944e+08,-9.38502e+08,-261361,0.0301306,0.168062,0,0.170741,19057.6,-34174.6,0,39129.3,261361
step02_gravity_refstate-crust.xmf,1588,-3.00205e-06,8.08018e-06,0,-3.18616e-06,-9.40875e+08,-9.40114e+08,-9.40669e+08,-218571,0.025783,0.154385,0,0.156523,20372.6,-34253.8,0,39854.3,218571
step02_gravity_refstate-crust.xmf,1589,-4.5653e-06,8.58366e-06,0,-7.36514e-06,-9.8659e+08,-9.85688e+08,-9.86277e+08,-505249,0.047031,0.232798,0,0.237501,13322.8,-35912.6,0,38304.2,505249
step02_gravity_refstate-crust.xmf,1590,-4.40035e-06,8.78053e-06,0,-6.38954e-06,-9.83848e+08,-9.82943e+08,-9.83546e+08,-438323,0.0426847,0.215677,0,0.21986,14371.2,-35813.8,0,38589.6,438323
step02_gravity_refstate-crust.xmf,1591,-4.11763e-06,8.46627e-06,0,-5.96619e-06,-9.66213e+08,-9.65349e+08,-9.6593e+08,-409281,0.0416431,0.209503,0,0.213602,15117.6,-35172.4,0,38283.7,409281
step02_gravity_refstate-crust.xmf,1592,-3.96392e-06,8.47211e-06,0,-5.39886e-06,-9.61774e+08,-9.60921e+08,-9.61502e+08,-370362,0.0387411,0.198628,0,0.202371,15962.2,-35011.4,0,38478.4,370362
step02_gravity_refstate-crust.xmf,1593,-5.23495e-06,8.33608e-06,0,-1.07362e-05,-1.02158e+09,-1.02065e+09,-1.02123e+09,-736506,0.056903,0.284013,0,0.289657,10406.5,-37183.6,0,38612.3,736506
step02_gravity_refstate-crust.xmf,1594,-4.92994e-06,8.5788e-06,0,-8.86288e-06,-1.00468e+09,-1.00375e+09,-1.00434e+09,-607994,0.0518983,0.256556,0,0.261753,11821.4,-36569.6,0,38432.8,607994
step02_gravity_refstate-crust.xmf,1595,-2.71286e-06,7.96597e-06,0,-2.65828e-06,-9.42808e+08,-9.42076e+08,-9.42622e+08,-182358,0.0218487,0.142313,0,0.143981,21680.5,-34325.2,0,40598.9,182358
step02_gravity_refstate-crust.xmf,1596,-1.37925e-06,7.10787e-06,0,-1.01876e-06,-9.53e+08,-9.52418e+08,-9.52905e+08,-69886.9,0.00804214,0.100314,0,0.100636,28041.8,-34700.3,0,44614.5,69886.9
step02_gravity_refstate-crust.xmf,1597,-1.7157e-06,7.3437e-06,0,-1.34996e-06,-9.48673e+08,-9.48052e+08,-9.48555e+08,-92607.3,0.0110385,0.109607,0,0.110162,26338.3,-34541.8,0,43437.8,92607.3
step02_gravity_refstate-crust.xmf,1598,-2.08094e-06,7.56741e-06,0,-1.77171e-06,-9.43421e+08,-9.42759e+08,-9.43279e+08,-121539,0.014751,0.120805,0,0.121702,24634.1,-34349.5,0,42269.7,121539
step02_gravity_refstate-crust.xmf,1599,-2.41166e-06,7.78545e-06,0,-2.20329e-06,-9.427e+08,-9.42e+08,-9.42534e+08,-151145,0.0183179,0.131563,0,0.132832,23069.6,-34322.2,0,41354.8,151145
step02_gravity_refstate-crust.xmf,1600,4.3444e-07,6.42756e-06,0,1.53737e-08,-1.06775e+09,-1.06734e+09,-1.06778e+09,1054.64,-0.00308642,0.0539383,-0,0.0540265,34691.4,-38884.3,0,52110.3,1054.64
step02_gravity_refstate-crust.xmf,1601,-6.71576e-06,1.0337e-05,0,-1.35507e-05,-1.08484e+09,-1.08367e+09,-1.08438e+09,-929580,0.0564623,0.318961,0,0.32392,8491.87,-39483.4,0,40386.3,929580
step02_gravity_refstate-crust.xmf,1602,-3.74638e-06,8.57233e-06,0,-4.5952e-06,-9.63533e+08,-9.62688e+08,-9.63276e+08,-315230,0.0340982,0.182829,0,0.185982,17115.8,-35076.5,0,39029.6,315230
step02_gravity_refstate-crust.xmf,1603,-4.902e-06,9.09813e-06,0,-7.65087e-06,-1.00793e+09,-1.00697e+09,-1.0076e+09,-524850,0.0467593,0.236144,0,0.240729,12776.7,-36689.1,0,38850.1,524850
step02_gravity_refstate-crust.xmf,1604,-6.4038e-06,9.68313e-06,0,-1.31612e-05,-1.07136e+09,-1.07026e+09,-1.07093e+09,-902857,0.0577752,0.314095,0,0.319365,8784.17,-38993.2,0,39970.4,902857
step02_gravity_refstate-crust.xmf,1605,-5.68608e-06,8.90415e-06,0,-1.13214e-05,-1.04078e+09,-1.03978e+09,-1.04039e+09,-776648,0.0567258,0.290593,0,0.296078,9924.17,-37881.6,0,39160,776648
step02_gravity_refstate-crust.xmf,1606,-6.15136e-06,9.69393e-06,0,-1.19177e-05,-1.06155e+09,-1.06047e+09,-1.06113e+09,-817557,0.055993,0.298391,0,0.303599,9402.24,-38637,0,39764.5,817557
step02_gravity_refstate-crust.xmf,1607,-5.29934e-06,9.05842e-06,0,-9.3492e-06,-1.02417e+09,-1.02319e+09,-1.02381e+09,-641355,0.052021,0.262649,0,0.267751,11262.9,-37278.6,0,38942.8,641355
step02_gravity_refstate-crust.xmf,1608,-3.05812e-07,6.66946e-06,0,-2.4959e-07,-1.01266e+09,-1.01218e+09,-1.01264e+09,-17121.9,-3.96598e-05,0.0714214,-0,0.0714214,32286.9,-36875.9,0,49013,17121.9
step02_gravity_refstate-crust.xmf,1609,2.00025e-07,6.60235e-06,0,-3.60879e-08,-1.0593e+09,-1.05886e+09,-1.05931e+09,-2475.63,-0.00315331,0.0587211,-0,0.0588057,32960.1,-38575.9,0,50739.2,2475.63
step02_gravity_refstate-crust.xmf,1610,-6.46398e-07,6.89874e-06,0,-4.34728e-07,-1.00092e+09,-1.0004e+09,-1.00088e+09,-29822.3,0.00166746,0.0792173,0,0.0792349,30449.9,-36447.6,0,47493.4,29822.3
step02_gravity_refstate-crust.xmf,1611,-9.7986e-07,7.13338e-06,0,-6.57424e-07,-9.9249e+08,-9.91934e+08,-9.92423e+08,-45099.3,0.00373825,0.0871271,0,0.0872072,28762.5,-36139.7,0,46188.3,45099.3
step02_gravity_refstate-crust.xmf,1612,-3.4754e-06,8.57848e-06,0,-3.86301e-06,-9.6587e+08,-9.65044e+08,-9.65632e+08,-265003,0.0294467,0.16774,0,0.170305,18327.1,-35162.7,0,39652.2,265003
step02_gravity_refstate-crust.xmf,1613,-3.16626e-06,8.50865e-06,0,-3.2064e-06,-9.68796e+08,-9.67995e+08,-9.68579e+08,-219959,0.0249012,0.15352,0,0.155526,19587.8,-35270.4,0,40344.5,219959
step02_gravity_refstate-crust.xmf,1614,-2.83163e-06,8.36289e-06,0,-2.63698e-06,-9.71042e+08,-9.70274e+08,-9.70848e+08,-180897,0.0206929,0.140566,0,0.142081,20900.7,-35353.2,0,41069.3,180897
step02_gravity_refstate-crust.xmf,1615,-4.20566e-06,9.03288e-06,0,-5.41788e-06,-9.88452e+08,-9.87544e+08,-9.88163e+08,-371667,0.0375436,0.197888,0,0.201418,15421.8,-35982.6,0,39148.1,371667
step02_gravity_refstate-crust.xmf,1616,-4.71809e-06,9.37078e-06,0,-6.54612e-06,-1.00912e+09,-1.00815e+09,-1.00879e+09,-449064,0.0417147,0.217133,0,0.221104,13790.4,-36733.4,0,39236.6,449064
step02_gravity_refstate-crust.xmf,1617,-3.96605e-06,9.07257e-06,0,-4.63567e-06,-9.90084e+08,-9.89189e+08,-9.89812e+08,-318007,0.0329459,0.182381,0,0.185333,16490.4,-36043,0,39636.2,318007
step02_gravity_refstate-crust.xmf,1618,-6.53089e-06,1.07359e-05,0,-1.18108e-05,-1.08161e+09,-1.08042e+09,-1.08116e+09,-810223,0.0524908,0.296574,0,0.301183,9217.42,-39367.3,0,40431.9,810223
step02_gravity_refstate-crust.xmf,1619,-5.64928e-06,9.59118e-06,0,-9.79463e-06,-1.04205e+09,-1.04101e+09,-1.04167e+09,-671912,0.0517785,0.268588,0,0.273533,10758.7,-37929,0,39425.4,671912
step02_gravity_refstate-crust.xmf,1620,-5.28271e-06,9.7223e-06,0,-7.94367e-06,-1.0313e+09,-1.03027e+09,-1.03093e+09,-544936,0.0458749,0.239712,0,0.244062,12200.5,-37539,0,39471.9,544936
step02_gravity_refstate-crust.xmf,1621,-2.47495e-06,8.16666e-06,0,-2.13011e-06,-9.73512e+08,-9.72782e+08,-9.73342e+08,-146126,0.0167095,0.128422,0,0.129504,22291.2,-35444.3,0,41871.2,146126
step02_gravity_refstate-crust.xmf,1622,-1.3157e-06,7.39764e-06,0,-9.08482e-07,-9.88312e+08,-9.87714e+08,-9.88222e+08,-62321.9,0.00601116,0.0951305,0,0.0953202,27115.8,-35986.6,0,45058.9,62321.9
step02_gravity_refstate-crust.xmf,1623,-1.69247e-06,7.68147e-06,0,-1.2367e-06,-9.84226e+08,-9.83583e+08,-9.8411e+08,-84837.8,0.00895928,0.104781,0,0.105163,25428.6,-35836.8,0,43941.9,84837.8
step02_gravity_refstate-crust.xmf,1624,-2.09125e-06,7.9477e-06,0,-1.64912e-06,-9.7882e+08,-9.78132e+08,-9.78677e+08,-113130,0.0126461,0.116173,0,0.116859,23796.9,-35638.8,0,42853.4,113130
step02_gravity_refstate-crust.xmf,1625,-3.65868e-06,9.04173e-06,0,-3.89034e-06,-9.92297e+08,-9.91426e+08,-9.92046e+08,-266877,0.0282649,0.167245,0,0.169616,17635.8,-36124.8,0,40199.8,266877
step02_gravity_refstate-crust.xmf,1626,-4.46239e-06,9.49337e-06,0,-5.58537e-06,-1.01031e+09,-1.00936e+09,-1.01001e+09,-383156,0.0368264,0.199756,0,0.203123,14815.3,-36778.1,0,39650,383156
step02_gravity_refstate-crust.xmf,1627,-5.01805e-06,9.92783e-06,0,-6.74388e-06,-1.03129e+09,-1.03026e+09,-1.03094e+09,-462630,0.0406692,0.219691,0,0.223424,13216.9,-37540.2,0,39798.9,462630
step02_gravity_refstate-crust.xmf,1628,-6.04144e-06,1.02507e-05,0,-1.01218e-05,-1.06112e+09,-1.06001e+09,-1.06071e+09,-694354,0.0503894,0.27244,0,0.277061,10338,-38622.7,0,39982.4,694354
step02_gravity_refstate-crust.xmf,1629,-5.55468e-06,9.93924e-06,0,-8.68672e-06,-1.0432e+09,-1.04214e+09,-1.04282e+09,-595909,0.0475649,0.251272,0,0.255734,11473.1,-37971.6,0,39667.1,595909
step02_gravity_refstate-crust.xmf,1630,-1.49794e-07,6.90659e-06,0,-1.5161e-07,-1.05105e+09,-1.05056e+09,-1.05104e+09,-10400.4,-0.00258969,0.0656424,-0,0.0656934,30785.8,-38274.6,0,49119.3,10400.4
step02_gravity_refstate-crust.xmf,1631,-5.92591e-07,7.09628e-06,0,-3.8448e-07,-1.02534e+09,-1.02482e+09,-1.0253e+09,-26375.3,0.000201897,0.0762299,0,0.0762301,29430.8,-37337.2,0,47542,26375.3
step02_gravity_refstate-crust.xmf,1632,-8.5745e-07,7.35431e-06,0,-5.28622e-07,-1.02531e+09,-1.02475e+09,-1.02525e+09,-36263.5,0.00125513,0.081521,0,0.0815307,27973,-37335.3,0,46652.1,36263.5
step02_gravity_refstate-crust.xmf,1633,-2.53591e-06,8.55849e-06,0,-2.05101e-06,-1.00315e+09,-1.00239e+09,-1.00298e+09,-140699,0.0147054,0.125575,0,0.126433,21505,-36523.8,0,42384.6,140699
step02_gravity_refstate-crust.xmf,1634,-3.31457e-06,8.95242e-06,0,-3.19791e-06,-9.96008e+08,-9.95167e+08,-9.95781e+08,-219376,0.0234871,0.152418,0,0.154217,18851,-36261.1,0,40868.4,219376
step02_gravity_refstate-crust.xmf,1635,-2.92791e-06,8.79418e-06,0,-2.56985e-06,-1.00077e+09,-9.9997e+08,-1.00057e+09,-176292,0.0187433,0.138064,0,0.13933,20147.6,-36436,0,41635.4,176292
step02_gravity_refstate-crust.xmf,1636,-4.15733e-06,9.60068e-06,0,-4.66581e-06,-1.016e+09,-1.01505e+09,-1.01571e+09,-320074,0.0314264,0.182442,0,0.185129,15843.9,-36986.5,0,40237.2,320074
step02_gravity_refstate-crust.xmf,1637,-4.6774e-06,9.99386e-06,0,-5.6571e-06,-1.03159e+09,-1.03059e+09,-1.03127e+09,-388077,0.0353647,0.200467,0,0.203562,14303.9,-37552.8,0,40184.7,388077
step02_gravity_refstate-crust.xmf,1638,-3.83817e-06,9.5489e-06,0,-3.91216e-06,-1.01917e+09,-1.01825e+09,-1.01891e+09,-268374,0.0265928,0.166999,0,0.169103,16914.9,-37103.2,0,40777,268374
step02_gravity_refstate-crust.xmf,1639,-6.30662e-06,1.10973e-05,0,-1.02396e-05,-1.08112e+09,-1.07992e+09,-1.08068e+09,-702435,0.0477931,0.274739,0,0.278865,9967.24,-39350.8,0,40593.5,702435
step02_gravity_refstate-crust.xmf,1640,-5.77505e-06,1.05998e-05,0,-8.66592e-06,-1.06117e+09,-1.06005e+09,-1.06077e+09,-594482,0.0453481,0.251116,0,0.255178,11190.9,-38626,0,40214.5,594482
step02_gravity_refstate-crust.xmf,1641,-5.51269e-06,1.05521e-05,0,-7.65872e-06,-1.0562e+09,-1.0551e+09,-1.05582e+09,-525388,0.0418956,0.234661,0,0.238371,12004.8,-38446.1,0,40276.8,525388
step02_gravity_refstate-crust.xmf,1642,-5.20399e-06,1.05726e-05,0,-6.64508e-06,-1.05455e+09,-1.05347e+09,-1.05419e+09,-455852,0.0376624,0.217661,0,0.220896,12867.5,-38387.3,0,40486.5,455852
step02_gravity_refstate-crust.xmf,1643,-2.15095e-06,8.30751e-06,0,-1.61494e-06,-1.00656e+09,-1.00584e+09,-1.00641e+09,-110785,0.0110693,0.11434,0,0.114875,22857.8,-36648.9,0,43192.9,110785
step02_gravity_refstate-crust.xmf,1644,-1.20743e-06,7.67245e-06,0,-7.54702e-07,-1.0237e+09,-1.02309e+09,-1.02361e+09,-51772.6,0.00313388,0.0892042,0,0.0892592,26307.7,-37275.7,0,45624.3,51772.6
step02_gravity_refstate-crust.xmf,1645,-1.62661e-06,8.04749e-06,0,-1.07001e-06,-1.0225e+09,-1.02183e+09,-1.02238e+09,-73403,0.00582026,0.0990831,0,0.0992539,24500.1,-37230.9,0,44569,73403
step02_gravity_refstate-crust.xmf,1646,-3.44266e-06,9.40248e-06,0,-3.19932e-06,-1.02201e+09,-1.02113e+09,-1.02178e+09,-219473,0.0217594,0.151792,0,0.153344,18109,-37208,0,41380.8,219473
step02_gravity_refstate-crust.xmf,1647,-4.3554e-06,9.94835e-06,0,-4.86782e-06,-1.03165e+09,-1.03067e+09,-1.03135e+09,-333932,0.0311261,0.185643,0,0.188234,15242,-37556.1,0,40531.2,333932
step02_gravity_refstate-crust.xmf,1648,-4.83774e-06,1.05545e-05,0,-5.63148e-06,-1.05459e+09,-1.05353e+09,-1.05425e+09,-386320,0.0327876,0.199737,0,0.20241,13840.7,-38390,0,40808.8,386320
step02_gravity_refstate-crust.xmf,1649,-6.03828e-06,1.12425e-05,0,-8.84901e-06,-1.08002e+09,-1.07883e+09,-1.0796e+09,-607042,0.0430481,0.25355,0,0.257179,10784.5,-39312.1,0,40764.5,607042
step02_gravity_refstate-crust.xmf,1650,-3.51258e-07,7.21987e-06,0,-2.13057e-07,-1.05981e+09,-1.05929e+09,-1.05979e+09,-14615.7,-0.00295931,0.0687474,-0,0.0688111,28971.9,-38593.2,0,48257.7,14615.7
step02_gravity_refstate-crust.xmf,1651,-6.59896e-07,7.56802e-06,0,-3.47059e-07,-1.0622e+09,-1.06163e+09,-1.06215e+09,-23808.3,-0.00236464,0.0743702,-0,0.0744078,27249.6,-38679.4,0,47314.2,23808.3
step02_gravity_refstate-crust.xmf,1652,-2.14033e-06,8.66016e-06,0,-1.49408e-06,-1.03599e+09,-1.03525e+09,-1.03584e+09,-102494,0.00831126,0.110591,0,0.110902,22112.7,-37721,0,43724.6,102494
step02_gravity_refstate-crust.xmf,1653,-2.55197e-06,8.95946e-06,0,-1.92949e-06,-1.03349e+09,-1.0327e+09,-1.03331e+09,-132363,0.0118427,0.121947,0,0.12252,20772.4,-37628.8,0,42981.6,132363
step02_gravity_refstate-crust.xmf,1654,-2.99559e-06,9.28865e-06,0,-2.46496e-06,-1.03366e+09,-1.03282e+09,-1.03345e+09,-169096,0.0157883,0.135016,0,0.135936,19330.6,-37633.7,0,42308,169096
step02_gravity_refstate-crust.xmf,1655,-4.05534e-06,1.01199e-05,0,-4.03789e-06,-1.04635e+09,-1.04538e+09,-1.04607e+09,-276999,0.0249282,0.1691,0,0.170928,16018.5,-38092.6,0,41323.6,276999
step02_gravity_refstate-crust.xmf,1656,-4.43434e-06,1.04014e-05,0,-4.73021e-06,-1.0526e+09,-1.05158e+09,-1.05229e+09,-324492,0.0282523,0.182816,0,0.184987,14918,-38318.9,0,41120.4,324492
step02_gravity_refstate-crust.xmf,1657,-3.55884e-06,9.89146e-06,0,-3.18854e-06,-1.04823e+09,-1.04731e+09,-1.04799e+09,-218734,0.0194488,0.151209,0,0.152455,17362,-38162.9,0,41926.7,218734
step02_gravity_refstate-crust.xmf,1658,-5.6531e-06,1.13169e-05,0,-7.5626e-06,-1.07888e+09,-1.07772e+09,-1.07849e+09,-518794,0.0383714,0.233728,0,0.236857,11637.4,-39272.3,0,40960.3,518794
step02_gravity_refstate-crust.xmf,1659,-5.31376e-06,1.12252e-05,0,-6.52169e-06,-1.07723e+09,-1.0761e+09,-1.07687e+09,-447388,0.0339933,0.215626,0,0.218289,12516.4,-39213.5,0,41162.6,447388
step02_gravity_refstate-crust.xmf,1660,-4.92272e-06,1.11154e-05,0,-5.55854e-06,-1.07668e+09,-1.07558e+09,-1.07635e+09,-381316,0.0294978,0.198399,0,0.20058,13425.7,-39195.1,0,41430.7,381316
step02_gravity_refstate-crust.xmf,1661,-1.79139e-06,8.40123e-06,0,-1.16965e-06,-1.03927e+09,-1.03857e+09,-1.03915e+09,-80237.8,0.00551359,0.101506,0,0.101655,23284.3,-37841.6,0,44431.3,80237.8
step02_gravity_refstate-crust.xmf,1662,-1.00795e-06,7.92071e-06,0,-5.41055e-07,-1.06159e+09,-1.06098e+09,-1.06153e+09,-37116.4,-0.000965337,0.0816178,-0,0.0816235,25644.6,-38656.6,0,46389.4,37116.4
step02_gravity_refstate-crust.xmf,1663,-3.22288e-06,9.68816e-06,0,-2.70276e-06,-1.04925e+09,-1.04837e+09,-1.04903e+09,-185409,0.0160897,0.140262,0,0.141182,18295.9,-38201,0,42356.3,185409
step02_gravity_refstate-crust.xmf,1664,-4.50204e-06,1.0931e-05,0,-4.66928e-06,-1.07595e+09,-1.07489e+09,-1.07564e+09,-320312,0.0249885,0.181535,0,0.183247,14425.4,-39169.9,0,41741.7,320312
step02_gravity_refstate-crust.xmf,1665,-1.33616e-06,8.28524e-06,0,-7.47584e-07,-1.06428e+09,-1.06362e+09,-1.06419e+09,-51284.2,0.000367532,0.0885622,0,0.0885629,24166.2,-38753.6,0,45671,51284.2
step02_gravity_refstate-crust.xmf,1666,-1.67238e-06,8.64983e-06,0,-9.94162e-07,-1.06705e+09,-1.06634e+09,-1.06693e+09,-68199.5,0.00199067,0.0961257,0,0.0961463,22784.8,-38853.5,0,45041.6,68199.5
step02_gravity_refstate-crust.xmf,1667,-2.05696e-06,9.00455e-06,0,-1.32293e-06,-1.0668e+09,-1.06604e+09,-1.06666e+09,-90753,0.00449459,0.105561,0,0.105657,21456.2,-38843.7,0,44375.7,90753
step02_gravity_refstate-crust.xmf,1668,-2.47528e-06,9.35901e-06,0,-1.73499e-06,-1.06592e+09,-1.0651e+09,-1.06575e+09,-119020,0.00763399,0.11659,0,0.11684,20135.6,-38810.2,0,43722.7,119020
step02_gravity_refstate-crust.xmf,1669,-2.84834e-06,9.72915e-06,0,-2.14142e-06,-1.06965e+09,-1.06879e+09,-1.06946e+09,-146902,0.010166,0.126784,0,0.127191,18900.6,-38945.3,0,43289.4,146902
step02_gravity_refstate-crust.xmf,1670,-4.07927e-06,1.06765e-05,0,-3.89445e-06,-1.07442e+09,-1.0734e+09,-1.07414e+09,-267159,0.0208358,0.165972,0,0.167275,15484.9,-39115.2,0,42068.7,267159
step02_gravity_refstate-crust.xmf,1671,-3.21494e-06,1.0068e-05,0,-2.59363e-06,-1.0727e+09,-1.07179e+09,-1.07248e+09,-177923,0.0129117,0.137513,0,0.138118,17777.4,-39055.3,0,42911,177923
step02_gravity_refstate-crust.xmf,1672,-3.64129e-06,1.03826e-05,0,-3.19424e-06,-1.07334e+09,-1.07238e+09,-1.07309e+09,-219125,0.0167159,0.151038,0,0.15196,16621.3,-39077.4,0,42465.4,219125
