Block Name,Point ID,cauchy_strain_0,cauchy_strain_1,cauchy_strain_2,cauchy_strain_3,cauchy_stress_0,cauchy_stress_1,cauchy_stress_2,cauchy_stress_3,displacement_0,displacement_1,displacement_2,displacement_Magnitude,Points_0,Points_1,Points_2,Points_Magnitude,stress_xy
step02_gravity_refstate-mantle.xmf,0,9.01758e-07,2.46538e-06,0,-9.13737e-11,-1.74578e+09,-1.74557e+09,-1.7459e+09,-12.2121,0.00576399,2.32264e-19,0,0.00576399,-33334.3,-60000,-0,68638,12.2121
step02_gravity_refstate-mantle.xmf,1,9.34995e-07,2.47394e-06,0,-7.07939e-11,-1.74577e+09,-1.74557e+09,-1.7459e+09,-9.4616,0.00759576,1.13388e-18,0,0.00759576,-31323.8,-60000,-0,67684.4,9.4616
step02_gravity_refstate-mantle.xmf,2,9.02835e-07,2.39216e-06,0,-4.81188e-08,-1.69141e+09,-1.69121e+09,-1.69153e+09,-6431.08,0.00655597,0.00408276,0,0.00772332,-32361,-58320.3,-0,66697,6431.08
step02_gravity_refstate-mantle.xmf,3,8.77455e-07,2.45993e-06,0,-5.67406e-10,-1.74579e+09,-1.74557e+09,-1.7459e+09,-75.8338,0.00390007,1.45037e-18,0,0.00390007,-35446.9,-60000,-0,69688.5,75.8338
step02_gravity_refstate-mantle.xmf,4,8.7481e-07,2.38435e-06,0,-3.46234e-08,-1.6908e+09,-1.6906e+09,-1.69092e+09,-4627.41,0.00476252,0.00411598,0,0.00629467,-34390.6,-58301.3,-0,67688.7,4627.41
step02_gravity_refstate-mantle.xmf,5,8.53428e-07,2.45521e-06,0,1.01554e-09,-1.74579e+09,-1.74558e+09,-1.74591e+09,135.727,-1.24902e-19,1.6435e-18,-0,1.64824e-18,-40000,-60000,-0,72111,135.727
step02_gravity_refstate-mantle.xmf,6,8.60461e-07,2.45754e-06,0,6.96206e-10,-1.74579e+09,-1.74558e+09,-1.74591e+09,93.048,0.00198526,2.96671e-19,0,0.00198526,-37667,-60000,-0,70843.5,93.048
step02_gravity_refstate-mantle.xmf,7,8.4241e-07,2.386e-06,0,-7.10465e-09,-1.6966e+09,-1.6964e+09,-1.69671e+09,-949.537,0.00127949,0.00367929,0,0.00389541,-38479.3,-58480.3,-0,70004.3,949.537
step02_gravity_refstate-mantle.xmf,8,8.48451e-07,2.36436e-06,0,-2.61935e-08,-1.67972e+09,-1.67951e+09,-1.67983e+09,-3500.76,0.00292615,0.00492239,0,0.00572646,-36507.5,-57958.7,-0,68498.2,3500.76
step02_gravity_refstate-mantle.xmf,9,8.333e-07,2.3551e-06,0,3.45502e-10,-1.67419e+09,-1.67399e+09,-1.6743e+09,46.1764,-1.38966e-19,0.00532158,-0,0.00532158,-40000,-57787.8,-0,70281.1,46.1764
step02_gravity_refstate-mantle.xmf,10,9.66341e-07,2.48745e-06,0,1.9285e-09,-1.74576e+09,-1.74556e+09,-1.74589e+09,257.744,0.00940766,-4.88444e-20,0,0.00940766,-29410.7,-60000,-0,66820.6,257.744
step02_gravity_refstate-mantle.xmf,11,9.31042e-07,2.4031e-06,0,-6.00197e-08,-1.69119e+09,-1.691e+09,-1.69132e+09,-8021.64,0.00836188,0.00411755,0,0.00932069,-30382.9,-58313.9,-0,65754.3,8021.64
step02_gravity_refstate-mantle.xmf,12,8.12307e-07,2.31402e-06,0,-1.99499e-08,-1.63753e+09,-1.63733e+09,-1.63764e+09,-2666.3,0.00141479,0.00796828,0,0.00809291,-38251.5,-56655.3,-0,68359.4,2666.3
step02_gravity_refstate-mantle.xmf,13,9.73066e-07,2.42752e-06,0,-7.24272e-08,-1.69633e+09,-1.69614e+09,-1.69646e+09,-9679.9,0.0101776,0.00376017,0,0.01085,-28500.3,-58472.9,-0,65048.9,9679.9
step02_gravity_refstate-mantle.xmf,14,8.74242e-07,2.34197e-06,0,-1.05145e-07,-1.6401e+09,-1.6399e+09,-1.64021e+09,-14052.6,0.00718549,0.00784797,0,0.0106406,-31362.4,-56735,-0,64826.4,14052.6
step02_gravity_refstate-mantle.xmf,15,8.52328e-07,2.32644e-06,0,-8.116e-08,-1.63695e+09,-1.63675e+09,-1.63706e+09,-10847,0.00552742,0.00804409,0,0.00976011,-33267,-56637.6,-0,65684.9,10847
step02_gravity_refstate-mantle.xmf,16,8.31593e-07,2.32101e-06,0,-5.78933e-08,-1.63742e+09,-1.63722e+09,-1.63753e+09,-7737.44,0.00409136,0.00799251,0,0.00897883,-34982.2,-56651.8,-0,66582.2,7737.44
step02_gravity_refstate-mantle.xmf,17,7.79872e-07,2.27836e-06,0,1.21416e-10,-1.60263e+09,-1.60243e+09,-1.60274e+09,16.2272,-1.36678e-19,0.0104435,-0,0.0104435,-40000,-55576.9,-0,68474.7,16.2272
step02_gravity_refstate-mantle.xmf,18,9.07743e-07,2.3549e-06,0,-1.37121e-07,-1.63519e+09,-1.635e+09,-1.63531e+09,-18326.2,0.00890849,0.00825593,0,0.0121458,-29376.6,-56583.7,-0,63755,18326.2
step02_gravity_refstate-mantle.xmf,19,1.02017e-06,2.45569e-06,0,-8.16741e-08,-1.69941e+09,-1.69922e+09,-1.69955e+09,-10915.7,0.0119739,0.00356169,0,0.0124924,-26714.5,-58568.5,-0,64373.4,10915.7
step02_gravity_refstate-mantle.xmf,20,9.638e-07,2.39565e-06,0,-1.50734e-07,-1.64925e+09,-1.64906e+09,-1.64938e+09,-20145.6,0.010904,0.00729982,0,0.0131219,-27380.2,-57018.3,-0,63251.6,20145.6
step02_gravity_refstate-mantle.xmf,21,1.01116e-06,2.5068e-06,0,2.14147e-09,-1.74575e+09,-1.74555e+09,-1.74589e+09,286.207,0.0112078,-4.68371e-20,0,0.0112078,-27590,-60000,-0,66039.4,286.207
step02_gravity_refstate-mantle.xmf,22,7.91458e-07,2.28474e-06,0,-5.2836e-08,-1.60494e+09,-1.60474e+09,-1.60505e+09,-7061.53,0.00280845,0.010293,0,0.0106692,-36417,-55648.4,-0,66505.2,7061.53
step02_gravity_refstate-mantle.xmf,23,7.44407e-07,2.24945e-06,0,-3.31346e-08,-1.56721e+09,-1.56701e+09,-1.56731e+09,-4428.44,0.00138047,0.0129267,0,0.0130002,-38137.8,-54482.3,-0,66504.2,4428.44
step02_gravity_refstate-mantle.xmf,24,8.419e-07,2.31621e-06,0,-1.53631e-07,-1.59937e+09,-1.59917e+09,-1.59948e+09,-20532.8,0.00756693,0.0108029,0,0.0131895,-30504.4,-55476.6,-0,63310.1,20532.8
step02_gravity_refstate-mantle.xmf,25,1.00731e-06,2.43462e-06,0,-1.61121e-07,-1.65898e+09,-1.65879e+09,-1.65911e+09,-21533.8,0.0126244,0.00665237,0,0.0142699,-25738.1,-57319.3,-0,62832.7,21533.8
step02_gravity_refstate-mantle.xmf,26,8.03133e-07,2.29231e-06,0,-1.3268e-07,-1.58774e+09,-1.58755e+09,-1.58785e+09,-17732.6,0.00609719,0.0115773,0,0.0130847,-32155.7,-55117.2,-0,63811.4,17732.6
step02_gravity_refstate-mantle.xmf,27,7.74453e-07,2.26724e-06,0,-9.9531e-08,-1.57468e+09,-1.57448e+09,-1.57478e+09,-13302.3,0.00428637,0.0124479,0,0.0131653,-34329.1,-54713.3,-0,64591.3,13302.3
step02_gravity_refstate-mantle.xmf,28,6.96351e-07,2.22163e-06,0,-1.46627e-10,-1.53108e+09,-1.53088e+09,-1.53117e+09,-19.5967,-1.20118e-19,0.0154178,-0,0.0154178,-40000,-53365.9,-0,66692.8,19.5967
step02_gravity_refstate-mantle.xmf,29,8.18647e-07,2.31631e-06,0,-2.00694e-07,-1.5734e+09,-1.5732e+09,-1.57351e+09,-26822.7,0.00827769,0.0127217,0,0.0151777,-29258.6,-54674.2,-0,62010.8,26822.7
step02_gravity_refstate-mantle.xmf,30,8.76308e-07,2.3537e-06,0,-2.1199e-07,-1.59528e+09,-1.59508e+09,-1.59539e+09,-28332.4,0.00987082,0.0112397,0,0.0149587,-27747.1,-55350.5,-0,61915.9,28332.4
step02_gravity_refstate-mantle.xmf,31,9.29471e-07,2.39582e-06,0,-2.27392e-07,-1.61075e+09,-1.61056e+09,-1.61088e+09,-30390.9,0.0115495,0.0102243,0,0.0154249,-26147.8,-55829,-0,61648.9,30390.9
step02_gravity_refstate-mantle.xmf,32,1.07052e-06,2.4906e-06,0,-9.04912e-08,-1.70222e+09,-1.70203e+09,-1.70236e+09,-12094.1,0.0137217,0.00338885,0,0.014134,-25058.7,-58655.6,-0,63784.2,12094.1
step02_gravity_refstate-mantle.xmf,33,1.0606e-06,2.53386e-06,0,2.13707e-09,-1.74574e+09,-1.74554e+09,-1.74588e+09,285.619,0.0130027,-4.50162e-20,0,0.0130027,-25857.2,-60000,-0,65334.5,285.619
step02_gravity_refstate-mantle.xmf,34,7.61816e-07,2.28241e-06,0,-1.84246e-07,-1.5492e+09,-1.549e+09,-1.5493e+09,-24624.5,0.00672034,0.0143534,0,0.0158487,-30824.3,-53926.3,-0,62114.3,24624.5
step02_gravity_refstate-mantle.xmf,35,7.05222e-07,2.23033e-06,0,-7.46975e-08,-1.53392e+09,-1.53372e+09,-1.53402e+09,-9983.32,0.00259589,0.0152486,0,0.0154679,-36296.4,-53453.8,-0,64612.2,9983.32
step02_gravity_refstate-mantle.xmf,36,6.48349e-07,2.2021e-06,0,-4.1464e-08,-1.49655e+09,-1.49634e+09,-1.49664e+09,-5541.67,0.00120214,0.0177862,0,0.0178268,-38139.4,-52298.9,-0,64728.6,5541.67
step02_gravity_refstate-mantle.xmf,37,9.86456e-07,2.44219e-06,0,-2.3551e-07,-1.62643e+09,-1.62624e+09,-1.62656e+09,-31475.9,0.0132031,0.00918037,0,0.016081,-24689.6,-56313.8,-0,61488.4,31475.9
step02_gravity_refstate-mantle.xmf,38,1.05351e-06,2.47147e-06,0,-1.67661e-07,-1.66581e+09,-1.66562e+09,-1.66595e+09,-22407.9,0.0140448,0.00620947,0,0.0153562,-24437.7,-57530.7,-0,62505.8,22407.9
step02_gravity_refstate-mantle.xmf,39,7.06718e-07,2.25042e-06,0,-1.5537e-07,-1.52617e+09,-1.52596e+09,-1.52626e+09,-20765.1,0.00511183,0.0158816,0,0.016684,-32647,-53214.4,-0,62430.7,20765.1
step02_gravity_refstate-mantle.xmf,40,6.57938e-07,2.22012e-06,0,-1.23966e-07,-1.49793e+09,-1.49772e+09,-1.49801e+09,-16568.1,0.00359818,0.0177656,0,0.0181263,-34466.1,-52341.6,-0,62670.2,16568.1
step02_gravity_refstate-mantle.xmf,41,5.88697e-07,2.18016e-06,0,-3.72455e-10,-1.45953e+09,-1.45932e+09,-1.45961e+09,-49.7786,-1.00659e-19,0.0202836,-0,0.0202836,-40000,-51155,-0,64937.2,49.7786
step02_gravity_refstate-mantle.xmf,42,7.10437e-07,2.29264e-06,0,-2.37947e-07,-1.51731e+09,-1.51709e+09,-1.5174e+09,-31801.6,0.00732083,0.0167097,0,0.018243,-29351.2,-52940.7,-0,60532.7,31801.6
step02_gravity_refstate-mantle.xmf,43,7.67397e-07,2.33168e-06,0,-2.61657e-07,-1.54035e+09,-1.54014e+09,-1.54045e+09,-34970.5,0.00887474,0.0152111,0,0.0176107,-27807.5,-53653,-0,60431,34970.5
step02_gravity_refstate-mantle.xmf,44,8.23724e-07,2.37563e-06,0,-2.8311e-07,-1.5605e+09,-1.56029e+09,-1.56061e+09,-37837.7,0.0104835,0.0139154,0,0.0174224,-26284.8,-54275.9,-0,60305.6,37837.7
step02_gravity_refstate-mantle.xmf,45,8.83334e-07,2.4245e-06,0,-3.00093e-07,-1.57958e+09,-1.57937e+09,-1.5797e+09,-40107.5,0.0121353,0.0126881,0,0.0175571,-24827.3,-54865.8,-0,60221.7,40107.5
step02_gravity_refstate-mantle.xmf,46,9.53032e-07,2.47978e-06,0,-3.09316e-07,-1.60005e+09,-1.59985e+09,-1.60018e+09,-41340.1,0.0138896,0.0113393,0,0.0179304,-23422.5,-55498.8,-0,60239,41340.1
step02_gravity_refstate-mantle.xmf,47,1.05145e-06,2.49657e-06,0,-2.26933e-07,-1.64654e+09,-1.64635e+09,-1.64668e+09,-30329.7,0.0149506,0.00777853,0,0.0168531,-23310.2,-56935.6,-0,61522.6,30329.7
step02_gravity_refstate-mantle.xmf,48,1.12186e-06,2.5313e-06,0,-1.15485e-07,-1.69814e+09,-1.69795e+09,-1.69829e+09,-15434.6,0.0155514,0.00376701,0,0.0160012,-23362.6,-58530,-0,63020.4,15434.6
step02_gravity_refstate-mantle.xmf,49,1.11497e-06,2.56883e-06,0,3.14919e-09,-1.74573e+09,-1.74553e+09,-1.74587e+09,420.89,0.0147957,-5.06057e-20,0,0.0147957,-24208.2,-60000,-0,64699.6,420.89
step02_gravity_refstate-mantle.xmf,50,6.52318e-07,2.25555e-06,0,-2.08295e-07,-1.49096e+09,-1.49075e+09,-1.49105e+09,-27838.6,0.00576203,0.0184243,0,0.0193043,-31023.4,-52126.5,-0,60659.9,27838.6
step02_gravity_refstate-mantle.xmf,51,5.92856e-07,2.19129e-06,0,-8.68275e-08,-1.46246e+09,-1.46225e+09,-1.46254e+09,-11604.5,0.00219803,0.0201306,0,0.0202503,-36291.3,-51245.4,-0,62794.5,11604.5
step02_gravity_refstate-mantle.xmf,52,5.31785e-07,2.16691e-06,0,-4.60199e-08,-1.42577e+09,-1.42555e+09,-1.42584e+09,-6150.56,0.000996328,0.0225639,0,0.0225859,-38123,-50111.8,-0,62964.7,6150.56
step02_gravity_refstate-mantle.xmf,53,1.02703e-06,2.54297e-06,0,-3.0458e-07,-1.62284e+09,-1.62263e+09,-1.62297e+09,-40707.1,0.0157784,0.00978348,0,0.0185654,-22055.7,-56203.3,-0,60376,40707.1
step02_gravity_refstate-mantle.xmf,54,5.91813e-07,2.2221e-06,0,-1.72802e-07,-1.46279e+09,-1.46257e+09,-1.46287e+09,-23095,0.00431206,0.0202569,0,0.0207108,-32732.9,-51255.7,-0,60816.1,23095
step02_gravity_refstate-mantle.xmf,55,5.35044e-07,2.19072e-06,0,-1.34481e-07,-1.42981e+09,-1.42959e+09,-1.42989e+09,-17973.4,0.00295258,0.0224063,0,0.0226,-34494.6,-50236.7,-0,60939.3,17973.4
step02_gravity_refstate-mantle.xmf,56,4.65138e-07,2.14762e-06,0,-6.1726e-10,-1.38798e+09,-1.38775e+09,-1.38804e+09,-82.4967,-7.98942e-20,0.0250681,-0,0.0250681,-40000,-48943.8,-0,63209.9,82.4967
step02_gravity_refstate-mantle.xmf,57,5.83066e-07,2.27683e-06,0,-2.57675e-07,-1.45974e+09,-1.45951e+09,-1.45981e+09,-34438.3,0.00619823,0.0207653,0,0.0216706,-29437.8,-51161.5,-0,59026.2,34438.3
step02_gravity_refstate-mantle.xmf,58,6.41783e-07,2.32041e-06,0,-2.91195e-07,-1.48652e+09,-1.48629e+09,-1.4866e+09,-38918.2,0.00772533,0.0190759,0,0.0205808,-27847.9,-51989.3,-0,58977.9,38918.2
step02_gravity_refstate-mantle.xmf,59,6.9489e-07,2.36756e-06,0,-3.2132e-07,-1.50856e+09,-1.50834e+09,-1.50865e+09,-42944.4,0.00924357,0.0177141,0,0.0199808,-26341.7,-52670.7,-0,58890.5,42944.4
step02_gravity_refstate-mantle.xmf,60,7.52555e-07,2.41994e-06,0,-3.47396e-07,-1.53012e+09,-1.52989e+09,-1.53022e+09,-46429.4,0.010839,0.0163788,0,0.0196405,-24900.8,-53337,-0,58863.3,46429.4
step02_gravity_refstate-mantle.xmf,61,8.17238e-07,2.4791e-06,0,-3.69543e-07,-1.55167e+09,-1.55145e+09,-1.55178e+09,-49389.5,0.0125477,0.0150349,0,0.019583,-23487.6,-54003.5,-0,58890.1,49389.5
step02_gravity_refstate-mantle.xmf,62,8.91447e-07,2.54324e-06,0,-3.85259e-07,-1.57356e+09,-1.57333e+09,-1.57367e+09,-51489.8,0.0143356,0.0136379,0,0.0197864,-22152.9,-54680.1,-0,58997.2,51489.8
step02_gravity_refstate-mantle.xmf,63,1.13376e-06,2.56077e-06,0,-2.02661e-07,-1.66929e+09,-1.6691e+09,-1.66945e+09,-27085.6,0.016807,0.0061321,0,0.0178907,-21950.2,-57639.1,-0,61677.2,27085.6
step02_gravity_refstate-mantle.xmf,64,9.77096e-07,2.61612e-06,0,-3.9462e-07,-1.59585e+09,-1.59563e+09,-1.59598e+09,-52740.9,0.016255,0.0121821,0,0.0203133,-20833.5,-55369.6,-0,59159.3,52740.9
step02_gravity_refstate-mantle.xmf,65,1.12097e-06,2.6154e-06,0,-2.8715e-07,-1.64701e+09,-1.64681e+09,-1.64716e+09,-38377.6,0.0177709,0.00806852,0,0.0195168,-20723.3,-56950.8,-0,60604,38377.6
step02_gravity_refstate-mantle.xmf,66,1.17094e-06,2.61702e-06,0,1.33793e-09,-1.74571e+09,-1.74552e+09,-1.74587e+09,178.814,0.0165905,-3.76233e-20,0,0.0165905,-22638.7,-60000,-0,64128.8,178.814
step02_gravity_refstate-mantle.xmf,67,5.2552e-07,2.23717e-06,0,-2.19815e-07,-1.43084e+09,-1.43061e+09,-1.43091e+09,-29378.3,0.00476929,0.0225931,0,0.023091,-31081.7,-50268.3,-0,59101.4,29378.3
step02_gravity_refstate-mantle.xmf,68,4.71058e-07,2.1627e-06,0,-9.04411e-08,-1.39474e+09,-1.39451e+09,-1.3948e+09,-12087.5,0.00177084,0.0246873,0,0.0247508,-36270.7,-49152.6,-0,61086.3,12087.5
step02_gravity_refstate-mantle.xmf,69,4.02023e-07,2.13727e-06,0,-4.70213e-08,-1.35416e+09,-1.35393e+09,-1.35421e+09,-6284.39,0.000778423,0.0273272,0,0.0273383,-38066.3,-47898.6,-0,61182.7,6284.39
step02_gravity_refstate-mantle.xmf,70,1.07256e-06,2.69822e-06,0,-3.86318e-07,-1.62092e+09,-1.6207e+09,-1.62106e+09,-51631.4,0.0183854,0.0104576,0,0.0211515,-19524,-56144.8,-0,59442.6,51631.4
step02_gravity_refstate-mantle.xmf,71,8.62155e-07,2.72465e-06,0,-4.80155e-07,-1.56601e+09,-1.56576e+09,-1.56613e+09,-64172.8,0.0162536,0.015024,0,0.0221337,-19639.3,-54447.3,-0,57881,64172.8
step02_gravity_refstate-mantle.xmf,72,1.18774e-06,2.59595e-06,0,-9.53572e-08,-1.71167e+09,-1.71148e+09,-1.71183e+09,-12744.5,0.0173048,0.00275492,0,0.0175227,-21934.5,-58948.6,-0,62897.2,12744.5
step02_gravity_refstate-mantle.xmf,73,7.8669e-07,2.6353e-06,0,-4.56293e-07,-1.54536e+09,-1.54511e+09,-1.54546e+09,-60983.5,0.0143815,0.0162542,0,0.0217032,-20920.7,-53808.7,-0,57732.6,60983.5
step02_gravity_refstate-mantle.xmf,74,4.64177e-07,2.20085e-06,0,-1.76604e-07,-1.39959e+09,-1.39936e+09,-1.39965e+09,-23603.2,0.00346088,0.0245729,0,0.0248155,-32774.6,-49302.6,-0,59202.3,23603.2
step02_gravity_refstate-mantle.xmf,75,4.10233e-07,2.16797e-06,0,-1.33599e-07,-1.36611e+09,-1.36588e+09,-1.36617e+09,-17855.5,0.00231371,0.0266971,0,0.0267972,-34485,-48268,-0,59321.3,17855.5
step02_gravity_refstate-mantle.xmf,76,3.34772e-07,2.11698e-06,0,-1.11861e-09,-1.3163e+09,-1.31606e+09,-1.31634e+09,-149.502,-6.21379e-20,0.0297917,-0,0.0297917,-40000,-46728.6,-0,61510.7,149.502
step02_gravity_refstate-mantle.xmf,77,4.41418e-07,2.2653e-06,0,-2.593e-07,-1.4005e+09,-1.40026e+09,-1.40056e+09,-34655.4,0.00497478,0.024918,0,0.0254098,-29470.2,-49330.8,-0,57463.2,34655.4
step02_gravity_refstate-mantle.xmf,78,4.96697e-07,2.31269e-06,0,-2.99819e-07,-1.42971e+09,-1.42946e+09,-1.42977e+09,-40070.7,0.00636376,0.0231335,0,0.0239928,-27905.9,-50233.4,-0,57464.2,40070.7
step02_gravity_refstate-mantle.xmf,79,5.50534e-07,2.36536e-06,0,-3.3721e-07,-1.45609e+09,-1.45585e+09,-1.45617e+09,-45068.2,0.00783932,0.0215439,0,0.0229258,-26381.2,-51048.9,-0,57462.7,45068.2
step02_gravity_refstate-mantle.xmf,80,5.98459e-07,2.42401e-06,0,-3.71928e-07,-1.47839e+09,-1.47815e+09,-1.47847e+09,-49708.2,0.00932674,0.0202486,0,0.0222933,-24911.3,-51738.2,-0,57423.1,49708.2
step02_gravity_refstate-mantle.xmf,81,6.57728e-07,2.48642e-06,0,-4.02179e-07,-1.502e+09,-1.50175e+09,-1.50208e+09,-53751.3,0.0109326,0.018831,0,0.0217745,-23552.1,-52467.9,-0,57511.6,53751.3
step02_gravity_refstate-mantle.xmf,82,7.20509e-07,2.55638e-06,0,-4.30175e-07,-1.5244e+09,-1.52415e+09,-1.5245e+09,-57492.9,0.0126227,0.0174928,0,0.0215716,-22222.6,-53160.6,-0,57618.5,57492.9
step02_gravity_refstate-mantle.xmf,83,9.25735e-07,2.82175e-06,0,-4.91458e-07,-1.58575e+09,-1.5855e+09,-1.58587e+09,-65683.4,0.0181674,0.0138258,0,0.0228299,-18430.5,-55057.7,-0,58060.6,65683.4
step02_gravity_refstate-mantle.xmf,84,1.21033e-06,2.68582e-06,0,-2.50233e-07,-1.67057e+09,-1.67037e+09,-1.67073e+09,-33443.6,0.0195188,0.0062996,0,0.0205102,-19653.7,-57679.3,-0,60935.8,33443.6
step02_gravity_refstate-mantle.xmf,85,1.22492e-06,2.64552e-06,0,-1.47675e-07,-1.69948e+09,-1.69929e+09,-1.69965e+09,-19736.8,0.0188147,0.00381738,0,0.0191981,-20592.5,-58572.5,-0,62087,19736.8
step02_gravity_refstate-mantle.xmf,86,1.23243e-06,2.67524e-06,0,3.56345e-09,-1.74569e+09,-1.7455e+09,-1.74586e+09,476.255,0.0183844,-5.14247e-20,0,0.0183844,-21144.8,-60000,-0,63616.8,476.255
step02_gravity_refstate-mantle.xmf,87,6.34267e-07,2.75686e-06,0,-5.08695e-07,-1.51661e+09,-1.51633e+09,-1.5167e+09,-67987,0.013983,0.0191684,0,0.0237266,-19730,-52919.9,-0,56478.2,67987
step02_gravity_refstate-mantle.xmf,88,6.64597e-07,2.87953e-06,0,-5.45542e-07,-1.53257e+09,-1.53227e+09,-1.53265e+09,-72911.7,0.0156343,0.0185339,0,0.0242474,-18396.4,-53413.3,-0,56492.5,72911.7
step02_gravity_refstate-mantle.xmf,89,3.88361e-07,2.22178e-06,0,-2.15322e-07,-1.36983e+09,-1.36958e+09,-1.36988e+09,-28777.8,0.00371697,0.0267953,0,0.0270519,-31091.9,-48382.8,-0,57511.8,28777.8
step02_gravity_refstate-mantle.xmf,90,3.48056e-07,2.13792e-06,0,-8.79318e-08,-1.33031e+09,-1.33007e+09,-1.33036e+09,-11752.1,0.00136567,0.0289733,0,0.0290054,-36164.8,-47161.7,-0,59431.7,11752.1
step02_gravity_refstate-mantle.xmf,91,2.57236e-07,2.10402e-06,0,-4.73328e-08,-1.27695e+09,-1.27671e+09,-1.27699e+09,-6326.03,0.000584054,0.0323956,0,0.0324009,-37766.3,-45512.8,-0,59141.4,6326.03
step02_gravity_refstate-mantle.xmf,92,1.11458e-06,2.80123e-06,0,-4.06571e-07,-1.62863e+09,-1.6284e+09,-1.62878e+09,-54338.2,0.0199622,0.0101418,0,0.0223907,-18314.3,-56383.4,-0,59283.2,54338.2
step02_gravity_refstate-mantle.xmf,93,1.17339e-06,2.736e-06,0,-3.32503e-07,-1.64741e+09,-1.6472e+09,-1.64756e+09,-44439,0.019811,0.00836802,0,0.0215058,-18952,-56963.8,-0,60033.7,44439
step02_gravity_refstate-mantle.xmf,94,5.88692e-07,2.65764e-06,0,-4.75003e-07,-1.49736e+09,-1.49709e+09,-1.49744e+09,-63484.1,0.0123432,0.0201499,0,0.0236299,-20996.3,-52324.8,-0,56380.2,63484.1
step02_gravity_refstate-mantle.xmf,95,7.80379e-07,2.97534e-06,0,-5.61853e-07,-1.56215e+09,-1.56186e+09,-1.56226e+09,-75091.7,0.0179632,0.0165024,0,0.0243927,-17338.7,-54328.3,-0,57028,75091.7
step02_gravity_refstate-mantle.xmf,96,3.33963e-07,2.18197e-06,0,-1.67729e-07,-1.33815e+09,-1.3379e+09,-1.33819e+09,-22417,0.00261812,0.0287356,0,0.0288546,-32759.4,-47403.7,-0,57621.9,22417
step02_gravity_refstate-mantle.xmf,97,2.8512e-07,2.14537e-06,0,-1.23179e-07,-1.30385e+09,-1.3036e+09,-1.30389e+09,-16462.8,0.00168875,0.0308525,0,0.0308987,-34413.5,-46343.9,-0,57723.9,16462.8
step02_gravity_refstate-mantle.xmf,98,8.88159e-08,2.03048e-06,0,3.41128e-10,-1.17178e+09,-1.17152e+09,-1.17179e+09,45.5917,1.65746e-20,0.0390728,0,0.0390728,-40000,-42262.6,-0,58190.5,45.5917
step02_gravity_refstate-mantle.xmf,99,2.05905e-07,2.07858e-06,0,-9.62231e-11,-1.2443e+09,-1.24405e+09,-1.24432e+09,-12.8602,4.04726e-20,0.0344621,0,0.0344621,-40000,-44503.5,-0,59837.8,12.8602
step02_gravity_refstate-mantle.xmf,100,1.34426e-07,2.05896e-06,0,-2.87162e-08,-1.20417e+09,-1.20391e+09,-1.20419e+09,-3837.92,0.000253985,0.0370642,0,0.037065,-38157.5,-43263.5,-0,57686.4,3837.92
step02_gravity_refstate-mantle.xmf,101,2.94337e-07,2.25272e-06,0,-2.42075e-07,-1.34048e+09,-1.34022e+09,-1.34052e+09,-32353.4,0.00369605,0.0291072,0,0.0293409,-29474.7,-47475.8,-0,55881.2,32353.4
step02_gravity_refstate-mantle.xmf,102,3.44053e-07,2.30446e-06,0,-2.86937e-07,-1.37189e+09,-1.37163e+09,-1.37194e+09,-38349.1,0.00491083,0.0272502,0,0.0276891,-27944.2,-48446.4,-0,55927.9,38349.1
step02_gravity_refstate-mantle.xmf,103,3.94624e-07,2.36244e-06,0,-3.30123e-07,-1.40163e+09,-1.40137e+09,-1.40168e+09,-44120.9,0.00627372,0.0255129,0,0.0262729,-26421.8,-49365.5,-0,55991.7,44120.9
step02_gravity_refstate-mantle.xmf,104,4.40935e-07,2.42561e-06,0,-3.69583e-07,-1.42763e+09,-1.42737e+09,-1.42769e+09,-49394.8,0.0076749,0.0240335,0,0.0252292,-24976.5,-50169.3,-0,56042.7,49394.8
step02_gravity_refstate-mantle.xmf,105,4.87715e-07,2.49543e-06,0,-4.06448e-07,-1.45205e+09,-1.45178e+09,-1.45211e+09,-54321.7,0.00915447,0.022663,0,0.0244421,-23593.9,-50923.9,-0,56124.1,54321.7
step02_gravity_refstate-mantle.xmf,106,5.38209e-07,2.57239e-06,0,-4.41467e-07,-1.47563e+09,-1.47535e+09,-1.4757e+09,-59002.1,0.0107269,0.0213419,0,0.023886,-22269.4,-51652.8,-0,56248.9,59002.1
step02_gravity_refstate-mantle.xmf,107,1.01032e-06,2.92148e-06,0,-4.9903e-07,-1.60415e+09,-1.6039e+09,-1.60429e+09,-66695.4,0.0200167,0.0126608,0,0.0236847,-17360.6,-55627,-0,58273.1,66695.4
step02_gravity_refstate-mantle.xmf,108,1.25261e-06,2.7861e-06,0,-2.8717e-07,-1.66953e+09,-1.66932e+09,-1.66969e+09,-38380.2,0.0211455,0.00660917,0,0.0221543,-18315.9,-57647.7,-0,60487.4,38380.2
step02_gravity_refstate-mantle.xmf,109,1.29905e-06,2.74442e-06,0,-1.43587e-07,-1.70691e+09,-1.70671e+09,-1.70708e+09,-19190.3,0.0208308,0.0033159,0,0.0210931,-19061,-58802.6,-0,61814.8,19190.3
step02_gravity_refstate-mantle.xmf,110,1.2936e-06,2.74894e-06,0,2.58773e-09,-1.74567e+09,-1.74548e+09,-1.74585e+09,345.85,0.0201815,-4.63353e-20,0,0.0201815,-19722.9,-60000,-0,63158.5,345.85
step02_gravity_refstate-mantle.xmf,111,4.24074e-07,2.77951e-06,0,-4.94396e-07,-1.47123e+09,-1.47091e+09,-1.47128e+09,-66076.1,0.0117121,0.0230051,0,0.0258149,-19810.4,-51516.7,-0,55194.4,66076.1
step02_gravity_refstate-mantle.xmf,112,5.36038e-07,3.06267e-06,0,-5.78121e-07,-1.52316e+09,-1.52282e+09,-1.52323e+09,-77265.8,0.0158959,0.0203295,0,0.0258064,-17079.3,-53122.3,-0,55800.4,77265.8
step02_gravity_refstate-mantle.xmf,113,6.43649e-07,3.14525e-06,0,-6.00487e-07,-1.54678e+09,-1.54645e+09,-1.54687e+09,-80255.1,0.0178278,0.0187172,0,0.0258488,-16279.8,-53852.9,-0,56259.8,80255.1
step02_gravity_refstate-mantle.xmf,114,4.41135e-07,2.89499e-06,0,-5.28277e-07,-1.48798e+09,-1.48765e+09,-1.48804e+09,-70604.2,0.0130946,0.0223481,0,0.0259019,-18646.5,-52034.6,-0,55274.6,70604.2
step02_gravity_refstate-mantle.xmf,115,2.50431e-07,2.20435e-06,0,-1.94847e-07,-1.30909e+09,-1.30883e+09,-1.30913e+09,-26041.3,0.00265484,0.0309516,0,0.0310652,-31075.9,-46505.8,-0,55933,26041.3
step02_gravity_refstate-mantle.xmf,116,2.39742e-07,2.11568e-06,0,-8.46868e-08,-1.27363e+09,-1.27338e+09,-1.27367e+09,-11318.4,0.00104727,0.0327208,0,0.0327376,-35830.2,-45410.1,-0,57843.6,11318.4
step02_gravity_refstate-mantle.xmf,117,-5.07123e-09,1.96261e-06,0,2.29421e-09,-1.09856e+09,-1.0983e+09,-1.09856e+09,306.621,-1.40595e-20,0.0435975,-0,0.0435975,-40000,-40000,-0,56568.5,306.621
step02_gravity_refstate-mantle.xmf,118,5.52981e-08,2.01929e-06,0,-1.65687e-08,-1.15114e+09,-1.15087e+09,-1.15114e+09,-2214.41,9.6346e-05,0.0403984,0,0.0403985,-38346.3,-41624.7,-0,56595.5,2214.41
step02_gravity_refstate-mantle.xmf,119,8.76464e-07,3.08226e-06,0,-5.74672e-07,-1.58331e+09,-1.58302e+09,-1.58343e+09,-76805,0.019932,0.0151388,0,0.0250294,-16356.7,-54982.7,-0,57364.1,76805
step02_gravity_refstate-mantle.xmf,120,1.19406e-06,2.89327e-06,0,-3.96694e-07,-1.64398e+09,-1.64376e+09,-1.64414e+09,-53018.1,0.0216623,0.00910337,0,0.0234974,-17300.2,-56858.5,-0,59432.2,53018.1
step02_gravity_refstate-mantle.xmf,121,3.94222e-07,2.67648e-06,0,-4.59092e-07,-1.45096e+09,-1.45066e+09,-1.45102e+09,-61357.6,0.0102423,0.0239605,0,0.0260578,-21025,-50890.3,-0,55062.4,61357.6
step02_gravity_refstate-mantle.xmf,122,4.33532e-07,3.21504e-06,0,-5.92735e-07,-1.51694e+09,-1.51657e+09,-1.517e+09,-79219.1,0.015953,0.0217831,0,0.027,-16140.9,-52930,-0,55336.4,79219.1
step02_gravity_refstate-mantle.xmf,123,4.24922e-07,3.01086e-06,0,-5.53471e-07,-1.49673e+09,-1.49638e+09,-1.49678e+09,-73971.5,0.01402,0.022329,0,0.0263656,-17661.9,-52304.9,-0,55206.4,73971.5
step02_gravity_refstate-mantle.xmf,124,2.03291e-07,2.15791e-06,0,-1.44275e-07,-1.27557e+09,-1.27531e+09,-1.2756e+09,-19282.3,0.00175112,0.0329292,0,0.0329757,-32779.3,-45469.8,-0,56053.4,19282.3
step02_gravity_refstate-mantle.xmf,125,1.63066e-07,2.11543e-06,0,-1.00509e-07,-1.24051e+09,-1.24025e+09,-1.24054e+09,-13433.1,0.00104143,0.0350209,0,0.0350363,-34431.1,-44386.5,-0,56175.3,13433.1
step02_gravity_refstate-mantle.xmf,126,1.37815e-07,2.08104e-06,0,-6.18549e-08,-1.21582e+09,-1.21556e+09,-1.21583e+09,-8266.9,0.000584174,0.0364458,0,0.0364505,-36145,-43623.3,-0,56652,8266.9
step02_gravity_refstate-mantle.xmf,127,-1.54008e-08,1.97053e-06,0,-6.73525e-09,-1.09856e+09,-1.09829e+09,-1.09856e+09,-900.167,-2.40031e-05,0.0436808,-0,0.0436808,-37637.7,-40000,-0,54923.5,900.167
step02_gravity_refstate-mantle.xmf,128,4.87344e-08,2.03257e-06,0,-3.47986e-08,-1.15557e+09,-1.1553e+09,-1.15557e+09,-4650.84,0.000199583,0.0402301,0,0.0402306,-36672.4,-41761.5,-0,55577.8,4650.84
step02_gravity_refstate-mantle.xmf,129,1.40413e-07,2.23419e-06,0,-2.04965e-07,-1.27689e+09,-1.27661e+09,-1.27691e+09,-27393.6,0.00236348,0.033535,0,0.0336182,-29397,-45510.4,-0,54179.2,27393.6
step02_gravity_refstate-mantle.xmf,130,1.90759e-07,2.29206e-06,0,-2.54225e-07,-1.31348e+09,-1.3132e+09,-1.3135e+09,-33977.1,0.00344143,0.0314029,0,0.0315909,-27929.2,-46641.1,-0,54363.9,33977.1
step02_gravity_refstate-mantle.xmf,131,2.35286e-07,2.35365e-06,0,-3.00081e-07,-1.34555e+09,-1.34526e+09,-1.34558e+09,-40105.8,0.00461988,0.0295872,0,0.0299457,-26463.1,-47632,-0,54489.5,40105.8
step02_gravity_refstate-mantle.xmf,132,2.77204e-07,2.42374e-06,0,-3.44011e-07,-1.37522e+09,-1.37494e+09,-1.37526e+09,-45977.1,0.00592439,0.0279556,0,0.0285764,-24992.7,-48549.2,-0,54604.6,45977.1
step02_gravity_refstate-mantle.xmf,133,3.11734e-07,2.50037e-06,0,-3.83739e-07,-1.40059e+09,-1.4003e+09,-1.40063e+09,-51286.7,0.00723571,0.0266351,0,0.0276004,-23597.2,-49333.2,-0,54686.3,51286.7
step02_gravity_refstate-mantle.xmf,134,3.55129e-07,2.58522e-06,0,-4.23383e-07,-1.42724e+09,-1.42694e+09,-1.42728e+09,-56585.1,0.00873212,0.0251924,0,0.0266628,-22282.3,-50156.9,-0,54883.7,56585.1
step02_gravity_refstate-mantle.xmf,135,4.64796e-07,3.32979e-06,0,-6.17253e-07,-1.53119e+09,-1.5308e+09,-1.53125e+09,-82495.9,0.0172962,0.0211611,0,0.0273304,-15351.7,-53370.4,-0,55534.5,82495.9
step02_gravity_refstate-mantle.xmf,136,7.17497e-07,3.268e-06,0,-6.22189e-07,-1.56513e+09,-1.56479e+09,-1.56523e+09,-83155.6,0.0196274,0.0176747,0,0.0264127,-15366.1,-54420.7,-0,56548.4,83155.6
step02_gravity_refstate-mantle.xmf,137,1.09927e-06,3.03501e-06,0,-4.9944e-07,-1.62167e+09,-1.62141e+09,-1.62182e+09,-66750.1,0.0219133,0.0115336,0,0.0247632,-16314,-56169.1,-0,58490.3,66750.1
step02_gravity_refstate-mantle.xmf,138,1.3267e-06,2.89295e-06,0,-2.78142e-07,-1.67849e+09,-1.67828e+09,-1.67866e+09,-37173.7,0.0228158,0.00604656,0,0.0236034,-17181.6,-57925.2,-0,60419.7,37173.7
step02_gravity_refstate-mantle.xmf,139,1.36452e-06,2.85273e-06,0,-1.47111e-07,-1.71065e+09,-1.71045e+09,-1.71083e+09,-19661.3,0.0226535,0.00310835,0,0.0228658,-17725.1,-58919,-0,61527.4,19661.3
step02_gravity_refstate-mantle.xmf,140,1.35748e-06,2.84116e-06,0,3.06714e-09,-1.74565e+09,-1.74545e+09,-1.74583e+09,409.923,0.0219758,-4.42499e-20,0,0.0219758,-18369.3,-60000,-0,62749,409.923
step02_gravity_refstate-mantle.xmf,141,2.30853e-07,2.79401e-06,0,-4.49838e-07,-1.42841e+09,-1.42806e+09,-1.42844e+09,-60120.9,0.00951037,0.0266865,0,0.0283305,-19821.5,-50192.7,-0,53964.8,60120.9
step02_gravity_refstate-mantle.xmf,142,2.38081e-07,2.91398e-06,0,-4.81661e-07,-1.44728e+09,-1.44693e+09,-1.44732e+09,-64374,0.0107982,0.0259734,0,0.0281286,-18682.7,-50776.2,-0,54104.2,64374
step02_gravity_refstate-mantle.xmf,143,2.73497e-07,3.18349e-06,0,-5.54471e-07,-1.48604e+09,-1.48565e+09,-1.48608e+09,-74105,0.0137205,0.024395,0,0.0279887,-16569.7,-51974.3,-0,54551.6,74105
step02_gravity_refstate-mantle.xmf,144,2.37519e-07,3.04544e-06,0,-5.11832e-07,-1.46396e+09,-1.46358e+09,-1.46399e+09,-68406.3,0.0120406,0.0254567,0,0.0281606,-17596.9,-51291.6,-0,54226.1,68406.3
step02_gravity_refstate-mantle.xmf,145,1.17002e-07,2.18249e-06,0,-1.59421e-07,-1.25083e+09,-1.25055e+09,-1.25084e+09,-21306.6,0.00166895,0.0349189,0,0.0349587,-30988.2,-44704.9,-0,54394.9,21306.6
step02_gravity_refstate-mantle.xmf,146,2.32258e-07,3.36836e-06,0,-5.75456e-07,-1.49755e+09,-1.49713e+09,-1.49758e+09,-76909.8,0.0148155,0.0245652,0,0.0286871,-15424.2,-52330,-0,54555.8,76909.8
step02_gravity_refstate-mantle.xmf,147,9.61826e-07,3.21639e-06,0,-5.83466e-07,-1.60095e+09,-1.60064e+09,-1.60107e+09,-77980.2,0.0218663,0.0141023,0,0.0260194,-15336.2,-55528.4,-0,57607.3,77980.2
step02_gravity_refstate-mantle.xmf,148,1.30045e-06,3.0176e-06,0,-3.71756e-07,-1.66226e+09,-1.66203e+09,-1.66243e+09,-49685.1,0.0236918,0.00779504,0,0.0249412,-16163.5,-57424.1,-0,59655.6,49685.1
step02_gravity_refstate-mantle.xmf,149,2.12888e-07,2.68704e-06,0,-4.15638e-07,-1.4067e+09,-1.40637e+09,-1.40673e+09,-55550,0.00817827,0.0276472,0,0.0288314,-20997.5,-49521.8,-0,53789.4,55550
step02_gravity_refstate-mantle.xmf,150,7.80542e-08,2.12479e-06,0,-1.08047e-07,-1.21205e+09,-1.21177e+09,-1.21206e+09,-14440.5,0.000928244,0.0371327,0,0.0371443,-32780.2,-43506.6,-0,54473.5,14440.5
step02_gravity_refstate-mantle.xmf,151,3.78257e-08,2.06785e-06,0,-6.41596e-08,-1.16754e+09,-1.16727e+09,-1.16754e+09,-8574.94,0.000374641,0.0397399,0,0.0397417,-34419.2,-42131.3,-0,54403.4,8574.94
step02_gravity_refstate-mantle.xmf,152,-4.37146e-08,1.9905e-06,0,-1.25511e-08,-1.09856e+09,-1.09829e+09,-1.09856e+09,-1677.45,-8.90452e-05,0.0439228,-0,0.0439229,-35384.1,-40000,-0,53404.5,1677.45
step02_gravity_refstate-mantle.xmf,153,3.96919e-08,2.27241e-06,0,-2.02623e-07,-1.25399e+09,-1.25369e+09,-1.25399e+09,-27080.5,0.00198961,0.0356306,0,0.0356861,-27833.2,-44802.3,-0,52744.1,27080.5
step02_gravity_refstate-mantle.xmf,154,-8.58208e-09,2.20358e-06,0,-1.47178e-07,-1.21079e+09,-1.2105e+09,-1.21079e+09,-19670.4,0.00104207,0.0380974,0,0.0381116,-29297,-43467.6,-0,52418.9,19670.4
step02_gravity_refstate-mantle.xmf,155,8.00295e-08,2.33371e-06,0,-2.48521e-07,-1.28794e+09,-1.28764e+09,-1.28795e+09,-33214.9,0.00294924,0.0337358,0,0.0338644,-26525.8,-45851.5,-0,52971.5,33214.9
step02_gravity_refstate-mantle.xmf,156,1.10071e-07,2.40671e-06,0,-2.92294e-07,-1.31826e+09,-1.31796e+09,-1.31828e+09,-39065,0.00400741,0.0321651,0,0.0324138,-25089.1,-46788.6,-0,53090.8,39065
step02_gravity_refstate-mantle.xmf,157,1.37438e-07,2.49216e-06,0,-3.33706e-07,-1.34769e+09,-1.34738e+09,-1.34771e+09,-44599.8,0.00522244,0.0306979,0,0.031139,-23633.5,-47698,-0,53232,44599.8
step02_gravity_refstate-mantle.xmf,158,1.40356e-07,2.59373e-06,0,-3.67297e-07,-1.37098e+09,-1.37065e+09,-1.371e+09,-49089.2,0.00636946,0.0297854,0,0.0304588,-22131.6,-48417.7,-0,53236.1,49089.2
step02_gravity_refstate-mantle.xmf,159,2.2781e-07,3.54409e-06,0,-6.02415e-07,-1.51368e+09,-1.51323e+09,-1.51371e+09,-80512.8,0.0162816,0.0241308,0,0.0291099,-14454,-52828.6,-0,54770.2,80512.8
step02_gravity_refstate-mantle.xmf,160,5.09328e-07,3.48624e-06,0,-6.44411e-07,-1.54768e+09,-1.54728e+09,-1.54775e+09,-86125.5,0.0189686,0.0204724,0,0.0279093,-14419.6,-53880.7,-0,55776.8,86125.5
step02_gravity_refstate-mantle.xmf,161,7.89559e-07,3.42387e-06,0,-6.38822e-07,-1.58218e+09,-1.58183e+09,-1.58229e+09,-85378.6,0.0215149,0.0168098,0,0.0273031,-14387.4,-54948.1,-0,56800.5,85378.6
step02_gravity_refstate-mantle.xmf,162,1.17946e-06,3.17371e-06,0,-4.93362e-07,-1.63597e+09,-1.63571e+09,-1.63613e+09,-65937.8,0.0237576,0.0106777,0,0.0260468,-15275,-56611.7,-0,58636.2,65937.8
step02_gravity_refstate-mantle.xmf,163,1.41551e-06,2.9856e-06,0,-1.86098e-07,-1.70603e+09,-1.70582e+09,-1.70622e+09,-24872,0.024428,0.00367909,0,0.0247035,-16403.5,-58776.8,-0,61022.8,24872
step02_gravity_refstate-mantle.xmf,164,1.42203e-06,2.95301e-06,0,5.1005e-09,-1.74563e+09,-1.74542e+09,-1.74582e+09,681.682,0.0237652,-5.37687e-20,0,0.0237652,-17080.8,-60000,-0,62383.9,681.682
step02_gravity_refstate-mantle.xmf,165,5.88456e-08,2.795e-06,0,-3.84182e-07,-1.38791e+09,-1.38754e+09,-1.38792e+09,-51345.9,0.00740969,0.0302111,0,0.0311065,-19791,-48940.6,-0,52790.8,51345.9
step02_gravity_refstate-mantle.xmf,166,4.94965e-08,2.91865e-06,0,-4.08167e-07,-1.40698e+09,-1.4066e+09,-1.40699e+09,-54551.5,0.00850437,0.0296153,0,0.0308122,-18674.3,-49530.1,-0,52933.5,54551.5
step02_gravity_refstate-mantle.xmf,167,-2.13508e-08,3.57293e-06,0,-5.12788e-07,-1.47927e+09,-1.47879e+09,-1.47927e+09,-68534.2,0.0134903,0.0278693,0,0.0309627,-14486.6,-51764.2,-0,53753,68534.2
step02_gravity_refstate-mantle.xmf,168,3.39382e-08,3.05795e-06,0,-4.32079e-07,-1.42533e+09,-1.42493e+09,-1.42534e+09,-57747.3,0.00963881,0.0291167,0,0.0306706,-17582.7,-50097.1,-0,53093.1,57747.3
step02_gravity_refstate-mantle.xmf,169,1.03246e-09,3.38413e-06,0,-4.87457e-07,-1.46219e+09,-1.46174e+09,-1.46219e+09,-65148.6,0.0121779,0.0281651,0,0.030685,-15492.4,-51236.4,-0,53527.4,65148.6
step02_gravity_refstate-mantle.xmf,170,2.02156e-08,3.21162e-06,0,-4.59614e-07,-1.4441e+09,-1.44367e+09,-1.4441e+09,-61427.4,0.010884,0.0285875,0,0.0305893,-16531.6,-50677,-0,53305.3,61427.4
step02_gravity_refstate-mantle.xmf,171,7.53013e-09,2.1477e-06,0,-1.13039e-07,-1.19523e+09,-1.19495e+09,-1.19523e+09,-15107.7,0.000777012,0.0386106,0,0.0386184,-31100.2,-42986.9,-0,53057.5,15107.7
step02_gravity_refstate-mantle.xmf,172,-3.35928e-08,3.77546e-06,0,-5.39285e-07,-1.49653e+09,-1.49602e+09,-1.49653e+09,-72075.4,0.0149241,0.0275407,0,0.0313244,-13532.6,-52297.9,-0,54020.3,72075.4
step02_gravity_refstate-mantle.xmf,173,2.46015e-07,3.7385e-06,0,-6.30122e-07,-1.53039e+09,-1.52992e+09,-1.53042e+09,-84215.8,0.0179095,0.0236629,0,0.0296763,-13498,-53345.5,-0,55026.7,84215.8
step02_gravity_refstate-mantle.xmf,174,1.04749e-06,3.37447e-06,0,-5.82416e-07,-1.61718e+09,-1.61687e+09,-1.61732e+09,-77839.9,0.0238208,0.0131698,0,0.0272189,-14335,-56030.8,-0,57835.5,77839.9
step02_gravity_refstate-mantle.xmf,175,1.32693e-06,3.16096e-06,0,-3.96492e-07,-1.66374e+09,-1.66349e+09,-1.66392e+09,-52991.2,0.0250645,0.00801039,0,0.0263134,-15154.6,-57470.4,-0,59434.9,52991.2
step02_gravity_refstate-mantle.xmf,176,1.39989e-06,3.1021e-06,0,-2.93618e-07,-1.68596e+09,-1.68573e+09,-1.68615e+09,-39242,0.0252824,0.00574426,0,0.0259268,-15503.5,-58157.1,-0,60188.1,39242
step02_gravity_refstate-mantle.xmf,177,5.63936e-08,2.69443e-06,0,-3.58296e-07,-1.36875e+09,-1.3684e+09,-1.36876e+09,-47886.3,0.00639905,0.0309466,0,0.0316012,-20812,-48348.5,-0,52637.6,47886.3
step02_gravity_refstate-mantle.xmf,178,-1.01883e-07,2.13481e-06,0,-7.29589e-08,-1.15099e+09,-1.15069e+09,-1.15097e+09,-9750.95,7.35003e-05,0.0418186,0,0.0418187,-30155.1,-41619.3,-0,51395.5,9750.95
step02_gravity_refstate-mantle.xmf,179,-3.98921e-08,2.09412e-06,0,-6.79785e-08,-1.15392e+09,-1.15363e+09,-1.15391e+09,-9085.33,0.000241649,0.0410576,0,0.0410583,-32139.7,-41710.1,-0,52656.3,9085.33
step02_gravity_refstate-mantle.xmf,180,-8.66295e-08,2.01924e-06,0,-1.49667e-08,-1.09857e+09,-1.09829e+09,-1.09856e+09,-2000.31,-0.000229039,0.04432,-0,0.0443206,-33233.9,-40000,-0,52004.7,2000.31
step02_gravity_refstate-mantle.xmf,181,-4.94342e-08,2.31e-06,0,-1.89329e-07,-1.23864e+09,-1.23832e+09,-1.23863e+09,-25303.9,0.00159542,0.0372959,0,0.03733,-26476.5,-44327.7,-0,51632.8,25303.9
step02_gravity_refstate-mantle.xmf,182,-1.06325e-07,2.25369e-06,0,-1.38489e-07,-1.19785e+09,-1.19754e+09,-1.19784e+09,-18509.1,0.000658787,0.039757,0,0.0397625,-27351.4,-43067.2,-0,51018.5,18509.1
step02_gravity_refstate-mantle.xmf,183,-4.16174e-08,2.37714e-06,0,-2.24352e-07,-1.26223e+09,-1.2619e+09,-1.26222e+09,-29984.6,0.0022135,0.0362689,0,0.0363364,-25165.1,-45056.5,-0,51607.9,29984.6
step02_gravity_refstate-mantle.xmf,184,-2.79129e-08,2.46192e-06,0,-2.61157e-07,-1.29095e+09,-1.29062e+09,-1.29095e+09,-34903.7,0.00312127,0.0349697,0,0.0351087,-23754.2,-45944.1,-0,51721.6,34903.7
step02_gravity_refstate-mantle.xmf,185,-2.1628e-08,2.54907e-06,0,-2.9045e-07,-1.31534e+09,-1.315e+09,-1.31534e+09,-38818.6,0.00402066,0.0339564,0,0.0341936,-22490.1,-46697.9,-0,51831.4,38818.6
step02_gravity_refstate-mantle.xmf,186,5.59566e-07,3.67255e-06,0,-6.64432e-07,-1.56408e+09,-1.56366e+09,-1.56415e+09,-88801.4,0.0207748,0.0198471,0,0.0287315,-13461.5,-54388,-0,56029.2,88801.4
step02_gravity_refstate-mantle.xmf,187,-5.79266e-08,4.00336e-06,0,-5.56017e-07,-1.51332e+09,-1.51278e+09,-1.51332e+09,-74311.7,0.0164356,0.0273347,0,0.0318954,-12586.2,-52817,-0,54295.9,74311.7
step02_gravity_refstate-mantle.xmf,188,8.64048e-07,3.60539e-06,0,-6.43955e-07,-1.59823e+09,-1.59786e+09,-1.59834e+09,-86064.6,0.0234459,0.0160319,0,0.028403,-13427.4,-55444.8,-0,57047.5,86064.6
step02_gravity_refstate-mantle.xmf,189,1.26232e-06,3.32234e-06,0,-4.75988e-07,-1.65004e+09,-1.64977e+09,-1.65021e+09,-63615.8,0.0255455,0.00975925,0,0.0273462,-14346.6,-57047.3,-0,58823.6,63615.8
step02_gravity_refstate-mantle.xmf,190,1.42496e-06,3.26495e-06,0,-3.26123e-07,-1.6844e+09,-1.68416e+09,-1.68459e+09,-43586.3,0.0266684,0.00619595,0,0.0273787,-14492.2,-58109.6,-0,59889.5,43586.3
step02_gravity_refstate-mantle.xmf,191,1.48058e-06,3.13968e-06,0,-1.66791e-07,-1.71387e+09,-1.71365e+09,-1.71407e+09,-22291.6,0.0261881,0.00309755,0,0.0263707,-15269.9,-59019.8,-0,60963.2,22291.6
step02_gravity_refstate-mantle.xmf,192,1.48052e-06,3.09448e-06,0,2.89622e-09,-1.7456e+09,-1.74539e+09,-1.7458e+09,387.079,0.0255463,-4.55614e-20,0,0.0255463,-15854,-60000,-0,62059.2,387.079
step02_gravity_refstate-mantle.xmf,193,-3.01225e-07,3.77951e-06,0,-3.95202e-07,-1.46165e+09,-1.4611e+09,-1.46161e+09,-52818.8,0.0118524,0.0315488,0,0.0337017,-13568.6,-51218.4,-0,52985.2,52818.8
step02_gravity_refstate-mantle.xmf,194,-3.42651e-07,4.01069e-06,0,-4.10853e-07,-1.4797e+09,-1.47912e+09,-1.47966e+09,-54910.5,0.0131995,0.0313984,0,0.03406,-12634.6,-51776.5,-0,53295.8,54910.5
step02_gravity_refstate-mantle.xmf,195,-5.59675e-08,2.65273e-06,0,-2.98268e-07,-1.33055e+09,-1.33018e+09,-1.33054e+09,-39863.5,0.00462014,0.0338515,0,0.0341653,-21108.5,-47167.5,-0,51675.4,39863.5
step02_gravity_refstate-mantle.xmf,196,-9.04573e-08,2.77139e-06,0,-3.04001e-07,-1.34742e+09,-1.34704e+09,-1.34741e+09,-40629.7,0.00533466,0.0336691,0,0.0340891,-19818.2,-47688.8,-0,51642.8,40629.7
step02_gravity_refstate-mantle.xmf,197,-1.16515e-07,2.89948e-06,0,-3.15171e-07,-1.36657e+09,-1.36617e+09,-1.36656e+09,-42122.6,0.00623046,0.0332506,0,0.0338293,-18673.9,-48280.6,-0,51766.1,42122.6
step02_gravity_refstate-mantle.xmf,198,-1.50722e-07,3.04396e-06,0,-3.2485e-07,-1.38531e+09,-1.38489e+09,-1.38529e+09,-43416.2,0.00717106,0.0329156,0,0.0336877,-17563.7,-48859.6,-0,51920.6,43416.2
step02_gravity_refstate-mantle.xmf,199,-2.64783e-07,3.57268e-06,0,-3.74023e-07,-1.4428e+09,-1.44229e+09,-1.44277e+09,-49988.2,0.0105506,0.0318585,0,0.0335601,-14510.2,-50636.1,-0,52674.1,49988.2
step02_gravity_refstate-mantle.xmf,200,-1.89326e-07,3.20467e-06,0,-3.36659e-07,-1.40408e+09,-1.40363e+09,-1.40406e+09,-44994.5,0.0081835,0.0326015,0,0.0336129,-16499.9,-49439.5,-0,52120.2,44994.5
step02_gravity_refstate-mantle.xmf,201,-2.28753e-07,3.38359e-06,0,-3.53435e-07,-1.42351e+09,-1.42303e+09,-1.42348e+09,-47236.6,0.0093207,0.0322423,0,0.0335625,-15473.4,-50040,-0,52377.7,47236.6
step02_gravity_refstate-mantle.xmf,202,-1.68713e-07,2.18357e-06,0,-7.13564e-08,-1.1483e+09,-1.14798e+09,-1.14828e+09,-9536.79,-0.000219942,0.0427277,-0,0.0427283,-28283.1,-41535.9,-0,50251,9536.79
step02_gravity_refstate-mantle.xmf,203,-4.31445e-07,4.29898e-06,0,-3.90784e-07,-1.4938e+09,-1.49316e+09,-1.49374e+09,-52228.2,0.0142185,0.0321137,0,0.0351206,-11614,-52212,-0,53488.1,52228.2
step02_gravity_refstate-mantle.xmf,204,-5.79111e-08,4.25102e-06,0,-5.62562e-07,-1.52995e+09,-1.52937e+09,-1.52994e+09,-75186.4,0.0180663,0.0271572,0,0.0326175,-11683.7,-53331.1,-0,54595.9,75186.4
step02_gravity_refstate-mantle.xmf,205,2.73665e-07,3.9556e-06,0,-6.48058e-07,-1.54687e+09,-1.54637e+09,-1.5469e+09,-86613,0.0196438,0.0232391,0,0.0304292,-12566.9,-53855.2,-0,55302,86613
step02_gravity_refstate-mantle.xmf,206,1.13533e-06,3.55733e-06,0,-5.66556e-07,-1.63274e+09,-1.63242e+09,-1.63289e+09,-75720.2,0.0257944,0.0122482,0,0.0285547,-13379,-56512.5,-0,58074.6,75720.2
step02_gravity_refstate-mantle.xmf,207,-2.13473e-07,2.1057e-06,0,-3.71706e-09,-1.09859e+09,-1.09828e+09,-1.09856e+09,-496.785,-0.000816346,0.0456083,-0,0.0456156,-29222.3,-40000,-0,49537.3,496.785
step02_gravity_refstate-mantle.xmf,208,-1.44628e-07,2.05785e-06,0,-1.13005e-08,-1.09858e+09,-1.09829e+09,-1.09856e+09,-1510.31,-0.000465528,0.0448777,-0,0.0448801,-31181.6,-40000,-0,50717.8,1510.31
step02_gravity_refstate-mantle.xmf,209,-1.82817e-07,2.32711e-06,0,-1.3758e-07,-1.20094e+09,-1.20061e+09,-1.20092e+09,-18387.6,0.000450092,0.0405968,0,0.0405993,-25379.2,-43162.4,-0,50071,18387.6
step02_gravity_refstate-mantle.xmf,210,-2.49251e-07,2.24011e-06,0,-5.93168e-08,-1.14746e+09,-1.14712e+09,-1.14742e+09,-7927.69,-0.00062392,0.043736,-0,0.0437405,-26431.5,-41509.5,-0,49210.4,7927.69
step02_gravity_refstate-mantle.xmf,211,-1.7708e-07,2.41862e-06,0,-1.74495e-07,-1.23578e+09,-1.23543e+09,-1.23576e+09,-23321.2,0.00121354,0.0391135,0,0.0391324,-23783.5,-44238.8,-0,50226.8,23321.2
step02_gravity_refstate-mantle.xmf,212,-1.77355e-07,2.51198e-06,0,-2.00784e-07,-1.2622e+09,-1.26184e+09,-1.26218e+09,-26834.8,0.00192117,0.0381369,0,0.0381853,-22459.8,-45055.1,-0,50342.9,26834.8
step02_gravity_refstate-mantle.xmf,213,-1.92289e-07,2.61251e-06,0,-2.13436e-07,-1.28515e+09,-1.28477e+09,-1.28512e+09,-28525.7,0.00261302,0.0375007,0,0.0375916,-21157.2,-45764.2,-0,50418.1,28525.7
step02_gravity_refstate-mantle.xmf,214,6.15768e-07,3.88555e-06,0,-6.70462e-07,-1.57994e+09,-1.5795e+09,-1.58002e+09,-89607.3,0.0226557,0.01928,0,0.0297489,-12529.5,-54878.9,-0,56291,89607.3
step02_gravity_refstate-mantle.xmf,215,-3.97937e-07,4.5467e-06,0,-4.13269e-07,-1.51628e+09,-1.51562e+09,-1.51623e+09,-55233.3,0.016373,0.0312395,0,0.0352702,-10824.2,-52907.5,-0,54003.4,55233.3
step02_gravity_refstate-mantle.xmf,216,9.35291e-07,3.81599e-06,0,-6.33201e-07,-1.613e+09,-1.61262e+09,-1.61313e+09,-84627.3,0.0253653,0.0153567,0,0.0296517,-12508.2,-55902.1,-0,57284.4,84627.3
step02_gravity_refstate-mantle.xmf,217,1.35222e-06,3.49314e-06,0,-4.36379e-07,-1.66513e+09,-1.66484e+09,-1.66531e+09,-58322.1,0.0274082,0.00866894,0,0.0287465,-13447.2,-57514.4,-0,59065.5,58322.1
step02_gravity_refstate-mantle.xmf,218,1.53254e-06,3.34067e-06,0,-1.66073e-07,-1.71673e+09,-1.71649e+09,-1.71694e+09,-22195.6,0.0279957,0.00299318,0,0.0281553,-14098.8,-59109.1,-0,60767.3,22195.6
step02_gravity_refstate-mantle.xmf,219,1.53641e-06,3.2663e-06,0,3.73194e-09,-1.74558e+09,-1.74535e+09,-1.74578e+09,498.773,0.0273082,-4.52553e-20,0,0.0273082,-14685.8,-60000,-0,61771.1,498.773
step02_gravity_refstate-mantle.xmf,220,-5.27142e-07,3.73864e-06,0,-2.10349e-07,-1.42511e+09,-1.42454e+09,-1.42504e+09,-28113.2,0.00874908,0.0357132,0,0.0367693,-13607.7,-50088.1,-0,51903.6,28113.2
step02_gravity_refstate-mantle.xmf,221,-5.92016e-07,3.97138e-06,0,-2.18268e-07,-1.44487e+09,-1.44426e+09,-1.44479e+09,-29171.6,0.00995696,0.0355656,0,0.0369331,-12690.1,-50698.8,-0,52262.9,29171.6
step02_gravity_refstate-mantle.xmf,222,-6.76094e-07,4.21165e-06,0,-2.03409e-07,-1.46072e+09,-1.46007e+09,-1.46063e+09,-27185.6,0.0109226,0.0358927,0,0.0375178,-11822.3,-51188.5,-0,52536,27185.6
step02_gravity_refstate-mantle.xmf,223,-7.27986e-07,4.5947e-06,0,-2.0911e-07,-1.48805e+09,-1.48734e+09,-1.48796e+09,-27947.5,0.0130264,0.0357501,0,0.0380495,-10657.6,-52033.4,-0,53113.6,27947.5
step02_gravity_refstate-mantle.xmf,224,-7.2641e-07,4.80935e-06,0,-2.10695e-07,-1.50491e+09,-1.50417e+09,-1.50481e+09,-28159.3,0.0145919,0.0353606,0,0.038253,-10058.8,-52554.5,-0,53508.5,28159.3
step02_gravity_refstate-mantle.xmf,225,-2.20111e-07,2.72694e-06,0,-2.15706e-07,-1.30595e+09,-1.30555e+09,-1.30592e+09,-28829.2,0.00329976,0.0371205,0,0.0372669,-19885.9,-46406.8,-0,50488,28829.2
step02_gravity_refstate-mantle.xmf,226,-2.574e-07,2.85358e-06,0,-2.11198e-07,-1.32524e+09,-1.32482e+09,-1.32521e+09,-28226.6,0.0039922,0.0368928,0,0.0371082,-18701,-47002.8,-0,50586.4,28226.6
step02_gravity_refstate-mantle.xmf,227,-3.03207e-07,2.9979e-06,0,-2.03797e-07,-1.34469e+09,-1.34425e+09,-1.34465e+09,-27237.5,0.00475446,0.0367077,0,0.0370143,-17565.1,-47603.8,-0,50741,27237.5
step02_gravity_refstate-mantle.xmf,228,-3.59042e-07,3.1603e-06,0,-1.94832e-07,-1.36398e+09,-1.36351e+09,-1.36393e+09,-26039.3,0.00556754,0.03658,0,0.0370013,-16479.3,-48199.5,-0,50938.8,26039.3
step02_gravity_refstate-mantle.xmf,229,-4.85718e-07,3.53546e-06,0,-1.86944e-07,-1.40358e+09,-1.40304e+09,-1.40351e+09,-24985.1,0.00748428,0.0362164,0,0.0369816,-14486.6,-49422.8,-0,51502.1,24985.1
step02_gravity_refstate-mantle.xmf,230,-4.32756e-07,3.34572e-06,0,-1.78165e-07,-1.3822e+09,-1.38169e+09,-1.38214e+09,-23811.8,0.00634818,0.0366838,0,0.037229,-15393.8,-48762.3,-0,51134.4,23811.8
step02_gravity_refstate-mantle.xmf,231,-2.94237e-07,2.15439e-06,0,1.65897e-08,-1.09861e+09,-1.09828e+09,-1.09857e+09,2217.21,-0.00129128,0.0465276,-0,0.0465455,-27351,-40000,-0,48457,2217.21
step02_gravity_refstate-mantle.xmf,232,-7.60861e-07,5.09966e-06,0,-1.51258e-07,-1.51939e+09,-1.51861e+09,-1.51929e+09,-20215.6,0.0159156,0.0358631,0,0.0392361,-9340.13,-53002.5,-0,53819.2,20215.6
step02_gravity_refstate-mantle.xmf,233,-1.05229e-06,5.03319e-06,0,5.91212e-08,-1.49361e+09,-1.49279e+09,-1.49347e+09,7901.55,0.0125386,0.0398547,0,0.0417805,-9353.46,-52203.8,-0,53035.2,7901.55
step02_gravity_refstate-mantle.xmf,234,-3.96412e-07,4.82372e-06,0,-3.879e-07,-1.53226e+09,-1.53156e+09,-1.5322e+09,-51842.9,0.0179852,0.0312676,0,0.0360711,-10062.4,-53401.6,-0,54341.3,51842.9
step02_gravity_refstate-mantle.xmf,235,-3.362e-08,4.51616e-06,0,-5.53925e-07,-1.54664e+09,-1.54603e+09,-1.54664e+09,-74032.1,0.0198533,0.026924,0,0.0334523,-10844.3,-53847.5,-0,54928.6,74032.1
step02_gravity_refstate-mantle.xmf,236,3.08551e-07,4.20077e-06,0,-6.4799e-07,-1.56277e+09,-1.56225e+09,-1.56281e+09,-86603.8,0.0214536,0.0228982,0,0.0313781,-11666.9,-54347.2,-0,55585.4,86603.8
step02_gravity_refstate-mantle.xmf,237,1.20847e-06,3.77118e-06,0,-5.40664e-07,-1.64617e+09,-1.64583e+09,-1.64634e+09,-72259.8,0.0276608,0.0114861,0,0.0299508,-12479.7,-56928.6,-0,58280.4,72259.8
step02_gravity_refstate-mantle.xmf,238,1.48555e-06,3.45728e-06,0,-3.02248e-07,-1.69339e+09,-1.69313e+09,-1.69359e+09,-40395.4,0.0283692,0.0056011,0,0.0289169,-13508.1,-58388.1,-0,59930.3,40395.4
step02_gravity_refstate-mantle.xmf,239,-7.88453e-07,4.4239e-06,0,-1.4119e-07,-1.46862e+09,-1.46792e+09,-1.46852e+09,-18870.1,0.0112018,0.0370506,0,0.038707,-11090.3,-51432.3,-0,52614.4,18870.1
step02_gravity_refstate-mantle.xmf,240,-1.13192e-06,5.3396e-06,0,1.75802e-07,-1.50696e+09,-1.50609e+09,-1.50681e+09,23495.9,0.013553,0.0409861,0,0.0431688,-8640.07,-52616.6,-0,53321.3,23495.9
step02_gravity_refstate-mantle.xmf,241,-9.94726e-07,4.78003e-06,0,8.54698e-09,-1.48036e+09,-1.47959e+09,-1.48023e+09,1142.3,0.0115506,0.0392482,0,0.0409126,-9993.78,-51794.4,-0,52749.8,1142.3
step02_gravity_refstate-mantle.xmf,242,-3.11462e-07,2.38277e-06,0,-8.26045e-08,-1.18447e+09,-1.18411e+09,-1.18443e+09,-11040.1,-0.000473443,0.0430908,-0,0.0430934,-23564.9,-42652.9,-0,48729.6,11040.1
step02_gravity_refstate-mantle.xmf,243,-3.81579e-07,2.20797e-06,0,4.39977e-08,-1.09862e+09,-1.09827e+09,-1.09857e+09,5880.29,-0.00189436,0.0476544,-0,0.047692,-25563.1,-40000,-0,47470.8,5880.29
step02_gravity_refstate-mantle.xmf,244,-3.40734e-07,2.29672e-06,0,-2.96622e-08,-1.14436e+09,-1.14401e+09,-1.14432e+09,-3964.35,-0.00121695,0.0451234,-0,0.0451398,-24667.2,-41413.5,-0,48203.2,3964.35
step02_gravity_refstate-mantle.xmf,245,-3.10093e-07,2.4648e-06,0,-1.06648e-07,-1.21328e+09,-1.21291e+09,-1.21324e+09,-14253.5,9.35705e-05,0.0419975,0,0.0419976,-22350.1,-43543.1,-0,48944.2,14253.5
step02_gravity_refstate-mantle.xmf,246,-3.22084e-07,2.55958e-06,0,-1.17122e-07,-1.23756e+09,-1.23718e+09,-1.23752e+09,-15653.4,0.000621181,0.0413401,0,0.0413447,-21121.8,-44293.3,-0,49071.7,15653.4
step02_gravity_refstate-mantle.xmf,247,-3.42155e-07,2.66588e-06,0,-1.16457e-07,-1.26137e+09,-1.26097e+09,-1.26133e+09,-15564.4,0.00123074,0.040812,0,0.0408305,-19906,-45028.9,-0,49232.7,15564.4
step02_gravity_refstate-mantle.xmf,248,6.69271e-07,4.13053e-06,0,-6.56678e-07,-1.59458e+09,-1.59412e+09,-1.59467e+09,-87765,0.024529,0.0188364,0,0.030927,-11640.4,-55332.3,-0,56543.4,87765
step02_gravity_refstate-mantle.xmf,249,-8.10577e-07,5.43196e-06,0,-3.34485e-08,-1.53231e+09,-1.53148e+09,-1.5322e+09,-4470.4,0.0171384,0.0368441,0,0.0406351,-8621.23,-53402.1,-0,54093.5,4470.4
step02_gravity_refstate-mantle.xmf,250,-1.21058e-06,5.68242e-06,0,3.53295e-07,-1.5196e+09,-1.51868e+09,-1.51944e+09,47217.8,0.0145673,0.0425298,0,0.0449555,-7934.5,-53007.4,-0,53598,47217.8
step02_gravity_refstate-mantle.xmf,251,9.92403e-07,4.07871e-06,0,-6.04319e-07,-1.62636e+09,-1.62595e+09,-1.62649e+09,-80767.2,0.027272,0.0148576,0,0.0310566,-11593.1,-56315.9,-0,57496.8,80767.2
step02_gravity_refstate-mantle.xmf,252,1.45006e-06,3.7243e-06,0,-3.73319e-07,-1.68367e+09,-1.68337e+09,-1.68386e+09,-49894.1,0.0295551,0.00714216,0,0.0304058,-12473.3,-58088.3,-0,59412.4,49894.1
step02_gravity_refstate-mantle.xmf,253,1.56656e-06,3.57454e-06,0,-1.77047e-07,-1.71703e+09,-1.71676e+09,-1.71724e+09,-23662.3,0.0296578,0.00316696,0,0.0298264,-13028.9,-59119.1,-0,60537.8,23662.3
step02_gravity_refstate-mantle.xmf,254,1.58109e-06,3.47894e-06,0,4.23917e-09,-1.74555e+09,-1.7453e+09,-1.74576e+09,566.566,0.0290417,-4.8536e-20,0,0.0290417,-13573.4,-60000,-0,61516.1,566.566
step02_gravity_refstate-mantle.xmf,255,-6.89768e-07,3.62458e-06,0,1.90746e-09,-1.38567e+09,-1.38509e+09,-1.38558e+09,254.931,0.00565661,0.0399941,0,0.0403921,-13698.1,-48868.5,-0,50752,254.931
step02_gravity_refstate-mantle.xmf,256,-7.77066e-07,3.89994e-06,0,-8.91473e-09,-1.41206e+09,-1.41144e+09,-1.41196e+09,-1191.45,0.00705079,0.0395521,0,0.0401756,-12692.9,-49683.9,-0,51279.6,1191.45
step02_gravity_refstate-mantle.xmf,257,-8.80262e-07,4.13524e-06,0,2.03559e-08,-1.42906e+09,-1.42839e+09,-1.42895e+09,2720.57,0.00786728,0.0399196,0,0.0406875,-11842.9,-50209,-0,51586.8,2720.57
step02_gravity_refstate-mantle.xmf,258,-9.92687e-07,4.37508e-06,0,6.969e-08,-1.44351e+09,-1.4428e+09,-1.44338e+09,9314.07,0.00852679,0.0406328,0,0.0415178,-11041,-50655.2,-0,51844.5,9314.07
step02_gravity_refstate-mantle.xmf,259,-1.08761e-06,4.63371e-06,0,1.06433e-07,-1.45975e+09,-1.45899e+09,-1.45961e+09,14224.8,0.00947313,0.0411204,0,0.0421975,-10286.1,-51156.9,-0,52180.8,14224.8
step02_gravity_refstate-mantle.xmf,260,-1.39775e-06,5.20621e-06,0,4.1499e-07,-1.48156e+09,-1.48068e+09,-1.48137e+09,55463.5,0.010125,0.0449648,0,0.0460907,-8674.07,-51829.8,-0,52550.6,55463.5
step02_gravity_refstate-mantle.xmf,261,-1.27207e-06,4.91762e-06,0,2.75584e-07,-1.46907e+09,-1.46824e+09,-1.4689e+09,36831.8,0.00952966,0.043368,0,0.0444027,-9414.19,-51444.1,-0,52298.4,36831.8
step02_gravity_refstate-mantle.xmf,262,-1.51552e-06,5.52349e-06,0,6.08163e-07,-1.49431e+09,-1.49337e+09,-1.49411e+09,81281,0.0108141,0.0469071,0,0.0481375,-7937.09,-52223.7,-0,52823.4,81281
step02_gravity_refstate-mantle.xmf,263,-3.77608e-07,2.78687e-06,0,-1.01855e-07,-1.28285e+09,-1.28243e+09,-1.2828e+09,-13612.9,0.00181787,0.0405786,0,0.0406193,-18708.1,-45692.5,-0,49374.1,13612.9
step02_gravity_refstate-mantle.xmf,264,-6.73913e-07,3.46729e-06,0,3.89848e-08,-1.36268e+09,-1.36213e+09,-1.36259e+09,5210.32,0.00437212,0.041084,0,0.041316,-14289.6,-48158.2,-0,50233.5,5210.32
step02_gravity_refstate-mantle.xmf,265,-4.24457e-07,2.92455e-06,0,-7.96238e-08,-1.30371e+09,-1.30326e+09,-1.30365e+09,-10641.7,0.00244798,0.0404593,0,0.0405333,-17565.5,-46336.7,-0,49554.3,10641.7
step02_gravity_refstate-mantle.xmf,266,-4.85002e-07,3.0815e-06,0,-5.14588e-08,-1.3242e+09,-1.32373e+09,-1.32414e+09,-6877.47,0.0031186,0.0404374,0,0.0405575,-16468,-46969.8,-0,49773.1,6877.47
step02_gravity_refstate-mantle.xmf,267,-5.6544e-07,3.25738e-06,0,-1.2765e-08,-1.34324e+09,-1.34273e+09,-1.34316e+09,-1706.05,0.00374071,0.0406489,0,0.0408206,-15399.8,-47557.7,-0,49988.9,1706.05
step02_gravity_refstate-mantle.xmf,268,-4.13318e-07,2.42287e-06,0,-2.27276e-08,-1.17255e+09,-1.17217e+09,-1.1725e+09,-3037.54,-0.00133918,0.0452129,-0,0.0452328,-22206.8,-42284.1,-0,47760.7,3037.54
step02_gravity_refstate-mantle.xmf,269,-4.11024e-07,5.14261e-06,0,-3.1727e-07,-1.54631e+09,-1.54557e+09,-1.54625e+09,-42403.2,0.0194912,0.0317268,0,0.0372357,-9304.88,-53836.4,-0,54634.6,42403.2
step02_gravity_refstate-mantle.xmf,270,-1.73541e-08,4.82359e-06,0,-5.10634e-07,-1.56185e+09,-1.5612e+09,-1.56185e+09,-68246.2,0.0216164,0.0269562,0,0.034553,-10026.2,-54318.3,-0,55235.9,68246.2
step02_gravity_refstate-mantle.xmf,271,3.40669e-07,4.48034e-06,0,-6.22024e-07,-1.57743e+09,-1.57688e+09,-1.57748e+09,-83133.5,0.0232556,0.0227156,0,0.0325088,-10810,-54801.2,-0,55857.2,83133.5
step02_gravity_refstate-mantle.xmf,272,-8.7129e-07,5.81073e-06,0,1.49009e-07,-1.54419e+09,-1.54329e+09,-1.54407e+09,19915,0.0183147,0.0382101,0,0.0423726,-7923.34,-53769.5,-0,54350.1,19915
step02_gravity_refstate-mantle.xmf,273,1.25043e-06,4.07203e-06,0,-5.01269e-07,-1.65715e+09,-1.65677e+09,-1.65732e+09,-66994.6,0.0295463,0.011081,0,0.0315559,-11495.8,-57268.6,-0,58411,66994.6
step02_gravity_refstate-mantle.xmf,274,-1.74646e-06,5.30513e-06,0,8.88422e-07,-1.46849e+09,-1.46755e+09,-1.46826e+09,118738,0.00729343,0.0509836,0,0.0515026,-7979.2,-51424.2,-0,52039.6,118738
step02_gravity_refstate-mantle.xmf,275,-8.32312e-07,3.62974e-06,0,1.90174e-07,-1.36507e+09,-1.36447e+09,-1.36496e+09,25416.7,0.00377758,0.0434435,0,0.0436074,-13263.9,-48231.2,-0,50021.8,25416.7
step02_gravity_refstate-mantle.xmf,276,-4.38821e-07,2.35039e-06,0,1.77002e-08,-1.13992e+09,-1.13954e+09,-1.13986e+09,2365.64,-0.00198277,0.046843,-0,0.0468849,-23002.7,-41275.7,-0,47252.6,2365.64
step02_gravity_refstate-mantle.xmf,277,-4.73323e-07,2.2618e-06,0,8.23293e-08,-1.09864e+09,-1.09827e+09,-1.09857e+09,11003.3,-0.00262373,0.0490085,-0,0.0490787,-23854.1,-40000,-0,46572.7,11003.3
step02_gravity_refstate-mantle.xmf,278,-4.54304e-07,2.49493e-06,0,-3.66013e-09,-1.18564e+09,-1.18525e+09,-1.18558e+09,-489.177,-0.00143184,0.0455816,-0,0.0456041,-20954.2,-42688.4,-0,47554,489.177
step02_gravity_refstate-mantle.xmf,279,-4.50654e-07,2.59578e-06,0,-1.61875e-08,-1.21721e+09,-1.2168e+09,-1.21715e+09,-2163.46,-0.000698213,0.0444637,-0,0.0444691,-19858.1,-43663.8,-0,47967.4,2163.46
step02_gravity_refstate-mantle.xmf,280,-4.79273e-07,2.7037e-06,0,5.61848e-09,-1.23988e+09,-1.23945e+09,-1.23981e+09,750.909,-0.000245883,0.0442474,-0,0.0442481,-18693,-44364,-0,48141.4,750.909
step02_gravity_refstate-mantle.xmf,281,-1.91994e-06,5.6297e-06,0,1.23527e-06,-1.48174e+09,-1.48073e+09,-1.48148e+09,165094,0.00762197,0.0542426,0,0.0547755,-7148.97,-51833,-0,52323.6,165094
step02_gravity_refstate-mantle.xmf,282,-1.61092e-06,5.87867e-06,0,8.5626e-07,-1.50817e+09,-1.50717e+09,-1.50796e+09,114439,0.0118061,0.0489387,0,0.0503426,-7232.73,-52652.3,-0,53146.7,114439
step02_gravity_refstate-mantle.xmf,283,7.17792e-07,4.42261e-06,0,-6.16263e-07,-1.60863e+09,-1.60813e+09,-1.60872e+09,-82363.6,0.0264369,0.0184784,0,0.0322546,-10775.9,-55767.1,-0,56798.7,82363.6
step02_gravity_refstate-mantle.xmf,284,-4.57945e-07,5.49967e-06,0,-1.81222e-07,-1.55722e+09,-1.55643e+09,-1.55716e+09,-24220.4,0.0206855,0.0327548,0,0.0387397,-8591.14,-54174.2,-0,54851.2,24220.4
step02_gravity_refstate-mantle.xmf,285,-1.29156e-06,6.07822e-06,0,6.15994e-07,-1.53188e+09,-1.53089e+09,-1.5317e+09,82327.6,0.0156248,0.0445,0,0.0471634,-7239.36,-53387.1,-0,53875.7,82327.6
step02_gravity_refstate-mantle.xmf,286,1.03692e-06,4.39738e-06,0,-5.48943e-07,-1.63922e+09,-1.63877e+09,-1.63936e+09,-73366.2,0.0291813,0.0143987,0,0.0325403,-10710.1,-56714.2,-0,57716.6,73366.2
step02_gravity_refstate-mantle.xmf,287,1.46177e-06,4.10627e-06,0,-3.39272e-07,-1.69041e+09,-1.69005e+09,-1.6906e+09,-45343.7,0.0315016,0.00701512,0,0.0322733,-11324.6,-58297.5,-0,59387.2,45343.7
step02_gravity_refstate-mantle.xmf,288,1.57729e-06,3.87202e-06,0,-1.84375e-07,-1.71682e+09,-1.71652e+09,-1.71703e+09,-24641.7,0.0312942,0.00345065,0,0.0314839,-11985.5,-59113.6,-0,60316.4,24641.7
step02_gravity_refstate-mantle.xmf,289,1.6094e-06,3.74175e-06,0,4.41923e-09,-1.74552e+09,-1.74524e+09,-1.74574e+09,590.63,0.0307313,-5.40821e-20,0,0.0307313,-12513.8,-60000,-0,61291.1,590.63
step02_gravity_refstate-mantle.xmf,290,-9.01233e-07,3.79415e-06,0,2.01158e-07,-1.38103e+09,-1.3804e+09,-1.38091e+09,26884.8,0.00446537,0.0433577,0,0.043587,-12653.4,-48724.2,-0,50340.4,26884.8
step02_gravity_refstate-mantle.xmf,291,-1.0213e-06,4.01813e-06,0,2.54856e-07,-1.39788e+09,-1.3972e+09,-1.39774e+09,34061.5,0.00506409,0.0438755,0,0.0441667,-11835.4,-49244.4,-0,50646.7,34061.5
step02_gravity_refstate-mantle.xmf,292,-1.15323e-06,4.25687e-06,0,3.22662e-07,-1.41403e+09,-1.41331e+09,-1.41388e+09,43123.8,0.00562351,0.0446412,0,0.044994,-11020.7,-49743.1,-0,50949.3,43123.8
step02_gravity_refstate-mantle.xmf,293,-1.29035e-06,4.50595e-06,0,4.03789e-07,-1.42933e+09,-1.42856e+09,-1.42916e+09,53966.4,0.00616473,0.0456008,0,0.0460156,-10241,-50215.5,-0,51249.2,53966.4
step02_gravity_refstate-mantle.xmf,294,-1.59602e-06,5.02862e-06,0,6.84025e-07,-1.45585e+09,-1.45497e+09,-1.45564e+09,91419.9,0.00691215,0.0488384,0,0.0493251,-8712.33,-51033.9,-0,51772.3,91419.9
step02_gravity_refstate-mantle.xmf,295,-1.44018e-06,4.76509e-06,0,5.21524e-07,-1.44328e+09,-1.44245e+09,-1.44309e+09,69701.7,0.00659256,0.0469984,0,0.0474585,-9465.4,-50645.9,-0,51522.9,69701.7
step02_gravity_refstate-mantle.xmf,296,-5.19397e-07,2.8299e-06,0,3.91808e-08,-1.26242e+09,-1.26197e+09,-1.26235e+09,5236.51,0.000276531,0.0441504,0,0.0441513,-17553.9,-45060.5,-0,48359,5236.51
step02_gravity_refstate-mantle.xmf,297,-8.63686e-07,3.48433e-06,0,3.17448e-07,-1.33656e+09,-1.33598e+09,-1.33644e+09,42427,0.00189404,0.0461581,0,0.046197,-13414.8,-47349.9,-0,49213.5,42427
step02_gravity_refstate-mantle.xmf,298,-5.75556e-07,2.97325e-06,0,8.49276e-08,-1.28383e+09,-1.28336e+09,-1.28376e+09,11350.6,0.000809282,0.0442307,0,0.0442381,-16460,-45721.9,-0,48594.4,11350.6
step02_gravity_refstate-mantle.xmf,299,-6.52123e-07,3.13572e-06,0,1.4465e-07,-1.30407e+09,-1.30357e+09,-1.30399e+09,19332.5,0.00131295,0.0445372,0,0.0445566,-15391.1,-46347.1,-0,48835.8,19332.5
step02_gravity_refstate-mantle.xmf,300,-7.48491e-07,3.3105e-06,0,2.18063e-07,-1.32228e+09,-1.32174e+09,-1.32218e+09,29144.1,0.00172698,0.0451058,0,0.0451389,-14376.6,-46909.2,-0,49062.9,29144.1
step02_gravity_refstate-mantle.xmf,301,-5.24312e-07,2.40373e-06,0,7.04904e-08,-1.13961e+09,-1.13922e+09,-1.13954e+09,9421.04,-0.00273011,0.0484625,-0,0.0485393,-21469.3,-41265.9,-0,46516.7,9421.04
step02_gravity_refstate-mantle.xmf,302,-1.93359e-06,6.01324e-06,0,1.45534e-06,-1.50053e+09,-1.49947e+09,-1.50027e+09,194506,0.00936362,0.0554905,0,0.0562749,-6545.92,-52414.4,-0,52821.6,194506
step02_gravity_refstate-mantle.xmf,303,-1.59401e-08,5.23028e-06,0,-4.00267e-07,-1.57701e+09,-1.57631e+09,-1.57701e+09,-53495.7,0.0235022,0.0273465,0,0.0360581,-9147.79,-54787.8,-0,55546.2,53495.7
step02_gravity_refstate-mantle.xmf,304,3.83597e-07,4.80788e-06,0,-5.62491e-07,-1.59254e+09,-1.59195e+09,-1.5926e+09,-75176.9,0.0252117,0.0224891,0,0.0337845,-9984.65,-55269.1,-0,56163.7,75176.9
step02_gravity_refstate-mantle.xmf,305,-5.11999e-07,5.92476e-06,0,9.62842e-09,-1.56849e+09,-1.56763e+09,-1.56842e+09,1286.84,0.0219922,0.0339505,0,0.0404512,-7891.37,-54522.8,-0,55091,1286.84
step02_gravity_refstate-mantle.xmf,306,-9.42649e-07,6.25849e-06,0,4.13137e-07,-1.55577e+09,-1.55481e+09,-1.55564e+09,55215.7,0.0195265,0.0399204,0,0.0444401,-7240.56,-54128,-0,54610.1,55215.7
step02_gravity_refstate-mantle.xmf,307,1.28516e-06,4.40654e-06,0,-4.37528e-07,-1.66892e+09,-1.6685e+09,-1.66909e+09,-58475.6,0.0313592,0.0104391,0,0.0330511,-10637.3,-57633.2,-0,58606.7,58475.6
step02_gravity_refstate-mantle.xmf,308,-2.04545e-06,5.28144e-06,0,1.46098e-06,-1.45506e+09,-1.45408e+09,-1.45478e+09,195260,0.0042606,0.057595,0,0.0577523,-7310.17,-51007.1,-0,51528.3,195260
step02_gravity_refstate-mantle.xmf,309,-9.87875e-07,3.66922e-06,0,4.18755e-07,-1.35095e+09,-1.35033e+09,-1.35082e+09,55966.7,0.00208731,0.0471958,0,0.0472419,-12533.7,-47794.3,-0,49410.4,55966.7
step02_gravity_refstate-mantle.xmf,310,-1.87832e-06,5.04739e-06,0,1.17265e-06,-1.44298e+09,-1.44205e+09,-1.44273e+09,156724,0.00418233,0.0547546,0,0.054914,-8030.93,-50634.5,-0,51267.4,156724
step02_gravity_refstate-mantle.xmf,311,-5.65627e-07,2.31264e-06,0,1.32549e-07,-1.09865e+09,-1.09827e+09,-1.09858e+09,17715.2,-0.00347154,0.0506096,-0,0.0507285,-22219.5,-40000,-0,45757,17715.2
step02_gravity_refstate-mantle.xmf,312,-6.02225e-07,2.45225e-06,0,1.36481e-07,-1.14054e+09,-1.14013e+09,-1.14046e+09,18240.6,-0.00351743,0.0502233,-0,0.0503463,-20017.9,-41294.1,-0,45890.3,18240.6
step02_gravity_refstate-mantle.xmf,313,-5.96094e-07,2.72098e-06,0,1.47206e-07,-1.22064e+09,-1.2202e+09,-1.22056e+09,19674.1,-0.00176266,0.0477843,-0,0.0478168,-17525.4,-43769.2,-0,47147.4,19674.1
step02_gravity_refstate-mantle.xmf,314,-5.39899e-07,2.53094e-06,0,7.3832e-08,-1.17841e+09,-1.178e+09,-1.17834e+09,9867.65,-0.00230402,0.0476924,-0,0.047748,-19742.6,-42464.4,-0,46829.4,9867.65
step02_gravity_refstate-mantle.xmf,315,-5.72785e-07,2.60762e-06,0,1.12995e-07,-1.19492e+09,-1.19449e+09,-1.19484e+09,15101.7,-0.00226426,0.0480507,-0,0.048104,-18620.1,-42974.4,-0,46834.9,15101.7
step02_gravity_refstate-mantle.xmf,316,-2.21286e-06,5.46684e-06,0,1.89279e-06,-1.46416e+09,-1.46313e+09,-1.46386e+09,252971,0.0039244,0.06168,0,0.0618047,-6579.68,-51287.5,-0,51707.8,252971
step02_gravity_refstate-mantle.xmf,317,-2.14009e-06,5.76864e-06,0,1.79232e-06,-1.48184e+09,-1.48078e+09,-1.48155e+09,239544,0.00617391,0.0598817,0,0.0601992,-6428.08,-51834.9,-0,52231.9,239544
step02_gravity_refstate-mantle.xmf,318,-1.67624e-06,6.26623e-06,0,1.18393e-06,-1.52144e+09,-1.52038e+09,-1.52122e+09,158232,0.0129167,0.051179,0,0.0527838,-6587.46,-53062.7,-0,53470,158232
step02_gravity_refstate-mantle.xmf,319,7.58262e-07,4.77263e-06,0,-5.41891e-07,-1.62258e+09,-1.62204e+09,-1.62268e+09,-72423.7,0.0283923,0.0181099,0,0.0336763,-9948.08,-56199.1,-0,57072.8,72423.7
step02_gravity_refstate-mantle.xmf,320,-2.14978e-07,5.60838e-06,0,-2.23479e-07,-1.5762e+09,-1.57542e+09,-1.57617e+09,-29867.9,0.023316,0.0300252,0,0.0380151,-8461.78,-54762.3,-0,55412.1,29867.9
step02_gravity_refstate-mantle.xmf,321,-1.37199e-06,6.53636e-06,0,9.64973e-07,-1.54388e+09,-1.54283e+09,-1.5437e+09,128969,0.0167711,0.0467207,0,0.0496396,-6587.78,-53758.6,-0,54160.7,128969
step02_gravity_refstate-mantle.xmf,322,1.05286e-06,4.7758e-06,0,-4.67652e-07,-1.65096e+09,-1.65046e+09,-1.6511e+09,-62501.7,0.0309763,0.014012,0,0.0339981,-9888.52,-57077.8,-0,57928.1,62501.7
step02_gravity_refstate-mantle.xmf,323,1.43987e-06,4.51834e-06,0,-2.92403e-07,-1.6964e+09,-1.69598e+09,-1.69659e+09,-39079.7,0.0331225,0.00688482,0,0.0338305,-10378.6,-58483.4,-0,59397.1,39079.7
step02_gravity_refstate-mantle.xmf,324,1.56426e-06,4.25239e-06,0,-1.67176e-07,-1.71938e+09,-1.71903e+09,-1.71959e+09,-22343.1,0.0329405,0.00344601,0,0.0331202,-10970.9,-59193.6,-0,60201.7,22343.1
step02_gravity_refstate-mantle.xmf,325,1.61233e-06,4.06784e-06,0,3.91644e-09,-1.74549e+09,-1.74517e+09,-1.74571e+09,523.433,0.0323567,-5.58996e-20,0,0.0323567,-11504.3,-60000,-0,61093,523.433
step02_gravity_refstate-mantle.xmf,326,-1.09657e-06,3.86188e-06,0,4.82883e-07,-1.36698e+09,-1.36632e+09,-1.36684e+09,64537.3,0.0025182,0.0477522,0,0.0478186,-11801.6,-48289.2,-0,49710.4,64537.3
step02_gravity_refstate-mantle.xmf,327,-1.24246e-06,4.08078e-06,0,5.83412e-07,-1.3832e+09,-1.38249e+09,-1.38304e+09,77973,0.00287968,0.0486924,0,0.0487775,-11000.2,-48789.8,-0,50014.5,77973
step02_gravity_refstate-mantle.xmf,328,-1.39774e-06,4.32256e-06,0,6.9055e-07,-1.39994e+09,-1.39918e+09,-1.39975e+09,92292,0.00328427,0.0497681,0,0.0498764,-10204.3,-49306.4,-0,50351.3,92292
step02_gravity_refstate-mantle.xmf,329,-1.55775e-06,4.56493e-06,0,8.18596e-07,-1.41531e+09,-1.4145e+09,-1.41511e+09,109405,0.0036274,0.0511064,0,0.051235,-9450.16,-49780.8,-0,50669.9,109405
step02_gravity_refstate-mantle.xmf,330,-1.71668e-06,4.8066e-06,0,9.727e-07,-1.42966e+09,-1.42879e+09,-1.42943e+09,130001,0.00393784,0.0527142,0,0.0528611,-8732.59,-50223.7,-0,50977.2,130001
step02_gravity_refstate-mantle.xmf,331,-9.92446e-07,3.46343e-06,0,5.94782e-07,-1.31676e+09,-1.31616e+09,-1.31662e+09,79492.7,-0.000167006,0.0507788,-0,0.0507791,-12592,-46737.4,-0,48403.9,79492.7
step02_gravity_refstate-mantle.xmf,332,-6.39262e-07,2.84731e-06,0,2.04628e-07,-1.24359e+09,-1.24312e+09,-1.2435e+09,27348.6,-0.00131841,0.047892,-0,0.0479101,-16439.4,-44478,-0,47418.8,27348.6
step02_gravity_refstate-mantle.xmf,333,-8.82558e-07,3.29947e-06,0,4.81074e-07,-1.30081e+09,-1.30025e+09,-1.30069e+09,64295.6,-0.000359777,0.0498046,-0,0.0498059,-13450.3,-46245.1,-0,48161.4,64295.6
step02_gravity_refstate-mantle.xmf,334,-7.03081e-07,2.98966e-06,0,2.81966e-07,-1.26482e+09,-1.26433e+09,-1.26473e+09,37684.8,-0.000917031,0.0482855,-0,0.0482942,-15376.9,-45133.8,-0,47681.3,37684.8
step02_gravity_refstate-mantle.xmf,335,-7.85719e-07,3.14313e-06,0,3.75008e-07,-1.28405e+09,-1.28353e+09,-1.28395e+09,50119.8,-0.000584462,0.0489248,-0,0.0489283,-14374.3,-45727.7,-0,47933.7,50119.8
step02_gravity_refstate-mantle.xmf,336,-6.53205e-07,2.35624e-06,0,1.9519e-07,-1.09867e+09,-1.09826e+09,-1.09858e+09,26087.1,-0.00442413,0.0524759,-0,0.0526621,-20655.1,-40000,-0,45018.2,26087.1
step02_gravity_refstate-mantle.xmf,337,-2.32987e-06,5.59597e-06,0,2.36307e-06,-1.47211e+09,-1.47105e+09,-1.4718e+09,315824,0.0036176,0.0659934,0,0.0660925,-5941.43,-51532.8,-0,51874.2,315824
step02_gravity_refstate-mantle.xmf,338,-2.21017e-06,5.98841e-06,0,2.16434e-06,-1.49143e+09,-1.49034e+09,-1.49114e+09,289265,0.00657012,0.0627898,0,0.0631326,-5914.51,-52131.5,-0,52465.9,289265
step02_gravity_refstate-mantle.xmf,339,-2.01302e-06,6.34124e-06,0,1.89341e-06,-1.51137e+09,-1.51026e+09,-1.51111e+09,253054,0.0100115,0.058629,0,0.0594776,-5952.38,-52749.6,-0,53084.4,253054
step02_gravity_refstate-mantle.xmf,340,4.28341e-07,5.19978e-06,0,-4.57859e-07,-1.60807e+09,-1.60743e+09,-1.60813e+09,-61192.8,0.0272989,0.0221732,0,0.0351693,-9197.44,-55750,-0,56503.6,61192.8
step02_gravity_refstate-mantle.xmf,341,9.13891e-08,5.63365e-06,0,-2.86298e-07,-1.59691e+09,-1.59617e+09,-1.59693e+09,-38263.7,0.02612,0.026391,0,0.0371314,-8468.43,-55404.2,-0,56047.6,38263.7
step02_gravity_refstate-mantle.xmf,342,-2.475e-07,6.06557e-06,0,-3.32402e-08,-1.58822e+09,-1.58737e+09,-1.58819e+09,-4442.56,0.0248703,0.0307616,0,0.0395577,-7790.67,-55134.5,-0,55682.2,4442.56
step02_gravity_refstate-mantle.xmf,343,-6.25072e-07,6.44749e-06,0,3.03514e-07,-1.57795e+09,-1.57701e+09,-1.57787e+09,40564.6,0.0230496,0.03588,0,0.0426457,-7184.75,-54815.8,-0,55284.6,40564.6
step02_gravity_refstate-mantle.xmf,344,-1.04868e-06,6.80462e-06,0,7.8645e-07,-1.56673e+09,-1.56568e+09,-1.56659e+09,105109,0.0206854,0.0421222,0,0.0469273,-6570.21,-54467.1,-0,54861.9,105109
step02_gravity_refstate-mantle.xmf,345,1.25588e-06,4.84421e-06,0,-3.62429e-07,-1.67709e+09,-1.67661e+09,-1.67726e+09,-48438.7,0.0329574,0.0102839,0,0.0345247,-9772.25,-57886.5,-0,58705.6,48438.7
step02_gravity_refstate-mantle.xmf,346,-2.09211e-06,4.94894e-06,0,1.72966e-06,-1.43051e+09,-1.42957e+09,-1.43023e+09,231170,0.00144693,0.0610238,0,0.0610409,-7374.63,-50247.7,-0,50786,231170
step02_gravity_refstate-mantle.xmf,347,-2.25297e-06,5.11345e-06,0,2.09185e-06,-1.44213e+09,-1.44115e+09,-1.44183e+09,279576,0.00129629,0.064431,0,0.0644441,-6684.16,-50605.9,-0,51045.5,279576
step02_gravity_refstate-mantle.xmf,348,-2.38753e-06,5.21599e-06,0,2.57016e-06,-1.45198e+09,-1.45097e+09,-1.45166e+09,343502,0.000962541,0.0687495,0,0.0687562,-6006.39,-50909.6,-0,51262.7,343502
step02_gravity_refstate-mantle.xmf,349,-1.11482e-06,3.64206e-06,0,7.10324e-07,-1.33298e+09,-1.33235e+09,-1.33283e+09,94934.7,5.28375e-05,0.0517504,0,0.0517504,-11785.9,-47238.2,-0,48686.3,94934.7
step02_gravity_refstate-mantle.xmf,350,-1.91484e-06,4.76238e-06,0,1.44583e-06,-1.41839e+09,-1.4175e+09,-1.41814e+09,193235,0.00151571,0.0583378,0,0.0583575,-8054.56,-49874,-0,50520.3,193235
step02_gravity_refstate-mantle.xmf,351,-6.85999e-07,2.71748e-06,0,3.01601e-07,-1.20401e+09,-1.20355e+09,-1.20392e+09,40309,-0.00326934,0.0514191,-0,0.051523,-16379.4,-43254.7,-0,46252.1,40309
step02_gravity_refstate-mantle.xmf,352,-7.31466e-07,2.3882e-06,0,2.71082e-07,-1.09868e+09,-1.09826e+09,-1.09858e+09,36230.2,-0.00546128,0.0546226,-0,0.0548949,-19156.9,-40000,-0,44350.7,36230.2
step02_gravity_refstate-mantle.xmf,353,-6.6925e-07,2.5039e-06,0,2.18711e-07,-1.14608e+09,-1.14566e+09,-1.14599e+09,29230.8,-0.00426539,0.0520559,-0,0.0522304,-18527,-41465,-0,45415.8,29230.8
step02_gravity_refstate-mantle.xmf,354,-6.68596e-07,2.60734e-06,0,2.47987e-07,-1.17774e+09,-1.1773e+09,-1.17765e+09,33143.4,-0.0037337,0.0515072,-0,0.0516424,-17421.2,-42443.1,-0,45879.4,33143.4
step02_gravity_refstate-mantle.xmf,355,-1.76369e-06,6.70187e-06,0,1.64867e-06,-1.5328e+09,-1.53166e+09,-1.53256e+09,220345,0.0138331,0.0541683,0,0.0559067,-5966.61,-53413.9,-0,53746.2,220345
step02_gravity_refstate-mantle.xmf,356,7.68648e-07,5.19445e-06,0,-4.30847e-07,-1.63554e+09,-1.63495e+09,-1.63564e+09,-57582.6,0.0302599,0.0178234,0,0.0351189,-9166.34,-56600.7,-0,57338.1,57582.6
step02_gravity_refstate-mantle.xmf,357,-1.48869e-06,7.08398e-06,0,1.44298e-06,-1.55485e+09,-1.5537e+09,-1.55465e+09,192855,0.01781,0.0495365,0,0.0526409,-5957.29,-54097.9,-0,54424.9,192855
step02_gravity_refstate-mantle.xmf,358,1.03071e-06,5.22861e-06,0,-3.59561e-07,-1.6618e+09,-1.66124e+09,-1.66194e+09,-48055.4,0.032644,0.0136782,0,0.0353939,-9113.42,-57413.8,-0,58132.6,48055.4
step02_gravity_refstate-mantle.xmf,359,1.36659e-06,5.0001e-06,0,-2.39052e-07,-1.70067e+09,-1.70019e+09,-1.70086e+09,-31949.3,0.0345098,0.00696326,0,0.0352053,-9517.92,-58616.2,-0,59383.9,31949.3
step02_gravity_refstate-mantle.xmf,360,1.51126e-06,4.69785e-06,0,-1.42296e-07,-1.72182e+09,-1.72139e+09,-1.72202e+09,-19017.9,0.0344004,0.00344856,0,0.0345728,-10054.4,-59269.7,-0,60116.4,19017.9
step02_gravity_refstate-mantle.xmf,361,1.57861e-06,4.47473e-06,0,3.08652e-09,-1.74547e+09,-1.74508e+09,-1.74568e+09,412.514,0.0338904,-5.64921e-20,0,0.0338904,-10542.4,-60000,-0,60919.1,412.514
step02_gravity_refstate-mantle.xmf,362,-2.46534e-06,5.26297e-06,0,3.14349e-06,-1.46161e+09,-1.46058e+09,-1.46128e+09,420127,0.000720903,0.0736001,0,0.0736037,-5368.85,-51206.7,-0,51487.4,420127
step02_gravity_refstate-mantle.xmf,363,-1.25098e-06,3.84636e-06,0,8.27163e-07,-1.35045e+09,-1.34977e+09,-1.35029e+09,110550,0.000321267,0.0527771,0,0.0527781,-10981.6,-47777.5,-0,49023.3,110550
step02_gravity_refstate-mantle.xmf,364,-1.42223e-06,4.08298e-06,0,9.65347e-07,-1.36986e+09,-1.36913e+09,-1.36967e+09,129019,0.000684092,0.0538671,0,0.0538715,-10160.8,-48376.6,-0,49432.1,129019
step02_gravity_refstate-mantle.xmf,365,-1.59609e-06,4.31692e-06,0,1.119e-06,-1.38726e+09,-1.38647e+09,-1.38705e+09,149554,0.00094662,0.0552579,0,0.055266,-9389.34,-48913.3,-0,49806.4,149554
step02_gravity_refstate-mantle.xmf,366,-1.75403e-06,4.52868e-06,0,1.28154e-06,-1.40206e+09,-1.40122e+09,-1.40182e+09,171278,0.00111841,0.0568516,0,0.0568626,-8704.97,-49369.9,-0,50131.5,171278
step02_gravity_refstate-mantle.xmf,367,-1.06592e-06,3.38469e-06,0,8.86901e-07,-1.29819e+09,-1.29759e+09,-1.29805e+09,118534,-0.0021203,0.0555036,-0,0.0555441,-11792.5,-46163.1,-0,47645.6,118534
step02_gravity_refstate-mantle.xmf,368,-9.60745e-07,3.23249e-06,0,7.55909e-07,-1.28104e+09,-1.28048e+09,-1.28092e+09,101027,-0.00231756,0.0545314,-0,0.0545806,-12574.6,-45633.8,-0,47334.6,101027
step02_gravity_refstate-mantle.xmf,369,-7.31344e-07,2.83235e-06,0,3.93058e-07,-1.22579e+09,-1.22532e+09,-1.2257e+09,52532.1,-0.00295779,0.0518817,-0,0.0519659,-15340.7,-43927.7,-0,46529.3,52532.1
step02_gravity_refstate-mantle.xmf,370,-8.70927e-07,3.08994e-06,0,6.28565e-07,-1.26339e+09,-1.26286e+09,-1.26327e+09,84007.7,-0.00252879,0.0536053,-0,0.0536649,-13414.5,-45088.7,-0,47041.8,84007.7
step02_gravity_refstate-mantle.xmf,371,-7.93554e-07,2.95787e-06,0,5.0412e-07,-1.24543e+09,-1.24493e+09,-1.24532e+09,67375.6,-0.00271845,0.052657,-0,0.0527271,-14339.9,-44534.1,-0,46785.9,67375.6
step02_gravity_refstate-mantle.xmf,372,-7.31039e-07,2.59488e-06,0,4.01407e-07,-1.1666e+09,-1.16615e+09,-1.1665e+09,53648,-0.00511991,0.0550345,-0,0.0552721,-16126.3,-42098.5,-0,45081.5,53648
step02_gravity_refstate-mantle.xmf,373,-2.39469e-06,5.73404e-06,0,2.92014e-06,-1.48163e+09,-1.48055e+09,-1.48131e+09,390276,0.00368618,0.0703842,0,0.0704807,-5351.1,-51826.8,-0,52102.3,390276
step02_gravity_refstate-mantle.xmf,374,-2.26925e-06,6.23287e-06,0,2.72007e-06,-1.50131e+09,-1.50018e+09,-1.50101e+09,363538,0.00697018,0.0667419,0,0.0671049,-5351.06,-52436.9,-0,52709.2,363538
step02_gravity_refstate-mantle.xmf,375,-2.0936e-06,6.7264e-06,0,2.49131e-06,-1.52197e+09,-1.52079e+09,-1.52169e+09,332964,0.0106932,0.0624726,0,0.0633812,-5363.08,-53077.5,-0,53347.7,332964
step02_gravity_refstate-mantle.xmf,376,4.28316e-07,5.68283e-06,0,-3.04605e-07,-1.62192e+09,-1.62122e+09,-1.62198e+09,-40710.4,0.0292296,0.0220886,0,0.0366371,-8444.3,-56179,-0,56810.1,40710.4
step02_gravity_refstate-mantle.xmf,377,6.6626e-08,6.16155e-06,0,-8.58036e-08,-1.61035e+09,-1.60954e+09,-1.61036e+09,-11467.6,0.0279539,0.0266747,0,0.0386388,-7766.04,-55820.6,-0,56358.2,11467.6
step02_gravity_refstate-mantle.xmf,378,-3.2344e-07,6.63476e-06,0,2.33752e-07,-1.59967e+09,-1.59874e+09,-1.59963e+09,31241,0.0263649,0.0317872,0,0.0412981,-7127.91,-55489.2,-0,55945.2,31241
step02_gravity_refstate-mantle.xmf,379,-7.51044e-07,7.08847e-06,0,6.80972e-07,-1.58881e+09,-1.58776e+09,-1.58871e+09,91011.9,0.0243348,0.0377558,0,0.0449186,-6513.35,-55151.9,-0,55535.2,91011.9
step02_gravity_refstate-mantle.xmf,380,-1.203e-06,7.47256e-06,0,1.27718e-06,-1.57717e+09,-1.57601e+09,-1.57701e+09,170695,0.0217773,0.0447406,0,0.0497591,-5928.46,-54790.4,-0,55110.2,170695
step02_gravity_refstate-mantle.xmf,381,1.19813e-06,5.25987e-06,0,-2.88361e-07,-1.68344e+09,-1.6829e+09,-1.6836e+09,-38539.4,0.0341688,0.0101787,0,0.0356527,-9097.77,-58083.4,-0,58791.6,38539.4
step02_gravity_refstate-mantle.xmf,382,-2.04487e-06,4.58081e-06,0,1.99508e-06,-1.40508e+09,-1.4042e+09,-1.40481e+09,266643,-0.00105671,0.0645012,-0,0.0645099,-7412.37,-49461.5,-0,50013.9,266643
step02_gravity_refstate-mantle.xmf,383,-2.21738e-06,4.72079e-06,0,2.34087e-06,-1.41905e+09,-1.41813e+09,-1.41876e+09,312857,-0.0011621,0.0675866,-0,0.0675966,-6728.23,-49892.4,-0,50344,312857
step02_gravity_refstate-mantle.xmf,384,-2.35487e-06,4.80094e-06,0,2.75497e-06,-1.43054e+09,-1.42958e+09,-1.43023e+09,368201,-0.00140832,0.0713022,-0,0.0713161,-6090.01,-50246.4,-0,50614.2,368201
step02_gravity_refstate-mantle.xmf,385,-2.45613e-06,4.78634e-06,0,3.3346e-06,-1.44087e+09,-1.4399e+09,-1.44054e+09,445670,-0.00185412,0.076348,-0,0.0763705,-5413.55,-50564.8,-0,50853.7,445670
step02_gravity_refstate-mantle.xmf,386,-1.20341e-06,3.57205e-06,0,1.08218e-06,-1.31617e+09,-1.31553e+09,-1.31601e+09,144634,-0.0021296,0.0572993,-0,0.0573389,-10834.7,-46718.2,-0,47958.1,144634
step02_gravity_refstate-mantle.xmf,387,-1.89165e-06,4.51004e-06,0,1.64431e-06,-1.39876e+09,-1.39791e+09,-1.39851e+09,219762,-0.000290084,0.0608897,-0,0.0608904,-8096.59,-49267.1,-0,49928,219762
step02_gravity_refstate-mantle.xmf,388,-7.48809e-07,2.68961e-06,0,4.74986e-07,-1.18961e+09,-1.18915e+09,-1.18951e+09,63481.9,-0.00475796,0.0552303,-0,0.0554349,-15231.3,-42809.4,-0,45438.3,63481.9
step02_gravity_refstate-mantle.xmf,389,-7.94649e-07,2.40476e-06,0,3.61027e-07,-1.09869e+09,-1.09827e+09,-1.09859e+09,48251.3,-0.00655599,0.05706,-0,0.0574354,-17720.9,-40000,-0,43749.6,48251.3
step02_gravity_refstate-mantle.xmf,390,-7.49904e-07,2.50258e-06,0,3.61798e-07,-1.13658e+09,-1.13615e+09,-1.13648e+09,48354.3,-0.00573701,0.0556342,-0,0.0559292,-16967.1,-41170.9,-0,44530,48354.3
step02_gravity_refstate-mantle.xmf,391,-2.46953e-06,5.3246e-06,0,3.80539e-06,-1.47169e+09,-1.47065e+09,-1.47136e+09,508590,0.000753358,0.0787693,0,0.0787729,-4783.94,-51518.2,-0,51739.9,508590
step02_gravity_refstate-mantle.xmf,392,-2.46603e-06,4.69412e-06,0,3.97308e-06,-1.45104e+09,-1.45008e+09,-1.45071e+09,531002,-0.00209332,0.081686,-0,0.0817128,-4806,-50878.7,-0,51105.1,531002
step02_gravity_refstate-mantle.xmf,393,-1.88459e-06,7.22754e-06,0,2.27889e-06,-1.54332e+09,-1.5421e+09,-1.54306e+09,304574,0.0146612,0.0578988,0,0.0597262,-5359.4,-53739.5,-0,54006,304574
step02_gravity_refstate-mantle.xmf,394,7.28936e-07,5.72529e-06,0,-2.77566e-07,-1.64779e+09,-1.64712e+09,-1.64789e+09,-37096.7,0.0320304,0.0176172,0,0.0365556,-8406.61,-56980.4,-0,57597.1,37096.7
step02_gravity_refstate-mantle.xmf,395,-1.673e-06,7.77663e-06,0,2.08942e-06,-1.56513e+09,-1.56387e+09,-1.5649e+09,279251,0.0187162,0.0531162,0,0.0563172,-5331.32,-54416,-0,54676.6,279251
step02_gravity_refstate-mantle.xmf,396,9.77344e-07,5.81614e-06,0,-2.16371e-07,-1.67601e+09,-1.67537e+09,-1.67614e+09,-28918,0.034488,0.0126851,0,0.0367469,-8349.05,-57854,-0,58453.3,28918
step02_gravity_refstate-mantle.xmf,397,1.21944e-06,5.5747e-06,0,-1.82635e-07,-1.70118e+09,-1.7006e+09,-1.70134e+09,-24409.2,0.0355842,0.00769367,0,0.0364064,-8704.72,-58632.4,-0,59275,24409.2
step02_gravity_refstate-mantle.xmf,398,1.39449e-06,5.26231e-06,0,-1.12901e-07,-1.72299e+09,-1.72248e+09,-1.72318e+09,-15089.2,0.0357252,0.00366824,0,0.035913,-9159.91,-59306.6,-0,60009.8,15089.2
step02_gravity_refstate-mantle.xmf,399,1.49423e-06,4.98057e-06,0,2.4441e-09,-1.74544e+09,-1.74498e+09,-1.74564e+09,326.654,0.0352984,-6.12146e-20,0,0.0352984,-9625.39,-60000,-0,60767.2,326.654
step02_gravity_refstate-mantle.xmf,400,-1.37102e-06,3.81251e-06,0,1.20042e-06,-1.34019e+09,-1.33949e+09,-1.34e+09,160436,-0.00155266,0.0577784,-0,0.0577993,-10095.8,-47459.5,-0,48521.4,160436
step02_gravity_refstate-mantle.xmf,401,-1.07839e-06,3.24184e-06,0,1.19211e-06,-1.2804e+09,-1.27982e+09,-1.28026e+09,159326,-0.00396194,0.0604326,-0,0.0605623,-10987.3,-45613.2,-0,46917.8,159326
step02_gravity_refstate-mantle.xmf,402,-1.55174e-06,4.01364e-06,0,1.3935e-06,-1.35861e+09,-1.35787e+09,-1.35841e+09,186241,-0.00140668,0.0592889,-0,0.0593056,-9321.35,-48028,-0,48924.2,186241
step02_gravity_refstate-mantle.xmf,403,-1.75357e-06,4.21931e-06,0,1.64542e-06,-1.37628e+09,-1.37548e+09,-1.37604e+09,219911,-0.00143238,0.0614916,-0,0.0615083,-8502.16,-48572.8,-0,49311.3,219911
step02_gravity_refstate-mantle.xmf,404,-1.89591e-06,4.25998e-06,0,2.01878e-06,-1.38291e+09,-1.38209e+09,-1.38266e+09,269810,-0.00229899,0.0653235,-0,0.065364,-7737.86,-48776.9,-0,49386.9,269810
step02_gravity_refstate-mantle.xmf,405,-9.80084e-07,3.11837e-06,0,1.0192e-06,-1.26372e+09,-1.26318e+09,-1.26359e+09,136216,-0.00403873,0.0591055,-0,0.0592433,-11754.5,-45098.4,-0,46605.1,136216
step02_gravity_refstate-mantle.xmf,406,-7.66941e-07,2.57151e-06,0,5.33453e-07,-1.15956e+09,-1.15911e+09,-1.15946e+09,71296,-0.00619975,0.0580047,-0,0.058335,-15094.7,-41880.8,-0,44518,71296
step02_gravity_refstate-mantle.xmf,407,-8.91561e-07,2.96873e-06,0,8.97215e-07,-1.24231e+09,-1.24179e+09,-1.24219e+09,119913,-0.00447217,0.0586732,-0,0.0588434,-12446.7,-44437,-0,46147.3,119913
step02_gravity_refstate-mantle.xmf,408,-7.86019e-07,2.77649e-06,0,5.96722e-07,-1.2087e+09,-1.20822e+09,-1.2086e+09,79751.9,-0.00459869,0.0561034,-0,0.0562916,-14268.9,-43399.1,-0,45684.7,79751.9
step02_gravity_refstate-mantle.xmf,409,-8.36889e-07,2.87531e-06,0,7.44494e-07,-1.22667e+09,-1.22618e+09,-1.22656e+09,99501.6,-0.00450789,0.0573329,-0,0.0575099,-13301,-43954.3,-0,45922.7,99501.6
step02_gravity_refstate-mantle.xmf,410,-7.78775e-07,2.48105e-06,0,4.94939e-07,-1.13226e+09,-1.13183e+09,-1.13216e+09,66148.6,-0.00691103,0.0587714,-0,0.0591764,-15664.1,-41037.3,-0,43925.2,66148.6
step02_gravity_refstate-mantle.xmf,411,-2.40259e-06,5.8697e-06,0,3.62417e-06,-1.49154e+09,-1.49044e+09,-1.49122e+09,484370,0.003967,0.0752912,0,0.0753956,-4787.94,-52133.2,-0,52352.6,484370
step02_gravity_refstate-mantle.xmf,412,-2.39136e-06,4.55045e-06,0,4.70196e-06,-1.46175e+09,-1.46082e+09,-1.46143e+09,628417,-0.00201177,0.0874282,-0,0.0874513,-4246.4,-51209.6,-0,51385.4,628417
step02_gravity_refstate-mantle.xmf,413,-2.30864e-06,6.52789e-06,0,3.45885e-06,-1.51152e+09,-1.51033e+09,-1.51121e+09,462276,0.00751436,0.07139,0,0.0717844,-4793.55,-52752.5,-0,52969.8,462276
step02_gravity_refstate-mantle.xmf,414,-2.19676e-06,7.18739e-06,0,3.28843e-06,-1.53176e+09,-1.5305e+09,-1.53146e+09,439499,0.0112918,0.0671778,0,0.0681202,-4787.71,-53380.2,-0,53594.5,439499
step02_gravity_refstate-mantle.xmf,415,3.60536e-07,6.27753e-06,0,-9.67975e-08,-1.6339e+09,-1.63311e+09,-1.63395e+09,-12937,0.0309148,0.0222973,0,0.0381169,-7724.26,-56550.2,-0,57075.3,12937
step02_gravity_refstate-mantle.xmf,416,-2.99983e-08,6.80869e-06,0,1.81957e-07,-1.62206e+09,-1.62114e+09,-1.62205e+09,24318.6,0.0295331,0.0273039,0,0.0402207,-7091.74,-56183.1,-0,56628.9,24318.6
step02_gravity_refstate-mantle.xmf,417,-4.62951e-07,7.34129e-06,0,5.85042e-07,-1.61057e+09,-1.60953e+09,-1.61051e+09,78190.8,0.0277451,0.0330835,0,0.0431777,-6482.26,-55826.8,-0,56201.9,78190.8
step02_gravity_refstate-mantle.xmf,418,-9.34953e-07,7.85552e-06,0,1.14244e-06,-1.59915e+09,-1.59797e+09,-1.59902e+09,152687,0.0255152,0.0398234,0,0.0472962,-5889.89,-55472.1,-0,55783.9,152687
step02_gravity_refstate-mantle.xmf,419,-1.43915e-06,8.32884e-06,0,1.90949e-06,-1.58754e+09,-1.58624e+09,-1.58735e+09,255204,0.0227965,0.0478218,0,0.0529774,-5300.71,-55111.5,-0,55365.8,255204
step02_gravity_refstate-mantle.xmf,420,-2.0991e-06,4.2886e-06,0,2.61749e-06,-1.39645e+09,-1.3956e+09,-1.39617e+09,349827,-0.00332263,0.0711188,-0,0.0711963,-6679.5,-49193.8,-0,49645.2,349827
step02_gravity_refstate-mantle.xmf,421,-2.22421e-06,4.32016e-06,0,2.99831e-06,-1.40786e+09,-1.40699e+09,-1.40757e+09,400724,-0.00362106,0.0744614,-0,0.0745494,-6094.25,-49545.6,-0,49919,400724
step02_gravity_refstate-mantle.xmf,422,-2.32079e-06,4.27929e-06,0,3.47754e-06,-1.41882e+09,-1.41794e+09,-1.41851e+09,464773,-0.00399674,0.0786461,-0,0.0787476,-5491.04,-49883.3,-0,50184.6,464773
step02_gravity_refstate-mantle.xmf,423,-2.30385e-06,3.90057e-06,0,4.84078e-06,-1.44235e+09,-1.44152e+09,-1.44204e+09,646970,-0.00448375,0.0899753,-0,0.090087,-4245.78,-50609.4,-0,50787.2,646970
step02_gravity_refstate-mantle.xmf,424,-2.32782e-06,4.04944e-06,0,4.17798e-06,-1.42766e+09,-1.42681e+09,-1.42735e+09,558387,-0.0047579,0.084939,-0,0.0850721,-4797.29,-50155.7,-0,50384.6,558387
step02_gravity_refstate-mantle.xmf,425,-1.29244e-06,3.55565e-06,0,1.39543e-06,-1.31555e+09,-1.31491e+09,-1.31538e+09,186499,-0.00324963,0.061181,-0,0.0612673,-9964.8,-46698.4,-0,47749.8,186499
step02_gravity_refstate-mantle.xmf,426,-1.17412e-06,3.37141e-06,0,1.37498e-06,-1.29543e+09,-1.29483e+09,-1.29528e+09,183766,-0.00401992,0.0620978,-0,0.0622278,-10235,-46077.2,-0,47200.3,183766
step02_gravity_refstate-mantle.xmf,427,-1.98781e-06,4.23851e-06,0,2.34159e-06,-1.38709e+09,-1.38626e+09,-1.38682e+09,312953,-0.00304941,0.0685963,-0,0.0686641,-7179.99,-48905.2,-0,49429.5,312953
step02_gravity_refstate-mantle.xmf,428,-9.44209e-07,2.95505e-06,0,1.2641e-06,-1.24752e+09,-1.24699e+09,-1.24739e+09,168947,-0.00554225,0.0635103,-0,0.0637517,-11004.4,-44597.5,-0,45935.1,168947
step02_gravity_refstate-mantle.xmf,429,-7.73068e-07,2.61659e-06,0,6.47895e-07,-1.17384e+09,-1.17339e+09,-1.17374e+09,86591.1,-0.00627274,0.0592444,-0,0.0595755,-14181.1,-42322,-0,44634.7,86591.1
step02_gravity_refstate-mantle.xmf,430,-8.33559e-07,2.39992e-06,0,4.63384e-07,-1.0987e+09,-1.09827e+09,-1.09859e+09,61931.3,-0.00767612,0.0597932,-0,0.0602839,-16343,-40000,-0,43209.9,61931.3
step02_gravity_refstate-mantle.xmf,431,-7.86777e-07,2.45367e-06,0,6.56157e-07,-1.13549e+09,-1.13506e+09,-1.13539e+09,87695.4,-0.00787123,0.0619992,-0,0.0624969,-14270.6,-41136.9,-0,43541.9,87695.4
step02_gravity_refstate-mantle.xmf,432,-2.10927e-06,3.43049e-06,0,5.67425e-06,-1.45052e+09,-1.44978e+09,-1.45024e+09,758363,-0.00471378,0.0968131,-0,0.0969278,-3703.51,-50861.9,-0,50996.5,758363
step02_gravity_refstate-mantle.xmf,433,-2.39287e-06,5.31954e-06,0,4.63858e-06,-1.48188e+09,-1.48084e+09,-1.48156e+09,619946,0.00104105,0.0844352,0,0.0844416,-4241.7,-51833.3,-0,52006.5,619946
step02_gravity_refstate-mantle.xmf,434,-2.08332e-06,7.8668e-06,0,3.14988e-06,-1.55239e+09,-1.55106e+09,-1.55211e+09,420981,0.0151753,0.0628944,0,0.0646993,-4746.19,-54020.1,-0,54228.2,420981
step02_gravity_refstate-mantle.xmf,435,6.08047e-07,6.37791e-06,0,-8.59408e-08,-1.65813e+09,-1.65736e+09,-1.65822e+09,-11486,0.0335139,0.0176769,0,0.03789,-7682.01,-57300.6,-0,57813.3,11486
step02_gravity_refstate-mantle.xmf,436,-2.01047e-06,8.73132e-06,0,3.08727e-06,-1.57579e+09,-1.57435e+09,-1.57552e+09,412614,0.0194397,0.0583158,0,0.0614706,-4628.88,-54745.5,-0,54940.9,412614
step02_gravity_refstate-mantle.xmf,437,9.50781e-07,6.41824e-06,0,-6.3955e-08,-1.70059e+09,-1.69986e+09,-1.70072e+09,-8547.59,0.0365376,0.00897976,0,0.0376249,-7801.26,-58614.6,-0,59131.4,8547.59
step02_gravity_refstate-mantle.xmf,438,1.20013e-06,5.95634e-06,0,-6.95058e-08,-1.72334e+09,-1.7227e+09,-1.7235e+09,-9289.45,0.0368328,0.00408603,0,0.0370588,-8311.96,-59317.7,-0,59897.2,9289.45
step02_gravity_refstate-mantle.xmf,439,1.34074e-06,5.60962e-06,0,1.38241e-09,-1.74542e+09,-1.74485e+09,-1.7456e+09,184.759,0.0365371,-6.90491e-20,0,0.0365371,-8750.83,-60000,-0,60634.8,184.759
step02_gravity_refstate-mantle.xmf,440,-2.0182e-06,3.04771e-06,0,5.46403e-06,-1.4334e+09,-1.43272e+09,-1.43313e+09,730267,-0.00626777,0.0962839,-0,0.0964877,-3855.94,-50332.5,-0,50480,730267
step02_gravity_refstate-mantle.xmf,441,-1.4207e-06,3.70207e-06,0,1.57486e-06,-1.33046e+09,-1.32978e+09,-1.33027e+09,210480,-0.00326998,0.0627172,-0,0.0628024,-9305.54,-47158.4,-0,48067.8,210480
step02_gravity_refstate-mantle.xmf,442,-1.01959e-06,3.03186e-06,0,1.47823e-06,-1.26305e+09,-1.2625e+09,-1.26291e+09,197565,-0.00559774,0.0653408,-0,0.0655801,-10224.1,-45077,-0,46221.9,197565
step02_gravity_refstate-mantle.xmf,443,-1.58301e-06,3.81046e-06,0,1.85229e-06,-1.34544e+09,-1.34472e+09,-1.34523e+09,247558,-0.00350257,0.0650858,-0,0.06518,-8542.11,-47620.5,-0,48380.5,247558
step02_gravity_refstate-mantle.xmf,444,-1.84748e-06,3.89856e-06,0,2.54422e-06,-1.36913e+09,-1.36837e+09,-1.36889e+09,340035,-0.00448636,0.0714913,-0,0.0716319,-7090.84,-48350.7,-0,48867.9,340035
step02_gravity_refstate-mantle.xmf,445,-1.72552e-06,3.87878e-06,0,2.18005e-06,-1.3579e+09,-1.35715e+09,-1.35767e+09,291364,-0.003959,0.0681246,-0,0.0682396,-7790.92,-48004.5,-0,48632.6,291364
step02_gravity_refstate-mantle.xmf,446,-8.8375e-07,2.8835e-06,0,1.0959e-06,-1.2333e+09,-1.23279e+09,-1.23318e+09,146467,-0.00557867,0.0621882,-0,0.0624379,-11683,-44158.5,-0,45677.9,146467
step02_gravity_refstate-mantle.xmf,447,-8.20775e-07,2.72929e-06,0,1.01655e-06,-1.20913e+09,-1.20866e+09,-1.20902e+09,135861,-0.00628467,0.0626214,-0,0.062936,-12147.7,-43412,-0,45079.6,135861
step02_gravity_refstate-mantle.xmf,448,-7.94208e-07,2.66992e-06,0,8.06578e-07,-1.19156e+09,-1.1911e+09,-1.19146e+09,107799,-0.00622979,0.0606215,-0,0.0609407,-13209.6,-42869.5,-0,44858.5,107799
step02_gravity_refstate-mantle.xmf,449,-8.40357e-07,2.36636e-06,0,5.74917e-07,-1.09871e+09,-1.09828e+09,-1.09859e+09,76837.7,-0.00878381,0.0628191,-0,0.0634302,-15019.5,-40000,-0,42726.9,76837.7
step02_gravity_refstate-mantle.xmf,450,-2.19422e-06,4.33878e-06,0,5.64434e-06,-1.47186e+09,-1.47099e+09,-1.47157e+09,754367,-0.00170616,0.093762,-0,0.0937775,-3734.08,-51522.7,-0,51657.9,754367
step02_gravity_refstate-mantle.xmf,451,-2.36486e-06,6.02688e-06,0,4.53754e-06,-1.50145e+09,-1.50033e+09,-1.50113e+09,606443,0.00440823,0.0809163,0,0.0810363,-4248.09,-52439.9,-0,52611.7,606443
step02_gravity_refstate-mantle.xmf,452,-2.35475e-06,6.87463e-06,0,4.43839e-06,-1.52097e+09,-1.51974e+09,-1.52066e+09,593191,0.00800514,0.0770164,0,0.0774314,-4248.32,-53045.2,-0,53215.1,593191
step02_gravity_refstate-mantle.xmf,453,-2.34959e-06,7.71853e-06,0,4.33356e-06,-1.54008e+09,-1.53873e+09,-1.53977e+09,579180,0.0116222,0.0730162,0,0.0739353,-4227.95,-53637.6,-0,53804,579180
step02_gravity_refstate-mantle.xmf,454,7.4323e-07,6.55742e-06,0,-4.05495e-08,-1.67922e+09,-1.67844e+09,-1.67932e+09,-5419.44,0.0353827,0.0137082,0,0.0379454,-7579.14,-57953.4,-0,58446.9,5419.44
step02_gravity_refstate-mantle.xmf,455,2.19989e-07,6.99857e-06,0,1.6116e-07,-1.64501e+09,-1.6441e+09,-1.64504e+09,21539,0.0323969,0.0225909,0,0.0394956,-7046.76,-56894.1,-0,57328.9,21539
step02_gravity_refstate-mantle.xmf,456,-2.11624e-07,7.60675e-06,0,5.20192e-07,-1.63281e+09,-1.63176e+09,-1.63278e+09,69523.7,0.0308899,0.0281626,0,0.041801,-6441.65,-56516.1,-0,56882,69523.7
step02_gravity_refstate-mantle.xmf,457,-6.92105e-07,8.2204e-06,0,1.02686e-06,-1.62092e+09,-1.61973e+09,-1.62083e+09,137240,0.02894,0.0346536,0,0.0451486,-5854.59,-56147.2,-0,56451.6,137240
step02_gravity_refstate-mantle.xmf,458,-1.76189e-06,9.4138e-06,0,2.61919e-06,-1.59914e+09,-1.59765e+09,-1.59891e+09,350054,0.0239538,0.0505938,0,0.0559779,-4724.3,-55470.3,-0,55671.2,350054
step02_gravity_refstate-mantle.xmf,459,-1.21656e-06,8.8077e-06,0,1.71424e-06,-1.60896e+09,-1.60762e+09,-1.6088e+09,229108,0.0264972,0.0422588,0,0.049879,-5286.76,-55775.6,-0,56025.6,229108
step02_gravity_refstate-mantle.xmf,460,-1.89335e-06,3.8078e-06,0,2.88723e-06,-1.37439e+09,-1.37363e+09,-1.37414e+09,385879,-0.00515559,0.0748785,-0,0.0750558,-6551.42,-48512.6,-0,48953,385879
step02_gravity_refstate-mantle.xmf,461,-1.99898e-06,3.81239e-06,0,3.21703e-06,-1.38593e+09,-1.38516e+09,-1.38567e+09,429957,-0.00539804,0.0776576,-0,0.077845,-6043.4,-48868.4,-0,49240.6,429957
step02_gravity_refstate-mantle.xmf,462,-2.07975e-06,3.74347e-06,0,3.63091e-06,-1.39675e+09,-1.39597e+09,-1.39647e+09,485271,-0.00574042,0.0811734,-0,0.0813761,-5512.34,-49201.8,-0,49509.6,485271
step02_gravity_refstate-mantle.xmf,463,-2.11003e-06,3.5597e-06,0,4.15626e-06,-1.40676e+09,-1.406e+09,-1.40648e+09,555484,-0.00618615,0.0856367,-0,0.0858599,-4954.94,-49510.4,-0,49757.7,555484
step02_gravity_refstate-mantle.xmf,464,-2.06775e-06,3.19261e-06,0,5.0178e-06,-1.42329e+09,-1.42259e+09,-1.42301e+09,670628,-0.00651678,0.0929544,-0,0.0931826,-4177.46,-50020.2,-0,50194.4,670628
step02_gravity_refstate-mantle.xmf,465,-1.67116e-06,2.05469e-06,0,6.30166e-06,-1.43235e+09,-1.43185e+09,-1.43213e+09,842217,-0.00725198,0.103466,-0,0.10372,-3372.67,-50299.9,-0,50412.8,842217
step02_gravity_refstate-mantle.xmf,466,-1.27764e-06,3.39256e-06,0,1.68853e-06,-1.30517e+09,-1.30455e+09,-1.305e+09,225672,-0.00460798,0.0653018,-0,0.0654641,-9341.12,-46377.4,-0,47308.7,225672
step02_gravity_refstate-mantle.xmf,467,-1.08656e-06,3.10038e-06,0,1.72568e-06,-1.27748e+09,-1.27692e+09,-1.27734e+09,230638,-0.00582492,0.067772,-0,0.0680218,-9401.54,-45522.6,-0,46483.3,230638
step02_gravity_refstate-mantle.xmf,468,-8.14844e-07,2.69507e-06,0,1.26871e-06,-1.21523e+09,-1.21476e+09,-1.21512e+09,169564,-0.0068915,0.0660584,-0,0.0664169,-11072,-43600.5,-0,44984.3,169564
step02_gravity_refstate-mantle.xmf,469,-8.48169e-07,2.72946e-06,0,1.50253e-06,-1.23114e+09,-1.23066e+09,-1.23103e+09,200813,-0.00694045,0.068193,-0,0.0685453,-10220.8,-44091.8,-0,45261,200813
step02_gravity_refstate-mantle.xmf,470,-7.5474e-07,2.50473e-06,0,8.30457e-07,-1.15965e+09,-1.15921e+09,-1.15955e+09,110991,-0.00774926,0.0635966,-0,0.064067,-13070,-41883.4,-0,43875.3,110991
step02_gravity_refstate-mantle.xmf,471,-8.10096e-07,2.30334e-06,0,6.96305e-07,-1.0987e+09,-1.09829e+09,-1.0986e+09,93061.2,-0.00983379,0.0661259,-0,0.0668531,-13746.6,-40000,-0,42296.2,93061.2
step02_gravity_refstate-mantle.xmf,472,-1.67811e-06,2.42454e-06,0,6.66593e-06,-1.44826e+09,-1.44771e+09,-1.44804e+09,890902,-0.00590946,0.105031,-0,0.105197,-3209.24,-50792.3,-0,50893.6,890902
step02_gravity_refstate-mantle.xmf,473,-1.80987e-06,3.17071e-06,0,6.66092e-06,-1.46358e+09,-1.46292e+09,-1.46334e+09,890231,-0.00386379,0.102826,-0,0.102898,-3260.43,-51266.6,-0,51370.2,890231
step02_gravity_refstate-mantle.xmf,474,-2.24287e-06,5.29139e-06,0,5.73395e-06,-1.49162e+09,-1.49062e+09,-1.49132e+09,766342,0.00146908,0.0910305,0,0.0910423,-3721.98,-52135.3,-0,52268,766342
step02_gravity_refstate-mantle.xmf,475,-2.38846e-06,8.56477e-06,0,4.36089e-06,-1.5578e+09,-1.55634e+09,-1.55748e+09,582833,0.0148538,0.069951,0,0.0715107,-4134.71,-54187,-0,54344.5,582833
step02_gravity_refstate-mantle.xmf,476,4.07741e-07,7.14531e-06,0,1.39792e-07,-1.6677e+09,-1.6668e+09,-1.66775e+09,18683.2,0.0347483,0.0177387,0,0.0390142,-7011.3,-57596.7,-0,58021.8,18683.2
step02_gravity_refstate-mantle.xmf,477,-2.38093e-06,1.01669e-05,0,3.82583e-06,-1.59329e+09,-1.59161e+09,-1.59297e+09,511322,0.0216353,0.0597712,0,0.0635664,-4123.79,-55287.4,-0,55441,511322
step02_gravity_refstate-mantle.xmf,478,5.60968e-07,7.22743e-06,0,1.01491e-07,-1.6897e+09,-1.68881e+09,-1.68978e+09,13564.3,0.0364741,0.0127369,0,0.038634,-7038.8,-58277.7,-0,58701.2,13564.3
step02_gravity_refstate-mantle.xmf,479,9.16293e-07,6.7882e-06,0,-6.59534e-09,-1.72469e+09,-1.72391e+09,-1.72481e+09,-881.467,0.0376979,0.00437286,0,0.0379507,-7522.88,-59359.7,-0,59834.5,881.467
step02_gravity_refstate-mantle.xmf,480,1.095e-06,6.39054e-06,0,-1.09278e-11,-1.74541e+09,-1.74471e+09,-1.74556e+09,-1.4605,0.037553,-7.35701e-20,0,0.037553,-7916.27,-60000,-0,60520,1.4605
step02_gravity_refstate-mantle.xmf,481,-2.01172e-06,3.17962e-06,0,4.68947e-06,-1.41127e+09,-1.41057e+09,-1.411e+09,626747,-0.00683997,0.0904828,-0,0.090741,-4477.02,-49649.2,-0,49850.6,626747
step02_gravity_refstate-mantle.xmf,482,-1.7749e-06,2.40162e-06,0,5.65188e-06,-1.42078e+09,-1.42022e+09,-1.42054e+09,755373,-0.00753478,0.0988433,-0,0.0991301,-3747.57,-49942.6,-0,50083,755373
step02_gravity_refstate-mantle.xmf,483,-1.37375e-06,3.46356e-06,0,1.96193e-06,-1.3178e+09,-1.31715e+09,-1.31761e+09,262212,-0.00499391,0.0680344,-0,0.0682174,-8568.13,-46767,-0,47545.4,262212
step02_gravity_refstate-mantle.xmf,484,-8.9001e-07,2.75512e-06,0,1.75646e-06,-1.24706e+09,-1.24657e+09,-1.24694e+09,234751,-0.00702889,0.0704908,-0,0.0708403,-9406.41,-44583.2,-0,45564.7,234751
step02_gravity_refstate-mantle.xmf,485,-1.48981e-06,3.46438e-06,0,2.30688e-06,-1.33086e+09,-1.3302e+09,-1.33067e+09,308315,-0.00543476,0.0710937,-0,0.0713011,-7806.18,-47169.8,-0,47811.4,308315
step02_gravity_refstate-mantle.xmf,486,-1.64745e-06,3.37059e-06,0,3.04787e-06,-1.35484e+09,-1.35417e+09,-1.35462e+09,407348,-0.00639862,0.0778203,-0,0.0780829,-6450.85,-47909.1,-0,48341.4,407348
step02_gravity_refstate-mantle.xmf,487,-1.58095e-06,3.43545e-06,0,2.67888e-06,-1.34302e+09,-1.34235e+09,-1.34281e+09,358032,-0.00594573,0.0744969,-0,0.0747338,-7083.6,-47544.8,-0,48069.6,358032
step02_gravity_refstate-mantle.xmf,488,-7.4949e-07,2.34884e-06,0,7.94911e-07,-1.12533e+09,-1.12491e+09,-1.12523e+09,106240,-0.00918065,0.0659809,-0,0.0666166,-13130.1,-40822.9,-0,42882.6,106240
step02_gravity_refstate-mantle.xmf,489,-7.36784e-07,2.49225e-06,0,1.0073e-06,-1.1721e+09,-1.17166e+09,-1.172e+09,134626,-0.00789523,0.0655978,-0,0.0660713,-12151.2,-42268,-0,43980,134626
step02_gravity_refstate-mantle.xmf,490,-1.15896e-06,1.13601e-06,0,7.28807e-06,-1.43934e+09,-1.43904e+09,-1.43919e+09,974051,-0.00732272,0.111438,-0,0.111679,-2867.27,-50517,-0,50598.3,974051
step02_gravity_refstate-mantle.xmf,491,-1.24639e-06,1.80936e-06,0,7.62238e-06,-1.45544e+09,-1.45503e+09,-1.45527e+09,1.01873e+06,-0.00558386,0.11132,-0,0.11146,-2837.66,-51015.2,-0,51094.1,1.01873e+06
step02_gravity_refstate-mantle.xmf,492,-1.91632e-06,4.14325e-06,0,6.80886e-06,-1.48153e+09,-1.48073e+09,-1.48128e+09,910004,-0.00113391,0.1005,-0,0.100507,-3276.22,-51822.9,-0,51926.4,910004
step02_gravity_refstate-mantle.xmf,493,-2.31623e-06,6.25115e-06,0,5.75368e-06,-1.51103e+09,-1.50989e+09,-1.51072e+09,768980,0.00490579,0.0876277,0,0.0877649,-3719.03,-52736.8,-0,52867.8,768980
step02_gravity_refstate-mantle.xmf,494,-2.44042e-06,7.31483e-06,0,5.62637e-06,-1.52988e+09,-1.52858e+09,-1.52956e+09,751964,0.00848879,0.0832358,0,0.0836675,-3743.86,-53320.9,-0,53452.2,751964
step02_gravity_refstate-mantle.xmf,495,-2.57105e-06,8.36223e-06,0,5.56277e-06,-1.54763e+09,-1.54617e+09,-1.54728e+09,743464,0.0118265,0.0794202,0,0.0802959,-3716.05,-53870.9,-0,53999,743464
step02_gravity_refstate-mantle.xmf,496,-2.47131e-06,9.49522e-06,0,4.35105e-06,-1.5752e+09,-1.5736e+09,-1.57487e+09,581517,0.0180034,0.0664822,0,0.0688767,-4041.17,-54726.3,-0,54875.3,581517
step02_gravity_refstate-mantle.xmf,497,-2.03749e-08,7.88625e-06,0,4.71009e-07,-1.65548e+09,-1.65442e+09,-1.65548e+09,62950.3,0.0336364,0.0229442,0,0.0407166,-6396.5,-57218.3,-0,57574.7,62950.3
step02_gravity_refstate-mantle.xmf,498,-4.98413e-07,8.58383e-06,0,9.26926e-07,-1.64288e+09,-1.64167e+09,-1.64282e+09,123884,0.0319828,0.0291719,0,0.0432886,-5817.77,-56827.9,-0,57124.9,123884
step02_gravity_refstate-mantle.xmf,499,-1.03147e-06,9.30117e-06,0,1.55062e-06,-1.63092e+09,-1.62954e+09,-1.63078e+09,207241,0.0299019,0.0363749,0,0.0470877,-5252.84,-56456.6,-0,56700.4,207241
step02_gravity_refstate-mantle.xmf,500,-2.29343e-06,1.09164e-05,0,3.48757e-06,-1.61158e+09,-1.60981e+09,-1.61127e+09,466114,0.0249384,0.053711,0,0.0592182,-4129.34,-55854.7,-0,56007.1,466114
step02_gravity_refstate-mantle.xmf,501,-1.62814e-06,1.0045e-05,0,2.389e-06,-1.61969e+09,-1.61813e+09,-1.61947e+09,319290,0.0274178,0.0447102,0,0.0524474,-4694.16,-56107.6,-0,56303.6,319290
step02_gravity_refstate-mantle.xmf,502,6.60903e-07,7.27589e-06,0,5.02707e-08,-1.7099e+09,-1.70901e+09,-1.70998e+09,6718.68,0.0375424,0.00808305,0,0.0384027,-7092.56,-58902.3,-0,59327.7,6718.68
step02_gravity_refstate-mantle.xmf,503,-1.70275e-06,3.29974e-06,0,3.37718e-06,-1.36528e+09,-1.36462e+09,-1.36506e+09,451360,-0.00673764,0.0807175,-0,0.0809982,-5949.31,-48231.2,-0,48596.8,451360
step02_gravity_refstate-mantle.xmf,504,-1.76686e-06,3.21202e-06,0,3.74255e-06,-1.37619e+09,-1.37553e+09,-1.37596e+09,500192,-0.00702296,0.0837121,-0,0.0840062,-5476.5,-48567.5,-0,48875.3,500192
step02_gravity_refstate-mantle.xmf,505,-1.76985e-06,2.98914e-06,0,4.20688e-06,-1.38592e+09,-1.38528e+09,-1.38568e+09,562249,-0.00744145,0.0876648,-0,0.0879801,-4962.54,-48867.3,-0,49118.6,562249
step02_gravity_refstate-mantle.xmf,506,-1.70652e-06,2.6173e-06,0,4.7779e-06,-1.39561e+09,-1.39503e+09,-1.39538e+09,638566,-0.00789597,0.0925689,-0,0.092905,-4417.02,-49166.1,-0,49364.1,638566
step02_gravity_refstate-mantle.xmf,507,-1.60528e-06,2.16815e-06,0,5.39911e-06,-1.40598e+09,-1.40547e+09,-1.40576e+09,721592,-0.00817946,0.0976829,-0,0.0980247,-3916.62,-49486,-0,49640.8,721592
step02_gravity_refstate-mantle.xmf,508,-1.26919e-06,1.29205e-06,0,6.18208e-06,-1.41336e+09,-1.41302e+09,-1.41319e+09,826236,-0.00857157,0.104542,-0,0.104893,-3365.93,-49714.1,-0,49827.9,826236
step02_gravity_refstate-mantle.xmf,509,-1.1648e-06,3.09358e-06,0,2.0355e-06,-1.29075e+09,-1.29018e+09,-1.29059e+09,272045,-0.00617687,0.0706369,-0,0.0709064,-8591.33,-45931.9,-0,46728.4,272045
step02_gravity_refstate-mantle.xmf,510,-9.22249e-07,2.77184e-06,0,2.02421e-06,-1.26219e+09,-1.26169e+09,-1.26206e+09,270536,-0.00720651,0.0730972,-0,0.0734515,-8613.47,-45050.4,-0,45866.5,270536
step02_gravity_refstate-mantle.xmf,511,-7.09289e-07,2.47559e-06,0,1.22036e-06,-1.18432e+09,-1.18389e+09,-1.18422e+09,163101,-0.00808546,0.0681327,-0,0.0686108,-11175.1,-42645.7,-0,44085.6,163101
step02_gravity_refstate-mantle.xmf,512,-6.85818e-07,2.45053e-06,0,1.46592e-06,-1.19853e+09,-1.19811e+09,-1.19844e+09,195920,-0.00818145,0.0707552,-0,0.0712266,-10231.8,-43084.8,-0,44283,195920
step02_gravity_refstate-mantle.xmf,513,-6.88366e-07,2.45018e-06,0,1.71857e-06,-1.21604e+09,-1.21562e+09,-1.21595e+09,229687,-0.0081231,0.0730192,-0,0.0734697,-9398.65,-43625.7,-0,44626.7,229687
step02_gravity_refstate-mantle.xmf,514,-6.84291e-07,2.28493e-06,0,9.70879e-07,-1.13411e+09,-1.13371e+09,-1.13402e+09,129758,-0.00958191,0.0687605,-0,0.0694249,-12042.9,-41094.5,-0,42822.8,129758
step02_gravity_refstate-mantle.xmf,515,-7.30175e-07,2.19649e-06,0,8.18287e-07,-1.0987e+09,-1.0983e+09,-1.0986e+09,109364,-0.0107807,0.0696905,-0,0.0705195,-12520.4,-40000,-0,41913.7,109364
step02_gravity_refstate-mantle.xmf,516,-8.73847e-07,4.89745e-07,0,6.97064e-06,-1.42253e+09,-1.42235e+09,-1.42241e+09,931626,-0.00855481,0.111144,-0,0.111473,-2905.45,-49997.9,-0,50082.2,931626
step02_gravity_refstate-mantle.xmf,517,-1.37756e-06,2.72285e-06,0,7.93308e-06,-1.47223e+09,-1.47168e+09,-1.47204e+09,1.06026e+06,-0.00328206,0.110058,-0,0.110107,-2843.2,-51535.4,-0,51613.8,1.06026e+06
step02_gravity_refstate-mantle.xmf,518,-2.08878e-06,5.34451e-06,0,7.01185e-06,-1.50064e+09,-1.49965e+09,-1.50036e+09,937134,0.00204711,0.0978723,0,0.0978937,-3267.6,-52414.9,-0,52516.7,937134
step02_gravity_refstate-mantle.xmf,519,-2.72438e-06,9.43831e-06,0,5.52e-06,-1.56532e+09,-1.5637e+09,-1.56496e+09,737748,0.0150876,0.0755738,0,0.0770652,-3656.85,-54419.3,-0,54542,737748
step02_gravity_refstate-mantle.xmf,520,-2.86508e-06,1.05238e-05,0,5.19243e-06,-1.58385e+09,-1.58206e+09,-1.58347e+09,693968,0.0186009,0.0700044,0,0.0724335,-3646.99,-54993.4,-0,55114.2,693968
step02_gravity_refstate-mantle.xmf,521,1.05515e-07,8.08148e-06,0,3.89122e-07,-1.67768e+09,-1.67662e+09,-1.6777e+09,52006.2,0.0357879,0.0175234,0,0.0398478,-6376.37,-57905.5,-0,58255.5,52006.2
step02_gravity_refstate-mantle.xmf,522,-2.92924e-06,1.15001e-05,0,4.78037e-06,-1.60189e+09,-1.59996e+09,-1.6015e+09,638896,0.0219396,0.0638677,0,0.067531,-3644.75,-55552.6,-0,55672.1,638896
step02_gravity_refstate-mantle.xmf,523,1.96853e-07,8.32619e-06,0,2.77775e-07,-1.70302e+09,-1.70193e+09,-1.70304e+09,37124.6,0.0375211,0.0111021,0,0.0391292,-6363.63,-58689.3,-0,59033.3,37124.6
step02_gravity_refstate-mantle.xmf,524,4.85e-07,7.8529e-06,0,8.15305e-08,-1.72579e+09,-1.72481e+09,-1.72586e+09,10896.6,0.0382729,0.00479225,0,0.0385718,-6739.8,-59393.5,-0,59774.7,10896.6
step02_gravity_refstate-mantle.xmf,525,7.29629e-07,7.35712e-06,0,-2.41097e-09,-1.74541e+09,-1.74453e+09,-1.74551e+09,-322.227,0.0382801,-8.17686e-20,0,0.0382801,-7119.24,-60000,-0,60420.9,322.227
step02_gravity_refstate-mantle.xmf,526,-1.37428e-06,2.79304e-06,0,3.50184e-06,-1.34657e+09,-1.34602e+09,-1.34639e+09,468021,-0.00773346,0.0838274,-0,0.0841833,-5783.86,-47654.1,-0,48003.8,468021
step02_gravity_refstate-mantle.xmf,527,-1.21956e-06,3.09981e-06,0,2.33936e-06,-1.30391e+09,-1.30333e+09,-1.30375e+09,312655,-0.00655891,0.0736533,-0,0.0739448,-7832.54,-46338.1,-0,46995.4,312655
step02_gravity_refstate-mantle.xmf,528,-6.9624e-07,2.43119e-06,0,1.98276e-06,-1.23263e+09,-1.23221e+09,-1.23253e+09,264996,-0.00812664,0.0754081,-0,0.0758447,-8624.25,-44137.9,-0,44972.6,264996
step02_gravity_refstate-mantle.xmf,529,-1.27214e-06,2.99263e-06,0,2.71798e-06,-1.31668e+09,-1.31611e+09,-1.31651e+09,363258,-0.00701925,0.0770994,-0,0.0774183,-7085.16,-46732,-0,47266.1,363258
step02_gravity_refstate-mantle.xmf,530,-1.26219e-06,2.79492e-06,0,3.17609e-06,-1.32922e+09,-1.32868e+09,-1.32905e+09,424484,-0.00762171,0.0815134,-0,0.0818689,-6282.26,-47118.8,-0,47535.8,424484
step02_gravity_refstate-mantle.xmf,531,-6.35329e-07,2.30386e-06,0,1.13291e-06,-1.15477e+09,-1.15438e+09,-1.15469e+09,151413,-0.00920165,0.0698451,-0,0.0704486,-11302.6,-41733.2,-0,43236.6,151413
step02_gravity_refstate-mantle.xmf,532,-2.79368e-07,-6.74036e-07,0,8.03107e-06,-1.43067e+09,-1.43072e+09,-1.43063e+09,1.07335e+06,-0.00829616,0.119009,-0,0.119297,-2445.64,-50250.3,-0,50309.8,1.07335e+06
step02_gravity_refstate-mantle.xmf,533,-4.19458e-07,-7.34437e-08,0,8.50774e-06,-1.44683e+09,-1.44679e+09,-1.44678e+09,1.13706e+06,-0.00690813,0.119592,-0,0.119791,-2432.91,-50750.2,-0,50808.5,1.13706e+06
step02_gravity_refstate-mantle.xmf,534,-5.75494e-07,9.25259e-07,0,9.09718e-06,-1.46298e+09,-1.46278e+09,-1.4629e+09,1.21584e+06,-0.00498421,0.119632,-0,0.119736,-2424.18,-51250.4,-0,51307.7,1.21584e+06
step02_gravity_refstate-mantle.xmf,535,-1.61633e-06,3.98616e-06,0,8.26567e-06,-1.49005e+09,-1.4893e+09,-1.48983e+09,1.10471e+06,-0.000518426,0.108146,-0,0.108147,-2846.03,-52087.5,-0,52165.2,1.10471e+06
step02_gravity_refstate-mantle.xmf,536,-2.34238e-06,6.6303e-06,0,7.21258e-06,-1.52121e+09,-1.52001e+09,-1.5209e+09,963962,0.00562653,0.094857,0,0.0950237,-3227.93,-53052.1,-0,53150.2,963962
step02_gravity_refstate-mantle.xmf,537,-2.58702e-06,7.85098e-06,0,6.74873e-06,-1.5381e+09,-1.5367e+09,-1.53775e+09,901967,0.00905806,0.0885777,0,0.0890397,-3351.31,-53575.2,-0,53679.9,901967
step02_gravity_refstate-mantle.xmf,538,-2.92484e-06,9.12926e-06,0,7.15488e-06,-1.55458e+09,-1.55297e+09,-1.55419e+09,956250,0.0117064,0.0874834,0,0.0882632,-3189.24,-54085.4,-0,54179.3,956250
step02_gravity_refstate-mantle.xmf,539,-3.87589e-07,8.95304e-06,0,8.30657e-07,-1.66449e+09,-1.66324e+09,-1.66444e+09,111017,0.0344652,0.0235417,0,0.041738,-5774.84,-57496.8,-0,57786.1,111017
step02_gravity_refstate-mantle.xmf,540,-9.22164e-07,9.78506e-06,0,1.40385e-06,-1.65243e+09,-1.65099e+09,-1.6523e+09,187624,0.0327397,0.0303055,0,0.0446129,-5213.08,-57122.8,-0,57360.2,187624
step02_gravity_refstate-mantle.xmf,541,-2.94779e-06,1.24607e-05,0,4.36708e-06,-1.62007e+09,-1.61801e+09,-1.61968e+09,583661,0.0250711,0.0573173,0,0.0625606,-3630.1,-56116.7,-0,56234,583661
step02_gravity_refstate-mantle.xmf,542,-1.51897e-06,1.06493e-05,0,2.15548e-06,-1.64091e+09,-1.63929e+09,-1.64071e+09,288079,0.0305733,0.0381619,0,0.0488984,-4666.58,-56765.4,-0,56956.9,288079
step02_gravity_refstate-mantle.xmf,543,-2.20232e-06,1.15723e-05,0,3.13261e-06,-1.63028e+09,-1.62844e+09,-1.62999e+09,418674,0.0280127,0.0471717,0,0.0548624,-4130.68,-56434.8,-0,56585.7,418674
step02_gravity_refstate-mantle.xmf,544,-1.46434e-06,2.8116e-06,0,3.74772e-06,-1.35934e+09,-1.35877e+09,-1.35914e+09,500883,-0.00777643,0.0855227,-0,0.0858755,-5448.4,-48047.8,-0,48355.8,500883
step02_gravity_refstate-mantle.xmf,545,-1.37758e-06,2.46233e-06,0,4.17104e-06,-1.36533e+09,-1.36481e+09,-1.36514e+09,557460,-0.0082681,0.0894228,-0,0.0898043,-4959.5,-48232.5,-0,48486.8,557460
step02_gravity_refstate-mantle.xmf,546,-1.27844e-06,2.04991e-06,0,4.68569e-06,-1.37554e+09,-1.3751e+09,-1.37537e+09,626243,-0.00866547,0.0939321,-0,0.094331,-4424.58,-48547.7,-0,48748.9,626243
step02_gravity_refstate-mantle.xmf,547,-1.12128e-06,1.52765e-06,0,5.24431e-06,-1.38584e+09,-1.38549e+09,-1.38569e+09,700903,-0.0089735,0.0987931,-0,0.0991998,-3919.82,-48865.6,-0,49022.6,700903
step02_gravity_refstate-mantle.xmf,548,-8.73105e-07,8.2975e-07,0,5.87171e-06,-1.39577e+09,-1.39555e+09,-1.39566e+09,784754,-0.00918028,0.104198,-0,0.104602,-3435.15,-49172.2,-0,49292.1,784754
step02_gravity_refstate-mantle.xmf,549,-4.3492e-07,-2.32472e-07,0,6.62199e-06,-1.40539e+09,-1.40536e+09,-1.40533e+09,885029,-0.00924305,0.110689,-0,0.111074,-2937.63,-49469.4,-0,49556.5,885029
step02_gravity_refstate-mantle.xmf,550,-9.57959e-07,2.70544e-06,0,2.34063e-06,-1.27642e+09,-1.27593e+09,-1.27629e+09,312826,-0.00746408,0.0759952,-0,0.0763608,-7851.58,-45489.6,-0,46162.2,312826
step02_gravity_refstate-mantle.xmf,551,-6.85987e-07,2.38832e-06,0,2.25829e-06,-1.24806e+09,-1.24765e+09,-1.24797e+09,301820,-0.00822681,0.078153,-0,0.0785848,-7862.83,-44614.6,-0,45302.2,301820
step02_gravity_refstate-mantle.xmf,552,-4.82141e-07,2.14697e-06,0,1.88469e-06,-1.20337e+09,-1.20302e+09,-1.2033e+09,251888,-0.0089755,0.0775597,-0,0.0780773,-8606.71,-43234.9,-0,44083.2,251888
step02_gravity_refstate-mantle.xmf,553,-1.03119e-06,2.29573e-06,0,3.59387e-06,-1.33043e+09,-1.32999e+09,-1.3303e+09,480321,-0.0084241,0.0869217,-0,0.087329,-5552.84,-47156.6,-0,47482.4,480321
step02_gravity_refstate-mantle.xmf,554,-5.36764e-07,2.17945e-06,0,1.36728e-06,-1.1616e+09,-1.16124e+09,-1.16153e+09,182737,-0.0095639,0.0734418,-0,0.0740619,-10219.9,-41944.3,-0,43171.5,182737
step02_gravity_refstate-mantle.xmf,555,-4.99415e-07,2.16926e-06,0,1.63525e-06,-1.1848e+09,-1.18444e+09,-1.18473e+09,218551,-0.0091881,0.0754945,-0,0.0760515,-9343.18,-42661.1,-0,43672.3,218551
step02_gravity_refstate-mantle.xmf,556,-6.01331e-07,2.05122e-06,0,9.40774e-07,-1.09868e+09,-1.09833e+09,-1.0986e+09,125734,-0.0115697,0.0734771,-0,0.0743824,-11337.1,-40000,-0,41575.6,125734
step02_gravity_refstate-mantle.xmf,557,-5.35257e-07,2.08999e-06,0,1.14254e-06,-1.12924e+09,-1.12889e+09,-1.12917e+09,152700,-0.0105483,0.0734169,-0,0.0741708,-10792.2,-40944.6,-0,42343,152700
step02_gravity_refstate-mantle.xmf,558,2.66715e-07,-1.54446e-06,0,7.35852e-06,-1.41409e+09,-1.41434e+09,-1.41413e+09,983467,-0.00904267,0.117718,-0,0.118064,-2479.33,-49739.7,-0,49801.5,983467
step02_gravity_refstate-mantle.xmf,559,-8.77443e-07,2.26343e-06,0,9.657e-06,-1.47989e+09,-1.47947e+09,-1.47977e+09,1.29066e+06,-0.00262768,0.118927,-0,0.118956,-2419.42,-51774.3,-0,51830.8,1.29066e+06
step02_gravity_refstate-mantle.xmf,560,-1.98615e-06,5.53508e-06,0,8.50041e-06,-1.50892e+09,-1.50791e+09,-1.50865e+09,1.13608e+06,0.00262929,0.105317,0,0.10535,-2848.89,-52671.8,-0,52748.8,1.13608e+06
step02_gravity_refstate-mantle.xmf,561,-3.21061e-06,1.06305e-05,0,6.7762e-06,-1.57449e+09,-1.57264e+09,-1.57406e+09,905639,0.0154841,0.0810315,0,0.0824976,-3206.62,-54702.1,-0,54796,905639
step02_gravity_refstate-mantle.xmf,562,-3.50343e-06,1.19702e-05,0,6.3909e-06,-1.59256e+09,-1.59049e+09,-1.59209e+09,854144,0.0187418,0.0751553,0,0.0774569,-3183.2,-55261.8,-0,55353.4,854144
step02_gravity_refstate-mantle.xmf,563,-4.11266e-07,9.35053e-06,0,7.18573e-07,-1.6853e+09,-1.684e+09,-1.68525e+09,96037.3,0.0362958,0.0180256,0,0.0405254,-5687.28,-58140.7,-0,58418.2,96037.3
step02_gravity_refstate-mantle.xmf,564,-3.70018e-06,1.31663e-05,0,5.9055e-06,-1.61013e+09,-1.60788e+09,-1.60964e+09,789270,0.0218107,0.0686292,0,0.0720117,-3164.82,-55806.5,-0,55896.2,789270
step02_gravity_refstate-mantle.xmf,565,-1.12164e-07,9.16682e-06,0,2.09508e-07,-1.72603e+09,-1.72479e+09,-1.72602e+09,28000.7,0.0384171,0.00553165,0,0.0388133,-5987.17,-59400.3,-0,59701.3,28000.7
step02_gravity_refstate-mantle.xmf,566,2.12803e-07,8.54501e-06,0,-5.09252e-09,-1.74543e+09,-1.74431e+09,-1.74545e+09,-680.615,0.0386393,-9.57996e-20,0,0.0386393,-6357.24,-60000,-0,60335.8,680.615
step02_gravity_refstate-mantle.xmf,567,-1.03961e-06,2.16679e-06,0,3.95333e-06,-1.34427e+09,-1.34384e+09,-1.34413e+09,528363,-0.00863911,0.0898068,-0,0.0902214,-5082.98,-47583.7,-0,47854.4,528363
step02_gravity_refstate-mantle.xmf,568,-9.56135e-07,2.62928e-06,0,2.65795e-06,-1.28982e+09,-1.28934e+09,-1.28969e+09,355236,-0.00779097,0.0792309,-0,0.0796131,-7114.43,-45903.4,-0,46451.4,355236
step02_gravity_refstate-mantle.xmf,569,-4.41445e-07,2.06271e-06,0,2.14938e-06,-1.21903e+09,-1.2187e+09,-1.21897e+09,287264,-0.00891638,0.0801651,-0,0.0806594,-7857.43,-43718.8,-0,44419.3,287264
step02_gravity_refstate-mantle.xmf,570,-9.16719e-07,2.39483e-06,0,3.04344e-06,-1.302e+09,-1.30156e+09,-1.30188e+09,406756,-0.00819707,0.0830257,-0,0.0834294,-6377.27,-46279.2,-0,46716.6,406756
step02_gravity_refstate-mantle.xmf,571,-7.88125e-07,2.05656e-06,0,3.43019e-06,-1.3119e+09,-1.31152e+09,-1.3118e+09,458445,-0.00863274,0.0873291,-0,0.0877547,-5663.63,-46585.1,-0,46928.1,458445
step02_gravity_refstate-mantle.xmf,572,7.19051e-07,-2.09061e-06,0,6.77323e-06,-1.39783e+09,-1.39821e+09,-1.39793e+09,905243,-0.00928394,0.116586,-0,0.116955,-2491.25,-49239,-0,49302,905243
step02_gravity_refstate-mantle.xmf,573,2.43731e-06,-5.07608e-06,0,8.78515e-06,-1.42234e+09,-1.42335e+09,-1.42267e+09,1.17414e+06,-0.00831638,0.126421,-0,0.126695,-2000,-50000,-0,50040,1.17414e+06
step02_gravity_refstate-mantle.xmf,574,9.99063e-07,-3.21694e-06,0,9.61478e-06,-1.4387e+09,-1.43926e+09,-1.43883e+09,1.28502e+06,-0.00755318,0.128361,-0,0.128583,-2000,-50500.3,-0,50539.9,1.28502e+06
step02_gravity_refstate-mantle.xmf,575,5.83302e-07,-1.5801e-06,0,1.05479e-05,-1.45483e+09,-1.45512e+09,-1.45491e+09,1.40972e+06,-0.00597536,0.129566,-0,0.129704,-2000,-51000.2,-0,51039.4,1.40972e+06
step02_gravity_refstate-mantle.xmf,576,7.97922e-08,1.72024e-07,0,1.12756e-05,-1.471e+09,-1.47098e+09,-1.47101e+09,1.50699e+06,-0.00402179,0.129919,-0,0.129981,-2000,-51500.6,-0,51539.4,1.50699e+06
step02_gravity_refstate-mantle.xmf,577,-1.33319e-06,3.86273e-06,0,1.00676e-05,-1.49705e+09,-1.49636e+09,-1.49687e+09,1.34554e+06,-2.93173e-05,0.117265,-0,0.117265,-2420.86,-52305.4,-0,52361.4,1.34554e+06
step02_gravity_refstate-mantle.xmf,578,-2.25648e-06,6.56449e-06,0,8.9058e-06,-1.52225e+09,-1.52107e+09,-1.52195e+09,1.19026e+06,0.0047685,0.104529,0,0.104637,-2775.13,-53084.5,-0,53157,1.19026e+06
step02_gravity_refstate-mantle.xmf,579,-2.65258e-06,7.901e-06,0,8.44313e-06,-1.53718e+09,-1.53577e+09,-1.53682e+09,1.12842e+06,0.00765025,0.0987815,0,0.0990773,-2879.48,-53546.4,-0,53623.8,1.12842e+06
step02_gravity_refstate-mantle.xmf,580,-3.46694e-06,1.05684e-05,0,8.50898e-06,-1.5668e+09,-1.56493e+09,-1.56634e+09,1.13723e+06,0.0126595,0.0924934,0,0.0933557,-2785.35,-54462.9,-0,54534.1,1.13723e+06
step02_gravity_refstate-mantle.xmf,581,-4.93957e-07,9.83271e-06,0,5.40031e-07,-1.70763e+09,-1.70625e+09,-1.70756e+09,72175.2,0.0376314,0.0116821,0,0.039403,-5596.79,-58831,-0,59096.6,72175.2
step02_gravity_refstate-mantle.xmf,582,-9.27561e-07,1.02901e-05,0,1.25368e-06,-1.6732e+09,-1.6717e+09,-1.67308e+09,167554,0.0349087,0.0241876,0,0.0424695,-5158.01,-57765.8,-0,57995.7,167554
step02_gravity_refstate-mantle.xmf,583,-1.52934e-06,1.12703e-05,0,1.96452e-06,-1.66115e+09,-1.65944e+09,-1.66095e+09,262558,0.0330105,0.0317017,0,0.0457678,-4616.35,-57392.1,-0,57577.5,262558
step02_gravity_refstate-mantle.xmf,584,-3.80679e-06,1.43001e-05,0,5.33944e-06,-1.62779e+09,-1.62537e+09,-1.62728e+09,713616,0.0246967,0.0613607,0,0.0661443,-3148.67,-56354.1,-0,56442,713616
step02_gravity_refstate-mantle.xmf,585,-2.99428e-06,1.33987e-05,0,3.99072e-06,-1.63874e+09,-1.63655e+09,-1.63834e+09,533359,0.0278459,0.0504741,0,0.0576457,-3582.02,-56695.5,-0,56808.6,533359
step02_gravity_refstate-mantle.xmf,586,-2.20863e-06,1.23103e-05,0,2.87069e-06,-1.64958e+09,-1.64764e+09,-1.64929e+09,383667,0.0306369,0.040504,0,0.0507858,-4085.61,-57032.9,-0,57179,383667
step02_gravity_refstate-mantle.xmf,587,-6.13297e-07,1.63135e-06,0,3.81119e-06,-1.32175e+09,-1.32145e+09,-1.32167e+09,509365,-0.00897626,0.0916193,-0,0.0920579,-5020.1,-46889.5,-0,47157.4,509365
step02_gravity_refstate-mantle.xmf,588,-8.27606e-07,1.53789e-06,0,4.50529e-06,-1.35493e+09,-1.35461e+09,-1.35482e+09,602131,-0.00908967,0.0951494,-0,0.0955826,-4416.49,-47912.6,-0,48115.8,602131
step02_gravity_refstate-mantle.xmf,589,-6.26775e-07,9.86237e-07,0,4.98187e-06,-1.36559e+09,-1.36537e+09,-1.36551e+09,665827,-0.00933235,0.099594,-0,0.10003,-3918.37,-48241.9,-0,48400.8,665827
step02_gravity_refstate-mantle.xmf,590,-4.36624e-07,4.35969e-07,0,5.4494e-06,-1.37615e+09,-1.37603e+09,-1.37609e+09,728312,-0.00945636,0.103666,-0,0.104096,-3512.77,-48567.8,-0,48694.7,728312
step02_gravity_refstate-mantle.xmf,591,3.09654e-08,-6.39847e-07,0,6.12539e-06,-1.38816e+09,-1.38825e+09,-1.38816e+09,818659,-0.00949381,0.110045,-0,0.110454,-2968.74,-48939.3,-0,49029.3,818659
step02_gravity_refstate-mantle.xmf,592,-6.66516e-07,2.24624e-06,0,2.57581e-06,-1.26269e+09,-1.2623e+09,-1.2626e+09,344258,-0.00839473,0.0812042,-0,0.0816369,-7123.73,-45066.3,-0,45625.8,344258
step02_gravity_refstate-mantle.xmf,593,-3.02986e-07,1.92499e-06,0,1.7587e-06,-1.17746e+09,-1.17717e+09,-1.17742e+09,235051,-0.00972906,0.0793902,-0,0.0799841,-8562.33,-42435.3,-0,43290.5,235051
step02_gravity_refstate-mantle.xmf,594,-3.84136e-07,1.9541e-06,0,2.42222e-06,-1.23483e+09,-1.23452e+09,-1.23478e+09,323729,-0.00890403,0.0830339,-0,0.0835099,-7117.68,-44207,-0,44776.3,323729
step02_gravity_refstate-mantle.xmf,595,-2.28112e-07,1.81209e-06,0,1.98471e-06,-1.19015e+09,-1.18987e+09,-1.19012e+09,265257,-0.00957899,0.0818563,-0,0.0824148,-7864.78,-42827.2,-0,43543.4,265257
step02_gravity_refstate-mantle.xmf,596,-3.02874e-07,1.88952e-06,0,1.5437e-06,-1.15444e+09,-1.15415e+09,-1.1544e+09,206316,-0.0103043,0.0785867,-0,0.0792594,-9063.38,-41724.1,-0,42697.2,206316
step02_gravity_refstate-mantle.xmf,597,-4.12912e-07,1.86172e-06,0,1.05169e-06,-1.09866e+09,-1.09835e+09,-1.0986e+09,140559,-0.0121518,0.0774382,-0,0.0783858,-10193,-40000,-0,41278.3,140559
step02_gravity_refstate-mantle.xmf,598,-3.40218e-07,1.87059e-06,0,1.30152e-06,-1.12811e+09,-1.12782e+09,-1.12807e+09,173949,-0.0110919,0.0777613,-0,0.0785484,-9649.97,-40910.4,-0,42033.2,173949
step02_gravity_refstate-mantle.xmf,599,1.51999e-06,-3.70505e-06,0,7.2558e-06,-1.40589e+09,-1.40659e+09,-1.4061e+09,969738,-0.00887143,0.122245,-0,0.122567,-2135.92,-49489.3,-0,49535.4,969738
step02_gravity_refstate-mantle.xmf,600,-5.14047e-07,1.99511e-06,0,1.183e-05,-1.48716e+09,-1.48683e+09,-1.4871e+09,1.58108e+06,-0.00186999,0.129378,-0,0.129391,-2000,-52000.7,-0,52039.1,1.58108e+06
step02_gravity_refstate-mantle.xmf,601,-1.84541e-06,5.46315e-06,0,1.03394e-05,-1.51312e+09,-1.51215e+09,-1.51288e+09,1.38186e+06,0.00250151,0.115089,0,0.115116,-2415.57,-52802.5,-0,52857.7,1.38186e+06
step02_gravity_refstate-mantle.xmf,602,-3.10337e-06,9.31548e-06,0,8.96166e-06,-1.55241e+09,-1.55075e+09,-1.552e+09,1.19773e+06,0.00993663,0.0981256,0,0.0986274,-2733.42,-54017.7,-0,54086.8,1.19773e+06
step02_gravity_refstate-mantle.xmf,603,-3.87501e-06,1.20913e-05,0,8.14683e-06,-1.58384e+09,-1.5817e+09,-1.58332e+09,1.08882e+06,0.0156607,0.0866745,0,0.0880779,-2778.2,-54990.2,-0,55060.4,1.08882e+06
step02_gravity_refstate-mantle.xmf,604,-4.46657e-06,1.38119e-05,0,8.05614e-06,-1.60077e+09,-1.59833e+09,-1.60017e+09,1.0767e+06,0.0180991,0.0825096,0,0.0844713,-2658.05,-55513.8,-0,55577.4,1.0767e+06
step02_gravity_refstate-mantle.xmf,605,-4.59699e-06,1.50509e-05,0,7.07964e-06,-1.61754e+09,-1.61491e+09,-1.61692e+09,946193,0.021316,0.0731797,0,0.076221,-2744.91,-56033.9,-0,56101.1,946193
step02_gravity_refstate-mantle.xmf,606,-1.0424e-06,1.07388e-05,0,1.01177e-06,-1.69379e+09,-1.69221e+09,-1.69365e+09,135223,0.0364615,0.0177754,0,0.0405636,-5096.33,-58402,-0,58624,135223
step02_gravity_refstate-mantle.xmf,607,-9.08015e-07,1.07266e-05,0,3.18329e-07,-1.72878e+09,-1.72722e+09,-1.72866e+09,42544.7,0.0381185,0.00557554,0,0.0385241,-5285.55,-59483.8,-0,59718.2,42544.7
step02_gravity_refstate-mantle.xmf,608,-4.95102e-07,9.99581e-06,0,-6.44553e-09,-1.74546e+09,-1.74406e+09,-1.74539e+09,-861.445,0.0385357,-9.65525e-20,0,0.0385357,-5628.36,-60000,-0,60263.4,861.445
step02_gravity_refstate-mantle.xmf,609,-4.11635e-07,1.18948e-06,0,4.20215e-06,-1.33327e+09,-1.33306e+09,-1.33321e+09,561617,-0.0092221,0.095849,-0,0.0962916,-4438.34,-47245.5,-0,47453.5,561617
step02_gravity_refstate-mantle.xmf,610,-5.9564e-07,2.07334e-06,0,2.88617e-06,-1.27604e+09,-1.27568e+09,-1.27596e+09,385736,-0.00861713,0.0846152,-0,0.0850528,-6406.35,-45478.6,-0,45927.6,385736
step02_gravity_refstate-mantle.xmf,611,-1.39967e-07,1.66687e-06,0,2.24406e-06,-1.20628e+09,-1.20604e+09,-1.20626e+09,299918,-0.00938482,0.0846494,-0,0.0851681,-7112.09,-43325.8,-0,43905.6,299918
step02_gravity_refstate-mantle.xmf,612,-4.77541e-07,1.74473e-06,0,3.23163e-06,-1.28831e+09,-1.28801e+09,-1.28824e+09,431908,-0.00885303,0.0883755,-0,0.0888178,-5711.81,-45857.6,-0,46211.9,431908
step02_gravity_refstate-mantle.xmf,613,-2.88484e-07,1.33197e-06,0,3.56589e-06,-1.29975e+09,-1.29953e+09,-1.29971e+09,476581,-0.00905364,0.0924143,-0,0.0928567,-5048.17,-46211.1,-0,46486.1,476581
step02_gravity_refstate-mantle.xmf,614,1.18299e-06,-2.34138e-06,0,6.02773e-06,-1.38124e+09,-1.38171e+09,-1.3814e+09,805606,-0.00916949,0.11556,-0,0.115923,-2483.14,-48728.9,-0,48792.2,805606
step02_gravity_refstate-mantle.xmf,615,2.33836e-06,-4.58625e-06,0,6.29583e-06,-1.39204e+09,-1.39296e+09,-1.39235e+09,841438,-0.00839906,0.123091,-0,0.123378,-1940.2,-49064.4,-0,49102.8,841438
step02_gravity_refstate-mantle.xmf,616,3.02028e-06,-6.27849e-06,0,6.88168e-06,-1.40816e+09,-1.4094e+09,-1.40856e+09,919736,-0.00795307,0.12841,-0,0.128656,-1730.04,-49562.6,-0,49592.8,919736
step02_gravity_refstate-mantle.xmf,617,3.6714e-06,-8.53153e-06,0,6.48232e-06,-1.42236e+09,-1.42399e+09,-1.42285e+09,866362,-0.00677724,0.134908,-0,0.135078,-1499.83,-50000,-0,50022.5,866362
step02_gravity_refstate-mantle.xmf,618,-1.17747e-06,3.86634e-06,0,1.22207e-05,-1.50332e+09,-1.50265e+09,-1.50316e+09,1.63329e+06,0.00038881,0.127915,0,0.127915,-2000,-52500.1,-0,52538.2,1.63329e+06
step02_gravity_refstate-mantle.xmf,619,-2.3641e-06,7.02318e-06,0,1.0448e-05,-1.52864e+09,-1.52739e+09,-1.52833e+09,1.39638e+06,0.00501828,0.112036,0,0.112148,-2418,-53282.5,-0,53337.3,1.39638e+06
step02_gravity_refstate-mantle.xmf,620,-2.92374e-06,8.59662e-06,0,1.04029e-05,-1.54374e+09,-1.5422e+09,-1.54335e+09,1.39034e+06,0.00750268,0.108342,0,0.108602,-2419.94,-53749.1,-0,53803.5,1.39034e+06
step02_gravity_refstate-mantle.xmf,621,-3.52965e-06,1.03026e-05,0,1.03705e-05,-1.55977e+09,-1.55792e+09,-1.5593e+09,1.38601e+06,0.0100669,0.104369,0,0.104854,-2393.07,-54244.5,-0,54297.2,1.38601e+06
step02_gravity_refstate-mantle.xmf,622,-4.09583e-06,1.19715e-05,0,9.98522e-06,-1.5757e+09,-1.57355e+09,-1.57515e+09,1.33452e+06,0.012765,0.09852,0,0.0993436,-2407.28,-54737,-0,54789.9,1.33452e+06
step02_gravity_refstate-mantle.xmf,623,-4.7675e-06,1.60828e-05,0,6.49381e-06,-1.63126e+09,-1.62847e+09,-1.63062e+09,867898,0.0234697,0.0666647,0,0.0706754,-2739.22,-56459.3,-0,56525.7,867898
step02_gravity_refstate-mantle.xmf,624,-1.25235e-06,1.12918e-05,0,7.55176e-07,-1.71203e+09,-1.71036e+09,-1.71187e+09,100929,0.0373075,0.0118526,0,0.039145,-5008.53,-58965.7,-0,59178.1,100929
step02_gravity_refstate-mantle.xmf,625,-1.67696e-06,1.19207e-05,0,1.72767e-06,-1.68122e+09,-1.6794e+09,-1.681e+09,230904,0.0348128,0.0249006,0,0.0428015,-4557.89,-58012.7,-0,58191.5,230904
step02_gravity_refstate-mantle.xmf,626,-2.36213e-06,1.30893e-05,0,2.63227e-06,-1.66847e+09,-1.66641e+09,-1.66816e+09,351803,0.0326032,0.0336385,0,0.0468456,-4024.49,-57617.3,-0,57757.7,351803
step02_gravity_refstate-mantle.xmf,627,-4.20075e-06,1.59072e-05,0,5.19366e-06,-1.64524e+09,-1.64256e+09,-1.64468e+09,694133,0.0265781,0.0557873,0,0.061795,-2979.25,-56894.7,-0,56972.7,694133
step02_gravity_refstate-mantle.xmf,628,-3.13115e-06,1.43634e-05,0,3.69791e-06,-1.65731e+09,-1.65497e+09,-1.65689e+09,494226,0.0300216,0.0433237,0,0.052709,-3511.78,-57270.6,-0,57378.2,494226
step02_gravity_refstate-mantle.xmf,629,-3.59034e-08,8.0702e-07,0,3.89933e-06,-1.31125e+09,-1.31114e+09,-1.31124e+09,521145,-0.00917885,0.0966177,-0,0.0970528,-4424.95,-46566.8,-0,46776.6,521145
step02_gravity_refstate-mantle.xmf,630,-1.37512e-07,5.03751e-07,0,4.64801e-06,-1.34458e+09,-1.34449e+09,-1.34456e+09,621207,-0.00938723,0.100436,-0,0.100874,-3881,-47594.9,-0,47752.8,621207
step02_gravity_refstate-mantle.xmf,631,7.41154e-08,-5.08284e-08,0,5.03279e-06,-1.35627e+09,-1.35628e+09,-1.35628e+09,672632,-0.0094609,0.104121,-0,0.10455,-3480.95,-47955.9,-0,48082.1,672632
step02_gravity_refstate-mantle.xmf,632,3.94567e-07,-8.67789e-07,0,5.61483e-06,-1.37175e+09,-1.37192e+09,-1.37181e+09,750422,-0.00946822,0.109146,-0,0.109556,-3013.64,-48434.4,-0,48528,750422
step02_gravity_refstate-mantle.xmf,633,-3.01639e-07,1.7337e-06,0,2.71719e-06,-1.24939e+09,-1.24912e+09,-1.24935e+09,363152,-0.0089449,0.0861813,-0,0.0866443,-6404.31,-44656.5,-0,45113.4,363152
step02_gravity_refstate-mantle.xmf,634,-5.43132e-08,1.59907e-06,0,1.74691e-06,-1.15743e+09,-1.15721e+09,-1.15743e+09,233474,-0.010409,0.0831958,-0,0.0838444,-7949.38,-41817.4,-0,42566.2,233474
step02_gravity_refstate-mantle.xmf,635,-3.24981e-08,1.4903e-06,0,2.49611e-06,-1.22219e+09,-1.22198e+09,-1.22218e+09,333606,-0.00922822,0.087604,-0,0.0880888,-6390.33,-43817.4,-0,44281,333606
step02_gravity_refstate-mantle.xmf,636,7.26227e-08,1.4452e-06,0,2.02333e-06,-1.1773e+09,-1.17711e+09,-1.17731e+09,270418,-0.00991507,0.0860961,-0,0.0866652,-7100.75,-42431.4,-0,43021.4,270418
step02_gravity_refstate-mantle.xmf,637,-8.07734e-08,1.59677e-06,0,1.4362e-06,-1.12704e+09,-1.12682e+09,-1.12703e+09,191948,-0.011366,0.0822312,-0,0.083013,-8536.03,-40878.5,-0,41760.2,191948
step02_gravity_refstate-mantle.xmf,638,-1.65424e-07,1.62698e-06,0,1.14551e-06,-1.09862e+09,-1.09838e+09,-1.0986e+09,153097,-0.0124746,0.0815104,-0,0.0824594,-9083.97,-40000,-0,41018.5,153097
step02_gravity_refstate-mantle.xmf,639,4.27791e-06,-8.53857e-06,0,5.25731e-06,-1.40888e+09,-1.41059e+09,-1.40945e+09,702640,-0.00623018,0.134427,-0,0.134571,-1260.58,-49587.5,-0,49603.5,702640
step02_gravity_refstate-mantle.xmf,640,-1.89147e-06,5.77362e-06,0,1.24527e-05,-1.51948e+09,-1.51845e+09,-1.51922e+09,1.66431e+06,0.00270723,0.12551,0,0.125539,-2000,-52999.3,-0,53037,1.66431e+06
step02_gravity_refstate-mantle.xmf,641,-4.58884e-06,1.33948e-05,0,9.81066e-06,-1.58898e+09,-1.58658e+09,-1.58837e+09,1.3112e+06,0.0147916,0.0942742,0,0.0954276,-2368.71,-55147.7,-0,55198.6,1.3112e+06
step02_gravity_refstate-mantle.xmf,642,-5.38228e-06,1.5951e-05,0,8.9542e-06,-1.61206e+09,-1.60921e+09,-1.61134e+09,1.19673e+06,0.0184815,0.0840928,0,0.0860997,-2356.57,-55861.8,-0,55911.5,1.19673e+06
step02_gravity_refstate-mantle.xmf,643,-5.61392e-06,1.7093e-05,0,8.20844e-06,-1.62507e+09,-1.62204e+09,-1.62432e+09,1.09706e+06,0.0206437,0.0769241,0,0.0796459,-2379.87,-56265.2,-0,56315.5,1.09706e+06
step02_gravity_refstate-mantle.xmf,644,-2.03354e-06,1.26924e-05,0,1.31888e-06,-1.70295e+09,-1.70098e+09,-1.70267e+09,176269,0.0359799,0.0171928,0,0.0398767,-4448.54,-58683.4,-0,58851.7,176269
step02_gravity_refstate-mantle.xmf,645,-1.99857e-06,1.27242e-05,0,6.23872e-07,-1.72609e+09,-1.72413e+09,-1.72583e+09,83380.5,0.0370202,0.0077,0,0.0378125,-4569.04,-59398.7,-0,59574.2,83380.5
step02_gravity_refstate-mantle.xmf,646,-1.43991e-06,1.17601e-05,0,-1.55551e-08,-1.74552e+09,-1.74375e+09,-1.74532e+09,-2078.94,0.0378632,-1.37349e-19,0,0.0378632,-4930.91,-60000,-0,60202.3,2078.94
step02_gravity_refstate-mantle.xmf,647,2.88161e-07,1.94179e-07,0,4.22545e-06,-1.32319e+09,-1.32321e+09,-1.32323e+09,564731,-0.00920765,0.101052,-0,0.10147,-3834.4,-46936.4,-0,47092.8,564731
step02_gravity_refstate-mantle.xmf,648,1.46302e-06,-2.33691e-06,0,5.33178e-06,-1.3641e+09,-1.36461e+09,-1.36429e+09,712593,-0.00888568,0.114093,-0,0.114439,-2504.98,-48201.3,-0,48266.4,712593
step02_gravity_refstate-mantle.xmf,649,-1.68788e-07,1.47557e-06,0,2.99624e-06,-1.26308e+09,-1.26287e+09,-1.26306e+09,400447,-0.00900222,0.0895996,-0,0.0900507,-5714.76,-45079.9,-0,45440.7,400447
step02_gravity_refstate-mantle.xmf,650,1.97812e-07,1.25355e-06,0,2.26619e-06,-1.19473e+09,-1.19459e+09,-1.19476e+09,302876,-0.00953142,0.0888857,-0,0.0893953,-6365.8,-42970.3,-0,43439.2,302876
step02_gravity_refstate-mantle.xmf,651,2.20016e-08,1.06525e-06,0,3.28384e-06,-1.2759e+09,-1.27576e+09,-1.27591e+09,438885,-0.00903836,0.09328,-0,0.0937168,-5050.48,-45476,-0,45755.6,438885
step02_gravity_refstate-mantle.xmf,652,2.82112e-07,5.6643e-07,0,3.54859e-06,-1.28828e+09,-1.28824e+09,-1.28831e+09,474270,-0.009013,0.0971688,-0,0.0975859,-4416.01,-45858.7,-0,46070.9,474270
step02_gravity_refstate-mantle.xmf,653,2.44501e-06,-4.03643e-06,0,5.35191e-06,-1.37354e+09,-1.37441e+09,-1.37387e+09,715283,-0.00811494,0.120225,-0,0.120498,-1980.01,-48495.2,-0,48535.6,715283
step02_gravity_refstate-mantle.xmf,654,3.61845e-06,-6.74951e-06,0,5.59195e-06,-1.39732e+09,-1.3987e+09,-1.3978e+09,747364,-0.00713269,0.129191,-0,0.129387,-1492.26,-49230.5,-0,49253.1,747364
step02_gravity_refstate-mantle.xmf,655,4.41884e-06,-1.03308e-05,0,4.302e-06,-1.42235e+09,-1.42432e+09,-1.42294e+09,574962,-0.00475215,0.141013,-0,0.141093,-1000,-50000,-0,50010,574962
step02_gravity_refstate-mantle.xmf,656,-2.644e-06,7.70953e-06,0,1.25338e-05,-1.53565e+09,-1.53427e+09,-1.5353e+09,1.67514e+06,0.00506577,0.122142,0,0.122247,-2000,-53498.9,-0,53536.3,1.67514e+06
step02_gravity_refstate-mantle.xmf,657,-3.41201e-06,9.66381e-06,0,1.2463e-05,-1.55185e+09,-1.55011e+09,-1.5514e+09,1.66568e+06,0.00745338,0.117795,0,0.118031,-2000,-53999.2,-0,54036.2,1.66568e+06
step02_gravity_refstate-mantle.xmf,658,-4.19052e-06,1.16524e-05,0,1.22367e-05,-1.56805e+09,-1.56594e+09,-1.56749e+09,1.63543e+06,0.00986053,0.112463,0,0.112894,-2000,-54499.5,-0,54536.2,1.63543e+06
step02_gravity_refstate-mantle.xmf,659,-4.93813e-06,1.36326e-05,0,1.18524e-05,-1.58423e+09,-1.58175e+09,-1.58357e+09,1.58408e+06,0.0122789,0.106146,0,0.106854,-2000,-54999.2,-0,55035.5,1.58408e+06
step02_gravity_refstate-mantle.xmf,660,-5.67307e-06,1.5612e-05,0,1.13017e-05,-1.60038e+09,-1.59754e+09,-1.59962e+09,1.51047e+06,0.0146903,0.0988373,0,0.0999231,-2000,-55498.3,-0,55534.3,1.51047e+06
step02_gravity_refstate-mantle.xmf,661,-6.35801e-06,1.76281e-05,0,1.05767e-05,-1.61653e+09,-1.61333e+09,-1.61568e+09,1.41358e+06,0.0170692,0.0905352,0,0.0921303,-2000,-55997.8,-0,56033.5,1.41358e+06
step02_gravity_refstate-mantle.xmf,662,-5.70471e-06,1.82186e-05,0,7.10587e-06,-1.64063e+09,-1.63743e+09,-1.63987e+09,949700,0.023231,0.067323,0,0.0712185,-2432.99,-56748,-0,56800.2,949700
step02_gravity_refstate-mantle.xmf,663,-2.7287e-06,1.39749e-05,0,2.33693e-06,-1.68687e+09,-1.68464e+09,-1.68651e+09,312330,0.0338373,0.0266155,0,0.0430505,-3936.11,-58185.6,-0,58318.6,312330
step02_gravity_refstate-mantle.xmf,664,-3.45489e-06,1.53141e-05,0,3.39874e-06,-1.67519e+09,-1.67269e+09,-1.67473e+09,454241,0.0314924,0.0357576,0,0.0476485,-3449.09,-57823.4,-0,57926.1,454241
step02_gravity_refstate-mantle.xmf,665,-4.29862e-06,1.6886e-05,0,4.61879e-06,-1.66471e+09,-1.66188e+09,-1.66413e+09,617301,0.0287065,0.0461468,0,0.0543469,-2960.6,-57497.8,-0,57574,617301
step02_gravity_refstate-mantle.xmf,666,-2.828e-06,1.41099e-05,0,1.19623e-06,-1.71604e+09,-1.71378e+09,-1.71567e+09,159876,0.03566,0.0130572,0,0.0379753,-4113.05,-59086.3,-0,59229.3,159876
step02_gravity_refstate-mantle.xmf,667,6.25163e-07,-6.63111e-08,0,3.78645e-06,-1.30042e+09,-1.30052e+09,-1.30051e+09,506060,-0.00888839,0.101276,-0,0.101665,-3808.47,-46234.6,-0,46391.2,506060
step02_gravity_refstate-mantle.xmf,668,7.47473e-07,-7.58836e-07,0,4.62225e-06,-1.33733e+09,-1.33753e+09,-1.33743e+09,617764,-0.00910424,0.106284,-0,0.106673,-3219.69,-47373.7,-0,47483,617764
step02_gravity_refstate-mantle.xmf,669,8.25062e-07,-1.17253e-06,0,5.08754e-06,-1.35543e+09,-1.3557e+09,-1.35554e+09,679950,-0.0092239,0.109147,-0,0.109536,-2963.6,-47932.4,-0,48023.9,679950
step02_gravity_refstate-mantle.xmf,670,9.6138e-08,1.21798e-06,0,2.75113e-06,-1.23724e+09,-1.23709e+09,-1.23726e+09,367689,-0.0091022,0.0906452,-0,0.091101,-5717.91,-44282.7,-0,44650.4,367689
step02_gravity_refstate-mantle.xmf,671,2.66678e-07,1.26048e-06,0,1.77823e-06,-1.15006e+09,-1.14993e+09,-1.15009e+09,237660,-0.0105086,0.087546,-0,0.0881744,-7031.67,-41590.9,-0,42181.1,237660
step02_gravity_refstate-mantle.xmf,672,2.3228e-07,1.28173e-06,0,1.51771e-06,-1.12527e+09,-1.12513e+09,-1.1253e+09,202841,-0.0113475,0.0866362,-0,0.0873762,-7476.88,-40824.9,-0,41504,202841
step02_gravity_refstate-mantle.xmf,673,3.24186e-07,1.04635e-06,0,2.4834e-06,-1.21129e+09,-1.2112e+09,-1.21134e+09,331906,-0.00921409,0.091581,-0,0.0920434,-5711.55,-43482.2,-0,43855.7,331906
step02_gravity_refstate-mantle.xmf,674,4.54605e-07,1.01868e-06,0,1.9939e-06,-1.16503e+09,-1.16495e+09,-1.16509e+09,266485,-0.00990168,0.0906668,-0,0.0912058,-6208.81,-42053.9,-0,42509.7,266485
step02_gravity_refstate-mantle.xmf,675,3.59086e-06,-6.18271e-06,0,4.90777e-06,-1.38301e+09,-1.38432e+09,-1.38349e+09,655924,-0.00681903,0.126592,-0,0.126775,-1468.87,-48789.9,-0,48812,655924
step02_gravity_refstate-mantle.xmf,676,1.38602e-07,1.35058e-06,0,1.21297e-06,-1.09858e+09,-1.09842e+09,-1.0986e+09,162113,-0.0124908,0.0856159,-0,0.0865223,-8006.22,-40000,-0,40793.4,162113
step02_gravity_refstate-mantle.xmf,677,4.52138e-06,-8.13017e-06,0,4.11439e-06,-1.39457e+09,-1.39626e+09,-1.39517e+09,549888,-0.00535135,0.132626,-0,0.132734,-1061.62,-49148.2,-0,49159.7,549888
step02_gravity_refstate-mantle.xmf,678,4.9481e-06,-9.90104e-06,0,3.28172e-06,-1.4087e+09,-1.41068e+09,-1.40936e+09,438602,-0.00401453,0.138622,-0,0.13868,-779.598,-49583,-0,49589.1,438602
step02_gravity_refstate-mantle.xmf,679,-6.95887e-06,1.96177e-05,0,9.63439e-06,-1.63269e+09,-1.62913e+09,-1.63176e+09,1.28764e+06,0.0193595,0.0812229,0,0.0834982,-2000,-56497.8,-0,56533.2,1.28764e+06
step02_gravity_refstate-mantle.xmf,680,-5.6075e-06,1.90521e-05,0,6.01954e-06,-1.65639e+09,-1.6531e+09,-1.65564e+09,804512,0.0254792,0.0573927,0,0.0627942,-2479.47,-57237.7,-0,57291.4,804512
step02_gravity_refstate-mantle.xmf,681,-3.28579e-06,1.48571e-05,0,1.86815e-06,-1.70415e+09,-1.70173e+09,-1.70371e+09,249679,0.0343386,0.0196347,0,0.0395558,-3814.77,-58717.8,-0,58841.6,249679
step02_gravity_refstate-mantle.xmf,682,-3.32966e-06,1.49426e-05,0,7.11111e-07,-1.73008e+09,-1.72764e+09,-1.72963e+09,95040,0.0353995,0.00723205,0,0.0361307,-3935.97,-59518.6,-0,59648.6,95040
step02_gravity_refstate-mantle.xmf,683,-2.6505e-06,1.38507e-05,0,-1.08756e-08,-1.74561e+09,-1.7434e+09,-1.74525e+09,-1453.52,0.0364921,-1.27099e-19,0,0.0364921,-4262.05,-60000,-0,60151.2,1453.52
step02_gravity_refstate-mantle.xmf,684,1.07025e-06,-8.53022e-07,0,3.98452e-06,-1.31267e+09,-1.31293e+09,-1.31281e+09,532531,-0.00861409,0.105704,-0,0.106054,-3213.96,-46613.9,-0,46724.6,532531
step02_gravity_refstate-mantle.xmf,685,1.66378e-06,-2.22405e-06,0,4.63986e-06,-1.34523e+09,-1.34575e+09,-1.34545e+09,620117,-0.00845738,0.112615,-0,0.112932,-2521.59,-47620.1,-0,47686.8,620117
step02_gravity_refstate-mantle.xmf,686,2.52601e-06,-3.679e-06,0,4.53583e-06,-1.35476e+09,-1.35559e+09,-1.35509e+09,606214,-0.00760477,0.118011,-0,0.118256,-1977.96,-47916.4,-0,47957.3,606214
step02_gravity_refstate-mantle.xmf,687,2.85805e-07,8.81479e-07,0,2.97988e-06,-1.25116e+09,-1.25108e+09,-1.25119e+09,398262,-0.00897128,0.0940173,-0,0.0944443,-5050.24,-44712.9,-0,44997.2,398262
step02_gravity_refstate-mantle.xmf,688,5.03188e-07,9.02525e-07,0,2.23727e-06,-1.18773e+09,-1.18768e+09,-1.1878e+09,299011,-0.00937278,0.0923329,-0,0.0928074,-5702.06,-42755.3,-0,43133.8,299011
step02_gravity_refstate-mantle.xmf,689,5.42675e-07,4.04118e-07,0,3.18521e-06,-1.26411e+09,-1.26413e+09,-1.26419e+09,425703,-0.00878952,0.0975764,-0,0.0979715,-4408.88,-45113.7,-0,45328.6,425703
step02_gravity_refstate-mantle.xmf,690,8.78762e-07,-1.83049e-07,0,3.3473e-06,-1.2769e+09,-1.27704e+09,-1.27701e+09,447367,-0.00850764,0.101383,-0,0.101739,-3778.78,-45509.3,-0,45665.9,447367
step02_gravity_refstate-mantle.xmf,691,3.50669e-06,-5.35116e-06,0,4.06444e-06,-1.36463e+09,-1.36581e+09,-1.3651e+09,543213,-0.0063077,0.123514,-0,0.123675,-1448.41,-48223.7,-0,48245.4,543213
step02_gravity_refstate-mantle.xmf,692,4.8055e-06,-1.12591e-05,0,2.13935e-06,-1.42234e+09,-1.42449e+09,-1.42298e+09,285924,-0.00244046,0.144676,-0,0.144696,-500.172,-50000,-0,50002.5,285924
step02_gravity_refstate-mantle.xmf,693,-7.46971e-06,2.15824e-05,0,8.44838e-06,-1.64883e+09,-1.64495e+09,-1.64784e+09,1.12913e+06,0.0214436,0.070918,0,0.074089,-2000,-56998.3,-0,57033.3,1.12913e+06
step02_gravity_refstate-mantle.xmf,694,-4.07178e-06,1.63779e-05,0,2.90345e-06,-1.69324e+09,-1.6905e+09,-1.69269e+09,388046,0.032238,0.0275996,0,0.0424385,-3369.7,-58379.3,-0,58476.4,388046
step02_gravity_refstate-mantle.xmf,695,-4.84599e-06,1.79805e-05,0,4.1919e-06,-1.6817e+09,-1.67865e+09,-1.68105e+09,560248,0.0296541,0.0375148,0,0.0478197,-2915.52,-58021.8,-0,58095,560248
step02_gravity_refstate-mantle.xmf,696,-5.5357e-06,2.01e-05,0,5.71619e-06,-1.67273e+09,-1.6693e+09,-1.67199e+09,763969,0.0266471,0.0479454,0,0.0548528,-2444.53,-57745.4,-0,57797.1,763969
step02_gravity_refstate-mantle.xmf,697,-3.80197e-06,1.56822e-05,0,1.41862e-06,-1.71717e+09,-1.71457e+09,-1.71666e+09,189599,0.0342754,0.0140352,0,0.0370376,-3688.38,-59118.6,-0,59233.5,189599
step02_gravity_refstate-mantle.xmf,698,1.30113e-06,-9.03696e-07,0,3.44526e-06,-1.28948e+09,-1.28977e+09,-1.28965e+09,460459,-0.00808572,0.105344,-0,0.105654,-3173.29,-45898.8,-0,46008.4,460459
step02_gravity_refstate-mantle.xmf,699,5.06424e-07,7.21422e-07,0,2.67453e-06,-1.22543e+09,-1.2254e+09,-1.22549e+09,357451,-0.0089175,0.0945886,-0,0.095008,-5060.54,-43919.2,-0,44209.8,357451
step02_gravity_refstate-mantle.xmf,700,5.85057e-07,9.25827e-07,0,1.62062e-06,-1.12983e+09,-1.12978e+09,-1.12991e+09,216596,-0.0107544,0.0910348,-0,0.0916678,-6370.4,-40967.2,-0,41459.6,216596
step02_gravity_refstate-mantle.xmf,701,4.94236e-07,1.03769e-06,0,1.24315e-06,-1.09853e+09,-1.09845e+09,-1.09859e+09,166147,-0.0121612,0.0896627,-0,0.0904837,-6955.6,-40000,-0,40600.2,166147
step02_gravity_refstate-mantle.xmf,702,6.84004e-07,6.34183e-07,0,2.36606e-06,-1.19899e+09,-1.199e+09,-1.19908e+09,316224,-0.00894377,0.0950235,-0,0.0954435,-5083.32,-43103.6,-0,43402.3,316224
step02_gravity_refstate-mantle.xmf,703,8.1769e-07,5.86786e-07,0,2.04338e-06,-1.16965e+09,-1.16968e+09,-1.16976e+09,273098,-0.00920058,0.0950523,-0,0.0954965,-5197.98,-42197.9,-0,42516.8,273098
step02_gravity_refstate-mantle.xmf,704,4.53943e-06,-7.40003e-06,0,2.97385e-06,-1.3758e+09,-1.3774e+09,-1.37641e+09,397455,-0.00429297,0.129359,-0,0.129431,-882.927,-48570.4,-0,48578.4,397455
step02_gravity_refstate-mantle.xmf,705,5.19146e-06,-9.37207e-06,0,1.93738e-06,-1.39445e+09,-1.3964e+09,-1.39515e+09,258931,-0.00259357,0.135938,-0,0.135962,-493.865,-49145.9,-0,49148.3,258931
step02_gravity_refstate-mantle.xmf,706,5.19207e-06,-1.05597e-05,0,1.51237e-06,-1.41032e+09,-1.41243e+09,-1.41102e+09,202128,-0.00190386,0.14122,-0,0.141233,-364.496,-49633.1,-0,49634.4,202128
step02_gravity_refstate-mantle.xmf,707,-7.69573e-06,2.34856e-05,0,6.78517e-06,-1.66491e+09,-1.66074e+09,-1.66388e+09,906838,0.023092,0.059653,0,0.0639665,-2000,-57498.2,-0,57532.9,906838
step02_gravity_refstate-mantle.xmf,708,-4.73372e-06,1.71734e-05,0,2.10543e-06,-1.71009e+09,-1.70716e+09,-1.70946e+09,281391,0.0324138,0.019359,0,0.0377548,-3290.6,-58897.5,-0,58989.4,281391
step02_gravity_refstate-mantle.xmf,709,-5.02895e-06,1.7652e-05,0,1.06094e-06,-1.72855e+09,-1.72552e+09,-1.72788e+09,141794,0.0326514,0.00944414,0,0.0339898,-3282.32,-59467,-0,59557.5,141794
step02_gravity_refstate-mantle.xmf,710,-4.18089e-06,1.63117e-05,0,-1.84158e-08,-1.74573e+09,-1.74299e+09,-1.74517e+09,-2461.28,0.0342962,-1.67933e-19,0,0.0342962,-3618.49,-60000,-0,60109,2461.28
step02_gravity_refstate-mantle.xmf,711,1.67337e-06,-1.90934e-06,0,4.06677e-06,-1.32393e+09,-1.32441e+09,-1.32415e+09,543524,-0.00807172,0.110496,-0,0.11079,-2619.23,-46962.9,-0,47035.9,543524
step02_gravity_refstate-mantle.xmf,712,1.82303e-06,-1.79343e-06,0,3.43619e-06,-1.30146e+09,-1.30194e+09,-1.3017e+09,459246,-0.00742905,0.10953,-0,0.109782,-2572.22,-46270.3,-0,46341.7,459246
step02_gravity_refstate-mantle.xmf,713,2.52572e-06,-3.2588e-06,0,3.82581e-06,-1.33461e+09,-1.33538e+09,-1.33494e+09,511319,-0.00704277,0.115835,-0,0.116049,-1980.78,-47295,-0,47336.5,511319
step02_gravity_refstate-mantle.xmf,714,3.3661e-06,-4.66146e-06,0,3.33146e-06,-1.34512e+09,-1.3462e+09,-1.34557e+09,445250,-0.00570123,0.120688,-0,0.120823,-1419.8,-47621.9,-0,47643.1,445250
step02_gravity_refstate-mantle.xmf,715,7.42446e-07,3.17223e-07,0,2.83973e-06,-1.23982e+09,-1.23988e+09,-1.23992e+09,379530,-0.0085766,0.0978747,-0,0.0982497,-4403.39,-44364.3,-0,44582.3,379530
step02_gravity_refstate-mantle.xmf,716,7.75503e-07,7.05722e-07,0,1.80699e-06,-1.14724e+09,-1.14725e+09,-1.14734e+09,241504,-0.00984425,0.0936973,-0,0.094213,-5620.91,-41505.8,-0,41884.6,241504
step02_gravity_refstate-mantle.xmf,717,1.065e-06,-2.21847e-07,0,2.93394e-06,-1.25263e+09,-1.2528e+09,-1.25277e+09,392121,-0.00813362,0.101373,-0,0.101699,-3754.41,-44760.9,-0,44918.1,392121
step02_gravity_refstate-mantle.xmf,718,1.45426e-06,-8.6546e-07,0,2.96002e-06,-1.2657e+09,-1.26601e+09,-1.26589e+09,395607,-0.00755708,0.104989,-0,0.10526,-3122.51,-45165.5,-0,45273.3,395607
step02_gravity_refstate-mantle.xmf,719,4.10946e-06,-5.96046e-06,0,2.49886e-06,-1.35455e+09,-1.35589e+09,-1.3551e+09,333972,-0.00405443,0.124854,-0,0.12492,-917.878,-47914.7,-0,47923.5,333972
step02_gravity_refstate-mantle.xmf,720,4.95483e-06,-1.16215e-05,0,2.38886e-08,-1.42234e+09,-1.42456e+09,-1.423e+09,3192.72,-7.54606e-07,0.145897,-0,0.145897,0,-50000,0,50000,3192.72
step02_gravity_refstate-mantle.xmf,721,-5.89044e-06,1.92124e-05,0,3.22812e-06,-1.69976e+09,-1.6964e+09,-1.69897e+09,431438,0.0297403,0.0279461,0,0.0408102,-2828.7,-58575.8,-0,58644,431438
step02_gravity_refstate-mantle.xmf,722,-7.13323e-06,2.12673e-05,0,4.35044e-06,-1.68951e+09,-1.68571e+09,-1.68856e+09,581436,0.0269351,0.0376668,0,0.0463065,-2419.7,-58256.2,-0,58306.4,581436
step02_gravity_refstate-mantle.xmf,723,-9.17082e-06,2.37806e-05,0,5.38239e-06,-1.68145e+09,-1.67705e+09,-1.68022e+09,719357,0.0236526,0.0474382,0,0.0530078,-2000,-58000,-0,58034.5,719357
step02_gravity_refstate-mantle.xmf,724,1.91938e-06,-1.62435e-06,0,2.87328e-06,-1.27843e+09,-1.2789e+09,-1.27869e+09,384014,-0.00678863,0.108671,-0,0.108883,-2508.68,-45559.9,-0,45628.9,384014
step02_gravity_refstate-mantle.xmf,725,9.16344e-07,2.54804e-07,0,2.49234e-06,-1.21362e+09,-1.21371e+09,-1.21374e+09,333102,-0.00841796,0.0980946,-0,0.0984551,-4404.75,-43556,-0,43778.2,333102
step02_gravity_refstate-mantle.xmf,726,9.9284e-07,5.42514e-07,0,1.52318e-06,-1.12388e+09,-1.12394e+09,-1.12401e+09,203573,-0.0101225,0.0951543,-0,0.0956912,-5370.97,-40785.1,-0,41137.2,203573
step02_gravity_refstate-mantle.xmf,727,8.84942e-07,7.00793e-07,0,1.22771e-06,-1.09847e+09,-1.09849e+09,-1.09859e+09,164083,-0.0114552,0.0935449,-0,0.0942437,-5927.94,-40000,-0,40436.9,164083
step02_gravity_refstate-mantle.xmf,728,1.05426e-06,2.40498e-07,0,2.15983e-06,-1.18624e+09,-1.18635e+09,-1.18638e+09,288662,-0.00839128,0.0982186,-0,0.0985764,-4423.04,-42711.1,-0,42939.5,288662
step02_gravity_refstate-mantle.xmf,729,1.04864e-06,4.35447e-07,0,1.71983e-06,-1.14376e+09,-1.14384e+09,-1.1439e+09,229855,-0.00930565,0.0964242,-0,0.0968722,-4966.61,-41399.5,-0,41696.3,229855
step02_gravity_refstate-mantle.xmf,730,4.6571e-06,-7.10879e-06,0,1.3355e-06,-1.36227e+09,-1.36385e+09,-1.3629e+09,178489,-0.00205107,0.128082,-0,0.128098,-434.635,-48154.1,-0,48156,178489
step02_gravity_refstate-mantle.xmf,731,5.03507e-06,-8.24206e-06,0,1.28344e-06,-1.37802e+09,-1.37979e+09,-1.37869e+09,171532,-0.00184699,0.131932,-0,0.131945,-364.743,-48640,-0,48641.4,171532
step02_gravity_refstate-mantle.xmf,732,5.36907e-06,-1.04058e-05,0,-5.79002e-08,-1.40567e+09,-1.40778e+09,-1.40639e+09,-7738.37,-5.06442e-08,0.140317,-0,0.140317,0,-49491.1,0,49491.1,7738.37
step02_gravity_refstate-mantle.xmf,733,-6.54948e-06,1.99377e-05,0,2.00464e-06,-1.71766e+09,-1.71412e+09,-1.71679e+09,267920,0.0294994,0.0175774,0,0.0343391,-2754.17,-59126.3,-0,59190.4,267920
step02_gravity_refstate-mantle.xmf,734,-5.98009e-06,1.90532e-05,0,-4.92346e-09,-1.7459e+09,-1.74255e+09,-1.7451e+09,-658.021,0.0311327,-1.38427e-19,0,0.0311327,-2996.03,-60000,-0,60074.8,658.021
step02_gravity_refstate-mantle.xmf,735,2.47088e-06,-2.87849e-06,0,3.22436e-06,-1.31308e+09,-1.3138e+09,-1.31342e+09,430935,-0.00644138,0.113871,-0,0.114054,-1970.46,-46630.9,-0,46672.5,430935
step02_gravity_refstate-mantle.xmf,736,2.43838e-06,-2.51713e-06,0,2.6483e-06,-1.29091e+09,-1.29158e+09,-1.29124e+09,353945,-0.00577072,0.112349,-0,0.112497,-1910.84,-45946.7,-0,45986.4,353945
step02_gravity_refstate-mantle.xmf,737,3.20299e-06,-4.02112e-06,0,2.69751e-06,-1.32468e+09,-1.32565e+09,-1.32511e+09,360523,-0.00506298,0.118167,-0,0.118276,-1377.78,-46991.1,-0,47011.2,360523
step02_gravity_refstate-mantle.xmf,738,3.81459e-06,-5.09076e-06,0,1.97541e-06,-1.33527e+09,-1.33646e+09,-1.33578e+09,264013,-0.0034941,0.121764,-0,0.121814,-865.631,-47319.6,-0,47327.5,264013
step02_gravity_refstate-mantle.xmf,739,1.19071e-06,-1.98844e-07,0,2.56258e-06,-1.22757e+09,-1.22775e+09,-1.22773e+09,342489,-0.00783191,0.10124,-0,0.101542,-3748.51,-43987.5,-0,44147,342489
step02_gravity_refstate-mantle.xmf,740,1.20097e-06,2.09537e-07,0,1.82844e-06,-1.15833e+09,-1.15847e+09,-1.15849e+09,244371,-0.00849347,0.0985093,-0,0.0988748,-4399.39,-41850,-0,42080.6,244371
step02_gravity_refstate-mantle.xmf,741,1.95131e-06,-1.41706e-06,0,2.40133e-06,-1.25445e+09,-1.2549e+09,-1.25471e+09,320937,-0.00620583,0.107844,-0,0.108022,-2444.62,-44820,-0,44886.6,320937
step02_gravity_refstate-mantle.xmf,742,1.54889e-06,-7.66525e-07,0,2.5311e-06,-1.241e+09,-1.24131e+09,-1.24121e+09,338282,-0.00709542,0.104561,-0,0.104802,-3083.39,-44403.5,-0,44510.4,338282
step02_gravity_refstate-mantle.xmf,743,4.25056e-06,-5.89301e-06,0,1.10034e-06,-1.34342e+09,-1.34478e+09,-1.34399e+09,147060,-0.0018987,0.124313,-0,0.124327,-441.34,-47572.2,-0,47574.3,147060
step02_gravity_refstate-mantle.xmf,744,5.278e-06,-9.16857e-06,0,1.44811e-08,-1.38832e+09,-1.39025e+09,-1.38902e+09,1935.4,-9.78024e-09,0.135119,-0,0.135119,0,-48957.5,0,48957.5,1935.4
step02_gravity_refstate-mantle.xmf,745,4.9546e-06,-7.82603e-06,0,-1.05478e-08,-1.37013e+09,-1.37184e+09,-1.37079e+09,-1409.72,-9.91006e-10,0.130414,-0,0.130414,0,-48397,0,48397,1409.72
step02_gravity_refstate-mantle.xmf,746,5.17002e-06,-1.05474e-05,0,-1.53313e-06,-1.41033e+09,-1.41243e+09,-1.41102e+09,-204903,0.0019039,0.141221,0,0.141233,364.496,-49633.1,0,49634.4,204903
step02_gravity_refstate-mantle.xmf,747,4.82415e-06,-1.13015e-05,0,-2.11247e-06,-1.42234e+09,-1.4245e+09,-1.42299e+09,-282332,0.00244201,0.144676,0,0.144696,500.172,-50000,0,50002.5,282332
step02_gravity_refstate-mantle.xmf,748,-8.1739e-06,2.24993e-05,0,2.99914e-06,-1.70663e+09,-1.70253e+09,-1.70554e+09,400835,0.0256471,0.0275572,0,0.0376454,-2236.81,-58781.3,-0,58823.8,400835
step02_gravity_refstate-mantle.xmf,749,-9.85497e-06,2.51226e-05,0,3.83593e-06,-1.69551e+09,-1.69084e+09,-1.6942e+09,512672,0.0212796,0.0391484,0,0.044558,-1749.64,-58433.3,-0,58459.5,512672
step02_gravity_refstate-mantle.xmf,750,-6.93018e-06,2.04549e-05,0,9.0926e-07,-1.73329e+09,-1.72963e+09,-1.73237e+09,121523,0.0291545,0.00803129,0,0.0302405,-2692.61,-59607.9,-0,59668.7,121523
step02_gravity_refstate-mantle.xmf,751,2.39072e-06,-2.13381e-06,0,2.13944e-06,-1.26783e+09,-1.26843e+09,-1.26815e+09,285936,-0.00513198,0.111016,-0,0.111135,-1834.75,-45234.2,-0,45271.4,285936
step02_gravity_refstate-mantle.xmf,752,1.3072e-06,-1.59789e-07,0,2.20756e-06,-1.2015e+09,-1.20169e+09,-1.20167e+09,295041,-0.00762129,0.101135,-0,0.101422,-3739.65,-43183.1,-0,43344.7,295041
step02_gravity_refstate-mantle.xmf,753,1.35453e-06,1.80555e-07,0,1.46901e-06,-1.12764e+09,-1.1278e+09,-1.12782e+09,196333,-0.00889087,0.0987307,-0,0.0991302,-4391.24,-40902.9,-0,41137.9,196333
step02_gravity_refstate-mantle.xmf,754,1.29383e-06,3.55029e-07,0,1.15829e-06,-1.09841e+09,-1.09854e+09,-1.09858e+09,154805,-0.0103593,0.0971459,-0,0.0976966,-4918.91,-40000,-0,40301.3,154805
step02_gravity_refstate-mantle.xmf,755,1.42088e-06,-1.2523e-07,0,1.86719e-06,-1.17384e+09,-1.17405e+09,-1.17403e+09,249550,-0.00751312,0.101156,-0,0.101435,-3704.28,-42329.7,-0,42491.5,249550
step02_gravity_refstate-mantle.xmf,756,4.52793e-06,-6.58189e-06,0,-2.71353e-09,-1.35106e+09,-1.35254e+09,-1.35166e+09,-362.664,2.72705e-09,0.126226,0,0.126226,0,-47808.1,0,47808.1,362.664
step02_gravity_refstate-mantle.xmf,757,5.19161e-06,-9.29547e-06,0,-1.96796e-06,-1.39445e+09,-1.39638e+09,-1.39514e+09,-263018,0.00259357,0.135938,0,0.135962,493.868,-49145.9,0,49148.3,263018
step02_gravity_refstate-mantle.xmf,758,4.93974e-06,-9.89512e-06,0,-3.27876e-06,-1.4087e+09,-1.41068e+09,-1.40936e+09,-438206,0.0040145,0.138622,0,0.13868,779.598,-49583,0,49589.1,438206
step02_gravity_refstate-mantle.xmf,759,-1.10725e-05,2.73831e-05,0,4.48387e-06,-1.68156e+09,-1.67642e+09,-1.68008e+09,599269,0.01859,0.0526329,0,0.0558194,-1499.28,-58000,-0,58019.4,599269
step02_gravity_refstate-mantle.xmf,760,-8.65518e-06,2.30052e-05,0,1.4057e-06,-1.72755e+09,-1.72332e+09,-1.72639e+09,187872,0.025082,0.0132064,0,0.0283464,-2169.34,-59425.5,-0,59465.1,187872
step02_gravity_refstate-mantle.xmf,761,-7.96997e-06,2.19635e-05,0,-6.07927e-09,-1.74609e+09,-1.74209e+09,-1.74502e+09,-812.495,0.0269029,-2.05656e-19,0,0.0269029,-2389.19,-60000,-0,60047.6,812.495
step02_gravity_refstate-mantle.xmf,762,2.9965e-06,-3.45566e-06,0,2.20214e-06,-1.30293e+09,-1.30379e+09,-1.30333e+09,294316,-0.00447182,0.115845,-0,0.115931,-1336.61,-46319.2,-0,46338.5,294316
step02_gravity_refstate-mantle.xmf,763,2.82489e-06,-2.91487e-06,0,1.74523e-06,-1.28078e+09,-1.28154e+09,-1.28115e+09,233250,-0.00387409,0.113938,-0,0.114004,-1264.68,-45635.2,-0,45652.7,233250
step02_gravity_refstate-mantle.xmf,764,3.90243e-06,-5.079e-06,0,9.28966e-07,-1.32655e+09,-1.32775e+09,-1.32707e+09,124156,-0.00168566,0.121481,-0,0.121493,-426.709,-47050.8,-0,47052.7,124156
step02_gravity_refstate-mantle.xmf,765,3.54004e-06,-4.31833e-06,0,1.47497e-06,-1.31467e+09,-1.31572e+09,-1.31515e+09,197129,-0.00286395,0.119021,-0,0.119055,-781.309,-46683.4,-0,46690,197129
step02_gravity_refstate-mantle.xmf,766,1.60528e-06,-6.4951e-07,0,2.16601e-06,-1.21561e+09,-1.21592e+09,-1.21583e+09,289488,-0.00673748,0.104137,-0,0.104355,-3053.66,-43620,-0,43726.7,289488
step02_gravity_refstate-mantle.xmf,767,1.54183e-06,-1.01882e-07,0,1.55852e-06,-1.14773e+09,-1.14795e+09,-1.14794e+09,208297,-0.00756598,0.101227,-0,0.101509,-3659.6,-41523.9,-0,41684.9,208297
step02_gravity_refstate-mantle.xmf,768,2.32208e-06,-1.79395e-06,0,1.71885e-06,-1.24368e+09,-1.24423e+09,-1.24399e+09,229724,-0.00453594,0.109869,-0,0.109963,-1740.03,-44488.6,-0,44522.7,229724
step02_gravity_refstate-mantle.xmf,769,1.95734e-06,-1.19253e-06,0,1.99654e-06,-1.22946e+09,-1.22988e+09,-1.22972e+09,266838,-0.00570848,0.107084,-0,0.107236,-2381.47,-44048.5,-0,44112.8,266838
step02_gravity_refstate-mantle.xmf,770,4.07669e-06,-5.37846e-06,0,-1.04653e-08,-1.33103e+09,-1.33229e+09,-1.33157e+09,-1398.69,6.32098e-09,0.122557,0,0.122557,0,-47189.4,0,47189.4,1398.69
step02_gravity_refstate-mantle.xmf,771,5.00147e-06,-8.13778e-06,0,-1.3201e-06,-1.37802e+09,-1.37977e+09,-1.37868e+09,-176431,0.00184699,0.131932,0,0.131945,364.745,-48640,0,48641.4,176431
step02_gravity_refstate-mantle.xmf,772,4.67236e-06,-7.13113e-06,0,-1.3499e-06,-1.36227e+09,-1.36385e+09,-1.3629e+09,-180414,0.00205112,0.128082,0,0.128098,434.645,-48154.1,0,48156,180414
step02_gravity_refstate-mantle.xmf,773,4.43555e-06,-1.03695e-05,0,-4.24429e-06,-1.42235e+09,-1.42433e+09,-1.42294e+09,-567250,0.00475073,0.141012,0,0.141092,1000,-50000,0,50010,567250
step02_gravity_refstate-mantle.xmf,774,-1.16604e-05,2.80633e-05,0,3.25833e-06,-1.69101e+09,-1.6857e+09,-1.68945e+09,435476,0.0159098,0.0466447,0,0.0492834,-1251.87,-58289.6,-0,58303,435476
step02_gravity_refstate-mantle.xmf,775,-1.0165e-05,2.52707e-05,0,2.3753e-06,-1.71326e+09,-1.70852e+09,-1.7119e+09,317459,0.0207014,0.0257039,0,0.0330036,-1697.49,-58979.7,-0,59004.1,317459
step02_gravity_refstate-mantle.xmf,776,2.66938e-06,-2.3895e-06,0,1.34775e-06,-1.25776e+09,-1.25843e+09,-1.25811e+09,180127,-0.00331433,0.112303,-0,0.112352,-1174.85,-44924.3,-0,44939.7,180127
step02_gravity_refstate-mantle.xmf,777,1.67126e-06,-5.12801e-07,0,1.81611e-06,-1.18876e+09,-1.18905e+09,-1.18898e+09,242722,-0.00649057,0.103778,-0,0.103981,-3021.96,-42791.2,-0,42897.8,242722
step02_gravity_refstate-mantle.xmf,778,1.69293e-06,1.97276e-08,0,1.02827e-06,-1.09835e+09,-1.09858e+09,-1.09858e+09,137428,-0.00887741,0.100341,-0,0.100733,-3924.05,-40000,-0,40192,137428
step02_gravity_refstate-mantle.xmf,779,1.7404e-06,-4.1905e-07,0,1.52098e-06,-1.16243e+09,-1.16272e+09,-1.16266e+09,203279,-0.00639452,0.103517,-0,0.103714,-2987.6,-41978.5,-0,42084.7,203279
step02_gravity_refstate-mantle.xmf,780,1.75342e-06,-1.70714e-07,0,1.20878e-06,-1.1221e+09,-1.12236e+09,-1.12234e+09,161553,-0.00744737,0.101941,-0,0.102212,-3400.03,-40733.5,-0,40875.2,161553
step02_gravity_refstate-mantle.xmf,781,4.25013e-06,-5.98233e-06,0,-1.13586e-06,-1.34343e+09,-1.3448e+09,-1.344e+09,-151807,0.00189877,0.124312,0,0.124327,441.358,-47572.2,0,47574.2,151807
step02_gravity_refstate-mantle.xmf,782,4.53574e-06,-8.16197e-06,0,-4.12036e-06,-1.39457e+09,-1.39627e+09,-1.39518e+09,-550686,0.00535138,0.132626,0,0.132734,1061.62,-49148.2,0,49159.7,550686
step02_gravity_refstate-mantle.xmf,783,4.53132e-06,-7.38935e-06,0,-3.02508e-06,-1.3758e+09,-1.37739e+09,-1.37641e+09,-404302,0.00429303,0.129359,0,0.12943,882.941,-48570.4,0,48578.4,404302
step02_gravity_refstate-mantle.xmf,784,4.29505e-06,-8.61433e-06,0,-5.30354e-06,-1.40888e+09,-1.41061e+09,-1.40945e+09,-708818,0.00623021,0.134427,0,0.134571,1260.58,-49587.5,0,49603.5,708818
step02_gravity_refstate-mantle.xmf,785,-1.22166e-05,2.95687e-05,0,2.95978e-06,-1.68163e+09,-1.67604e+09,-1.68e+09,395575,0.0127654,0.0566797,0,0.0580994,-999.317,-58000,-0,58008.6,395575
step02_gravity_refstate-mantle.xmf,786,-1.15223e-05,2.74466e-05,0,2.61462e-06,-1.70377e+09,-1.69857e+09,-1.70223e+09,349444,0.0160217,0.035655,0,0.0390893,-1261.17,-58683.3,-0,58696.8,349444
step02_gravity_refstate-mantle.xmf,787,-9.93455e-06,2.47644e-05,0,5.69291e-09,-1.74628e+09,-1.74164e+09,-1.74495e+09,760.857,0.0215422,-1.83079e-19,0,0.0215422,-1790.83,-60000,-0,60026.7,760.857
step02_gravity_refstate-mantle.xmf,788,3.23619e-06,-3.64488e-06,0,1.195e-06,-1.29276e+09,-1.29368e+09,-1.29319e+09,159712,-0.00246538,0.116437,-0,0.116464,-743.477,-46006.1,-0,46012.1,159712
step02_gravity_refstate-mantle.xmf,789,3.00365e-06,-3.04937e-06,0,8.28792e-07,-1.27182e+09,-1.27263e+09,-1.27222e+09,110768,-0.00187852,0.114531,-0,0.114546,-616.763,-45359.3,-0,45363.5,110768
step02_gravity_refstate-mantle.xmf,790,3.66889e-06,-4.42614e-06,0,-4.73561e-08,-1.30999e+09,-1.31107e+09,-1.31048e+09,-6329.14,7.62818e-08,0.119373,0,0.119373,0,-46539.4,0,46539.4,6329.14
step02_gravity_refstate-mantle.xmf,791,1.94504e-06,-9.81263e-07,0,1.67017e-06,-1.20328e+09,-1.20367e+09,-1.20354e+09,223219,-0.00535245,0.106357,-0,0.106492,-2338.06,-43240.3,-0,43303.5,223219
step02_gravity_refstate-mantle.xmf,792,1.83705e-06,-3.64451e-07,0,1.26456e-06,-1.13991e+09,-1.1402e+09,-1.14016e+09,169009,-0.00637694,0.103455,-0,0.103651,-2918.34,-41283.7,-0,41386.7,169009
step02_gravity_refstate-mantle.xmf,793,2.52239e-06,-1.95239e-06,0,1.01908e-06,-1.23303e+09,-1.23363e+09,-1.23337e+09,136200,-0.00276452,0.110887,-0,0.110921,-1056.47,-44160.7,-0,44173.3,136200
step02_gravity_refstate-mantle.xmf,794,2.25033e-06,-1.45753e-06,0,1.37525e-06,-1.21778e+09,-1.21828e+09,-1.21808e+09,183802,-0.00406083,0.108792,-0,0.108868,-1658.56,-43689.1,-0,43720.6,183802
step02_gravity_refstate-mantle.xmf,795,3.91032e-06,-5.10051e-06,0,-9.21569e-07,-1.32655e+09,-1.32776e+09,-1.32707e+09,-123168,0.00168568,0.121481,0,0.121493,426.716,-47050.8,0,47052.7,123168
step02_gravity_refstate-mantle.xmf,796,4.10311e-06,-6.069e-06,0,-2.54489e-06,-1.35456e+09,-1.35592e+09,-1.35511e+09,-340124,0.00405457,0.124853,0,0.124919,917.917,-47914.7,0,47923.5,340124
step02_gravity_refstate-mantle.xmf,797,3.66104e-06,-6.87163e-06,0,-5.6615e-06,-1.39732e+09,-1.39872e+09,-1.39781e+09,-756660,0.00713273,0.129191,0,0.129387,1492.27,-49230.5,0,49253.1,756660
step02_gravity_refstate-mantle.xmf,798,3.71685e-06,-8.5469e-06,0,-6.45221e-06,-1.42235e+09,-1.42399e+09,-1.42285e+09,-862338,0.00677829,0.134907,0,0.135078,1499.83,-50000,0,50022.5,862338
step02_gravity_refstate-mantle.xmf,799,-1.2676e-05,2.95194e-05,0,1.93391e-06,-1.69621e+09,-1.69058e+09,-1.69452e+09,258466,0.0102671,0.0445842,0,0.0457511,-786.525,-58447.4,-0,58452.6,258466
step02_gravity_refstate-mantle.xmf,800,-1.05301e-05,2.56778e-05,0,1.08066e-06,-1.73084e+09,-1.726e+09,-1.72943e+09,144430,0.0196551,0.0122377,0,0.0231535,-1603.03,-59521.5,-0,59543.1,144430
step02_gravity_refstate-mantle.xmf,801,-1.17733e-05,2.74737e-05,0,1.37312e-06,-1.72111e+09,-1.71587e+09,-1.71954e+09,183518,0.0145739,0.0214269,0,0.0259135,-1143.52,-59217.3,-0,59228.3,183518
step02_gravity_refstate-mantle.xmf,802,2.77541e-06,-2.44073e-06,0,6.10202e-07,-1.24929e+09,-1.24998e+09,-1.24966e+09,81553.4,-0.00154233,0.112721,-0,0.112732,-550.521,-44663.3,-0,44666.7,81553.4
step02_gravity_refstate-mantle.xmf,803,1.96225e-06,-7.58031e-07,0,1.36496e-06,-1.1761e+09,-1.17646e+09,-1.17636e+09,182427,-0.00512774,0.105752,-0,0.105877,-2296.97,-42401.4,-0,42463.6,182427
step02_gravity_refstate-mantle.xmf,804,2.05073e-06,-2.78338e-07,0,8.40231e-07,-1.0983e+09,-1.09861e+09,-1.09857e+09,112297,-0.00703595,0.103005,-0,0.103245,-2938.83,-40000,-0,40107.8,112297
step02_gravity_refstate-mantle.xmf,805,2.00641e-06,-6.06388e-07,0,1.11595e-06,-1.14781e+09,-1.14816e+09,-1.14808e+09,149146,-0.00513283,0.105175,-0,0.1053,-2293.3,-41528.2,-0,41591.5,149146
step02_gravity_refstate-mantle.xmf,806,2.05873e-06,-4.52122e-07,0,9.39709e-07,-1.12114e+09,-1.12147e+09,-1.12141e+09,125592,-0.00567309,0.104366,-0,0.10452,-2462.64,-40705.1,-0,40779.6,125592
step02_gravity_refstate-mantle.xmf,807,3.81673e-06,-5.17279e-06,0,-2.01011e-06,-1.33528e+09,-1.33648e+09,-1.33579e+09,-268651,0.00349428,0.121763,0,0.121814,865.691,-47319.6,0,47327.5,268651
step02_gravity_refstate-mantle.xmf,808,3.58366e-06,-6.16332e-06,0,-4.93283e-06,-1.38301e+09,-1.38431e+09,-1.38349e+09,-659273,0.00681908,0.126592,0,0.126775,1468.89,-48789.9,0,48812,659273
step02_gravity_refstate-mantle.xmf,809,2.98513e-06,-6.32044e-06,0,-6.97163e-06,-1.40817e+09,-1.40941e+09,-1.40857e+09,-931758,0.00795312,0.12841,0,0.128656,1730.04,-49562.6,0,49592.8,931758
step02_gravity_refstate-mantle.xmf,810,-1.28837e-05,3.08066e-05,0,1.47425e-06,-1.68167e+09,-1.67583e+09,-1.67995e+09,197033,0.00649418,0.059129,0,0.0594846,-499.831,-58000,-0,58002.2,197033
step02_gravity_refstate-mantle.xmf,811,-1.2306e-05,2.85549e-05,0,1.76225e-06,-1.70845e+09,-1.70299e+09,-1.7068e+09,235525,0.0121283,0.0330593,0,0.0352138,-936.018,-58825.2,-0,58832.7,235525
step02_gravity_refstate-mantle.xmf,812,-1.16896e-05,2.72474e-05,0,3.68981e-08,-1.74645e+09,-1.74125e+09,-1.74489e+09,4931.43,0.0150939,-2.12635e-19,0,0.0150939,-1193.88,-60000,-0,60011.9,4931.43
step02_gravity_refstate-mantle.xmf,813,3.30912e-06,-3.66217e-06,0,1.27949e-09,-1.28789e+09,-1.28883e+09,-1.28834e+09,171.003,1.85141e-07,0.116628,0,0.116628,0,-45856.3,0,45856.3,171.003
step02_gravity_refstate-mantle.xmf,814,2.9896e-06,-2.93528e-06,0,2.45793e-10,-1.26467e+09,-1.26546e+09,-1.26507e+09,32.8503,-2.53127e-07,0.1143,-0,0.1143,0,-45138.7,0,45138.7,32.8503
step02_gravity_refstate-mantle.xmf,815,3.53734e-06,-4.3814e-06,0,-1.51413e-06,-1.31468e+09,-1.31574e+09,-1.31515e+09,-202363,0.00286392,0.119021,0,0.119055,781.309,-46683.4,0,46690,202363
step02_gravity_refstate-mantle.xmf,816,2.60342e-06,-2.02567e-06,0,4.3481e-07,-1.22822e+09,-1.22884e+09,-1.22857e+09,58112.3,-0.0011949,0.111355,-0,0.111361,-455.041,-44012.4,-0,44014.8,58112.3
step02_gravity_refstate-mantle.xmf,817,2.19387e-06,-1.1853e-06,0,1.10477e-06,-1.1908e+09,-1.19125e+09,-1.1911e+09,147652,-0.00369573,0.107885,-0,0.107948,-1578.06,-42856.1,-0,42885.1,147652
step02_gravity_refstate-mantle.xmf,818,2.4273e-06,-1.58478e-06,0,6.29026e-07,-1.20704e+09,-1.20758e+09,-1.20737e+09,84069.3,-0.00196626,0.109845,-0,0.109863,-795.681,-43358.2,-0,43365.5,84069.3
step02_gravity_refstate-mantle.xmf,819,3.4734e-06,-5.40459e-06,0,-4.10979e-06,-1.36464e+09,-1.36583e+09,-1.3651e+09,-549274,0.00630785,0.123514,0,0.123675,1448.46,-48223.6,0,48245.4,549274
step02_gravity_refstate-mantle.xmf,820,3.34174e-06,-4.71016e-06,0,-3.37631e-06,-1.34513e+09,-1.34621e+09,-1.34558e+09,-451244,0.00570167,0.120687,0,0.120821,1419.95,-47621.9,0,47643,451244
step02_gravity_refstate-mantle.xmf,821,2.33627e-06,-4.41117e-06,0,-6.30879e-06,-1.39202e+09,-1.39292e+09,-1.39233e+09,-843170,0.00839907,0.123091,0,0.123378,1940.21,-49064.4,0,49102.8,843170
step02_gravity_refstate-mantle.xmf,822,1.86615e-06,-4.08222e-06,0,-8.44568e-06,-1.42238e+09,-1.42318e+09,-1.42263e+09,-1.12877e+06,0.00831616,0.126422,0,0.126695,2000,-50000,0,50040,1.12877e+06
step02_gravity_refstate-mantle.xmf,823,-1.32461e-05,3.04061e-05,0,6.26576e-07,-1.69722e+09,-1.69139e+09,-1.69545e+09,83741.8,0.00337875,0.0450848,0,0.0452113,-255.106,-58477,-0,58477.5,83741.8
step02_gravity_refstate-mantle.xmf,824,-1.29467e-05,2.93456e-05,0,9.75312e-07,-1.71405e+09,-1.7084e+09,-1.71232e+09,130350,0.00775293,0.0290355,0,0.0300527,-590.294,-58996.2,-0,58999.1,130350
step02_gravity_refstate-mantle.xmf,825,2.7296e-06,-2.30035e-06,0,-7.90524e-09,-1.24026e+09,-1.24093e+09,-1.24063e+09,-1056.53,-5.97927e-08,0.11234,-0,0.11234,0,-44384.6,0,44384.6,1056.53
step02_gravity_refstate-mantle.xmf,826,3.21113e-06,-3.57861e-06,0,-1.18536e-06,-1.2929e+09,-1.29381e+09,-1.29333e+09,-158423,0.00247695,0.116447,0,0.116473,746.431,-46010.6,0,46016.7,158423
step02_gravity_refstate-mantle.xmf,827,2.1785e-06,-8.75581e-07,0,8.66606e-07,-1.16086e+09,-1.16127e+09,-1.16115e+09,115822,-0.00355227,0.107004,-0,0.107063,-1547.41,-41931.8,-0,41960.3,115822
step02_gravity_refstate-mantle.xmf,828,2.33647e-06,-5.12958e-07,0,6.01875e-07,-1.09826e+09,-1.09864e+09,-1.09857e+09,80440.7,-0.00488498,0.10502,-0,0.105133,-1958.59,-40000,-0,40047.9,80440.7
step02_gravity_refstate-mantle.xmf,829,2.27041e-06,-6.83783e-07,0,6.37014e-07,-1.12693e+09,-1.12732e+09,-1.12723e+09,85137,-0.00354899,0.106263,-0,0.106322,-1504.34,-40884.7,-0,40912.4,85137
step02_gravity_refstate-mantle.xmf,830,3.1836e-06,-4.06667e-06,0,-2.73946e-06,-1.32468e+09,-1.32565e+09,-1.32511e+09,-366128,0.005064,0.118165,0,0.118273,1378.15,-46990.8,0,47011,366128
step02_gravity_refstate-mantle.xmf,831,2.39765e-06,-4.0006e-06,0,-5.37552e-06,-1.37355e+09,-1.3744e+09,-1.37387e+09,-718438,0.00811499,0.120224,0,0.120498,1980.03,-48495.2,0,48535.6,718438
step02_gravity_refstate-mantle.xmf,832,1.44638e-06,-3.47143e-06,0,-7.1645e-06,-1.40589e+09,-1.40655e+09,-1.40608e+09,-957535,0.00887146,0.122245,0,0.122567,2135.91,-49489.3,0,49535.4,957535
step02_gravity_refstate-mantle.xmf,833,-1.31039e-05,3.12164e-05,0,1.37802e-08,-1.68168e+09,-1.67576e+09,-1.67993e+09,1841.73,8.97678e-08,0.0599479,0,0.0599479,-2.07592e-10,-58000,-0,58000,1841.73
step02_gravity_refstate-mantle.xmf,834,-1.25543e-05,2.84994e-05,0,5.72698e-07,-1.73172e+09,-1.72623e+09,-1.73004e+09,76541.1,0.00983583,0.0130185,0,0.0163164,-758.223,-59542.2,-0,59547.1,76541.1
step02_gravity_refstate-mantle.xmf,835,3.07907e-06,-3.17755e-06,0,-7.07545e-07,-1.27544e+09,-1.27628e+09,-1.27585e+09,-94563.4,0.0015427,0.115029,0,0.115039,497.288,-45471.4,0,45474.1,94563.4
step02_gravity_refstate-mantle.xmf,836,2.80153e-06,-2.53344e-06,0,-5.63401e-07,-1.25129e+09,-1.252e+09,-1.25166e+09,-75298.6,0.00138824,0.112933,0,0.112942,491.412,-44725,0,44727.7,75298.6
step02_gravity_refstate-mantle.xmf,837,2.54356e-06,-1.80323e-06,0,-1.45104e-08,-1.21461e+09,-1.21519e+09,-1.21495e+09,-1939.31,2.25532e-08,0.110719,0,0.110719,0,-43592.2,0,43592.2,1939.31
step02_gravity_refstate-mantle.xmf,838,2.9929e-06,-3.44157e-06,0,-2.20625e-06,-1.30296e+09,-1.30382e+09,-1.30336e+09,-294866,0.0044748,0.115844,0,0.11593,1337.42,-46320,0,46339.3,294866
step02_gravity_refstate-mantle.xmf,839,2.32495e-06,-1.22507e-06,0,5.40092e-07,-1.17722e+09,-1.1777e+09,-1.17754e+09,72183.3,-0.00193893,0.108541,-0,0.108558,-821.633,-42437.4,-0,42445.4,72183.3
step02_gravity_refstate-mantle.xmf,840,2.49059e-06,-3.67667e-06,0,-4.56684e-06,-1.35476e+09,-1.35559e+09,-1.3551e+09,-610359,0.00760496,0.11801,0,0.118255,1978.04,-47916.4,0,47957.2,610359
step02_gravity_refstate-mantle.xmf,841,2.49641e-06,-3.27381e-06,0,-3.85745e-06,-1.33461e+09,-1.33538e+09,-1.33494e+09,-515548,0.00704353,0.115832,0,0.116046,1981.1,-47295,0,47336.4,515548
step02_gravity_refstate-mantle.xmf,842,1.16027e-06,-2.25234e-06,0,-6.02461e-06,-1.38124e+09,-1.38169e+09,-1.38139e+09,-805190,0.00916949,0.11556,0,0.115923,2483.12,-48728.9,0,48792.2,805190
step02_gravity_refstate-mantle.xmf,843,7.21244e-07,-1.97035e-06,0,-6.70334e-06,-1.39782e+09,-1.39818e+09,-1.39792e+09,-895901,0.00928393,0.116587,0,0.116956,2491.21,-49239,0,49302,895901
step02_gravity_refstate-mantle.xmf,844,2.69418e-07,-1.55502e-06,0,-7.38769e-06,-1.4141e+09,-1.41434e+09,-1.41413e+09,-987365,0.00904257,0.117719,0,0.118066,2479.26,-49739.8,0,49801.5,987365
step02_gravity_refstate-mantle.xmf,845,-1.32465e-05,3.04219e-05,0,-6.34098e-07,-1.69725e+09,-1.69141e+09,-1.69548e+09,-84747.2,-0.00347888,0.0450508,-0,0.0451849,262.675,-58477.8,0,58478.4,84747.2
step02_gravity_refstate-mantle.xmf,846,-1.33242e-05,2.99041e-05,0,-2.50933e-08,-1.71345e+09,-1.70767e+09,-1.71167e+09,-3353.72,-0.00013219,0.0301869,-0,0.0301871,9.97254,-58976.5,0,58976.5,3353.72
step02_gravity_refstate-mantle.xmf,847,-1.31748e-05,2.93574e-05,0,2.15629e-07,-1.73034e+09,-1.72465e+09,-1.72858e+09,28818.9,0.00350966,0.0146879,0,0.0151014,-266.482,-59497.7,-0,59498.3,28818.9
step02_gravity_refstate-mantle.xmf,848,-1.28465e-05,2.88276e-05,0,2.356e-08,-1.74657e+09,-1.741e+09,-1.74486e+09,3148.79,0.0077837,-2.16015e-19,0,0.0077837,-596.939,-60000,-0,60003,3148.79
step02_gravity_refstate-mantle.xmf,849,2.60408e-06,-2.02298e-06,0,-4.19202e-07,-1.22797e+09,-1.22859e+09,-1.22832e+09,-56026.4,0.00115091,0.111351,0,0.111357,438.53,-44004.7,0,44006.9,56026.4
step02_gravity_refstate-mantle.xmf,850,2.82938e-06,-2.92004e-06,0,-1.72313e-06,-1.28149e+09,-1.28226e+09,-1.28187e+09,-230297,0.00380587,0.114085,0,0.114148,1236.69,-45657.3,0,45674.1,230297
step02_gravity_refstate-mantle.xmf,851,2.41533e-06,-1.38665e-06,0,-1.01104e-08,-1.18765e+09,-1.18816e+09,-1.18797e+09,-1351.26,-1.53535e-07,0.109391,-0,0.109391,0,-42759.7,0,42759.7,1351.26
step02_gravity_refstate-mantle.xmf,852,2.31768e-06,-8.98563e-07,0,4.03639e-07,-1.14629e+09,-1.14672e+09,-1.1466e+09,53946.4,-0.00185426,0.107576,-0,0.107592,-790.118,-41482.6,-0,41490.1,53946.4
step02_gravity_refstate-mantle.xmf,853,2.52472e-06,-6.7107e-07,0,3.10678e-07,-1.09823e+09,-1.09866e+09,-1.09857e+09,41522.2,-0.00250514,0.106278,-0,0.106308,-979.295,-40000,-0,40012,41522.2
step02_gravity_refstate-mantle.xmf,854,2.46323e-06,-2.85459e-06,0,-3.22454e-06,-1.31309e+09,-1.3138e+09,-1.31342e+09,-430960,0.00644325,0.113868,0,0.11405,1971.15,-46631.1,0,46672.7,430960
step02_gravity_refstate-mantle.xmf,855,1.43254e-06,-2.3377e-06,0,-5.31861e-06,-1.36411e+09,-1.36461e+09,-1.3643e+09,-710833,0.00888567,0.114094,0,0.114439,2504.96,-48201.3,0,48266.4,710833
step02_gravity_refstate-mantle.xmf,856,9.47422e-07,-2.90633e-06,0,-9.56946e-06,-1.43868e+09,-1.4392e+09,-1.43881e+09,-1.27896e+06,0.00755281,0.128359,0,0.128581,2000,-50500.3,0,50539.9,1.27896e+06
step02_gravity_refstate-mantle.xmf,857,-1.88204e-07,-9.3682e-07,0,-8.02019e-06,-1.43068e+09,-1.43078e+09,-1.43066e+09,-1.0719e+06,0.00829547,0.119017,0,0.119306,2445.18,-50250.6,0,50310.1,1.0719e+06
step02_gravity_refstate-mantle.xmf,858,5.9344e-07,-1.4842e-06,0,-1.05069e-05,-1.45482e+09,-1.4551e+09,-1.4549e+09,-1.40425e+06,0.00597661,0.129565,0,0.129703,2000,-51000.2,0,51039.4,1.40425e+06
step02_gravity_refstate-mantle.xmf,859,-3.9582e-07,-1.25006e-07,0,-8.54281e-06,-1.44695e+09,-1.44691e+09,-1.4469e+09,-1.14175e+06,0.00689773,0.119696,0,0.119895,2427.87,-50753.9,0,50811.9,1.14175e+06
step02_gravity_refstate-mantle.xmf,860,-1.29285e-05,3.08139e-05,0,-1.47064e-06,-1.68168e+09,-1.67583e+09,-1.67995e+09,-196552,-0.00649389,0.0591293,-0,0.0594848,499.831,-58000,0,58002.2,196552
step02_gravity_refstate-mantle.xmf,861,2.68856e-06,-2.46689e-06,0,-1.34296e-06,-1.25906e+09,-1.25975e+09,-1.25942e+09,-179487,0.00323345,0.112484,0,0.112531,1138.76,-44964.6,0,44979,179487
step02_gravity_refstate-mantle.xmf,862,2.53375e-06,-2.00439e-06,0,-1.02481e-06,-1.23423e+09,-1.23484e+09,-1.23457e+09,-136966,0.00273802,0.110985,0,0.111019,1042.03,-44197.7,0,44210,136966
step02_gravity_refstate-mantle.xmf,863,2.43229e-06,-1.62244e-06,0,-6.55624e-07,-1.20694e+09,-1.20748e+09,-1.20727e+09,-87624.1,0.00195459,0.109846,0,0.109863,791.023,-43355.1,0,43362.3,87624.1
step02_gravity_refstate-mantle.xmf,864,2.43364e-06,-2.49893e-06,0,-2.65118e-06,-1.29092e+09,-1.29158e+09,-1.29124e+09,-354330,0.00577057,0.11235,0,0.112498,1910.79,-45946.8,0,45986.5,354330
step02_gravity_refstate-mantle.xmf,865,2.35796e-06,-1.09417e-06,0,4.49692e-10,-1.15932e+09,-1.15978e+09,-1.15964e+09,60.1014,1.31462e-07,0.108321,0,0.108321,0,-41884.9,0,41884.9,60.1014
step02_gravity_refstate-mantle.xmf,866,2.39944e-06,-7.78181e-07,0,2.98123e-07,-1.12181e+09,-1.12224e+09,-1.12213e+09,39844.1,-0.00174264,0.107002,-0,0.107016,-720.088,-40727.4,-0,40733.8,39844.1
step02_gravity_refstate-mantle.xmf,867,1.63602e-06,-2.22755e-06,0,-4.67097e-06,-1.34524e+09,-1.34575e+09,-1.34545e+09,-624275,0.00845733,0.112615,0,0.112932,2521.54,-47620.1,0,47686.8,624275
step02_gravity_refstate-mantle.xmf,868,1.66752e-06,-1.89006e-06,0,-4.04739e-06,-1.32393e+09,-1.32441e+09,-1.32415e+09,-540934,0.00807254,0.110493,0,0.110788,2619.67,-46963,0,47036,540934
step02_gravity_refstate-mantle.xmf,869,3.79645e-07,-7.795e-07,0,-5.59352e-06,-1.37175e+09,-1.3719e+09,-1.3718e+09,-747575,0.00946822,0.109146,0,0.109556,3013.6,-48434.4,0,48528.1,747575
step02_gravity_refstate-mantle.xmf,870,2.97583e-08,-5.54686e-07,0,-6.09353e-06,-1.38815e+09,-1.38823e+09,-1.38816e+09,-814401,0.00949382,0.110045,0,0.110454,2968.73,-48939.3,0,49029.3,814401
step02_gravity_refstate-mantle.xmf,871,-4.20265e-07,-1.35307e-07,0,-6.57385e-06,-1.40538e+09,-1.40534e+09,-1.40532e+09,-878595,0.00924301,0.110691,0,0.111076,2937.47,-49469.5,0,49556.7,878595
step02_gravity_refstate-mantle.xmf,872,-8.66354e-07,4.47145e-07,0,-6.9729e-06,-1.42255e+09,-1.42238e+09,-1.42244e+09,-931928,0.00855429,0.111157,0,0.111486,2904.57,-49998.5,0,50082.8,931928
step02_gravity_refstate-mantle.xmf,873,9.82077e-08,2.13406e-07,0,-1.12462e-05,-1.47099e+09,-1.47097e+09,-1.471e+09,-1.50306e+06,0.00402264,0.129919,0,0.129981,2000,-51500.6,0,51539.4,1.50306e+06
step02_gravity_refstate-mantle.xmf,874,-5.63366e-07,9.21528e-07,0,-9.15079e-06,-1.46312e+09,-1.46292e+09,-1.46305e+09,-1.223e+06,0.00497081,0.119878,0,0.119981,2413.1,-51255,0,51311.8,1.223e+06
step02_gravity_refstate-mantle.xmf,875,-4.91078e-07,2.02446e-06,0,-1.18048e-05,-1.48716e+09,-1.48682e+09,-1.48709e+09,-1.57771e+06,0.00186994,0.129378,0,0.129391,2000,-52000.7,0,52039.1,1.57771e+06
step02_gravity_refstate-mantle.xmf,876,-1.15253e-06,3.89162e-06,0,-1.21963e-05,-1.50331e+09,-1.50264e+09,-1.50316e+09,-1.63004e+06,-0.000389216,0.127915,-0,0.127915,2000,-52500.1,0,52538.2,1.63004e+06
step02_gravity_refstate-mantle.xmf,877,-1.35186e-06,3.9035e-06,0,-1.0076e-05,-1.497e+09,-1.4963e+09,-1.49682e+09,-1.34666e+06,4.17265e-05,0.117345,0,0.117345,2417.95,-52303.7,0,52359.6,1.34666e+06
step02_gravity_refstate-mantle.xmf,878,-8.93758e-07,2.31003e-06,0,-9.67712e-06,-1.47985e+09,-1.47942e+09,-1.47973e+09,-1.29335e+06,0.00263923,0.119063,0,0.119093,2413.91,-51772.9,0,51829.1,1.29335e+06
step02_gravity_refstate-mantle.xmf,879,-1.86799e-06,5.79193e-06,0,-1.24323e-05,-1.51947e+09,-1.51845e+09,-1.51922e+09,-1.66158e+06,-0.00270791,0.12551,-0,0.125539,2000,-52999.3,0,53037,1.66158e+06
step02_gravity_refstate-mantle.xmf,880,-1.84762e-06,5.47663e-06,0,-1.03364e-05,-1.51316e+09,-1.51218e+09,-1.51291e+09,-1.38145e+06,-0.00250744,0.115081,-0,0.115109,2415.63,-52803.6,0,52858.8,1.38145e+06
step02_gravity_refstate-mantle.xmf,881,-2.62023e-06,7.7206e-06,0,-1.25129e-05,-1.53565e+09,-1.53427e+09,-1.5353e+09,-1.67235e+06,-0.00506639,0.122142,-0,0.122247,2000,-53498.9,0,53536.3,1.67235e+06
step02_gravity_refstate-mantle.xmf,882,-2.38308e-06,7.03648e-06,0,-1.04452e-05,-1.52865e+09,-1.52739e+09,-1.52833e+09,-1.396e+06,-0.00501497,0.112082,-0,0.112194,2416.18,-53282.7,0,53337.4,1.396e+06
step02_gravity_refstate-mantle.xmf,883,-3.39199e-06,9.67853e-06,0,-1.24441e-05,-1.55185e+09,-1.5501e+09,-1.5514e+09,-1.66315e+06,-0.00745378,0.117795,-0,0.118031,2000,-53999.2,0,54036.2,1.66315e+06
step02_gravity_refstate-mantle.xmf,884,-2.92579e-06,8.61051e-06,0,-1.04068e-05,-1.54374e+09,-1.5422e+09,-1.54335e+09,-1.39087e+06,-0.00750269,0.108342,-0,0.108602,2419.94,-53749.1,0,53803.5,1.39087e+06
step02_gravity_refstate-mantle.xmf,885,-4.18781e-06,1.16443e-05,0,-1.2239e-05,-1.56805e+09,-1.56594e+09,-1.56749e+09,-1.63574e+06,-0.00986111,0.112463,-0,0.112894,2000,-54499.5,0,54536.2,1.63574e+06
step02_gravity_refstate-mantle.xmf,886,-3.52926e-06,1.02976e-05,0,-1.0369e-05,-1.55977e+09,-1.55792e+09,-1.5593e+09,-1.38582e+06,-0.0100667,0.104371,-0,0.104856,2392.98,-54244.5,0,54297.3,1.38582e+06
step02_gravity_refstate-mantle.xmf,887,-1.22381e-05,2.95945e-05,0,-2.93698e-06,-1.68163e+09,-1.67604e+09,-1.68e+09,-392527,-0.0127654,0.0566795,-0,0.0580992,999.317,-58000,0,58008.6,392527
step02_gravity_refstate-mantle.xmf,888,-1.27513e-05,2.96378e-05,0,-1.91961e-06,-1.69574e+09,-1.69008e+09,-1.69404e+09,-256556,-0.00979703,0.0451634,-0,0.0462138,749.574,-58432.6,0,58437.4,256556
step02_gravity_refstate-mantle.xmf,889,-1.29578e-05,2.93766e-05,0,-9.92565e-07,-1.71314e+09,-1.70748e+09,-1.7114e+09,-132656,-0.00745974,0.0299059,-0,0.0308222,567.307,-58967.8,0,58970.5,132656
step02_gravity_refstate-mantle.xmf,890,-1.31595e-05,2.9334e-05,0,-2.83175e-07,-1.73009e+09,-1.72441e+09,-1.72833e+09,-37846.4,-0.00395829,0.0148953,-0,0.0154123,300.574,-59490.1,0,59490.8,37846.4
step02_gravity_refstate-mantle.xmf,891,-1.32416e-05,2.9372e-05,0,1.91272e-08,-1.74661e+09,-1.74092e+09,-1.74484e+09,2556.35,1.20593e-07,-2.04493e-19,0,1.20593e-07,-5.11427e-08,-60000,-0,60000,2556.35
step02_gravity_refstate-mantle.xmf,892,2.37227e-06,-2.15239e-06,0,-2.14545e-06,-1.26808e+09,-1.26869e+09,-1.2684e+09,-286740,0.00510467,0.111082,0,0.1112,1821.43,-45241.9,0,45278.6,286740
step02_gravity_refstate-mantle.xmf,893,2.31623e-06,-1.16856e-06,0,-5.40667e-07,-1.17568e+09,-1.17615e+09,-1.17599e+09,-72260.1,0.0019283,0.108488,0,0.108506,818.184,-42389.9,0,42397.8,72260.1
step02_gravity_refstate-mantle.xmf,894,2.4015e-06,-8.3192e-07,0,-2.80191e-09,-1.12953e+09,-1.12997e+09,-1.12986e+09,-374.475,3.74966e-09,0.107453,0,0.107453,0,-40965.8,0,40965.8,374.475
step02_gravity_refstate-mantle.xmf,895,2.59195e-06,-7.3976e-07,0,1.45768e-08,-1.09822e+09,-1.09867e+09,-1.09857e+09,1948.19,-5.93186e-08,0.106708,-0,0.106708,0,-40000,0,40000,1948.19
step02_gravity_refstate-mantle.xmf,896,1.81376e-06,-1.77128e-06,0,-3.43672e-06,-1.30153e+09,-1.30201e+09,-1.30177e+09,-459318,0.00743463,0.109521,0,0.109773,2574.39,-46272.4,0,46343.9,459318
step02_gravity_refstate-mantle.xmf,897,8.05824e-07,-1.14712e-06,0,-5.11171e-06,-1.35544e+09,-1.3557e+09,-1.35555e+09,-683180,0.00922376,0.109151,0,0.10954,2963.29,-47932.6,0,48024.1,683180
step02_gravity_refstate-mantle.xmf,898,-1.1339e-06,1.06513e-06,0,-7.28768e-06,-1.43936e+09,-1.43906e+09,-1.43921e+09,-973998,0.00732602,0.111512,0,0.111753,2863.06,-50517.4,0,50598.5,973998
step02_gravity_refstate-mantle.xmf,899,-1.21461e-06,1.74631e-06,0,-7.66094e-06,-1.45547e+09,-1.45507e+09,-1.4553e+09,-1.02388e+06,0.00559282,0.111524,0,0.111664,2827.03,-51016.2,0,51094.5,1.02388e+06
step02_gravity_refstate-mantle.xmf,900,-4.11032e-06,1.1963e-05,0,-1.00066e-05,-1.5757e+09,-1.57355e+09,-1.57515e+09,-1.33738e+06,-0.012765,0.0985201,-0,0.0993437,2407.28,-54737,0,54789.9,1.33738e+06
step02_gravity_refstate-mantle.xmf,901,-4.93687e-06,1.36298e-05,0,-1.18461e-05,-1.58423e+09,-1.58175e+09,-1.58357e+09,-1.58323e+06,-0.0122784,0.106146,-0,0.106854,2000,-54999.2,0,55035.5,1.58323e+06
step02_gravity_refstate-mantle.xmf,902,-1.17707e-05,2.80569e-05,0,-3.07675e-06,-1.69473e+09,-1.6894e+09,-1.69315e+09,-411208,-0.0154528,0.0437019,-0,0.0463535,1211.62,-58403.7,0,58416.2,411208
step02_gravity_refstate-mantle.xmf,903,2.31276e-06,-1.81364e-06,0,-1.74299e-06,-1.24386e+09,-1.24442e+09,-1.24417e+09,-232950,0.00454673,0.109868,0,0.109962,1743.69,-44494.3,0,44528.5,232950
step02_gravity_refstate-mantle.xmf,904,2.24054e-06,-1.47746e-06,0,-1.3955e-06,-1.21789e+09,-1.21839e+09,-1.21819e+09,-186509,0.00406662,0.108792,0,0.108868,1660.73,-43692.3,0,43723.9,186509
step02_gravity_refstate-mantle.xmf,905,1.90273e-06,-1.61831e-06,0,-2.8882e-06,-1.27837e+09,-1.27884e+09,-1.27863e+09,-386008,0.00678857,0.108664,0,0.108876,2509.33,-45558,0,45627.1,386008
step02_gravity_refstate-mantle.xmf,906,2.18987e-06,-1.17421e-06,0,-1.105e-06,-1.19057e+09,-1.19102e+09,-1.19086e+09,-147683,0.0036939,0.107877,0,0.10794,1577.69,-42848.8,0,42877.8,147683
step02_gravity_refstate-mantle.xmf,907,2.31605e-06,-9.18332e-07,0,-4.1537e-07,-1.14617e+09,-1.14661e+09,-1.14648e+09,-55514.2,0.0018701,0.107567,0,0.107583,796.899,-41479,0,41486.6,55514.2
step02_gravity_refstate-mantle.xmf,908,1.06444e-06,-8.36572e-07,0,-3.9808e-06,-1.3127e+09,-1.31296e+09,-1.31285e+09,-532034,0.00861267,0.105719,0,0.106069,3212,-46614.9,0,46725.5,532034
step02_gravity_refstate-mantle.xmf,909,7.49559e-07,-7.12454e-07,0,-4.59492e-06,-1.33733e+09,-1.33753e+09,-1.33743e+09,-614111,0.00910394,0.106289,0,0.106678,3219.13,-47373.9,0,47483.2,614111
step02_gravity_refstate-mantle.xmf,910,7.37636e-08,1.46175e-08,0,-5.01448e-06,-1.35626e+09,-1.35627e+09,-1.35627e+09,-670186,0.00946091,0.104122,0,0.104551,3480.87,-47956,0,48082.2,670186
step02_gravity_refstate-mantle.xmf,911,-4.46002e-07,4.55528e-07,0,-5.45025e-06,-1.37615e+09,-1.37602e+09,-1.37609e+09,-728426,0.00945637,0.103666,0,0.104096,3512.77,-48567.8,0,48694.7,728426
step02_gravity_refstate-mantle.xmf,912,-8.65818e-07,9.02747e-07,0,-5.83844e-06,-1.39577e+09,-1.39553e+09,-1.39565e+09,-780307,0.00918031,0.104198,0,0.104602,3435.12,-49172.3,0,49292.1,780307
step02_gravity_refstate-mantle.xmf,913,-1.23956e-06,1.34997e-06,0,-6.13663e-06,-1.41335e+09,-1.413e+09,-1.41318e+09,-820161,0.00857155,0.104542,0,0.104893,3365.93,-49714.1,0,49827.9,820161
step02_gravity_refstate-mantle.xmf,914,-1.65319e-06,2.10437e-06,0,-6.25816e-06,-1.43239e+09,-1.43188e+09,-1.43217e+09,-836403,0.00725087,0.10349,0,0.103744,3370.96,-50301.3,0,50414.1,836403
step02_gravity_refstate-mantle.xmf,915,-1.37828e-06,2.78129e-06,0,-7.97698e-06,-1.47232e+09,-1.47176e+09,-1.47213e+09,-1.06612e+06,0.00327927,0.110217,0,0.110265,2835.18,-51538.3,0,51616.3,1.06612e+06
step02_gravity_refstate-mantle.xmf,916,-1.97945e-06,5.48296e-06,0,-8.53766e-06,-1.5085e+09,-1.5075e+09,-1.50824e+09,-1.14106e+06,-0.00254041,0.105592,-0,0.105622,2839.86,-52658.9,0,52735.4,1.14106e+06
step02_gravity_refstate-mantle.xmf,917,-1.62359e-06,4.02867e-06,0,-8.29154e-06,-1.48999e+09,-1.48923e+09,-1.48977e+09,-1.10816e+06,0.000538169,0.108288,0,0.10829,2839.83,-52085.6,0,52163,1.10816e+06
step02_gravity_refstate-mantle.xmf,918,-2.27061e-06,6.58468e-06,0,-8.88243e-06,-1.52233e+09,-1.52115e+09,-1.52203e+09,-1.18714e+06,-0.00477914,0.104546,-0,0.104655,2773.69,-53087,0,53159.4,1.18714e+06
step02_gravity_refstate-mantle.xmf,919,-2.65901e-06,7.94661e-06,0,-8.47392e-06,-1.53722e+09,-1.5358e+09,-1.53686e+09,-1.13254e+06,-0.00765117,0.0988296,-0,0.0991254,2876.9,-53547.8,0,53625,1.13254e+06
step02_gravity_refstate-mantle.xmf,920,-3.0943e-06,9.31107e-06,0,-8.94468e-06,-1.55243e+09,-1.55077e+09,-1.55202e+09,-1.19546e+06,-0.00993786,0.0981379,-0,0.0986398,2732.65,-54018.3,0,54087.4,1.19546e+06
step02_gravity_refstate-mantle.xmf,921,-3.45416e-06,1.05524e-05,0,-8.51392e-06,-1.56681e+09,-1.56494e+09,-1.56635e+09,-1.13789e+06,-0.0126603,0.0924967,-0,0.0933591,2785.06,-54463.3,0,54534.4,1.13789e+06
step02_gravity_refstate-mantle.xmf,922,-4.62713e-06,1.3497e-05,0,-9.79659e-06,-1.58898e+09,-1.58656e+09,-1.58836e+09,-1.30931e+06,-0.0147916,0.0942748,-0,0.0954282,2368.67,-55147.7,0,55198.6,1.30931e+06
step02_gravity_refstate-mantle.xmf,923,-5.65414e-06,1.57225e-05,0,-1.12322e-05,-1.60037e+09,-1.59751e+09,-1.59961e+09,-1.50119e+06,-0.0146892,0.0988374,-0,0.0999229,2000,-55498.3,0,55534.3,1.50119e+06
step02_gravity_refstate-mantle.xmf,924,-1.10584e-05,2.70126e-05,0,-4.80886e-06,-1.68159e+09,-1.6765e+09,-1.68011e+09,-642704,-0.0185946,0.0526325,-0,0.0558206,1499.28,-58000,0,58019.4,642704
step02_gravity_refstate-mantle.xmf,925,-1.17501e-05,2.75627e-05,0,-2.08419e-06,-1.71122e+09,-1.70597e+09,-1.70965e+09,-278552,-0.0150332,0.0297263,-0,0.0333115,1178.65,-58912,0,58923.8,278552
step02_gravity_refstate-mantle.xmf,926,-1.23607e-05,2.81987e-05,0,-7.79293e-07,-1.72986e+09,-1.72444e+09,-1.72821e+09,-104153,-0.0114995,0.0144622,-0,0.0184768,891.234,-59485.5,0,59492.2,104153
step02_gravity_refstate-mantle.xmf,927,-1.28277e-05,2.87974e-05,0,1.44259e-08,-1.74657e+09,-1.74101e+09,-1.74486e+09,1928.02,-0.00778212,-1.85276e-19,-0,0.00778212,596.939,-60000,0,60003,1928.02
step02_gravity_refstate-mantle.xmf,928,1.92637e-06,-1.41929e-06,0,-2.4122e-06,-1.25466e+09,-1.2551e+09,-1.25491e+09,-322390,0.00621147,0.107847,0,0.108026,2445.75,-44826.1,0,44892.8,322390
step02_gravity_refstate-mantle.xmf,929,2.1742e-06,-8.74166e-07,0,-8.79407e-07,-1.16054e+09,-1.16095e+09,-1.16083e+09,-117533,0.00355327,0.106995,0,0.107054,1547.91,-41921.8,0,41950.4,117533
step02_gravity_refstate-mantle.xmf,930,2.39486e-06,-7.58646e-07,0,-3.03534e-07,-1.12181e+09,-1.12223e+09,-1.12213e+09,-40567.3,0.00174265,0.107002,0,0.107016,720.088,-40727.4,0,40733.8,40567.3
step02_gravity_refstate-mantle.xmf,931,1.29065e-06,-8.84828e-07,0,-3.44734e-06,-1.28937e+09,-1.28966e+09,-1.28954e+09,-460737,0.00807824,0.105366,0,0.105675,3169.2,-45895.5,0,46004.8,460737
step02_gravity_refstate-mantle.xmf,932,-1.63833e-06,2.33417e-06,0,-6.68285e-06,-1.44834e+09,-1.44781e+09,-1.44813e+09,-893163,0.00591045,0.105134,0,0.1053,3202.85,-50794.9,0,50895.8,893163
step02_gravity_refstate-mantle.xmf,933,-1.80549e-06,3.22403e-06,0,-6.71588e-06,-1.46386e+09,-1.46319e+09,-1.46362e+09,-897578,0.00384165,0.102974,0,0.103046,3250.61,-51275.4,0,51378.3,897578
step02_gravity_refstate-mantle.xmf,934,-3.90633e-06,1.20997e-05,0,-8.16192e-06,-1.58384e+09,-1.5817e+09,-1.58332e+09,-1.09084e+06,-0.0156605,0.0866755,-0,0.088079,2778.16,-54990.2,0,55060.3,1.09084e+06
step02_gravity_refstate-mantle.xmf,935,-6.35931e-06,1.76343e-05,0,-1.0572e-05,-1.61653e+09,-1.61332e+09,-1.61568e+09,-1.41295e+06,-0.0170684,0.0905355,-0,0.0921304,2000,-55997.8,0,56033.5,1.41295e+06
step02_gravity_refstate-mantle.xmf,936,-5.32727e-06,1.58143e-05,0,-8.95263e-06,-1.61206e+09,-1.60924e+09,-1.61135e+09,-1.19652e+06,-0.018482,0.0840912,-0,0.0860983,2356.56,-55861.9,0,55911.6,1.19652e+06
step02_gravity_refstate-mantle.xmf,937,-4.49875e-06,1.39463e-05,0,-8.07213e-06,-1.60077e+09,-1.59831e+09,-1.60017e+09,-1.07884e+06,-0.0180992,0.0825109,-0,0.0844726,2657.93,-55513.9,0,55577.5,1.07884e+06
step02_gravity_refstate-mantle.xmf,938,-5.63133e-06,1.71002e-05,0,-8.17927e-06,-1.62509e+09,-1.62205e+09,-1.62434e+09,-1.09316e+06,-0.0206471,0.0769121,-0,0.0796353,2380.04,-56265.7,0,56316,1.09316e+06
step02_gravity_refstate-mantle.xmf,939,-6.95898e-06,1.96167e-05,0,-9.63704e-06,-1.63269e+09,-1.62913e+09,-1.63176e+09,-1.28799e+06,-0.0193594,0.081224,-0,0.0834993,2000,-56497.8,0,56533.2,1.28799e+06
step02_gravity_refstate-mantle.xmf,940,-1.05516e-05,2.60632e-05,0,-3.29992e-06,-1.70037e+09,-1.69547e+09,-1.69896e+09,-441034,-0.0192742,0.036727,-0,0.0414773,1553.58,-58581,0,58601.6,441034
step02_gravity_refstate-mantle.xmf,941,1.94644e-06,-1.20152e-06,0,-2.01214e-06,-1.22948e+09,-1.2299e+09,-1.22974e+09,-268922,0.00570934,0.107083,0,0.107235,2381.79,-44049,0,44113.4,268922
step02_gravity_refstate-mantle.xmf,942,1.94214e-06,-9.73807e-07,0,-1.67203e-06,-1.20331e+09,-1.2037e+09,-1.20357e+09,-223467,0.00535399,0.106356,0,0.106491,2338.72,-43241.3,0,43304.5,223467
step02_gravity_refstate-mantle.xmf,943,1.44175e-06,-8.53756e-07,0,-2.9691e-06,-1.26571e+09,-1.26601e+09,-1.2659e+09,-396820,0.00755675,0.10499,0,0.105262,3122.21,-45165.7,0,45273.5,396820
step02_gravity_refstate-mantle.xmf,944,1.95666e-06,-7.70992e-07,0,-1.37466e-06,-1.17607e+09,-1.17643e+09,-1.17633e+09,-183724,0.00512781,0.105751,0,0.105876,2297.05,-42400.4,0,42462.6,183724
step02_gravity_refstate-mantle.xmf,945,2.27007e-06,-6.70157e-07,0,-6.56384e-07,-1.12693e+09,-1.12732e+09,-1.12723e+09,-87725.7,0.00354899,0.106263,0,0.106323,1504.34,-40884.7,0,40912.4,87725.7
step02_gravity_refstate-mantle.xmf,946,2.52407e-06,-6.81134e-07,0,-2.99155e-07,-1.09823e+09,-1.09866e+09,-1.09857e+09,-39982.1,0.0025051,0.106278,0,0.106308,979.295,-40000,0,40012,39982.1
step02_gravity_refstate-mantle.xmf,947,6.17971e-07,-3.29268e-08,0,-3.78309e-06,-1.30044e+09,-1.30053e+09,-1.30052e+09,-505610,0.00888794,0.101284,0,0.101673,3807.36,-46235.1,0,46391.6,505610
step02_gravity_refstate-mantle.xmf,948,2.92244e-07,1.9098e-07,0,-4.22283e-06,-1.32316e+09,-1.32317e+09,-1.3232e+09,-564381,0.00920697,0.101058,0,0.101477,3833.56,-46935.3,0,47091.6,564381
step02_gravity_refstate-mantle.xmf,949,-6.21786e-07,1.04547e-06,0,-4.95623e-06,-1.36558e+09,-1.36536e+09,-1.3655e+09,-662400,0.00933235,0.0995941,0,0.10003,3918.36,-48241.9,0,48400.8,662400
step02_gravity_refstate-mantle.xmf,950,-1.29515e-07,5.55685e-07,0,-4.61598e-06,-1.34457e+09,-1.34448e+09,-1.34455e+09,-616926,0.00938723,0.100436,0,0.100874,3881,-47594.9,0,47752.8,616926
step02_gravity_refstate-mantle.xmf,951,-1.13049e-06,1.53368e-06,0,-5.24755e-06,-1.38584e+09,-1.38549e+09,-1.38569e+09,-701335,0.00897348,0.0987931,0,0.0991998,3919.82,-48865.6,0,49022.6,701335
step02_gravity_refstate-mantle.xmf,952,-1.7512e-06,2.38867e-06,0,-5.64045e-06,-1.42078e+09,-1.42023e+09,-1.42055e+09,-753846,0.00753511,0.0988504,0,0.0991372,3747,-49942.8,0,50083.2,753846
step02_gravity_refstate-mantle.xmf,953,-1.5999e-06,2.2413e-06,0,-5.35007e-06,-1.40608e+09,-1.40557e+09,-1.40587e+09,-715037,0.00816696,0.0976228,0,0.0979638,3920.85,-49489.4,0,49644.5,715037
step02_gravity_refstate-mantle.xmf,954,-2.09256e-06,3.42198e-06,0,-5.73215e-06,-1.45066e+09,-1.44992e+09,-1.45038e+09,-766102,0.00470839,0.0968857,0,0.097,3697.82,-50866.2,0,51000.4,766102
step02_gravity_refstate-mantle.xmf,955,-1.92166e-06,4.19907e-06,0,-6.84639e-06,-1.48158e+09,-1.48076e+09,-1.48133e+09,-915020,0.00114133,0.100647,0,0.100654,3268.09,-51824.5,0,51927.4,915020
step02_gravity_refstate-mantle.xmf,956,-2.35275e-06,6.69547e-06,0,-7.21093e-06,-1.52121e+09,-1.52e+09,-1.5209e+09,-963741,-0.00561912,0.0949212,-0,0.0950874,3224.78,-53052.1,0,53150,963741
step02_gravity_refstate-mantle.xmf,957,-2.08739e-06,5.34318e-06,0,-7.02135e-06,-1.50065e+09,-1.49966e+09,-1.50037e+09,-938403,-0.00204189,0.0979406,-0,0.0979619,3264.03,-52415.3,0,52516.9,938403
step02_gravity_refstate-mantle.xmf,958,-2.90944e-06,9.18351e-06,0,-7.14256e-06,-1.55462e+09,-1.55301e+09,-1.55423e+09,-954603,-0.0117128,0.0874879,-0,0.0882684,3188.37,-54086.8,0,54180.7,954603
step02_gravity_refstate-mantle.xmf,959,-3.22996e-06,1.06221e-05,0,-6.76222e-06,-1.5745e+09,-1.57264e+09,-1.57406e+09,-903771,-0.0154843,0.0810338,-0,0.0824999,3206.44,-54702.3,0,54796.2,903771
step02_gravity_refstate-mantle.xmf,960,-4.6054e-06,1.50162e-05,0,-7.07037e-06,-1.61754e+09,-1.61492e+09,-1.61692e+09,-944954,-0.0213154,0.0731817,-0,0.0762228,2744.86,-56033.9,0,56101.1,944954
step02_gravity_refstate-mantle.xmf,961,-5.69395e-06,1.82382e-05,0,-6.99167e-06,-1.64063e+09,-1.63743e+09,-1.63987e+09,-934437,-0.0232321,0.0673198,-0,0.0712158,2433.18,-56748,0,56800.2,934437
step02_gravity_refstate-mantle.xmf,962,-7.4279e-06,2.14401e-05,0,-8.43637e-06,-1.64884e+09,-1.64498e+09,-1.64784e+09,-1.12752e+06,-0.0214432,0.0709173,-0,0.0740883,2000,-56998.3,0,57033.3,1.12752e+06
step02_gravity_refstate-mantle.xmf,963,-7.68225e-06,2.34862e-05,0,-6.77702e-06,-1.6649e+09,-1.66074e+09,-1.66388e+09,-905749,-0.0230919,0.0596545,-0,0.063968,2000,-57498.2,0,57532.9,905749
step02_gravity_refstate-mantle.xmf,964,-5.62417e-06,1.88534e-05,0,-6.0012e-06,-1.65641e+09,-1.65314e+09,-1.65566e+09,-802061,-0.0254784,0.0573945,-0,0.0627956,2479.54,-57237.6,0,57291.3,802061
step02_gravity_refstate-mantle.xmf,965,-8.80924e-06,2.35642e-05,0,-3.71804e-06,-1.69751e+09,-1.69318e+09,-1.69633e+09,-496916,-0.0237616,0.0355677,-0,0.0427747,2016.77,-58498,0,58532.7,496916
step02_gravity_refstate-mantle.xmf,966,-9.89157e-06,2.48701e-05,0,-2.35854e-06,-1.71409e+09,-1.70944e+09,-1.71277e+09,-315219,-0.0214089,0.024708,-0,0.0326929,1768.79,-59006.2,0,59032.7,315219
step02_gravity_refstate-mantle.xmf,967,-1.08702e-05,2.61021e-05,0,-1.10557e-06,-1.72988e+09,-1.72494e+09,-1.72843e+09,-147759,-0.0183783,0.0132812,-0,0.0226749,1483.41,-59490.6,0,59509.1,147759
step02_gravity_refstate-mantle.xmf,968,-1.16604e-05,2.71833e-05,0,1.84508e-09,-1.74645e+09,-1.74126e+09,-1.74489e+09,246.595,-0.0150935,-1.58078e-19,-0,0.0150935,1193.88,-60000,0,60011.9,246.595
step02_gravity_refstate-mantle.xmf,969,1.53024e-06,-7.66753e-07,0,-2.53352e-06,-1.24101e+09,-1.24132e+09,-1.24121e+09,-338605,0.00709527,0.104562,0,0.104802,3083.29,-44403.6,0,44510.5,338605
step02_gravity_refstate-mantle.xmf,970,2.00282e-06,-5.79806e-07,0,-1.12331e-06,-1.14781e+09,-1.14815e+09,-1.14808e+09,-150131,0.00513281,0.105175,0,0.1053,2293.3,-41528.2,0,41591.5,150131
step02_gravity_refstate-mantle.xmf,971,8.70084e-07,-1.60252e-07,0,-3.34866e-06,-1.27691e+09,-1.27705e+09,-1.27702e+09,-447549,0.00850731,0.101386,0,0.101743,3778.18,-45509.6,0,45666.2,447549
step02_gravity_refstate-mantle.xmf,972,-1.26746e-06,2.10415e-06,0,-4.65676e-06,-1.37553e+09,-1.37508e+09,-1.37537e+09,-622376,0.00866541,0.0939318,0,0.0943307,4424.61,-48547.7,0,48748.9,622376
step02_gravity_refstate-mantle.xmf,973,-2.0354e-06,3.07347e-06,0,-5.48076e-06,-1.43347e+09,-1.43279e+09,-1.4332e+09,-732503,0.00626676,0.0963192,0,0.0965229,3852.93,-50334.8,0,50482,732503
step02_gravity_refstate-mantle.xmf,974,-2.19648e-06,4.40718e-06,0,-5.67622e-06,-1.47204e+09,-1.47116e+09,-1.47175e+09,-758627,0.00168742,0.0938095,0,0.0938246,3729.61,-51528.5,0,51663.3,758627
step02_gravity_refstate-mantle.xmf,975,-2.6005e-06,7.90907e-06,0,-6.77749e-06,-1.53824e+09,-1.53683e+09,-1.53789e+09,-905811,-0.00908497,0.0885418,-0,0.0890066,3351.38,-53579.6,0,53684.3,905811
step02_gravity_refstate-mantle.xmf,976,-3.51302e-06,1.19716e-05,0,-6.39759e-06,-1.59256e+09,-1.5905e+09,-1.5921e+09,-855037,-0.0187417,0.0751602,-0,0.0774616,3182.81,-55262,0,55353.6,855037
step02_gravity_refstate-mantle.xmf,977,-4.79067e-06,1.61357e-05,0,-6.463e-06,-1.63137e+09,-1.62857e+09,-1.63073e+09,-863780,-0.0234801,0.0666338,-0,0.0706497,2737.83,-56462.7,0,56529.1,863780
step02_gravity_refstate-mantle.xmf,978,-5.99318e-06,2.00621e-05,0,-5.37463e-06,-1.6728e+09,-1.66931e+09,-1.67199e+09,-718319,-0.0266539,0.0479436,-0,0.0548545,2446.27,-57744.4,0,57796.2,718319
step02_gravity_refstate-mantle.xmf,979,-8.4664e-06,2.36157e-05,0,-5.12845e-06,-1.68131e+09,-1.67702e+09,-1.68018e+09,-685417,-0.0236414,0.0474439,-0,0.0530079,2000,-58000,0,58034.5,685417
step02_gravity_refstate-mantle.xmf,980,1.60293e-06,-6.42157e-07,0,-2.16662e-06,-1.21562e+09,-1.21592e+09,-1.21583e+09,-289569,0.00673747,0.104137,0,0.104355,3053.64,-43620,0,43726.7,289569
step02_gravity_refstate-mantle.xmf,981,1.6647e-06,-5.16856e-07,0,-1.82327e-06,-1.18877e+09,-1.18906e+09,-1.18899e+09,-243680,0.0064907,0.103778,0,0.10398,3022.03,-42791.4,0,42897.9,243680
step02_gravity_refstate-mantle.xmf,982,1.05643e-06,-2.08415e-07,0,-2.93865e-06,-1.25264e+09,-1.2528e+09,-1.25278e+09,-392750,0.00813349,0.101374,0,0.1017,3754.24,-44761,0,44918.1,392750
step02_gravity_refstate-mantle.xmf,983,1.73683e-06,-4.1101e-07,0,-1.52118e-06,-1.16243e+09,-1.16271e+09,-1.16266e+09,-203306,0.00639458,0.103517,0,0.103714,2987.64,-41978.5,0,42084.7,203306
step02_gravity_refstate-mantle.xmf,984,2.33804e-06,-5.32283e-07,0,-5.90981e-07,-1.09826e+09,-1.09864e+09,-1.09857e+09,-78984.6,0.00488496,0.10502,0,0.105133,1958.59,-40000,0,40047.9,78984.6
step02_gravity_refstate-mantle.xmf,985,2.05885e-06,-4.31886e-07,0,-9.4715e-07,-1.12114e+09,-1.12147e+09,-1.12141e+09,-126587,0.00567309,0.104366,0,0.10452,2462.64,-40705.1,0,40779.6,126587
step02_gravity_refstate-mantle.xmf,986,2.7785e-07,5.96797e-07,0,-3.54274e-06,-1.28828e+09,-1.28824e+09,-1.28832e+09,-473487,0.00901297,0.0971707,0,0.0975878,4415.72,-45858.9,0,46071,473487
step02_gravity_refstate-mantle.xmf,987,-3.62618e-08,8.44669e-07,0,-3.888e-06,-1.31126e+09,-1.31115e+09,-1.31126e+09,-519631,0.00917896,0.0966207,0,0.0970557,4424.5,-46567.4,0,46777.1,519631
step02_gravity_refstate-mantle.xmf,988,-4.14873e-07,1.19285e-06,0,-4.20097e-06,-1.3333e+09,-1.33308e+09,-1.33324e+09,-561460,0.00922215,0.0958502,0,0.0962928,4438.07,-47246.4,0,47454.4,561460
step02_gravity_refstate-mantle.xmf,989,-8.1757e-07,1.5864e-06,0,-4.47711e-06,-1.35492e+09,-1.3546e+09,-1.35481e+09,-598366,0.00908967,0.0951494,0,0.0955826,4416.49,-47912.6,0,48115.8,598366
step02_gravity_refstate-mantle.xmf,990,-1.70839e-06,2.62185e-06,0,-4.76894e-06,-1.39561e+09,-1.39503e+09,-1.39538e+09,-637368,0.00789545,0.0925666,0,0.0929027,4417.19,-49166.2,0,49364.2,637368
step02_gravity_refstate-mantle.xmf,991,-2.0647e-06,3.19825e-06,0,-5.02794e-06,-1.42333e+09,-1.42263e+09,-1.42306e+09,-671984,0.0065157,0.092966,0,0.0931941,4176.21,-50021.6,0,50195.6,671984
step02_gravity_refstate-mantle.xmf,992,-2.30718e-06,3.94867e-06,0,-4.845e-06,-1.44253e+09,-1.4417e+09,-1.44222e+09,-647534,0.00448021,0.0900542,0,0.0901656,4238.21,-50615,0,50792.2,647534
step02_gravity_refstate-mantle.xmf,993,-2.24301e-06,5.29935e-06,0,-5.73113e-06,-1.49181e+09,-1.4908e+09,-1.49151e+09,-765966,-0.00149906,0.0910124,-0,0.0910247,3721.28,-52141,0,52273.6,765966
step02_gravity_refstate-mantle.xmf,994,-2.32954e-06,6.29348e-06,0,-5.7333e-06,-1.51119e+09,-1.51004e+09,-1.51088e+09,-766255,-0.00494679,0.0875095,-0,0.0876492,3724.03,-52741.8,0,52873.1,766255
step02_gravity_refstate-mantle.xmf,995,-2.44708e-06,7.33913e-06,0,-5.62748e-06,-1.53003e+09,-1.52872e+09,-1.5297e+09,-752113,-0.0085133,0.0832254,-0,0.0836597,3742.55,-53325.5,0,53456.6,752113
step02_gravity_refstate-mantle.xmf,996,-2.57485e-06,8.38909e-06,0,-5.53659e-06,-1.5481e+09,-1.54664e+09,-1.54776e+09,-739966,-0.0119396,0.0791542,-0,0.0800496,3724.28,-53885.7,0,54014.2,739966
step02_gravity_refstate-mantle.xmf,997,-2.73839e-06,9.45579e-06,0,-5.49736e-06,-1.56533e+09,-1.5637e+09,-1.56496e+09,-734723,-0.0150873,0.0755737,-0,0.077065,3656.85,-54419.3,0,54542,734723
step02_gravity_refstate-mantle.xmf,998,-2.86544e-06,1.05209e-05,0,-5.19262e-06,-1.58387e+09,-1.58208e+09,-1.58349e+09,-693993,-0.0186026,0.0700089,-0,0.0724383,3646.36,-54994,0,55114.7,693993
step02_gravity_refstate-mantle.xmf,999,-3.70822e-06,1.32124e-05,0,-5.90294e-06,-1.61015e+09,-1.60789e+09,-1.60966e+09,-788928,-0.0218128,0.0686275,-0,0.0720106,3164.44,-55807.2,0,55896.8,788928
step02_gravity_refstate-mantle.xmf,1000,-3.80324e-06,1.42682e-05,0,-5.3537e-06,-1.62779e+09,-1.62537e+09,-1.62728e+09,-715521,-0.0246955,0.0613648,-0,0.0661477,3148.53,-56354,0,56441.8,715521
step02_gravity_refstate-mantle.xmf,1001,-4.18687e-06,1.58346e-05,0,-5.12678e-06,-1.64584e+09,-1.64316e+09,-1.64528e+09,-685194,-0.0266516,0.0555152,-0,0.0615812,2977.92,-56913,0,56990.9,685194
step02_gravity_refstate-mantle.xmf,1002,-4.44095e-06,1.69786e-05,0,-4.65252e-06,-1.6646e+09,-1.66174e+09,-1.66401e+09,-621810,-0.02854,0.0466376,-0,0.0546772,2925.88,-57493.7,0,57568.1,621810
step02_gravity_refstate-mantle.xmf,1003,-6.82656e-06,2.08919e-05,0,-4.39789e-06,-1.68875e+09,-1.68504e+09,-1.68783e+09,-587777,-0.0272461,0.0377178,-0,0.0465294,2465.73,-58233.7,0,58285.9,587777
step02_gravity_refstate-mantle.xmf,1004,-5.00561e-06,1.80126e-05,0,-4.12372e-06,-1.68112e+09,-1.67805e+09,-1.68045e+09,-551135,-0.0295353,0.0380273,-0,0.0481499,2897.52,-58003,0,58075.3,551135
step02_gravity_refstate-mantle.xmf,1005,-8.04215e-06,2.21892e-05,0,-2.36955e-06,-1.71467e+09,-1.71063e+09,-1.7136e+09,-316690,-0.0261799,0.0216597,-0,0.0339784,2300.75,-59029.7,0,59074.5,316690
step02_gravity_refstate-mantle.xmf,1006,-9.01947e-06,2.34893e-05,0,-1.1886e-06,-1.73027e+09,-1.72592e+09,-1.72906e+09,-158856,-0.0241149,0.0115617,-0,0.0267433,2060.24,-59508.2,0,59543.9,158856
step02_gravity_refstate-mantle.xmf,1007,-9.93951e-06,2.47798e-05,0,-7.481e-09,-1.74628e+09,-1.74164e+09,-1.74495e+09,-999.835,-0.0215433,-1.32017e-19,-0,0.0215433,1790.83,-60000,0,60026.7,999.835
step02_gravity_refstate-mantle.xmf,1008,1.18431e-06,-2.00965e-07,0,-2.55559e-06,-1.22757e+09,-1.22776e+09,-1.22773e+09,-341555,0.00783186,0.10124,0,0.101543,3748.45,-43987.6,0,44147,341555
step02_gravity_refstate-mantle.xmf,1009,1.83128e-06,-3.4912e-07,0,-1.2657e-06,-1.13991e+09,-1.1402e+09,-1.14015e+09,-169161,0.00637694,0.103455,0,0.103651,2918.34,-41283.7,0,41386.7,169161
step02_gravity_refstate-mantle.xmf,1010,5.37364e-07,4.25982e-07,0,-3.18326e-06,-1.26412e+09,-1.26413e+09,-1.26419e+09,-425443,0.00878948,0.0975775,0,0.0979725,4408.7,-45113.9,0,45328.8,425443
step02_gravity_refstate-mantle.xmf,1011,-1.36137e-06,2.48978e-06,0,-4.15322e-06,-1.36532e+09,-1.36481e+09,-1.36514e+09,-555078,0.00826808,0.0894228,0,0.0898043,4959.5,-48232.5,0,48486.8,555078
step02_gravity_refstate-mantle.xmf,1012,-1.75535e-06,3.03088e-06,0,-4.18147e-06,-1.38591e+09,-1.38527e+09,-1.38568e+09,-558854,0.00744131,0.0876648,0,0.08798,4962.5,-48867.4,0,49118.8,558854
step02_gravity_refstate-mantle.xmf,1013,-2.00905e-06,3.21049e-06,0,-4.65172e-06,-1.41128e+09,-1.41058e+09,-1.41101e+09,-621702,0.00683937,0.0904843,0,0.0907424,4476.76,-49649.7,0,49851.1,621702
step02_gravity_refstate-mantle.xmf,1014,-2.3824e-06,4.54862e-06,0,-4.74595e-06,-1.46188e+09,-1.46095e+09,-1.46156e+09,-634296,0.0020101,0.0875058,0,0.0875288,4239.59,-51213.6,0,51388.8,634296
step02_gravity_refstate-mantle.xmf,1015,-2.38905e-06,5.31124e-06,0,-4.64352e-06,-1.48195e+09,-1.48092e+09,-1.48163e+09,-620606,-0.00104655,0.084461,-0,0.0844675,4239.13,-51835.5,0,52008.5,620606
step02_gravity_refstate-mantle.xmf,1016,-2.93199e-06,1.15362e-05,0,-4.77498e-06,-1.60191e+09,-1.59998e+09,-1.60152e+09,-638177,-0.0219402,0.0638807,-0,0.0675434,3643.32,-55553.4,0,55672.8,638177
step02_gravity_refstate-mantle.xmf,1017,-3.859e-06,1.5965e-05,0,-3.63677e-06,-1.67508e+09,-1.67243e+09,-1.67457e+09,-486054,-0.0308774,0.0373686,-0,0.048475,3285.04,-57818.8,0,57912.1,486054
step02_gravity_refstate-mantle.xmf,1018,-7.03428e-06,2.08426e-05,0,-3.25948e-06,-1.70217e+09,-1.69845e+09,-1.70123e+09,-435630,-0.0277661,0.0286631,-0,0.0399065,2518.1,-58646.9,0,58701,435630
step02_gravity_refstate-mantle.xmf,1019,1.30062e-06,-1.55356e-07,0,-2.21087e-06,-1.2015e+09,-1.20169e+09,-1.20167e+09,-295483,0.00762129,0.101135,0,0.101422,3739.66,-43183.1,0,43344.7,295483
step02_gravity_refstate-mantle.xmf,1020,1.41948e-06,-1.21958e-07,0,-1.86721e-06,-1.17384e+09,-1.17405e+09,-1.17403e+09,-249553,0.00751312,0.101156,0,0.101435,3704.28,-42329.7,0,42491.5,249553
step02_gravity_refstate-mantle.xmf,1021,7.40521e-07,3.22898e-07,0,-2.83899e-06,-1.23982e+09,-1.23987e+09,-1.23992e+09,-379431,0.00857659,0.0978748,0,0.0982498,4403.37,-44364.3,0,44582.3,379431
step02_gravity_refstate-mantle.xmf,1022,1.53773e-06,-9.39045e-08,0,-1.55687e-06,-1.14773e+09,-1.14795e+09,-1.14794e+09,-208075,0.00756599,0.101227,0,0.101509,3659.61,-41523.9,0,41684.9,208075
step02_gravity_refstate-mantle.xmf,1023,1.74743e-06,-1.49476e-07,0,-1.21281e-06,-1.1221e+09,-1.12235e+09,-1.12233e+09,-162092,0.00744737,0.101941,0,0.102212,3400.03,-40733.5,0,40875.2,162092
step02_gravity_refstate-mantle.xmf,1024,2.04497e-06,-2.93344e-07,0,-8.35213e-07,-1.0983e+09,-1.09861e+09,-1.09857e+09,-111626,0.00703596,0.103005,0,0.103245,2938.83,-40000,0,40107.8,111626
step02_gravity_refstate-mantle.xmf,1025,1.97042e-08,1.09362e-06,0,-3.2767e-06,-1.27591e+09,-1.27577e+09,-1.27591e+09,-437931,0.00903839,0.0932797,0,0.0937165,5050.47,-45476.3,0,45755.9,437931
step02_gravity_refstate-mantle.xmf,1026,-2.89099e-07,1.36558e-06,0,-3.55342e-06,-1.2998e+09,-1.29958e+09,-1.29976e+09,-474915,0.00905347,0.0924095,0,0.0928519,5048.52,-46212.8,0,46487.7,474915
step02_gravity_refstate-mantle.xmf,1027,-6.05372e-07,1.66149e-06,0,-3.79619e-06,-1.32181e+09,-1.32151e+09,-1.32173e+09,-507361,0.00897551,0.0916123,0,0.092051,5020.56,-46891.5,0,47159.5,507361
step02_gravity_refstate-mantle.xmf,1028,-1.04398e-06,2.15298e-06,0,-3.94748e-06,-1.34432e+09,-1.34389e+09,-1.34418e+09,-527580,0.0086378,0.0897997,0,0.0902142,5083.48,-47585,0,47855.8,527580
step02_gravity_refstate-mantle.xmf,1029,-2.11011e-06,3.56488e-06,0,-4.14785e-06,-1.40676e+09,-1.406e+09,-1.40648e+09,-554361,0.00618616,0.0856367,0,0.0858599,4954.94,-49510.4,0,49757.7,554361
step02_gravity_refstate-mantle.xmf,1030,-2.32303e-06,4.07427e-06,0,-4.17111e-06,-1.42778e+09,-1.42693e+09,-1.42747e+09,-557468,0.00475762,0.0849832,0,0.0851162,4792.1,-50159.5,0,50387.9,557468
step02_gravity_refstate-mantle.xmf,1031,-2.46428e-06,4.74332e-06,0,-3.97157e-06,-1.45133e+09,-1.45037e+09,-1.451e+09,-530801,0.00208651,0.0817979,0,0.0818245,4793.18,-50887.9,0,51113.1,530801
step02_gravity_refstate-mantle.xmf,1032,-2.37111e-06,6.06708e-06,0,-4.54803e-06,-1.50153e+09,-1.5004e+09,-1.50121e+09,-607844,-0.00441725,0.0809349,-0,0.0810554,4245.83,-52442.4,0,52614,607844
step02_gravity_refstate-mantle.xmf,1033,-2.35505e-06,6.88464e-06,0,-4.43304e-06,-1.52123e+09,-1.51999e+09,-1.52091e+09,-592476,-0.00805791,0.0769328,-0,0.0773537,4250.28,-53053.1,0,53223.1,592476
step02_gravity_refstate-mantle.xmf,1034,-2.34986e-06,7.74483e-06,0,-4.30471e-06,-1.54073e+09,-1.53938e+09,-1.54042e+09,-575324,-0.0117763,0.0726879,-0,0.0736357,4239.43,-53657.9,0,53825.1,575324
step02_gravity_refstate-mantle.xmf,1035,-2.37731e-06,8.65766e-06,0,-4.23188e-06,-1.55972e+09,-1.55824e+09,-1.5594e+09,-565590,-0.0153294,0.0688085,-0,0.0704954,4176.97,-54246.5,0,54407.1,565590
step02_gravity_refstate-mantle.xmf,1036,-2.46486e-06,9.52591e-06,0,-4.29228e-06,-1.57563e+09,-1.57403e+09,-1.5753e+09,-573663,-0.0181056,0.0662386,-0,0.0686686,4049.02,-54739.6,0,54889.1,573663
step02_gravity_refstate-mantle.xmf,1037,-2.3595e-06,1.0125e-05,0,-3.82069e-06,-1.59329e+09,-1.59162e+09,-1.59297e+09,-510635,-0.0216346,0.059774,-0,0.0635688,4123.57,-55287.4,0,55440.9,510635
step02_gravity_refstate-mantle.xmf,1038,-2.94563e-06,1.24647e-05,0,-4.33413e-06,-1.62021e+09,-1.61815e+09,-1.61982e+09,-579256,-0.0250946,0.0572646,-0,0.0625217,3629.92,-56121.1,0,56238.4,579256
step02_gravity_refstate-mantle.xmf,1039,-2.98121e-06,1.33427e-05,0,-3.95505e-06,-1.63937e+09,-1.63719e+09,-1.63898e+09,-528592,-0.0279525,0.0501441,-0,0.0574088,3587.51,-56715,0,56828.3,528592
step02_gravity_refstate-mantle.xmf,1040,-3.13227e-06,1.43522e-05,0,-3.56071e-06,-1.66087e+09,-1.65854e+09,-1.66045e+09,-475889,-0.0304679,0.0415361,-0,0.0515126,3530.66,-57380.6,0,57489.1,475889
step02_gravity_refstate-mantle.xmf,1041,-4.01614e-06,1.61972e-05,0,-3.00179e-06,-1.68925e+09,-1.68655e+09,-1.68871e+09,-401190,-0.0320738,0.0295719,-0,0.043626,3374.14,-58255.9,0,58353.6,401190
step02_gravity_refstate-mantle.xmf,1042,-5.56192e-06,1.86648e-05,0,-3.2413e-06,-1.69711e+09,-1.69388e+09,-1.69637e+09,-433199,-0.0301745,0.0288655,-0,0.0417578,2914.22,-58495,0,58567.5,433199
step02_gravity_refstate-mantle.xmf,1043,-6.1756e-06,1.94085e-05,0,-2.24357e-06,-1.71343e+09,-1.71001e+09,-1.71261e+09,-299853,-0.0300094,0.019743,-0,0.0359215,2839.97,-58996.8,0,59065.1,299853
step02_gravity_refstate-mantle.xmf,1044,-7.11336e-06,2.07269e-05,0,-1.13258e-06,-1.73025e+09,-1.72653e+09,-1.7293e+09,-151369,-0.0286699,0.0101166,-0,0.0304025,2624.72,-59513.6,0,59571.4,151369
step02_gravity_refstate-mantle.xmf,1045,-7.96433e-06,2.19687e-05,0,-1.22616e-08,-1.74608e+09,-1.74208e+09,-1.74502e+09,-1638.76,-0.0269019,-1.16557e-19,-0,0.0269019,2389.19,-60000,0,60047.6,1638.76
step02_gravity_refstate-mantle.xmf,1046,9.10176e-07,2.5467e-07,0,-2.48934e-06,-1.21362e+09,-1.21371e+09,-1.21374e+09,-332701,0.00841795,0.0980947,0,0.0984552,4404.74,-43556,0,43778.2,332701
step02_gravity_refstate-mantle.xmf,1047,2.84404e-07,8.84416e-07,0,-2.9797e-06,-1.25116e+09,-1.25108e+09,-1.2512e+09,-398236,0.0089713,0.0940172,0,0.0944443,5050.23,-44713,0,44997.3,398236
step02_gravity_refstate-mantle.xmf,1048,-1.46916e-06,2.81944e-06,0,-3.75432e-06,-1.35952e+09,-1.35894e+09,-1.35932e+09,-501765,0.00776314,0.0854658,0,0.0858176,5453.19,-48053.4,0,48361.8,501765
step02_gravity_refstate-mantle.xmf,1049,-1.75346e-06,3.24162e-06,0,-3.72311e-06,-1.37615e+09,-1.37548e+09,-1.37592e+09,-497594,0.00701923,0.0836869,0,0.0839807,5479.7,-48566.4,0,48874.6,497594
step02_gravity_refstate-mantle.xmf,1050,-2.06588e-06,3.77685e-06,0,-3.61035e-06,-1.39675e+09,-1.39597e+09,-1.39647e+09,-482524,0.00574036,0.0811738,0,0.0813765,5512.26,-49201.9,0,49509.7,482524
step02_gravity_refstate-mantle.xmf,1051,-2.46521e-06,5.27839e-06,0,-3.82435e-06,-1.47193e+09,-1.4709e+09,-1.4716e+09,-511124,-0.000768774,0.0788356,-0,0.0788394,4775.58,-51525.5,0,51746.4,511124
step02_gravity_refstate-mantle.xmf,1052,-2.40303e-06,5.90838e-06,0,-3.6337e-06,-1.49174e+09,-1.49063e+09,-1.49142e+09,-485644,-0.00399673,0.0752766,-0,0.0753827,4786.25,-52139.4,0,52358.6,485644
step02_gravity_refstate-mantle.xmf,1053,-2.26274e-06,1.08306e-05,0,-3.41764e-06,-1.61091e+09,-1.60916e+09,-1.61061e+09,-456768,-0.0248858,0.0535913,-0,0.0590874,4156.77,-55834.1,0,55988.6,456768
step02_gravity_refstate-mantle.xmf,1054,-3.09303e-06,1.45347e-05,0,-2.8559e-06,-1.67963e+09,-1.67727e+09,-1.67922e+09,-381691,-0.0326399,0.0315797,-0,0.0454163,3697,-57960.8,0,58078.6,381691
step02_gravity_refstate-mantle.xmf,1055,1.0533e-06,2.42224e-07,0,-2.15879e-06,-1.18624e+09,-1.18635e+09,-1.18638e+09,-288522,0.00839128,0.0982186,0,0.0985764,4423.04,-42711.1,0,42939.5,288522
step02_gravity_refstate-mantle.xmf,1056,1.19992e-06,2.15638e-07,0,-1.8276e-06,-1.15833e+09,-1.15846e+09,-1.15849e+09,-244259,0.00849348,0.0985093,0,0.0988748,4399.39,-41850,0,42080.6,244259
step02_gravity_refstate-mantle.xmf,1057,5.04009e-07,7.35978e-07,0,-2.67277e-06,-1.22543e+09,-1.2254e+09,-1.22549e+09,-357216,0.0089175,0.0945886,0,0.095008,5060.53,-43919.2,0,44209.8,357216
step02_gravity_refstate-mantle.xmf,1058,1.35263e-06,2.0413e-07,0,-1.47051e-06,-1.12764e+09,-1.12779e+09,-1.12782e+09,-196533,0.00889087,0.0987307,0,0.0991302,4391.24,-40902.9,0,41137.9,196533
step02_gravity_refstate-mantle.xmf,1059,1.6852e-06,4.24451e-09,0,-1.02778e-06,-1.09835e+09,-1.09858e+09,-1.09858e+09,-137363,0.00887744,0.100341,0,0.100733,3924.05,-40000,0,40192,137363
step02_gravity_refstate-mantle.xmf,1060,-1.70208e-07,1.47733e-06,0,-2.99581e-06,-1.2631e+09,-1.26288e+09,-1.26307e+09,-400390,0.00900216,0.0895988,0,0.0900499,5714.8,-45080.2,0,45441,400390
step02_gravity_refstate-mantle.xmf,1061,-4.77509e-07,1.77721e-06,0,-3.21849e-06,-1.28836e+09,-1.28806e+09,-1.2883e+09,-430151,0.00885243,0.0883705,0,0.0888128,5712.06,-45859.5,0,46213.8,430151
step02_gravity_refstate-mantle.xmf,1062,-7.88027e-07,2.08758e-06,0,-3.41308e-06,-1.31197e+09,-1.31159e+09,-1.31187e+09,-456158,0.00863133,0.0873208,0,0.0877463,5664.13,-46587.4,0,46930.5,456158
step02_gravity_refstate-mantle.xmf,1063,-1.02642e-06,2.30101e-06,0,-3.58331e-06,-1.33068e+09,-1.33024e+09,-1.33054e+09,-478910,0.00841054,0.0868383,0,0.0872447,5561.24,-47164.3,0,47491,478910
step02_gravity_refstate-mantle.xmf,1064,-1.38518e-06,2.83198e-06,0,-3.48777e-06,-1.34698e+09,-1.34642e+09,-1.3468e+09,-466140,0.00770459,0.0837012,0,0.084055,5795.12,-47666.8,0,48017.8,466140
step02_gravity_refstate-mantle.xmf,1065,-2.31865e-06,4.28491e-06,0,-3.4782e-06,-1.41882e+09,-1.41794e+09,-1.41851e+09,-464862,0.00399676,0.0786461,0,0.0787476,5491.04,-49883.3,0,50184.6,464862
step02_gravity_refstate-mantle.xmf,1066,-2.44265e-06,4.82547e-06,0,-3.32311e-06,-1.44132e+09,-1.44034e+09,-1.44099e+09,-444134,0.0018407,0.0764541,0,0.0764762,5397.04,-50578.8,0,50865.9,444134
step02_gravity_refstate-mantle.xmf,1067,-2.46031e-06,5.30574e-06,0,-3.12851e-06,-1.462e+09,-1.46096e+09,-1.46167e+09,-418126,-0.000765103,0.0735849,-0,0.0735889,5364.35,-51218.8,0,51499,418126
step02_gravity_refstate-mantle.xmf,1068,-2.30582e-06,6.52478e-06,0,-3.45695e-06,-1.51165e+09,-1.51046e+09,-1.51134e+09,-462021,-0.00754203,0.0713419,-0,0.0717395,4795.25,-52756.5,0,52974,462021
step02_gravity_refstate-mantle.xmf,1069,-2.19107e-06,7.18817e-06,0,-3.28148e-06,-1.53216e+09,-1.53091e+09,-1.53187e+09,-438570,-0.0113775,0.067036,-0,0.0679947,4791.8,-53392.7,0,53607.3,438570
step02_gravity_refstate-mantle.xmf,1070,-2.0686e-06,7.90265e-06,0,-3.10742e-06,-1.55341e+09,-1.55207e+09,-1.55313e+09,-415306,-0.0154189,0.0623632,-0,0.0642411,4768.7,-54051.6,0,54261.6,415306
step02_gravity_refstate-mantle.xmf,1071,-2.00335e-06,8.76745e-06,0,-3.04587e-06,-1.57595e+09,-1.57451e+09,-1.57568e+09,-407080,-0.019496,0.0581174,-0,0.0613003,4641.35,-54750.6,0,54947,407080
step02_gravity_refstate-mantle.xmf,1072,-1.7745e-06,9.39164e-06,0,-2.62074e-06,-1.59928e+09,-1.59779e+09,-1.59904e+09,-350262,-0.0239625,0.0506488,-0,0.0560313,4715.78,-55474.5,0,55674.5,350262
step02_gravity_refstate-mantle.xmf,1073,-2.19486e-06,1.15733e-05,0,-3.0918e-06,-1.63054e+09,-1.6287e+09,-1.63025e+09,-413220,-0.0280584,0.0470488,-0,0.0547801,4133.26,-56442.9,0,56594,413220
step02_gravity_refstate-mantle.xmf,1074,-2.18134e-06,1.22259e-05,0,-2.80033e-06,-1.6507e+09,-1.64877e+09,-1.65041e+09,-374264,-0.0308293,0.0398505,-0,0.0503836,4109.26,-57067.3,0,57215,374264
step02_gravity_refstate-mantle.xmf,1075,-2.28927e-06,1.29023e-05,0,-2.46265e-06,-1.671e+09,-1.66897e+09,-1.6707e+09,-329133,-0.0330062,0.0320489,-0,0.0460059,4094.92,-57695.6,0,57840.7,329133
step02_gravity_refstate-mantle.xmf,1076,-2.77658e-06,1.39747e-05,0,-2.11166e-06,-1.69126e+09,-1.68902e+09,-1.69089e+09,-282223,-0.0342131,0.0244713,-0,0.042064,3975.48,-58320.8,0,58456.2,282223
step02_gravity_refstate-mantle.xmf,1077,-4.39555e-06,1.67239e-05,0,-2.12082e-06,-1.7078e+09,-1.70498e+09,-1.70722e+09,-283447,-0.0327861,0.0200816,-0,0.0384474,3382.76,-58827.9,0,58925.1,283447
step02_gravity_refstate-mantle.xmf,1078,-5.10672e-06,1.77295e-05,0,-1.03648e-06,-1.72859e+09,-1.72554e+09,-1.72791e+09,-138526,-0.0325247,0.00948584,-0,0.0338798,3257.63,-59468,0,59557.1,138526
step02_gravity_refstate-mantle.xmf,1079,-5.98629e-06,1.90736e-05,0,-1.99548e-08,-1.7459e+09,-1.74255e+09,-1.7451e+09,-2666.96,-0.031133,-1.01594e-19,-0,0.031133,2996.03,-60000,0,60074.8,2666.96
step02_gravity_refstate-mantle.xmf,1080,6.84581e-07,6.27837e-07,0,-2.36536e-06,-1.19899e+09,-1.199e+09,-1.19908e+09,-316130,0.00894377,0.0950235,0,0.0954435,5083.32,-43103.6,0,43402.3,316130
step02_gravity_refstate-mantle.xmf,1081,9.53843e-08,1.23875e-06,0,-2.74542e-06,-1.23725e+09,-1.23709e+09,-1.23726e+09,-366925,0.00910218,0.090645,0,0.0911009,5717.91,-44282.9,0,44650.5,366925
step02_gravity_refstate-mantle.xmf,1082,-1.71087e-06,3.34877e-06,0,-3.35436e-06,-1.36589e+09,-1.36521e+09,-1.36566e+09,-448310,0.00668787,0.0805542,0,0.0808314,5961.57,-48249.9,0,48616.8,448310
step02_gravity_refstate-mantle.xmf,1083,-1.98971e-06,3.84187e-06,0,-3.19877e-06,-1.38602e+09,-1.38524e+09,-1.38575e+09,-427516,0.00538918,0.0776346,0,0.0778214,6044.84,-48871.2,0,49243.6,427516
step02_gravity_refstate-mantle.xmf,1084,-2.21271e-06,4.34739e-06,0,-2.98212e-06,-1.4079e+09,-1.40702e+09,-1.4076e+09,-398561,0.00361983,0.074465,0,0.074553,6093.24,-49546.8,0,49920.1,398561
step02_gravity_refstate-mantle.xmf,1085,-2.39005e-06,5.74174e-06,0,-2.92942e-06,-1.48195e+09,-1.48086e+09,-1.48163e+09,-391517,-0.00374062,0.070309,-0,0.0704084,5352.84,-51836.6,0,52112.2,391517
step02_gravity_refstate-mantle.xmf,1086,-2.26558e-06,6.23259e-06,0,-2.72066e-06,-1.50156e+09,-1.50043e+09,-1.50126e+09,-363617,-0.00700744,0.0667219,-0,0.0670889,5348.57,-52444.5,0,52716.6,363617
step02_gravity_refstate-mantle.xmf,1087,-1.62218e-06,1.00563e-05,0,-2.35412e-06,-1.62026e+09,-1.6187e+09,-1.62004e+09,-314628,-0.0275108,0.0445272,-0,0.0523404,4694.79,-56125.2,0,56321.2,314628
step02_gravity_refstate-mantle.xmf,1088,8.1367e-07,6.08442e-07,0,-2.0432e-06,-1.16965e+09,-1.16967e+09,-1.16975e+09,-273074,0.00920058,0.0950523,0,0.0954965,5197.98,-42197.9,0,42516.8,273074
step02_gravity_refstate-mantle.xmf,1089,1.04701e-06,4.44579e-07,0,-1.72498e-06,-1.14376e+09,-1.14384e+09,-1.1439e+09,-230544,0.00930565,0.0964242,0,0.0968722,4966.61,-41399.5,0,41696.3,230544
step02_gravity_refstate-mantle.xmf,1090,3.22733e-07,1.05008e-06,0,-2.48396e-06,-1.21129e+09,-1.2112e+09,-1.21134e+09,-331982,0.00921409,0.091581,0,0.0920434,5711.55,-43482.2,0,43855.7,331982
step02_gravity_refstate-mantle.xmf,1091,1.28687e-06,3.38704e-07,0,-1.15921e-06,-1.09841e+09,-1.09854e+09,-1.09859e+09,-154928,0.0103594,0.0971459,0,0.0976966,4918.91,-40000,0,40301.3,154928
step02_gravity_refstate-mantle.xmf,1092,-2.9975e-07,1.75794e-06,0,-2.70767e-06,-1.24939e+09,-1.24912e+09,-1.24935e+09,-361880,0.00894484,0.0861811,0,0.0866441,6404.28,-44656.7,0,45113.6,361880
step02_gravity_refstate-mantle.xmf,1093,-5.97117e-07,2.07407e-06,0,-2.88508e-06,-1.27606e+09,-1.2757e+09,-1.27598e+09,-385592,0.00861688,0.0846147,0,0.0850523,6406.18,-45479.4,0,45928.4,385592
step02_gravity_refstate-mantle.xmf,1094,-9.14399e-07,2.43049e-06,0,-3.02708e-06,-1.30209e+09,-1.30165e+09,-1.30197e+09,-404569,0.00819464,0.0830154,0,0.0834188,6377.73,-46282.3,0,46719.6,404569
step02_gravity_refstate-mantle.xmf,1095,-1.2615e-06,2.83682e-06,0,-3.1461e-06,-1.32925e+09,-1.3287e+09,-1.32908e+09,-420476,0.00761639,0.0814852,0,0.0818403,6285.73,-47119.8,0,47537.2,420476
step02_gravity_refstate-mantle.xmf,1096,-1.64177e-06,3.40774e-06,0,-3.01282e-06,-1.35439e+09,-1.35371e+09,-1.35417e+09,-402663,0.00638611,0.0777115,0,0.0779734,6471.32,-47895.4,0,48330.6,402663
step02_gravity_refstate-mantle.xmf,1097,-2.35181e-06,4.80235e-06,0,-2.76183e-06,-1.4307e+09,-1.42974e+09,-1.43038e+09,-369119,0.00141723,0.0713803,0,0.0713944,6078.78,-50251.3,0,50617.7,369119
step02_gravity_refstate-mantle.xmf,1098,-2.38096e-06,5.25023e-06,0,-2.55495e-06,-1.45231e+09,-1.45129e+09,-1.452e+09,-341469,-0.00099547,0.068738,-0,0.0687452,6001.8,-50920,0,51272.5,341469
step02_gravity_refstate-mantle.xmf,1099,-2.32605e-06,5.62806e-06,0,-2.36415e-06,-1.47244e+09,-1.47138e+09,-1.47213e+09,-315969,-0.00366402,0.0659458,-0,0.0660476,5940.46,-51543,0,51884.2,315969
step02_gravity_refstate-mantle.xmf,1100,-2.09061e-06,6.72073e-06,0,-2.4916e-06,-1.52205e+09,-1.52087e+09,-1.52177e+09,-333003,-0.010709,0.0624472,-0,0.0633588,5363.96,-53079.8,0,53350.2,333003
step02_gravity_refstate-mantle.xmf,1101,-1.8866e-06,7.23433e-06,0,-2.28116e-06,-1.54335e+09,-1.54213e+09,-1.5431e+09,-304877,-0.0146677,0.0578897,-0,0.059719,5359.54,-53740.5,0,54007.1,304877
step02_gravity_refstate-mantle.xmf,1102,-1.66959e-06,7.77424e-06,0,-2.0936e-06,-1.56532e+09,-1.56406e+09,-1.56509e+09,-279810,-0.0187497,0.0530818,-0,0.0562959,5330.25,-54421.9,0,54682.3,279810
step02_gravity_refstate-mantle.xmf,1103,-1.44442e-06,8.31025e-06,0,-1.90179e-06,-1.58761e+09,-1.58631e+09,-1.58742e+09,-254174,-0.0228084,0.0478054,-0,0.0529677,5300.62,-55113.5,0,55367.8,254174
step02_gravity_refstate-mantle.xmf,1104,-1.21686e-06,8.78862e-06,0,-1.70371e-06,-1.60931e+09,-1.60797e+09,-1.60915e+09,-227701,-0.0265546,0.0421665,-0,0.0498313,5286.47,-55786.4,0,56036.3,227701
step02_gravity_refstate-mantle.xmf,1105,-1.52403e-06,1.06478e-05,0,-2.13183e-06,-1.64083e+09,-1.63921e+09,-1.64063e+09,-284919,-0.0305606,0.0381955,-0,0.0489167,4665.88,-56762.9,0,56954.3,284919
step02_gravity_refstate-mantle.xmf,1106,-1.5139e-06,1.11899e-05,0,-1.91493e-06,-1.66176e+09,-1.66006e+09,-1.66156e+09,-255931,-0.0331083,0.0313381,-0,0.0455877,4637.13,-57410.8,0,57597.7,255931
step02_gravity_refstate-mantle.xmf,1107,-1.65247e-06,1.18048e-05,0,-1.64268e-06,-1.68244e+09,-1.68065e+09,-1.68222e+09,-219544,-0.0349664,0.024247,-0,0.0425508,4592.56,-58050.4,0,58231.8,219544
step02_gravity_refstate-mantle.xmf,1108,-3.10716e-06,1.45431e-05,0,-1.5316e-06,-1.70929e+09,-1.70693e+09,-1.70887e+09,-204698,-0.0349802,0.0166472,-0,0.0387394,3955.91,-58876.8,0,59009.5,204698
step02_gravity_refstate-mantle.xmf,1109,-3.36882e-06,1.49907e-05,0,-8.09705e-07,-1.72774e+09,-1.72529e+09,-1.72729e+09,-108217,-0.035297,0.00835565,-0,0.0362725,3915.6,-59446.3,0,59575.2,108217
step02_gravity_refstate-mantle.xmf,1110,-4.1801e-06,1.63156e-05,0,-1.78563e-08,-1.74573e+09,-1.74299e+09,-1.74517e+09,-2386.5,-0.034295,-8.31889e-20,-0,0.034295,3618.49,-60000,0,60109,2386.5
step02_gravity_refstate-mantle.xmf,1111,9.87721e-07,5.6383e-07,0,-1.51982e-06,-1.12387e+09,-1.12393e+09,-1.12401e+09,-203124,0.0101225,0.0951543,0,0.0956912,5370.97,-40785.1,0,41137.2,203124
step02_gravity_refstate-mantle.xmf,1112,4.97304e-07,9.16966e-07,0,-2.24085e-06,-1.18773e+09,-1.18768e+09,-1.1878e+09,-299490,0.00937278,0.0923329,0,0.0928074,5702.06,-42755.3,0,43133.8,299490
step02_gravity_refstate-mantle.xmf,1113,-3.36805e-08,1.49172e-06,0,-2.49612e-06,-1.22219e+09,-1.22198e+09,-1.22218e+09,-333607,0.00922821,0.087604,0,0.0880887,6390.33,-43817.5,0,44281,333607
step02_gravity_refstate-mantle.xmf,1114,-1.88853e-06,3.84664e-06,0,-2.85823e-06,-1.37485e+09,-1.37409e+09,-1.3746e+09,-382003,0.00511534,0.074777,0,0.0749518,6557.46,-48526.9,0,48968,382003
step02_gravity_refstate-mantle.xmf,1115,-2.08787e-06,4.30573e-06,0,-2.60401e-06,-1.39646e+09,-1.39561e+09,-1.39619e+09,-348026,0.0033207,0.0711148,0,0.0711922,6679.69,-49194.4,0,49645.8,348026
step02_gravity_refstate-mantle.xmf,1116,-2.20915e-06,4.74039e-06,0,-2.33004e-06,-1.41908e+09,-1.41815e+09,-1.41879e+09,-311410,0.00116087,0.067589,0,0.067599,6727.35,-49893.3,0,50344.8,311410
step02_gravity_refstate-mantle.xmf,1117,-2.2011e-06,5.97311e-06,0,-2.1577e-06,-1.49173e+09,-1.49063e+09,-1.49143e+09,-288376,-0.00662492,0.0627046,-0,0.0630536,5917.76,-52140.5,0,52475.3,288376
step02_gravity_refstate-mantle.xmf,1118,-2.00983e-06,6.33873e-06,0,-1.89715e-06,-1.51157e+09,-1.51046e+09,-1.5113e+09,-253554,-0.0100381,0.0586263,-0,0.0594795,5948.54,-52755.8,0,53090.1,253554
step02_gravity_refstate-mantle.xmf,1119,-1.02933e-06,9.29934e-06,0,-1.52604e-06,-1.63109e+09,-1.62971e+09,-1.63095e+09,-203955,-0.0299282,0.0363139,-0,0.0470573,5254.42,-56461.8,0,56705.8,203955
step02_gravity_refstate-mantle.xmf,1120,-1.91087e-06,1.24562e-05,0,-1.23798e-06,-1.70331e+09,-1.70139e+09,-1.70306e+09,-165456,-0.0361937,0.0166377,-0,0.0398346,4546.85,-58695,0,58870.8,165456
step02_gravity_refstate-mantle.xmf,1121,7.78403e-07,7.11477e-07,0,-1.79792e-06,-1.14724e+09,-1.14725e+09,-1.14734e+09,-240292,0.00984425,0.0936973,0,0.094213,5620.91,-41505.8,0,41884.6,240292
step02_gravity_refstate-mantle.xmf,1122,1.97796e-07,1.27408e-06,0,-2.25881e-06,-1.19473e+09,-1.19458e+09,-1.19476e+09,-301890,0.00953142,0.0888857,0,0.0893953,6365.79,-42970.3,0,43439.3,301890
step02_gravity_refstate-mantle.xmf,1123,4.55993e-07,1.03329e-06,0,-1.98755e-06,-1.16503e+09,-1.16495e+09,-1.16509e+09,-265636,0.00990169,0.0906668,0,0.0912058,6208.81,-42053.9,0,42509.7,265636
step02_gravity_refstate-mantle.xmf,1124,8.79832e-07,6.84401e-07,0,-1.23286e-06,-1.09847e+09,-1.0985e+09,-1.09859e+09,-164772,0.0114552,0.0935448,0,0.0942436,5927.94,-40000,0,40436.9,164772
step02_gravity_refstate-mantle.xmf,1125,-3.84526e-07,1.9536e-06,0,-2.42154e-06,-1.23484e+09,-1.23452e+09,-1.23479e+09,-323639,0.00890399,0.0830338,0,0.0835099,7117.68,-44207.1,0,44776.4,323639
step02_gravity_refstate-mantle.xmf,1126,-6.61345e-07,2.2702e-06,0,-2.5629e-06,-1.26269e+09,-1.2623e+09,-1.2626e+09,-342531,0.00839464,0.081204,0,0.0816368,7123.7,-45066.4,0,45626,342531
step02_gravity_refstate-mantle.xmf,1127,-9.58795e-07,2.62972e-06,0,-2.658e-06,-1.29009e+09,-1.28961e+09,-1.28996e+09,-355242,0.00778456,0.0792125,0,0.0795941,7113.91,-45911.7,0,46459.5,355242
step02_gravity_refstate-mantle.xmf,1128,-1.26296e-06,3.02359e-06,0,-2.70024e-06,-1.31681e+09,-1.31623e+09,-1.31664e+09,-360887,0.00701579,0.0770928,0,0.0774114,7084.36,-46736,0,47269.8,360887
step02_gravity_refstate-mantle.xmf,1129,-1.83023e-06,3.91704e-06,0,-2.51325e-06,-1.36853e+09,-1.36777e+09,-1.36829e+09,-335896,0.00449758,0.0714588,0,0.0716002,7105.47,-48332.3,0,48851.8,335896
step02_gravity_refstate-mantle.xmf,1130,-1.56611e-06,3.46427e-06,0,-2.65111e-06,-1.34301e+09,-1.34234e+09,-1.3428e+09,-354321,0.00594039,0.0744723,0,0.0747089,7087.31,-47544.5,0,48069.8,354321
step02_gravity_refstate-mantle.xmf,1131,-2.25227e-06,5.11689e-06,0,-2.09434e-06,-1.44231e+09,-1.44133e+09,-1.44201e+09,-279908,-0.00130118,0.0644636,-0,0.0644767,6676.59,-50611.5,0,51050,279908
step02_gravity_refstate-mantle.xmf,1132,-2.20935e-06,5.49836e-06,0,-1.87293e-06,-1.46443e+09,-1.4634e+09,-1.46413e+09,-250317,-0.00396357,0.0616297,-0,0.061757,6580.16,-51296,0,51716.3,250317
step02_gravity_refstate-mantle.xmf,1133,-2.1297e-06,5.76498e-06,0,-1.77468e-06,-1.48219e+09,-1.48114e+09,-1.48191e+09,-237186,-0.00622364,0.0598371,-0,0.0601599,6425.85,-51845.9,0,52242.6,237186
step02_gravity_refstate-mantle.xmf,1134,-1.76281e-06,6.70565e-06,0,-1.65241e-06,-1.53285e+09,-1.53172e+09,-1.53262e+09,-220845,-0.0138423,0.0541622,-0,0.0559031,5965.98,-53415.7,0,53747.9,220845
step02_gravity_refstate-mantle.xmf,1135,-1.48776e-06,7.0813e-06,0,-1.4459e-06,-1.55485e+09,-1.55371e+09,-1.55465e+09,-193244,-0.0178107,0.0495365,-0,0.0526411,5957.18,-54098,0,54425,193244
step02_gravity_refstate-mantle.xmf,1136,-1.20439e-06,7.46285e-06,0,-1.27579e-06,-1.57717e+09,-1.57601e+09,-1.57701e+09,-170510,-0.0217773,0.0447406,-0,0.0497591,5928.46,-54790.4,0,55110.2,170510
step02_gravity_refstate-mantle.xmf,1137,-9.35196e-07,7.83263e-06,0,-1.13723e-06,-1.59906e+09,-1.59789e+09,-1.59894e+09,-151991,-0.0255031,0.0398271,-0,0.0472928,5892.11,-55469.4,0,55781.5,151991
step02_gravity_refstate-mantle.xmf,1138,-6.91641e-07,8.19336e-06,0,-1.01949e-06,-1.62095e+09,-1.61977e+09,-1.62086e+09,-136254,-0.028945,0.0346394,-0,0.045141,5855.57,-56148.1,0,56452.6,136254
step02_gravity_refstate-mantle.xmf,1139,-9.27188e-07,9.77436e-06,0,-1.37743e-06,-1.65243e+09,-1.651e+09,-1.65231e+09,-184094,-0.0327443,0.0302761,-0,0.0445963,5217.19,-57123,0,57360.8,184094
step02_gravity_refstate-mantle.xmf,1140,-9.31629e-07,1.0241e-05,0,-1.22604e-06,-1.67354e+09,-1.67204e+09,-1.67341e+09,-163860,-0.0349447,0.0240511,-0,0.0424216,5163.82,-57776,0,58006.3,163860
step02_gravity_refstate-mantle.xmf,1141,-1.03967e-06,1.07359e-05,0,-1.0036e-06,-1.694e+09,-1.69243e+09,-1.69386e+09,-134131,-0.0364875,0.0176571,-0,0.0405353,5107.47,-58408.8,0,58631.7,134131
step02_gravity_refstate-mantle.xmf,1142,-2.0106e-06,1.27422e-05,0,-6.23841e-07,-1.72492e+09,-1.72295e+09,-1.72465e+09,-83376.3,-0.0369769,0.00817994,-0,0.0378708,4560.38,-59362.4,0,59537.3,83376.3
step02_gravity_refstate-mantle.xmf,1143,-2.6596e-06,1.38634e-05,0,-1.55e-08,-1.74561e+09,-1.7434e+09,-1.74525e+09,-2071.57,-0.0364923,-8.18263e-20,-0,0.0364923,4262.05,-60000,0,60151.2,2071.57
step02_gravity_refstate-mantle.xmf,1144,5.86843e-07,9.32977e-07,0,-1.61673e-06,-1.12983e+09,-1.12979e+09,-1.12991e+09,-216075,0.0107543,0.0910343,0,0.0916673,6370.48,-40967.4,0,41459.7,216075
step02_gravity_refstate-mantle.xmf,1145,-1.3655e-07,1.68401e-06,0,-2.23539e-06,-1.20628e+09,-1.20603e+09,-1.20626e+09,-298759,0.0093848,0.0846494,0,0.0851681,7112.07,-43325.8,0,43905.7,298759
step02_gravity_refstate-mantle.xmf,1146,-1.96957e-06,4.24388e-06,0,-2.31959e-06,-1.38707e+09,-1.38624e+09,-1.38681e+09,-310014,0.00304613,0.0685828,0,0.0686505,7182.04,-48904.9,0,49429.5,310014
step02_gravity_refstate-mantle.xmf,1147,-2.03462e-06,4.58812e-06,0,-1.98587e-06,-1.40508e+09,-1.4042e+09,-1.40481e+09,-265412,0.00105375,0.0644917,0,0.0645003,7413.67,-49461.6,0,50014.2,265412
step02_gravity_refstate-mantle.xmf,1148,-2.08602e-06,4.96455e-06,0,-1.7211e-06,-1.43059e+09,-1.42964e+09,-1.43031e+09,-230025,-0.0014519,0.0610244,-0,0.0610416,7372.86,-50250.1,0,50788.1,230025
step02_gravity_refstate-mantle.xmf,1149,-1.92559e-06,6.00654e-06,0,-1.45313e-06,-1.50053e+09,-1.49947e+09,-1.50027e+09,-194211,-0.00936361,0.0554905,-0,0.056275,6545.92,-52414.4,0,52821.6,194211
step02_gravity_refstate-mantle.xmf,1150,-1.67297e-06,6.2666e-06,0,-1.18961e-06,-1.52149e+09,-1.52043e+09,-1.52127e+09,-158991,-0.0129238,0.0511768,-0,0.0527834,6586.46,-53064.3,0,53471.5,158991
step02_gravity_refstate-mantle.xmf,1151,-4.97734e-07,8.57617e-06,0,-9.04735e-07,-1.64291e+09,-1.64169e+09,-1.64284e+09,-120918,-0.0319874,0.0291444,-0,0.0432734,5821.43,-56828.5,0,57125.9,120918
step02_gravity_refstate-mantle.xmf,1152,-1.23329e-06,1.12537e-05,0,-7.30152e-07,-1.71254e+09,-1.71087e+09,-1.71237e+09,-97584.9,-0.0373521,0.0116215,-0,0.0391183,5028.12,-58981.4,0,59195.3,97584.9
step02_gravity_refstate-mantle.xmf,1153,7.80712e-08,1.45963e-06,0,-2.01281e-06,-1.17729e+09,-1.17711e+09,-1.1773e+09,-269011,0.00991506,0.0860961,0,0.0866652,7100.75,-42431.4,0,43021.4,269011
step02_gravity_refstate-mantle.xmf,1154,4.8864e-07,1.02478e-06,0,-1.24898e-06,-1.09853e+09,-1.09846e+09,-1.09859e+09,-166927,0.0121613,0.0896627,0,0.0904837,6955.6,-40000,0,40600.2,166927
step02_gravity_refstate-mantle.xmf,1155,-4.36545e-07,2.07951e-06,0,-2.14007e-06,-1.21903e+09,-1.2187e+09,-1.21897e+09,-286021,0.00891636,0.0801652,0,0.0806595,7857.38,-43718.9,0,44419.3,286021
step02_gravity_refstate-mantle.xmf,1156,-6.86092e-07,2.38683e-06,0,-2.25785e-06,-1.24808e+09,-1.24767e+09,-1.24799e+09,-301762,0.00822676,0.0781555,0,0.0785873,7862.03,-44615.3,0,45302.8,301762
step02_gravity_refstate-mantle.xmf,1157,-9.51069e-07,2.72766e-06,0,-2.32803e-06,-1.27652e+09,-1.27603e+09,-1.2764e+09,-311141,0.00746436,0.0760072,0,0.0763728,7847.82,-45493,0,46164.9,311141
step02_gravity_refstate-mantle.xmf,1158,-1.21934e-06,3.09611e-06,0,-2.34155e-06,-1.30405e+09,-1.30347e+09,-1.30388e+09,-312948,0.0065623,0.0736821,0,0.0739737,7825.47,-46342.3,0,46998.4,312948
step02_gravity_refstate-mantle.xmf,1159,-1.47858e-06,3.48868e-06,0,-2.28847e-06,-1.33095e+09,-1.33029e+09,-1.33075e+09,-305854,0.00543119,0.0710877,0,0.0712949,7805.54,-47172.7,0,47814.1,305854
step02_gravity_refstate-mantle.xmf,1160,-1.88061e-06,4.27562e-06,0,-1.99307e-06,-1.38306e+09,-1.38224e+09,-1.38281e+09,-266374,0.00228018,0.0652792,0,0.0653191,7741.61,-48781.6,0,49392.1,266374
step02_gravity_refstate-mantle.xmf,1161,-1.71392e-06,3.90422e-06,0,-2.15815e-06,-1.35797e+09,-1.35722e+09,-1.35774e+09,-288437,0.00395237,0.0681077,0,0.0682222,7792.31,-48006.6,0,48634.9,288437
step02_gravity_refstate-mantle.xmf,1162,-2.04195e-06,5.28259e-06,0,-1.46145e-06,-1.45518e+09,-1.4542e+09,-1.4549e+09,-195323,-0.00426783,0.0576041,-0,0.057762,7306.1,-51010.8,0,51531.4,195323
step02_gravity_refstate-mantle.xmf,1163,-1.91289e-06,5.6424e-06,0,-1.22059e-06,-1.48186e+09,-1.48085e+09,-1.48161e+09,-163132,-0.0076348,0.0542417,-0,0.0547764,7146.07,-51836.8,0,52327.1,163132
step02_gravity_refstate-mantle.xmf,1164,-1.3712e-06,6.53489e-06,0,-9.67318e-07,-1.54391e+09,-1.54285e+09,-1.54372e+09,-129282,-0.0167739,0.0467222,-0,0.049642,6586.97,-53759.3,0,54161.3,129282
step02_gravity_refstate-mantle.xmf,1165,-1.04754e-06,6.79982e-06,0,-7.89083e-07,-1.56673e+09,-1.56568e+09,-1.56659e+09,-105461,-0.0206854,0.0421221,-0,0.0469272,6570.21,-54467.1,0,54861.9,105461
step02_gravity_refstate-mantle.xmf,1166,-7.43169e-07,7.06493e-06,0,-6.68922e-07,-1.58885e+09,-1.58781e+09,-1.58876e+09,-89401.4,-0.0243523,0.0376576,-0,0.0448456,6526.6,-55153.3,0,55538.2,89401.4
step02_gravity_refstate-mantle.xmf,1167,-4.59506e-07,7.31842e-06,0,-5.79335e-07,-1.61063e+09,-1.60959e+09,-1.61057e+09,-77428.2,-0.0277552,0.03305,-0,0.0431585,6485.69,-55828.5,0,56204,77428.2
step02_gravity_refstate-mantle.xmf,1168,-2.10334e-07,7.57929e-06,0,-5.13097e-07,-1.63285e+09,-1.63181e+09,-1.63282e+09,-68575.4,-0.0308949,0.0281456,-0,0.0417932,6443.3,-56517.1,0,56883.2,68575.4
step02_gravity_refstate-mantle.xmf,1169,-3.92633e-07,8.94162e-06,0,-8.05666e-07,-1.66455e+09,-1.6633e+09,-1.6645e+09,-107677,-0.0344728,0.0235072,-0,0.0417248,5778.46,-57498.7,0,57788.3,107677
step02_gravity_refstate-mantle.xmf,1170,-4.05544e-07,9.34514e-06,0,-7.14319e-07,-1.68531e+09,-1.684e+09,-1.68525e+09,-95468.7,-0.0362967,0.0180184,-0,0.040523,5688.84,-58140.9,0,58418.5,95468.7
step02_gravity_refstate-mantle.xmf,1171,-4.93577e-07,9.79741e-06,0,-5.352e-07,-1.70727e+09,-1.7059e+09,-1.7072e+09,-71529.5,-0.0376215,0.0117542,-0,0.039415,5611.01,-58819.9,0,59086.9,71529.5
step02_gravity_refstate-mantle.xmf,1172,-9.11458e-07,1.07428e-05,0,-3.08503e-07,-1.72922e+09,-1.72766e+09,-1.7291e+09,-41231.4,-0.0381274,0.00542784,-0,0.0385119,5285.82,-59497.5,0,59731.9,41231.4
step02_gravity_refstate-mantle.xmf,1173,-1.43223e-06,1.17457e-05,0,-5.21864e-09,-1.74552e+09,-1.74376e+09,-1.74533e+09,-697.471,-0.0378636,-5.13412e-20,-0,0.0378636,4930.91,-60000,0,60202.3,697.471
step02_gravity_refstate-mantle.xmf,1174,2.59785e-07,1.2689e-06,0,-1.78343e-06,-1.15006e+09,-1.14992e+09,-1.15009e+09,-238356,0.0105086,0.087546,0,0.0881744,7031.67,-41590.9,0,42181.1,238356
step02_gravity_refstate-mantle.xmf,1175,2.29369e-07,1.2825e-06,0,-1.52157e-06,-1.12531e+09,-1.12517e+09,-1.12534e+09,-203357,0.0113465,0.0866324,0,0.0873723,7477.45,-40826.1,0,41505.2,203357
step02_gravity_refstate-mantle.xmf,1176,-2.14474e-07,1.80776e-06,0,-1.97545e-06,-1.18968e+09,-1.18941e+09,-1.18966e+09,-264018,0.00958969,0.0818787,0,0.0824383,7865.48,-42813.1,0,43529.6,264018
step02_gravity_refstate-mantle.xmf,1177,-1.91569e-06,4.76816e-06,0,-1.44663e-06,-1.41844e+09,-1.41754e+09,-1.41818e+09,-193342,-0.00152077,0.0583297,-0,0.0583496,8054.79,-49875.4,0,50521.7,193342
step02_gravity_refstate-mantle.xmf,1178,-1.87374e-06,5.05497e-06,0,-1.1683e-06,-1.44302e+09,-1.4421e+09,-1.44277e+09,-156144,-0.00418583,0.0547539,-0,0.0549136,8029.86,-50635.9,0,51268.7,156144
step02_gravity_refstate-mantle.xmf,1179,-1.60007e-06,5.87923e-06,0,-8.56098e-07,-1.5082e+09,-1.5072e+09,-1.50799e+09,-114417,-0.0118098,0.0489377,-0,0.0503425,7232.07,-52653.2,0,53147.6,114417
step02_gravity_refstate-mantle.xmf,1180,-1.29156e-06,6.07844e-06,0,-6.16948e-07,-1.53188e+09,-1.5309e+09,-1.53171e+09,-82455.1,-0.0156255,0.0444997,-0,0.0471633,7239.27,-53387.2,0,53875.8,82455.1
step02_gravity_refstate-mantle.xmf,1181,-2.02809e-08,7.87691e-06,0,-4.48418e-07,-1.65543e+09,-1.65437e+09,-1.65542e+09,-59931.1,-0.0336305,0.0229338,-0,0.0407059,6401.83,-57216.6,0,57573.6,59931.1
step02_gravity_refstate-mantle.xmf,1182,-5.29587e-08,1.61394e-06,0,-1.73765e-06,-1.15747e+09,-1.15725e+09,-1.15747e+09,-232237,0.0104079,0.0831982,0,0.0838467,7948.34,-41818.7,0,42567.3,232237
step02_gravity_refstate-mantle.xmf,1183,1.3514e-07,1.34034e-06,0,-1.22027e-06,-1.09858e+09,-1.09842e+09,-1.0986e+09,-163088,0.012491,0.0856159,0,0.0865223,8006.22,-40000,0,40793.4,163088
step02_gravity_refstate-mantle.xmf,1184,-4.7716e-07,2.16065e-06,0,-1.87717e-06,-1.2034e+09,-1.20305e+09,-1.20333e+09,-250884,0.00897489,0.0775604,0,0.0780779,8606.13,-43235.8,0,44084,250884
step02_gravity_refstate-mantle.xmf,1185,-6.90112e-07,2.44804e-06,0,-1.972e-06,-1.23264e+09,-1.23222e+09,-1.23255e+09,-263557,0.00812651,0.0754093,0,0.0758459,8623.76,-44138.4,0,44973,263557
step02_gravity_refstate-mantle.xmf,1186,-9.22876e-07,2.77101e-06,0,-2.02384e-06,-1.26221e+09,-1.26172e+09,-1.26209e+09,-270486,0.00720652,0.0730998,0,0.0734542,8612.54,-45051.2,0,45867,270486
step02_gravity_refstate-mantle.xmf,1187,-1.15578e-06,3.11254e-06,0,-2.02106e-06,-1.29079e+09,-1.29022e+09,-1.29063e+09,-270115,0.00617728,0.0706427,0,0.0709122,8589.51,-45933.1,0,46729.4,270115
step02_gravity_refstate-mantle.xmf,1188,-1.37198e-06,3.45935e-06,0,-1.96162e-06,-1.31785e+09,-1.31721e+09,-1.31767e+09,-262170,0.0049934,0.0680374,0,0.0682204,8566.55,-46768.6,0,47546.7,262170
step02_gravity_refstate-mantle.xmf,1189,-1.87914e-06,4.50582e-06,0,-1.64068e-06,-1.39887e+09,-1.39801e+09,-1.39862e+09,-219277,0.000275935,0.06086,0,0.0608607,8098.94,-49270.5,0,49931.7,219277
step02_gravity_refstate-mantle.xmf,1190,-1.57048e-06,3.82578e-06,0,-1.83735e-06,-1.34548e+09,-1.34476e+09,-1.34527e+09,-245561,0.00349959,0.0650792,0,0.0651733,8542.43,-47621.7,0,48381.8,245561
step02_gravity_refstate-mantle.xmf,1191,-1.74047e-06,4.23103e-06,0,-1.62626e-06,-1.37633e+09,-1.37554e+09,-1.3761e+09,-217350,0.00142576,0.0614774,0,0.0614939,8503.24,-48574.7,0,49313.3,217350
step02_gravity_refstate-mantle.xmf,1192,-1.74099e-06,5.30554e-06,0,-8.86649e-07,-1.46854e+09,-1.4676e+09,-1.46831e+09,-118501,-0.00729797,0.0509831,-0,0.0515028,7977.9,-51425.8,0,52040.9,118501
step02_gravity_refstate-mantle.xmf,1193,-1.51774e-06,5.52562e-06,0,-6.10405e-07,-1.49434e+09,-1.4934e+09,-1.49414e+09,-81580.7,-0.0108181,0.0469058,-0,0.0481372,7936.25,-52224.8,0,52824.4,81580.7
step02_gravity_refstate-mantle.xmf,1194,-9.3996e-07,6.25849e-06,0,-4.19842e-07,-1.55588e+09,-1.55492e+09,-1.55576e+09,-56111.9,-0.0195404,0.0399278,-0,0.0444529,7235.71,-54131.5,0,54612.9,56111.9
step02_gravity_refstate-mantle.xmf,1195,-5.94466e-07,6.44092e-06,0,-2.91579e-07,-1.57953e+09,-1.57859e+09,-1.57945e+09,-38969.5,-0.0233052,0.0355054,-0,0.0424707,7195.08,-54864.7,0,55334.5,38969.5
step02_gravity_refstate-mantle.xmf,1196,-3.18155e-07,6.62385e-06,0,-2.327e-07,-1.59997e+09,-1.59905e+09,-1.59993e+09,-31100.3,-0.0264081,0.0317478,-0,0.0412954,7123.71,-55498.5,0,55953.8,31100.3
step02_gravity_refstate-mantle.xmf,1197,-2.74781e-08,6.78774e-06,0,-1.78806e-07,-1.62211e+09,-1.6212e+09,-1.6221e+09,-23897.5,-0.0295399,0.0272931,-0,0.0402184,7091.76,-56184.6,0,56630.4,23897.5
step02_gravity_refstate-mantle.xmf,1198,2.207e-07,6.97219e-06,0,-1.54268e-07,-1.64502e+09,-1.64411e+09,-1.64505e+09,-20617.9,-0.0323975,0.0225835,-0,0.039492,7048.15,-56894.4,0,57329.3,20617.9
step02_gravity_refstate-mantle.xmf,1199,1.05061e-07,8.12192e-06,0,-3.75357e-07,-1.67773e+09,-1.67666e+09,-1.67774e+09,-50166.4,-0.0357922,0.0175056,-0,0.0398438,6377.67,-57907.1,0,58257.2,50166.4
step02_gravity_refstate-mantle.xmf,1200,1.76894e-07,8.36344e-06,0,-2.70589e-07,-1.70309e+09,-1.702e+09,-1.70311e+09,-36164.2,-0.0375256,0.011091,-0,0.0391303,6360.16,-58691.6,0,59035.2,36164.2
step02_gravity_refstate-mantle.xmf,1201,-1.19717e-07,9.17998e-06,0,-1.98309e-07,-1.72611e+09,-1.72486e+09,-1.72609e+09,-26504,-0.0384185,0.00551541,-0,0.0388124,5983.3,-59402.6,0,59703.2,26504
step02_gravity_refstate-mantle.xmf,1202,-4.9756e-07,9.99501e-06,0,-6.04006e-09,-1.74546e+09,-1.74406e+09,-1.74539e+09,-807.255,-0.0385357,-5.38075e-20,-0,0.0385357,5628.36,-60000,0,60263.4,807.255
step02_gravity_refstate-mantle.xmf,1203,-8.22111e-08,1.60049e-06,0,-1.43415e-06,-1.1271e+09,-1.12688e+09,-1.12709e+09,-191674,0.0113636,0.0822175,0,0.0829991,8538.67,-40880.3,0,41762.6,191674
step02_gravity_refstate-mantle.xmf,1204,-3.0739e-07,1.92995e-06,0,-1.76161e-06,-1.17751e+09,-1.17721e+09,-1.17747e+09,-235439,0.00972848,0.0793982,0,0.079992,8559.95,-42436.7,0,43291.4,235439
step02_gravity_refstate-mantle.xmf,1205,-1.71413e-06,4.81049e-06,0,-9.69628e-07,-1.42968e+09,-1.42881e+09,-1.42945e+09,-129591,-0.00393935,0.0527127,-0,0.0528597,8732.42,-50224.2,0,50977.7,129591
step02_gravity_refstate-mantle.xmf,1206,-1.75638e-06,4.53206e-06,0,-1.28212e-06,-1.40206e+09,-1.40122e+09,-1.40182e+09,-171355,-0.0011184,0.0568516,-0,0.0568626,8704.97,-49369.9,0,50131.5,171355
step02_gravity_refstate-mantle.xmf,1207,-1.59404e-06,5.03212e-06,0,-6.81921e-07,-1.45586e+09,-1.45497e+09,-1.45564e+09,-91138.8,-0.00691269,0.0488381,-0,0.0493249,8712.19,-51034.1,0,51772.4,91138.8
step02_gravity_refstate-mantle.xmf,1208,-1.20329e-06,5.68372e-06,0,-3.48462e-07,-1.51961e+09,-1.51869e+09,-1.51945e+09,-46571.9,-0.014569,0.0425291,-0,0.0449553,7934.21,-53007.8,0,53598.3,46571.9
step02_gravity_refstate-mantle.xmf,1209,-8.65255e-07,5.80742e-06,0,-1.53905e-07,-1.54429e+09,-1.5434e+09,-1.54417e+09,-20569.4,-0.0183302,0.0381918,-0,0.0423629,7923.34,-53772.6,0,54353.2,20569.4
step02_gravity_refstate-mantle.xmf,1210,4.04718e-07,7.18213e-06,0,-1.3027e-07,-1.66772e+09,-1.66682e+09,-1.66778e+09,-17410.6,-0.0347503,0.0177282,-0,0.0390112,7012.62,-57597.5,0,58022.8,17410.6
step02_gravity_refstate-mantle.xmf,1211,-1.68889e-07,1.62058e-06,0,-1.15406e-06,-1.09862e+09,-1.09838e+09,-1.0986e+09,-154241,0.0124745,0.0815103,0,0.0824593,9083.97,-40000,0,41018.5,154241
step02_gravity_refstate-mantle.xmf,1212,-4.97057e-07,2.18629e-06,0,-1.62666e-06,-1.18492e+09,-1.18456e+09,-1.18485e+09,-217403,0.00918435,0.0754887,0,0.0760454,9342.58,-42664.9,0,43675.8,217403
step02_gravity_refstate-mantle.xmf,1213,-3.02746e-07,1.89885e-06,0,-1.53857e-06,-1.1546e+09,-1.15431e+09,-1.15456e+09,-205630,0.0103008,0.078603,0,0.079275,9057.3,-41729,0,42700.6,205630
step02_gravity_refstate-mantle.xmf,1214,-6.82271e-07,2.46578e-06,0,-1.70751e-06,-1.21605e+09,-1.21562e+09,-1.21595e+09,-228208,0.00812314,0.0730203,0,0.0734708,9398.31,-43625.9,0,44626.8,228208
step02_gravity_refstate-mantle.xmf,1215,-8.82764e-07,2.77105e-06,0,-1.74458e-06,-1.24706e+09,-1.24657e+09,-1.24694e+09,-233163,0.00702888,0.0704913,0,0.0708409,9406.17,-44583.4,0,45564.8,233163
step02_gravity_refstate-mantle.xmf,1216,-1.08835e-06,3.09968e-06,0,-1.7254e-06,-1.27749e+09,-1.27693e+09,-1.27735e+09,-230600,0.00582494,0.0677732,0,0.068023,9401.08,-45522.9,0,46483.5,230600
step02_gravity_refstate-mantle.xmf,1217,-1.26504e-06,3.40368e-06,0,-1.67366e-06,-1.30517e+09,-1.30455e+09,-1.305e+09,-223685,0.00460798,0.0653024,0,0.0654648,9340.84,-46377.6,0,47308.9,223685
step02_gravity_refstate-mantle.xmf,1218,-1.41786e-06,3.69494e-06,0,-1.57497e-06,-1.33048e+09,-1.3298e+09,-1.33029e+09,-210494,0.00326914,0.0627161,0,0.0628012,9305.32,-47159,0,48068.3,210494
step02_gravity_refstate-mantle.xmf,1219,-1.54281e-06,4.01936e-06,0,-1.38333e-06,-1.35862e+09,-1.35788e+09,-1.35842e+09,-184882,0.00140551,0.0592864,0,0.0593031,9321.52,-48028.4,0,48924.6,184882
step02_gravity_refstate-mantle.xmf,1220,-1.39374e-06,5.2055e-06,0,-4.12711e-07,-1.48157e+09,-1.48068e+09,-1.48138e+09,-55158.8,-0.0101259,0.0449644,-0,0.0460904,8673.89,-51830.1,0,52550.9,55158.8
step02_gravity_refstate-mantle.xmf,1221,-1.13104e-06,5.33714e-06,0,-1.76831e-07,-1.50697e+09,-1.5061e+09,-1.50681e+09,-23633.4,-0.0135537,0.0409857,-0,0.0431686,8639.94,-52616.8,0,53321.4,23633.4
step02_gravity_refstate-mantle.xmf,1222,-4.97576e-07,5.91511e-06,0,-8.75267e-09,-1.56905e+09,-1.56819e+09,-1.56898e+09,-1169.79,-0.0220819,0.0337953,-0,0.04037,7902.07,-54540.2,0,55109.7,1169.79
step02_gravity_refstate-mantle.xmf,1223,-2.42672e-07,6.05397e-06,0,3.45718e-08,-1.58834e+09,-1.5875e+09,-1.58831e+09,4620.52,-0.0248874,0.0307539,-0,0.0395624,7787.27,-55138.3,0,55685.5,4620.52
step02_gravity_refstate-mantle.xmf,1224,7.06201e-08,6.14377e-06,0,8.667e-08,-1.61038e+09,-1.60957e+09,-1.61039e+09,11583.4,-0.027958,0.0266733,-0,0.0386409,7764.98,-55821.5,0,56359,11583.4
step02_gravity_refstate-mantle.xmf,1225,3.60255e-07,6.25911e-06,0,9.85315e-08,-1.63378e+09,-1.63299e+09,-1.63383e+09,13168.7,-0.0309013,0.0223359,-0,0.0381285,7720.4,-56546.3,0,57070.9,13168.7
step02_gravity_refstate-mantle.xmf,1226,6.08369e-07,6.38276e-06,0,8.20346e-08,-1.65814e+09,-1.65736e+09,-1.65822e+09,10963.9,-0.0335154,0.017682,-0,0.0378937,7680.05,-57300.7,0,57813.1,10963.9
step02_gravity_refstate-mantle.xmf,1227,5.59687e-07,7.27192e-06,0,-8.63024e-08,-1.68989e+09,-1.68899e+09,-1.68996e+09,-11534.3,-0.0364853,0.0126886,-0,0.0386287,7041.23,-58283.6,0,58707.4,11534.3
step02_gravity_refstate-mantle.xmf,1228,4.68932e-07,7.89494e-06,0,-8.40322e-08,-1.72511e+09,-1.72412e+09,-1.72518e+09,-11230.9,-0.0382679,0.00498129,-0,0.0385908,6714.99,-59372.6,0,59751.1,11230.9
step02_gravity_refstate-mantle.xmf,1229,2.11929e-07,8.54262e-06,0,-1.48036e-09,-1.74543e+09,-1.74431e+09,-1.74545e+09,-197.851,-0.0386391,-5.05639e-20,-0,0.0386391,6357.24,-60000,0,60335.8,197.851
step02_gravity_refstate-mantle.xmf,1230,-3.39414e-07,1.87208e-06,0,-1.30236e-06,-1.1283e+09,-1.12801e+09,-1.12826e+09,-174061,0.0110843,0.0777488,0,0.078535,9650.35,-40916.3,0,42038.9,174061
step02_gravity_refstate-mantle.xmf,1231,-1.59188e-06,4.31995e-06,0,-1.11284e-06,-1.38735e+09,-1.38656e+09,-1.38714e+09,-148732,-0.000954686,0.0552454,-0,0.0552536,9389.29,-48916.3,0,49809.2,148732
step02_gravity_refstate-mantle.xmf,1232,-1.43814e-06,4.7663e-06,0,-5.2053e-07,-1.44329e+09,-1.44246e+09,-1.44309e+09,-69568.9,-0.00659353,0.0469972,-0,0.0474574,9465.39,-50646.2,0,51523.1,69568.9
step02_gravity_refstate-mantle.xmf,1233,-1.55428e-06,4.56566e-06,0,-8.15491e-07,-1.41532e+09,-1.4145e+09,-1.41511e+09,-108990,-0.00362808,0.0511054,-0,0.051234,9450.17,-49781,0,50670.1,108990
step02_gravity_refstate-mantle.xmf,1234,-1.27222e-06,4.922e-06,0,-2.73744e-07,-1.46907e+09,-1.46825e+09,-1.4689e+09,-36585.9,-0.00953027,0.0433674,-0,0.0444022,9414.13,-51444.3,0,52298.6,36585.9
step02_gravity_refstate-mantle.xmf,1235,-7.96892e-07,5.43191e-06,0,3.52557e-08,-1.53233e+09,-1.5315e+09,-1.53222e+09,4711.92,-0.0171413,0.0368409,-0,0.0406335,8621.18,-53402.7,0,54094.1,4711.92
step02_gravity_refstate-mantle.xmf,1236,-4.56347e-07,5.50271e-06,0,1.75536e-07,-1.55722e+09,-1.55643e+09,-1.55716e+09,23460.3,-0.0206855,0.0327548,-0,0.0387398,8591.14,-54174.2,0,54851.2,23460.3
step02_gravity_refstate-mantle.xmf,1237,7.28748e-07,6.59375e-06,0,4.29779e-08,-1.67914e+09,-1.67836e+09,-1.67924e+09,5744,-0.0353771,0.0137265,-0,0.0379468,7578.47,-57950.9,0,58444.3,5744
step02_gravity_refstate-mantle.xmf,1238,6.58347e-07,7.28758e-06,0,-7.19279e-08,-1.71002e+09,-1.70914e+09,-1.71011e+09,-9613.17,-0.0375499,0.00806003,-0,0.0384052,7089,-58906.1,0,59331.2,9613.17
step02_gravity_refstate-mantle.xmf,1239,-4.1591e-07,1.85935e-06,0,-1.05971e-06,-1.09866e+09,-1.09835e+09,-1.0986e+09,-141630,0.0121518,0.0774382,0,0.0783858,10193,-40000,0,41278.3,141630
step02_gravity_refstate-mantle.xmf,1240,-6.78899e-07,2.46519e-06,0,-1.4532e-06,-1.19861e+09,-1.19819e+09,-1.19852e+09,-194221,0.00817771,0.0707449,0,0.071216,10232.8,-43087.3,0,44285.7,194221
step02_gravity_refstate-mantle.xmf,1241,-5.30637e-07,2.19471e-06,0,-1.36116e-06,-1.16214e+09,-1.16178e+09,-1.16207e+09,-181919,0.00954237,0.0733978,0,0.0740155,10221.7,-41961.2,0,43188.3,181919
step02_gravity_refstate-mantle.xmf,1242,-8.48445e-07,2.72954e-06,0,-1.50162e-06,-1.23114e+09,-1.23067e+09,-1.23103e+09,-200692,0.00694044,0.0681931,0,0.0685454,10220.8,-44091.9,0,45261,200692
step02_gravity_refstate-mantle.xmf,1243,-1.17619e-06,3.3656e-06,0,-1.37603e-06,-1.29543e+09,-1.29483e+09,-1.29528e+09,-183906,0.00401992,0.0620978,0,0.0622278,10235,-46077.2,0,47200.3,183906
step02_gravity_refstate-mantle.xmf,1244,-1.01004e-06,3.04276e-06,0,-1.467e-06,-1.26305e+09,-1.2625e+09,-1.26291e+09,-196064,0.00559772,0.065341,0,0.0655803,10224,-45077.1,0,46222,196064
step02_gravity_refstate-mantle.xmf,1245,-1.28507e-06,3.55256e-06,0,-1.39112e-06,-1.31555e+09,-1.31491e+09,-1.31538e+09,-185923,0.00324963,0.061181,0,0.0612673,9964.8,-46698.4,0,47749.8,185923
step02_gravity_refstate-mantle.xmf,1246,-1.36873e-06,3.8076e-06,0,-1.20097e-06,-1.34019e+09,-1.3395e+09,-1.34001e+09,-160510,0.00155243,0.057778,0,0.0577988,10095.8,-47459.6,0,48521.5,160510
step02_gravity_refstate-mantle.xmf,1247,-1.41808e-06,4.08445e-06,0,-9.60556e-07,-1.36986e+09,-1.36913e+09,-1.36967e+09,-128378,-0.000684085,0.0538671,-0,0.0538715,10160.8,-48376.6,0,49432.1,128378
step02_gravity_refstate-mantle.xmf,1248,-1.04843e-06,5.0329e-06,0,-5.57669e-08,-1.49361e+09,-1.4928e+09,-1.49347e+09,-7453.24,-0.0125396,0.0398535,-0,0.0417797,9353.45,-52204.1,0,53035.4,7453.24
step02_gravity_refstate-mantle.xmf,1249,-7.53803e-07,5.09408e-06,0,1.45365e-07,-1.5194e+09,-1.51862e+09,-1.5193e+09,19428,-0.0159163,0.0358623,-0,0.0392356,9340.12,-53002.7,0,53819.4,19428
step02_gravity_refstate-mantle.xmf,1250,-2.12378e-07,5.6084e-06,0,2.31381e-07,-1.5762e+09,-1.57542e+09,-1.57617e+09,30924.1,-0.023316,0.0300252,-0,0.0380151,8461.78,-54762.3,0,55412.1,30924.1
step02_gravity_refstate-mantle.xmf,1251,9.79935e-08,5.61689e-06,0,2.86599e-07,-1.59691e+09,-1.59617e+09,-1.59692e+09,38304,-0.0261197,0.0263979,-0,0.037136,8466.75,-55404.1,0,56047.3,38304
step02_gravity_refstate-mantle.xmf,1252,4.28715e-07,5.66863e-06,0,3.03299e-07,-1.62174e+09,-1.62104e+09,-1.62179e+09,40535.9,-0.0292109,0.0221409,-0,0.0366537,8437.97,-56173.3,0,56803.6,40535.9
step02_gravity_refstate-mantle.xmf,1253,7.26872e-07,5.7305e-06,0,2.75711e-07,-1.64775e+09,-1.64708e+09,-1.64785e+09,36848.7,-0.0320301,0.0176387,-0,0.0365657,8401.31,-56979,0,57595.1,36848.7
step02_gravity_refstate-mantle.xmf,1254,9.69005e-07,5.8491e-06,0,2.13444e-07,-1.67588e+09,-1.67523e+09,-1.67601e+09,28526.8,-0.0344796,0.012711,-0,0.0367479,8347.89,-57849.9,0,58449.1,28526.8
step02_gravity_refstate-mantle.xmf,1255,9.51306e-07,6.41737e-06,0,6.52724e-08,-1.70071e+09,-1.69998e+09,-1.70084e+09,8723.66,-0.0365484,0.0089636,-0,0.0376315,7796.21,-58618.3,0,59134.4,8723.66
step02_gravity_refstate-mantle.xmf,1256,9.05562e-07,6.80968e-06,0,3.86881e-09,-1.72495e+09,-1.72416e+09,-1.72507e+09,517.067,-0.0377148,0.00432685,-0,0.0379622,7511.11,-59367.8,0,59841,517.067
step02_gravity_refstate-mantle.xmf,1257,7.29061e-07,7.35499e-06,0,3.78064e-10,-1.74541e+09,-1.74453e+09,-1.74551e+09,50.5283,-0.03828,-4.38538e-20,-0,0.03828,7119.24,-60000,0,60420.9,50.5283
step02_gravity_refstate-mantle.xmf,1258,-5.39382e-07,2.09722e-06,0,-1.13988e-06,-1.12962e+09,-1.12927e+09,-1.12955e+09,-152345,0.0105286,0.0733655,0,0.0741171,10799.7,-40956.3,0,42356.2,152345
step02_gravity_refstate-mantle.xmf,1259,-1.39439e-06,4.32211e-06,0,-6.87407e-07,-1.39995e+09,-1.39918e+09,-1.39976e+09,-91871.9,-0.00328501,0.049767,-0,0.0498753,10204.3,-49306.7,0,50351.5,91871.9
step02_gravity_refstate-mantle.xmf,1260,-1.08669e-06,4.62641e-06,0,-1.12862e-07,-1.45975e+09,-1.45899e+09,-1.45961e+09,-15084,-0.00947316,0.0411204,-0,0.0421974,10286.1,-51156.9,0,52180.8,15084
step02_gravity_refstate-mantle.xmf,1261,-1.28816e-06,4.50263e-06,0,-4.03357e-07,-1.42934e+09,-1.42856e+09,-1.42916e+09,-53908.7,-0.00616504,0.0456003,-0,0.0460152,10241,-50215.6,0,51249.3,53908.7
step02_gravity_refstate-mantle.xmf,1262,-9.86806e-07,4.78227e-06,0,3.16772e-09,-1.48036e+09,-1.47959e+09,-1.48023e+09,423.366,-0.0115508,0.0392479,-0,0.0409123,9993.8,-51794.5,0,52749.8,423.366
step02_gravity_refstate-mantle.xmf,1263,-3.93082e-07,5.14207e-06,0,3.17313e-07,-1.54631e+09,-1.54557e+09,-1.54625e+09,42408.9,-0.0194913,0.0317264,-0,0.0372354,9304.97,-53836.4,0,54634.6,42408.9
step02_gravity_refstate-mantle.xmf,1264,3.72422e-09,5.23191e-06,0,4.15662e-07,-1.57701e+09,-1.57631e+09,-1.57701e+09,55553.2,-0.0235022,0.0273472,-0,0.0360586,9147.6,-54787.8,0,55546.2,55553.2
step02_gravity_refstate-mantle.xmf,1265,-6.03076e-07,2.05166e-06,0,-9.49065e-07,-1.09868e+09,-1.09833e+09,-1.0986e+09,-126843,0.0115695,0.0734771,0,0.0743823,11337.1,-40000,0,41575.6,126843
step02_gravity_refstate-mantle.xmf,1266,-8.05162e-07,2.70106e-06,0,-1.25988e-06,-1.21523e+09,-1.21476e+09,-1.21512e+09,-168382,0.00689149,0.0660584,0,0.0664169,11072,-43600.5,0,44984.3,168382
step02_gravity_refstate-mantle.xmf,1267,-7.08187e-07,2.49521e-06,0,-1.20962e-06,-1.18523e+09,-1.18481e+09,-1.18514e+09,-161666,0.00803544,0.0679947,0,0.0684679,11193.1,-42674.1,0,44117.6,161666
step02_gravity_refstate-mantle.xmf,1268,-9.43896e-07,2.95437e-06,0,-1.26438e-06,-1.24752e+09,-1.24699e+09,-1.24739e+09,-168984,0.00554223,0.0635103,0,0.0637517,11004.4,-44597.5,0,45935.1,168984
step02_gravity_refstate-mantle.xmf,1269,-1.20579e-06,3.57032e-06,0,-1.0773e-06,-1.31617e+09,-1.31553e+09,-1.31601e+09,-143981,0.00212956,0.0572992,0,0.0573388,10834.7,-46718.2,0,47958.1,143981
step02_gravity_refstate-mantle.xmf,1270,-1.06942e-06,3.25025e-06,0,-1.18302e-06,-1.2804e+09,-1.27982e+09,-1.28026e+09,-158110,0.00396193,0.0604326,0,0.0605623,10987.3,-45613.2,0,46917.9,158110
step02_gravity_refstate-mantle.xmf,1271,-1.25134e-06,3.847e-06,0,-8.27572e-07,-1.35045e+09,-1.34977e+09,-1.35029e+09,-110605,-0.000321264,0.0527771,-0,0.0527781,10981.6,-47777.5,0,49023.3,110605
step02_gravity_refstate-mantle.xmf,1272,-1.23886e-06,4.08029e-06,0,-5.79616e-07,-1.3832e+09,-1.38249e+09,-1.38304e+09,-77465.7,-0.00287973,0.0486923,-0,0.0487774,11000.2,-48789.9,0,50014.5,77465.7
step02_gravity_refstate-mantle.xmf,1273,-7.11395e-07,4.80939e-06,0,2.15151e-07,-1.5049e+09,-1.50417e+09,-1.50481e+09,28754.9,-0.0145919,0.0353606,-0,0.038253,10058.8,-52554.5,0,53508.5,28754.9
step02_gravity_refstate-mantle.xmf,1274,-3.87689e-07,4.81568e-06,0,3.81825e-07,-1.53225e+09,-1.53156e+09,-1.5322e+09,51030.9,-0.0179852,0.0312675,-0,0.0360711,10062.4,-53401.6,0,54341.4,51030.9
step02_gravity_refstate-mantle.xmf,1275,4.35724e-07,5.18405e-06,0,4.55968e-07,-1.60807e+09,-1.60744e+09,-1.60813e+09,60940.1,-0.0272989,0.0221732,-0,0.0351693,9197.44,-55750,0,56503.6,60940.1
step02_gravity_refstate-mantle.xmf,1276,7.66666e-07,5.20047e-06,0,4.28746e-07,-1.63548e+09,-1.63488e+09,-1.63558e+09,57301.8,-0.0302573,0.0178438,-0,0.035127,9161.84,-56598.8,0,57335.5,57301.8
step02_gravity_refstate-mantle.xmf,1277,1.02507e-06,5.24025e-06,0,3.57049e-07,-1.66169e+09,-1.66112e+09,-1.66182e+09,47719.7,-0.0326408,0.0137068,-0,0.0354019,9107.88,-57410.3,0,58128.3,47719.7
step02_gravity_refstate-mantle.xmf,1278,1.21487e-06,5.59225e-06,0,1.74591e-07,-1.70073e+09,-1.70015e+09,-1.7009e+09,23334.1,-0.0355763,0.00778224,-0,0.0364175,8694.44,-58618.6,0,59259.9,23334.1
step02_gravity_refstate-mantle.xmf,1279,1.19687e-06,5.96294e-06,0,6.66079e-08,-1.7233e+09,-1.72266e+09,-1.72346e+09,8902.15,-0.0368374,0.00409706,-0,0.0370645,8307.26,-59316.4,0,59895.3,8902.15
step02_gravity_refstate-mantle.xmf,1280,1.0933e-06,6.3911e-06,0,2.09203e-09,-1.74541e+09,-1.74471e+09,-1.74556e+09,279.599,-0.0375529,-4.35048e-20,-0,0.0375529,7916.27,-60000,0,60520,279.599
step02_gravity_refstate-mantle.xmf,1281,-6.39558e-07,2.31374e-06,0,-1.1305e-06,-1.1552e+09,-1.15481e+09,-1.15512e+09,-151091,0.00917384,0.069757,0,0.0703577,11318.6,-41746.4,0,43253.6,151091
step02_gravity_refstate-mantle.xmf,1282,-6.80602e-07,2.29796e-06,0,-9.64993e-07,-1.13526e+09,-1.13486e+09,-1.13517e+09,-128971,0.0095181,0.0686083,0,0.0692654,12064.3,-41130.1,0,42862.9,128971
step02_gravity_refstate-mantle.xmf,1283,-8.84844e-07,2.88038e-06,0,-1.10131e-06,-1.2333e+09,-1.23279e+09,-1.23318e+09,-147189,0.00557863,0.0621881,0,0.0624379,11683,-44158.6,0,45677.9,147189
step02_gravity_refstate-mantle.xmf,1284,-1.15116e-06,4.25378e-06,0,-3.21876e-07,-1.41403e+09,-1.41331e+09,-1.41388e+09,-43018.7,-0.0056236,0.0446411,-0,0.0449939,11020.7,-49743.1,0,50949.3,43018.7
step02_gravity_refstate-mantle.xmf,1285,-7.25958e-07,4.58995e-06,0,2.11953e-07,-1.48805e+09,-1.48734e+09,-1.48796e+09,28327.5,-0.0130264,0.0357501,-0,0.0380495,10657.6,-52033.4,0,53113.6,28327.5
step02_gravity_refstate-mantle.xmf,1286,-9.93423e-07,4.37151e-06,0,-7.15331e-08,-1.44351e+09,-1.4428e+09,-1.44338e+09,-9560.4,-0.00852683,0.0406327,-0,0.0415178,11041,-50655.2,0,51844.5,9560.4
step02_gravity_refstate-mantle.xmf,1287,3.3959e-09,4.82304e-06,0,5.15841e-07,-1.56185e+09,-1.5612e+09,-1.56185e+09,68942.1,-0.0216165,0.0269557,-0,0.0345526,10026.4,-54318.3,0,55235.9,68942.1
step02_gravity_refstate-mantle.xmf,1288,1.18975e-06,5.27755e-06,0,2.7555e-07,-1.68322e+09,-1.68267e+09,-1.68338e+09,36827.3,-0.0341678,0.0102288,-0,0.035666,9087.51,-58076.6,0,58783.3,36827.3
step02_gravity_refstate-mantle.xmf,1289,-7.33917e-07,2.20206e-06,0,-8.26041e-07,-1.0987e+09,-1.0983e+09,-1.0986e+09,-110400,0.0107803,0.0696905,0,0.0705194,12520.4,-40000,0,41913.7,110400
step02_gravity_refstate-mantle.xmf,1290,-7.32591e-07,2.5049e-06,0,-1.00177e-06,-1.17239e+09,-1.17196e+09,-1.1723e+09,-133887,0.00788905,0.0656056,0,0.0660782,12142.1,-42277.3,0,43986.3,133887
step02_gravity_refstate-mantle.xmf,1291,-8.15536e-07,2.73906e-06,0,-1.00295e-06,-1.20895e+09,-1.20847e+09,-1.20884e+09,-134044,0.00629539,0.062648,0,0.0629636,12144.4,-43406.5,0,45073.4,134044
step02_gravity_refstate-mantle.xmf,1292,-9.81184e-07,3.11887e-06,0,-1.02095e-06,-1.26373e+09,-1.26318e+09,-1.26359e+09,-136450,0.00403872,0.0591055,0,0.0592433,11754.5,-45098.4,0,46605.1,136450
step02_gravity_refstate-mantle.xmf,1293,-1.05735e-06,3.38934e-06,0,-8.79499e-07,-1.29819e+09,-1.29759e+09,-1.29805e+09,-117545,0.0021203,0.0555036,0,0.0555441,11792.5,-46163.1,0,47645.6,117545
step02_gravity_refstate-mantle.xmf,1294,-1.10765e-06,3.644e-06,0,-7.03284e-07,-1.33298e+09,-1.33235e+09,-1.33283e+09,-93994,-5.28351e-05,0.0517504,-0,0.0517504,11785.9,-47238.2,0,48686.3,93994
step02_gravity_refstate-mantle.xmf,1295,-1.09624e-06,3.85911e-06,0,-4.83382e-07,-1.36698e+09,-1.36632e+09,-1.36684e+09,-64604.1,-0.00251819,0.0477522,-0,0.0478186,11801.6,-48289.2,0,49710.4,64604.1
step02_gravity_refstate-mantle.xmf,1296,-1.0189e-06,4.0141e-06,0,-2.54299e-07,-1.39788e+09,-1.39721e+09,-1.39774e+09,-33987,-0.0050641,0.0438754,-0,0.0441667,11835.4,-49244.4,0,50646.7,33987
step02_gravity_refstate-mantle.xmf,1297,-7.96656e-07,4.42942e-06,0,1.36857e-07,-1.46862e+09,-1.46792e+09,-1.46852e+09,18290.9,-0.0112018,0.0370506,-0,0.038707,11090.2,-51432.3,0,52614.4,18290.9
step02_gravity_refstate-mantle.xmf,1298,-3.79122e-07,4.54698e-06,0,4.20093e-07,-1.51628e+09,-1.51562e+09,-1.51623e+09,56145.4,-0.016373,0.0312395,-0,0.0352702,10824.2,-52907.5,0,54003.4,56145.4
step02_gravity_refstate-mantle.xmf,1299,-2.44029e-08,4.50678e-06,0,5.47893e-07,-1.54664e+09,-1.54603e+09,-1.54664e+09,73225.9,-0.0198533,0.026924,-0,0.0334523,10844.3,-53847.5,0,54928.6,73225.9
step02_gravity_refstate-mantle.xmf,1300,4.02554e-07,4.80721e-06,0,5.69582e-07,-1.59254e+09,-1.59195e+09,-1.5926e+09,76124.6,-0.0252117,0.0224886,-0,0.0337842,9984.8,-55269.1,0,56163.8,76124.6
step02_gravity_refstate-mantle.xmf,1301,7.58598e-07,4.77439e-06,0,5.40415e-07,-1.62258e+09,-1.62204e+09,-1.62268e+09,72226.4,-0.0283923,0.0181099,-0,0.0336763,9948.08,-56199.1,0,57072.8,72226.4
step02_gravity_refstate-mantle.xmf,1302,1.05232e-06,4.77965e-06,0,4.6566e-07,-1.65091e+09,-1.65041e+09,-1.65105e+09,62235.4,-0.0309766,0.0140263,-0,0.0340043,9884.4,-57076.3,0,57925.8,62235.4
step02_gravity_refstate-mantle.xmf,1303,1.25567e-06,4.84031e-06,0,3.55775e-07,-1.67691e+09,-1.67644e+09,-1.67708e+09,47549.3,-0.0329568,0.0103198,-0,0.0345347,9764.34,-57881.2,0,58699,47549.3
step02_gravity_refstate-mantle.xmf,1304,1.36511e-06,5.00018e-06,0,2.32611e-07,-1.7003e+09,-1.69982e+09,-1.70049e+09,31088.5,-0.0344957,0.00702147,-0,0.0352031,9516.83,-58604.8,0,59372.5,31088.5
step02_gravity_refstate-mantle.xmf,1305,1.39194e-06,5.26755e-06,0,1.07026e-07,-1.72282e+09,-1.7223e+09,-1.723e+09,14304,-0.0357284,0.00369941,-0,0.0359194,9154.8,-59301.1,0,60003.6,14304
step02_gravity_refstate-mantle.xmf,1306,1.33846e-06,5.61126e-06,0,3.12332e-09,-1.74543e+09,-1.74485e+09,-1.7456e+09,417.431,-0.0365371,-4.05097e-20,-0,0.0365371,8750.83,-60000,0,60634.8,417.431
step02_gravity_refstate-mantle.xmf,1307,-7.58728e-07,2.39578e-06,0,-7.77837e-07,-1.13277e+09,-1.13235e+09,-1.13267e+09,-103958,0.00870738,0.0648262,0,0.0654083,13336.3,-41052.8,0,43164.7,103958
step02_gravity_refstate-mantle.xmf,1308,-8.10267e-07,2.30617e-06,0,-7.00911e-07,-1.0987e+09,-1.09829e+09,-1.0986e+09,-93676.8,0.00983443,0.0661263,0,0.0668536,13746.6,-40000,0,42296.2,93676.8
step02_gravity_refstate-mantle.xmf,1309,-8.98273e-07,2.97203e-06,0,-8.98854e-07,-1.24231e+09,-1.24179e+09,-1.24219e+09,-120132,0.00447214,0.0586732,0,0.0588434,12446.7,-44437,0,46147.3,120132
step02_gravity_refstate-mantle.xmf,1310,-8.79619e-07,4.1299e-06,0,-2.21537e-08,-1.42906e+09,-1.42839e+09,-1.42895e+09,-2960.84,-0.0078673,0.0399196,-0,0.0406875,11842.9,-50209,0,51586.8,2960.84
step02_gravity_refstate-mantle.xmf,1311,-4.38778e-07,4.28887e-06,0,3.82479e-07,-1.4938e+09,-1.49317e+09,-1.49374e+09,51118.3,-0.0142185,0.0321137,-0,0.0351206,11614,-52212,0,53488.1,51118.3
step02_gravity_refstate-mantle.xmf,1312,-6.75695e-07,4.20582e-06,0,1.9916e-07,-1.46072e+09,-1.46007e+09,-1.46063e+09,26617.8,-0.0109226,0.0358927,-0,0.0375178,11822.3,-51188.5,0,52536,26617.8
step02_gravity_refstate-mantle.xmf,1313,3.60815e-07,4.47987e-06,0,6.28273e-07,-1.57743e+09,-1.57688e+09,-1.57748e+09,83968.6,-0.0232556,0.0227156,-0,0.0325088,10810,-54801.2,0,55857.2,83968.6
step02_gravity_refstate-mantle.xmf,1314,-7.52069e-07,2.48679e-06,0,-8.54742e-07,-1.15953e+09,-1.1591e+09,-1.15943e+09,-114236,0.00784193,0.0639669,0,0.0644458,12952.9,-41879.8,0,43837.1,114236
step02_gravity_refstate-mantle.xmf,1315,-7.8574e-07,2.66678e-06,0,-8.10329e-07,-1.19038e+09,-1.18992e+09,-1.19027e+09,-108300,0.00632884,0.0608979,0,0.0612259,13151.6,-42832.8,0,44806.4,108300
step02_gravity_refstate-mantle.xmf,1316,-7.8961e-07,2.44998e-06,0,-6.28187e-07,-1.13105e+09,-1.13062e+09,-1.13094e+09,-83957.1,0.00788808,0.0617576,0,0.0622593,14488.9,-40999.6,0,43484.4,83957.1
step02_gravity_refstate-mantle.xmf,1317,-8.40268e-07,2.371e-06,0,-5.79388e-07,-1.09871e+09,-1.09828e+09,-1.09859e+09,-77435.2,0.0087837,0.0628194,0,0.0634306,15019.5,-40000,0,42726.9,77435.2
step02_gravity_refstate-mantle.xmf,1318,-8.29894e-07,2.87924e-06,0,-7.36821e-07,-1.2265e+09,-1.22601e+09,-1.22639e+09,-98476.1,0.00451837,0.0573561,0,0.0575338,13298.4,-43949,0,45916.9,98476.1
step02_gravity_refstate-mantle.xmf,1319,-9.6066e-07,3.23403e-06,0,-7.53934e-07,-1.28104e+09,-1.28048e+09,-1.28092e+09,-100763,0.00231755,0.0545314,0,0.0545806,12574.6,-45633.8,0,47334.6,100763
step02_gravity_refstate-mantle.xmf,1320,-9.85371e-07,3.46701e-06,0,-5.87851e-07,-1.31676e+09,-1.31616e+09,-1.31662e+09,-78566.3,0.000167009,0.0507788,0,0.0507791,12592,-46737.4,0,48403.9,78566.3
step02_gravity_refstate-mantle.xmf,1321,-9.82196e-07,3.66969e-06,0,-4.12333e-07,-1.35095e+09,-1.35033e+09,-1.35082e+09,-55108.3,-0.00208731,0.0471958,-0,0.0472419,12533.7,-47794.3,0,49410.4,55108.3
step02_gravity_refstate-mantle.xmf,1322,-8.99159e-07,3.78954e-06,0,-2.01932e-07,-1.38103e+09,-1.3804e+09,-1.38091e+09,-26988.2,-0.00446537,0.0433577,-0,0.043587,12653.4,-48724.2,0,50340.4,26988.2
step02_gravity_refstate-mantle.xmf,1323,-7.76194e-07,3.89229e-06,0,6.02053e-09,-1.41206e+09,-1.41144e+09,-1.41196e+09,804.644,-0.00705078,0.0395521,-0,0.0401756,12692.9,-49683.9,0,51279.6,804.644
step02_gravity_refstate-mantle.xmf,1324,-3.83093e-08,4.25083e-06,0,5.67954e-07,-1.52994e+09,-1.52937e+09,-1.52994e+09,75907.1,-0.0180663,0.0271572,-0,0.0326175,11683.7,-53331.1,0,54595.9,75907.1
step02_gravity_refstate-mantle.xmf,1325,3.17155e-07,4.19111e-06,0,6.41992e-07,-1.56277e+09,-1.56225e+09,-1.56281e+09,85802.2,-0.0214536,0.0228982,-0,0.0313781,11666.9,-54347.2,0,55585.4,85802.2
step02_gravity_refstate-mantle.xmf,1326,7.28804e-07,4.43404e-06,0,6.26557e-07,-1.60862e+09,-1.60813e+09,-1.60872e+09,83739.4,-0.0264369,0.0184784,-0,0.0322546,10775.9,-55767.1,0,56798.7,83739.4
step02_gravity_refstate-mantle.xmf,1327,1.03722e-06,4.39801e-06,0,5.47732e-07,-1.63922e+09,-1.63877e+09,-1.63936e+09,73204.4,-0.0291814,0.0143987,-0,0.0325404,10710.1,-56714.2,0,57716.6,73204.4
step02_gravity_refstate-mantle.xmf,1328,1.28739e-06,4.40262e-06,0,4.30271e-07,-1.66878e+09,-1.66836e+09,-1.66895e+09,57505.7,-0.0313662,0.0104706,-0,0.0330676,10625.5,-57629,0,58600.4,57505.7
step02_gravity_refstate-mantle.xmf,1329,1.44064e-06,4.51849e-06,0,2.84184e-07,-1.69644e+09,-1.69603e+09,-1.69663e+09,37981.3,-0.0331398,0.00688646,-0,0.0338477,10367.9,-58484.8,0,59396.7,37981.3
step02_gravity_refstate-mantle.xmf,1330,1.50751e-06,4.71048e-06,0,1.34619e-07,-1.72171e+09,-1.72128e+09,-1.72191e+09,17991.8,-0.0344319,0.0034734,-0,0.0346066,10032,-59266.3,0,60109.4,17991.8
step02_gravity_refstate-mantle.xmf,1331,1.49169e-06,4.98337e-06,0,3.67083e-09,-1.74544e+09,-1.74498e+09,-1.74564e+09,490.606,-0.0352983,-3.9445e-20,-0,0.0352983,9625.39,-60000,0,60767.2,490.606
step02_gravity_refstate-mantle.xmf,1332,-7.77148e-07,2.57466e-06,0,-6.7674e-07,-1.16684e+09,-1.1664e+09,-1.16674e+09,-90446.3,0.00666888,0.0601111,0,0.0604799,14070.4,-42105.7,0,44394.5,90446.3
step02_gravity_refstate-mantle.xmf,1333,-7.87788e-07,2.48081e-06,0,-4.95605e-07,-1.13132e+09,-1.13089e+09,-1.13122e+09,-66237.6,0.00694707,0.0588362,0,0.059245,15667.2,-41008.2,0,43899.1,66237.6
step02_gravity_refstate-mantle.xmf,1334,-8.70049e-07,3.09069e-06,0,-6.27199e-07,-1.26336e+09,-1.26283e+09,-1.26324e+09,-83825.2,0.00253071,0.0536093,0,0.053669,13414,-45087.8,0,47040.9,83825.2
step02_gravity_refstate-mantle.xmf,1335,-5.93414e-07,3.96419e-06,0,2.14039e-07,-1.44487e+09,-1.44426e+09,-1.44479e+09,28606.3,-0.00995697,0.0355656,-0,0.0369331,12690.1,-50698.8,0,52262.9,28606.3
step02_gravity_refstate-mantle.xmf,1336,-3.442e-07,4.00173e-06,0,4.04966e-07,-1.4797e+09,-1.47912e+09,-1.47966e+09,54123.8,-0.0131995,0.0313984,-0,0.03406,12634.6,-51776.5,0,53295.8,54123.8
step02_gravity_refstate-mantle.xmf,1337,-5.04984e-08,3.9946e-06,0,5.49965e-07,-1.51332e+09,-1.51278e+09,-1.51332e+09,73502.8,-0.0164356,0.0273347,-0,0.0318954,12586.2,-52817,0,54295.9,73502.8
step02_gravity_refstate-mantle.xmf,1338,6.80501e-07,4.14055e-06,0,6.67343e-07,-1.59458e+09,-1.59412e+09,-1.59467e+09,89190.4,-0.024529,0.0188363,-0,0.030927,11640.4,-55332.3,0,56543.4,89190.4
step02_gravity_refstate-mantle.xmf,1339,-7.81059e-07,2.77576e-06,0,-5.94542e-07,-1.20763e+09,-1.20716e+09,-1.20753e+09,-79460.5,0.00466135,0.056236,0,0.0564288,14253.9,-43366.2,0,45648.7,79460.5
step02_gravity_refstate-mantle.xmf,1340,-7.701e-07,2.5573e-06,0,-5.46276e-07,-1.1572e+09,-1.15676e+09,-1.1571e+09,-73009.8,0.0063415,0.0583192,0,0.0586629,15043.3,-41807.9,0,44432,73009.8
step02_gravity_refstate-mantle.xmf,1341,-8.31768e-07,2.4034e-06,0,-4.65841e-07,-1.0987e+09,-1.09827e+09,-1.09859e+09,-62259.7,0.0076762,0.0597933,0,0.060284,16343,-40000,0,43209.9,62259.7
step02_gravity_refstate-mantle.xmf,1342,-7.87327e-07,2.96041e-06,0,-4.9776e-07,-1.24543e+09,-1.24493e+09,-1.24532e+09,-66525.7,0.00271849,0.052657,0,0.0527271,14339.9,-44534.1,0,46785.9,66525.7
step02_gravity_refstate-mantle.xmf,1343,-8.81722e-07,3.30028e-06,0,-4.79358e-07,-1.30081e+09,-1.30025e+09,-1.30069e+09,-64066.2,0.000359782,0.0498046,0,0.0498059,13450.3,-46245.1,0,48161.4,64066.2
step02_gravity_refstate-mantle.xmf,1344,-8.58797e-07,3.48867e-06,0,-3.11373e-07,-1.33655e+09,-1.33597e+09,-1.33644e+09,-41615,-0.00189403,0.0461581,-0,0.046197,13414.8,-47349.9,0,49213.5,41615
step02_gravity_refstate-mantle.xmf,1345,-8.2844e-07,3.63513e-06,0,-1.81265e-07,-1.36507e+09,-1.36447e+09,-1.36496e+09,-24226.1,-0.00377758,0.0434435,-0,0.0436074,13263.9,-48231.2,0,50021.8,24226.1
step02_gravity_refstate-mantle.xmf,1346,-6.91356e-07,3.62748e-06,0,-8.4811e-10,-1.38567e+09,-1.38509e+09,-1.38558e+09,-113.35,-0.00565661,0.0399941,-0,0.0403921,13698.1,-48868.5,0,50752,113.35
step02_gravity_refstate-mantle.xmf,1347,-5.28576e-07,3.73183e-06,0,2.06582e-07,-1.42511e+09,-1.42454e+09,-1.42504e+09,27609.7,-0.00874908,0.0357132,-0,0.0367693,13607.7,-50088.1,0,51903.6,27609.7
step02_gravity_refstate-mantle.xmf,1348,2.91392e-07,3.95525e-06,0,6.52504e-07,-1.54686e+09,-1.54637e+09,-1.5469e+09,87207.2,-0.0196438,0.0232391,-0,0.0304292,12566.9,-53855.2,0,55302,87207.2
step02_gravity_refstate-mantle.xmf,1349,6.15745e-07,3.88613e-06,0,6.69738e-07,-1.57994e+09,-1.5795e+09,-1.58002e+09,89510.4,-0.0226557,0.01928,-0,0.0297489,12529.5,-54878.9,0,56291,89510.4
step02_gravity_refstate-mantle.xmf,1350,1.00419e-06,4.08865e-06,0,6.14712e-07,-1.62636e+09,-1.62595e+09,-1.62649e+09,82156.2,-0.0272721,0.0148576,-0,0.0310566,11593,-56315.9,0,57496.8,82156.2
step02_gravity_refstate-mantle.xmf,1351,1.26016e-06,4.05646e-06,0,4.94032e-07,-1.65742e+09,-1.65705e+09,-1.65759e+09,66027.4,-0.0295575,0.0110414,-0,0.0315525,11500.5,-57277.2,0,58420.3,66027.4
step02_gravity_refstate-mantle.xmf,1352,1.46374e-06,4.09367e-06,0,3.29954e-07,-1.69034e+09,-1.68999e+09,-1.69054e+09,44098.3,-0.0314683,0.00700968,-0,0.0322396,11345.5,-58295.5,0,59389.2,44098.3
step02_gravity_refstate-mantle.xmf,1353,1.56362e-06,4.25563e-06,0,1.58625e-07,-1.71936e+09,-1.719e+09,-1.71957e+09,21200.2,-0.0329566,0.00345335,-0,0.033137,10960.2,-59192.8,0,60198.9,21200.2
step02_gravity_refstate-mantle.xmf,1354,1.57631e-06,4.47772e-06,0,4.42192e-09,-1.74547e+09,-1.74508e+09,-1.74568e+09,590.989,-0.0338904,-4.0214e-20,-0,0.0338904,10542.4,-60000,0,60919.1,590.989
step02_gravity_refstate-mantle.xmf,1355,-7.50219e-07,2.68242e-06,0,-4.77914e-07,-1.18892e+09,-1.18846e+09,-1.18882e+09,-63873.2,0.00477474,0.0552398,0,0.0554458,15250.9,-42788.2,0,45424.8,63873.2
step02_gravity_refstate-mantle.xmf,1356,-7.37826e-07,2.59344e-06,0,-4.03029e-07,-1.16594e+09,-1.16549e+09,-1.16584e+09,-53864.8,0.00515072,0.0550944,0,0.0553347,16123.2,-42078.1,0,45061.3,53864.8
step02_gravity_refstate-mantle.xmf,1357,-7.4915e-07,2.50148e-06,0,-3.60681e-07,-1.13644e+09,-1.136e+09,-1.13634e+09,-48205,0.00573627,0.0556282,0,0.0559232,16975.5,-41166.5,0,44529.2,48205
step02_gravity_refstate-mantle.xmf,1358,-7.84169e-07,3.14373e-06,0,-3.73361e-07,-1.28405e+09,-1.28353e+09,-1.28395e+09,-49899.6,0.000584465,0.0489248,0,0.0489283,14374.3,-45727.7,0,47933.7,49899.6
step02_gravity_refstate-mantle.xmf,1359,-3.04359e-07,3.77158e-06,0,3.89399e-07,-1.46165e+09,-1.4611e+09,-1.46161e+09,52043.2,-0.0118524,0.0315488,-0,0.0337017,13568.6,-51218.4,0,52985.2,52043.2
step02_gravity_refstate-mantle.xmf,1360,-3.86551e-08,3.767e-06,0,5.31582e-07,-1.49654e+09,-1.49603e+09,-1.49653e+09,71045.9,-0.0149241,0.0275407,-0,0.0313244,13532.6,-52297.9,0,54020.3,71045.9
step02_gravity_refstate-mantle.xmf,1361,2.53443e-07,3.73024e-06,0,6.24812e-07,-1.53039e+09,-1.52993e+09,-1.53042e+09,83506.1,-0.0179095,0.0236629,-0,0.0296763,13498,-53345.5,0,55026.7,83506.1
step02_gravity_refstate-mantle.xmf,1362,9.45612e-07,3.8255e-06,0,6.4394e-07,-1.61292e+09,-1.61254e+09,-1.61305e+09,86062.6,-0.0253563,0.0153616,-0,0.0296466,12511.7,-55899.8,0,57282.9,86062.6
step02_gravity_refstate-mantle.xmf,1363,-7.26692e-07,2.83346e-06,0,-3.88504e-07,-1.22579e+09,-1.22531e+09,-1.22569e+09,-51923.6,0.00295791,0.0518817,0,0.051966,15340.7,-43927.5,0,46529.2,51923.6
step02_gravity_refstate-mantle.xmf,1364,-7.92611e-07,2.40982e-06,0,-3.62657e-07,-1.09869e+09,-1.09826e+09,-1.09859e+09,-48469.2,0.0065559,0.0570599,0,0.0574353,17720.9,-40000,0,43749.6,48469.2
step02_gravity_refstate-mantle.xmf,1365,-6.98206e-07,2.98963e-06,0,-2.7747e-07,-1.26482e+09,-1.26433e+09,-1.26473e+09,-37083.9,0.000917034,0.0482855,0,0.0482942,15376.9,-45133.8,0,47681.3,37083.9
step02_gravity_refstate-mantle.xmf,1366,-7.46271e-07,3.31066e-06,0,-2.16924e-07,-1.32228e+09,-1.32174e+09,-1.32218e+09,-28991.8,-0.00172698,0.0451058,-0,0.0451389,14376.6,-46909.2,0,49062.9,28991.8
step02_gravity_refstate-mantle.xmf,1367,-6.67893e-07,3.46411e-06,0,-3.52185e-08,-1.36268e+09,-1.36213e+09,-1.36259e+09,-4706.95,-0.00437212,0.041084,-0,0.041316,14289.6,-48158.2,0,50233.5,4706.95
step02_gravity_refstate-mantle.xmf,1368,-4.82192e-07,3.52734e-06,0,1.8748e-07,-1.40357e+09,-1.40304e+09,-1.40351e+09,25056.7,-0.00748428,0.0362164,-0,0.0369816,14486.6,-49422.8,0,51502.1,25056.7
step02_gravity_refstate-mantle.xmf,1369,-2.67122e-07,3.5639e-06,0,3.68563e-07,-1.4428e+09,-1.44229e+09,-1.44277e+09,49258.4,-0.0105506,0.0318585,-0,0.0335601,14510.2,-50636.1,0,52674.1,49258.4
step02_gravity_refstate-mantle.xmf,1370,5.68746e-07,3.68106e-06,0,6.73902e-07,-1.56407e+09,-1.56366e+09,-1.56415e+09,90067,-0.0207748,0.0198471,-0,0.0287315,13461.5,-54388,0,56029.2,90067
step02_gravity_refstate-mantle.xmf,1371,8.63588e-07,3.60668e-06,0,6.43251e-07,-1.59823e+09,-1.59786e+09,-1.59834e+09,85970.5,-0.0234459,0.0160319,-0,0.028403,13427.4,-55444.8,0,57047.5,85970.5
step02_gravity_refstate-mantle.xmf,1372,1.22461e-06,3.77057e-06,0,5.47353e-07,-1.64614e+09,-1.6458e+09,-1.6463e+09,73153.7,-0.0276569,0.0114888,-0,0.0299483,12481.2,-56927.5,0,58279.7,73153.7
step02_gravity_refstate-mantle.xmf,1373,1.45397e-06,3.72934e-06,0,3.65407e-07,-1.68376e+09,-1.68346e+09,-1.68396e+09,48836.6,-0.0295721,0.00713656,-0,0.0304211,12464.1,-58091.1,0,59413.3,48836.6
step02_gravity_refstate-mantle.xmf,1374,1.57639e-06,3.87822e-06,0,1.75957e-07,-1.7167e+09,-1.7164e+09,-1.71692e+09,23516.6,-0.031318,0.00346957,-0,0.0315096,11968.9,-59110,0,60309.6,23516.6
step02_gravity_refstate-mantle.xmf,1375,1.61067e-06,4.07018e-06,0,5.20808e-09,-1.74549e+09,-1.74517e+09,-1.74571e+09,696.06,-0.0323567,-4.05381e-20,-0,0.0323567,11504.3,-60000,0,61093,696.06
step02_gravity_refstate-mantle.xmf,1376,-6.87612e-07,2.71639e-06,0,-3.0511e-07,-1.20401e+09,-1.20355e+09,-1.20391e+09,-40777.9,0.00326929,0.0514188,0,0.0515226,16379.6,-43254.6,0,46252.1,40777.9
step02_gravity_refstate-mantle.xmf,1377,-6.67766e-07,2.60588e-06,0,-2.48685e-07,-1.17774e+09,-1.1773e+09,-1.17765e+09,-33236.8,0.00373272,0.0515045,0,0.0516396,17422.6,-42443.1,0,45879.9,33236.8
step02_gravity_refstate-mantle.xmf,1378,-6.66356e-07,2.50376e-06,0,-2.16777e-07,-1.1461e+09,-1.14568e+09,-1.14601e+09,-28972.3,0.00425999,0.0520428,0,0.0522169,18534,-41465.6,0,45419.2,28972.3
step02_gravity_refstate-mantle.xmf,1379,-6.50232e-07,3.13599e-06,0,-1.42894e-07,-1.30407e+09,-1.30357e+09,-1.30399e+09,-19097.8,-0.00131295,0.0445372,-0,0.0445566,15391.1,-46347.1,0,48835.8,19097.8
step02_gravity_refstate-mantle.xmf,1380,-2.58798e-08,3.5653e-06,0,5.05825e-07,-1.47927e+09,-1.47879e+09,-1.47927e+09,67603.5,-0.0134903,0.0278693,-0,0.0309627,14486.6,-51764.2,0,53753,67603.5
step02_gravity_refstate-mantle.xmf,1381,2.33938e-07,3.53678e-06,0,5.98043e-07,-1.51368e+09,-1.51324e+09,-1.51371e+09,79928.4,-0.0162816,0.0241308,-0,0.0291099,14454,-52828.6,0,54770.2,79928.4
step02_gravity_refstate-mantle.xmf,1382,5.09206e-07,3.48685e-06,0,6.44013e-07,-1.54768e+09,-1.54728e+09,-1.54775e+09,86072.3,-0.0189686,0.0204724,-0,0.0279093,14419.6,-53880.7,0,55776.8,86072.3
step02_gravity_refstate-mantle.xmf,1383,1.14566e-06,3.55381e-06,0,5.72855e-07,-1.63231e+09,-1.63199e+09,-1.63246e+09,76562,-0.0257467,0.0122793,-0,0.028525,13398.5,-56499.3,0,58066.3,76562
step02_gravity_refstate-mantle.xmf,1384,-6.35865e-07,2.84678e-06,0,-2.01577e-07,-1.24359e+09,-1.24312e+09,-1.2435e+09,-26940.7,0.00131843,0.0478919,0,0.0479101,16439.4,-44477.9,0,47418.8,26940.7
step02_gravity_refstate-mantle.xmf,1385,-7.30621e-07,2.39427e-06,0,-2.72076e-07,-1.09868e+09,-1.09826e+09,-1.09858e+09,-36362.9,0.00546114,0.0546225,0,0.0548948,19156.9,-40000,0,44350.7,36362.9
step02_gravity_refstate-mantle.xmf,1386,-5.72357e-07,2.97133e-06,0,-8.24844e-08,-1.28383e+09,-1.28336e+09,-1.28376e+09,-11024,-0.00080928,0.0442307,-0,0.0442381,16460,-45721.9,0,48594.4,11024
step02_gravity_refstate-mantle.xmf,1387,-5.62428e-07,3.25713e-06,0,1.51934e-08,-1.34324e+09,-1.34273e+09,-1.34316e+09,2030.6,-0.0037407,0.0406489,-0,0.0408206,15399.8,-47557.7,0,49988.9,2030.6
step02_gravity_refstate-mantle.xmf,1388,-4.33738e-07,3.34059e-06,0,1.77519e-07,-1.3822e+09,-1.38169e+09,-1.38214e+09,23725.5,-0.00634818,0.0366838,-0,0.037229,15393.8,-48762.3,0,51134.4,23725.5
step02_gravity_refstate-mantle.xmf,1389,-2.30727e-07,3.37473e-06,0,3.48371e-07,-1.42352e+09,-1.42303e+09,-1.42348e+09,46559.8,-0.00932069,0.0322423,-0,0.0335625,15473.4,-50040,0,52377.7,46559.8
step02_gravity_refstate-mantle.xmf,1390,-1.98637e-09,3.37539e-06,0,4.80887e-07,-1.4622e+09,-1.46174e+09,-1.4622e+09,64270.6,-0.0121779,0.0281651,-0,0.030685,15492.4,-51236.4,0,53527.4,64270.6
step02_gravity_refstate-mantle.xmf,1391,7.9792e-07,3.4316e-06,0,6.47434e-07,-1.58218e+09,-1.58183e+09,-1.58229e+09,86529.5,-0.0215149,0.0168098,-0,0.0273031,14387.4,-54948.1,0,56800.5,86529.5
step02_gravity_refstate-mantle.xmf,1392,1.05341e-06,3.36731e-06,0,5.78019e-07,-1.61718e+09,-1.61687e+09,-1.61732e+09,77252.3,-0.0238207,0.0131698,-0,0.0272189,14335,-56030.8,0,57835.5,77252.3
step02_gravity_refstate-mantle.xmf,1393,1.36068e-06,3.49398e-06,0,4.42591e-07,-1.66519e+09,-1.66491e+09,-1.66537e+09,59152.3,-0.0274117,0.0086626,-0,0.0287479,13446.6,-57516.3,0,59067.2,59152.3
step02_gravity_refstate-mantle.xmf,1394,1.56572e-06,3.58068e-06,0,1.66271e-07,-1.71734e+09,-1.71707e+09,-1.71755e+09,22222.2,-0.0296883,0.0031354,-0,0.0298534,13012.9,-59128.9,0,60543.9,22222.2
step02_gravity_refstate-mantle.xmf,1395,1.60791e-06,3.74339e-06,0,4.39002e-09,-1.74552e+09,-1.74524e+09,-1.74574e+09,586.727,-0.0307313,-3.71308e-20,-0,0.0307313,12513.8,-60000,0,61291.1,586.727
step02_gravity_refstate-mantle.xmf,1396,-5.95566e-07,2.72096e-06,0,-1.46744e-07,-1.22064e+09,-1.2202e+09,-1.22056e+09,-19612.3,0.00176266,0.0477843,0,0.0478168,17525.4,-43769.2,0,47147.4,19612.3
step02_gravity_refstate-mantle.xmf,1397,-5.72335e-07,2.60799e-06,0,-1.11523e-07,-1.19503e+09,-1.1946e+09,-1.19495e+09,-14905,0.00225627,0.0480326,0,0.0480855,18625.9,-42977.8,0,46840.3,14905
step02_gravity_refstate-mantle.xmf,1398,-6.00276e-07,2.45178e-06,0,-1.34895e-07,-1.14062e+09,-1.14021e+09,-1.14054e+09,-18028.7,0.00350072,0.0501852,0,0.0503072,20041.3,-41296.5,0,45902.7,18028.7
step02_gravity_refstate-mantle.xmf,1399,-6.5199e-07,2.36099e-06,0,-1.95291e-07,-1.09867e+09,-1.09826e+09,-1.09858e+09,-26100.6,0.00442401,0.052476,0,0.0526622,20655.1,-40000,0,45018.2,26100.6
step02_gravity_refstate-mantle.xmf,1400,-4.83166e-07,3.08146e-06,0,5.29633e-08,-1.3242e+09,-1.32373e+09,-1.32414e+09,7078.54,-0.0031186,0.0404374,-0,0.0405575,16468,-46969.8,0,49773.1,7078.54
step02_gravity_refstate-mantle.xmf,1401,2.25292e-07,3.36552e-06,0,5.69176e-07,-1.49755e+09,-1.49713e+09,-1.49758e+09,76070.3,-0.0148155,0.0245652,-0,0.0286871,15424.2,-52330,0,54555.8,76070.3
step02_gravity_refstate-mantle.xmf,1402,4.64523e-07,3.33081e-06,0,6.17369e-07,-1.53119e+09,-1.5308e+09,-1.53125e+09,82511.3,-0.0172962,0.021161,-0,0.0273303,15351.7,-53370.5,0,55534.5,82511.3
step02_gravity_refstate-mantle.xmf,1403,7.17395e-07,3.26885e-06,0,6.22215e-07,-1.56513e+09,-1.56479e+09,-1.56523e+09,83159,-0.0196273,0.0176744,-0,0.0264124,15366.3,-54420.7,0,56548.5,83159
step02_gravity_refstate-mantle.xmf,1404,1.2694e-06,3.32173e-06,0,4.78342e-07,-1.65008e+09,-1.64981e+09,-1.65025e+09,63930.4,-0.0255404,0.00975176,-0,0.0273387,14352.2,-57048.6,0,58826.3,63930.4
step02_gravity_refstate-mantle.xmf,1405,1.48599e-06,3.45931e-06,0,2.91263e-07,-1.69377e+09,-1.69351e+09,-1.69397e+09,38927.3,-0.0283861,0.00556144,-0,0.0289258,13504.3,-58399.9,0,59941,38927.3
step02_gravity_refstate-mantle.xmf,1406,-5.17127e-07,2.82823e-06,0,-3.73502e-08,-1.26242e+09,-1.26197e+09,-1.26235e+09,-4991.85,-0.00027653,0.0441504,-0,0.0441513,17553.9,-45060.5,0,48359,4991.85
step02_gravity_refstate-mantle.xmf,1407,-5.38508e-07,2.52839e-06,0,-7.29938e-08,-1.17841e+09,-1.178e+09,-1.17834e+09,-9755.62,0.00230401,0.0476924,0,0.047748,19742.6,-42464.4,0,46829.4,9755.62
step02_gravity_refstate-mantle.xmf,1408,-5.23261e-07,2.40257e-06,0,-7.04607e-08,-1.13965e+09,-1.13926e+09,-1.13958e+09,-9417.08,0.00272542,0.0484519,0,0.0485285,21476.1,-41267,0,46520.8,9417.08
step02_gravity_refstate-mantle.xmf,1409,-5.6398e-07,2.31664e-06,0,-1.31714e-07,-1.09865e+09,-1.09827e+09,-1.09857e+09,-17603.5,0.00347152,0.0506098,0,0.0507287,22219.5,-40000,0,45757,17603.5
step02_gravity_refstate-mantle.xmf,1410,-4.22658e-07,2.92153e-06,0,8.04829e-08,-1.30371e+09,-1.30326e+09,-1.30365e+09,10756.5,-0.00244797,0.0404593,-0,0.0405333,17565.5,-46336.7,0,49554.3,10756.5
step02_gravity_refstate-mantle.xmf,1411,-3.56879e-07,3.16015e-06,0,1.96505e-07,-1.36398e+09,-1.36351e+09,-1.36393e+09,26262.9,-0.00556754,0.03658,-0,0.0370013,16479.3,-48199.5,0,50938.8,26262.9
step02_gravity_refstate-mantle.xmf,1412,-1.90965e-07,3.19782e-06,0,3.33052e-07,-1.40408e+09,-1.40363e+09,-1.40406e+09,44512.4,-0.0081835,0.0326015,-0,0.0336129,16499.9,-49439.5,0,52120.2,44512.4
step02_gravity_refstate-mantle.xmf,1413,1.64619e-08,3.2039e-06,0,4.53933e-07,-1.4441e+09,-1.44367e+09,-1.4441e+09,60668.1,-0.010884,0.0285875,-0,0.0305893,16531.6,-50677,0,53305.3,60668.1
step02_gravity_refstate-mantle.xmf,1414,2.73883e-07,3.18146e-06,0,5.52196e-07,-1.48604e+09,-1.48565e+09,-1.48608e+09,73801,-0.0137205,0.024395,-0,0.0279887,16569.7,-51974.3,0,54551.6,73801
step02_gravity_refstate-mantle.xmf,1415,9.76027e-07,3.21582e-06,0,5.86583e-07,-1.60095e+09,-1.60065e+09,-1.60108e+09,78396.8,-0.0218654,0.0141012,-0,0.026018,15337.4,-55528.5,0,57607.7,78396.8
step02_gravity_refstate-mantle.xmf,1416,1.18491e-06,3.16706e-06,0,4.89052e-07,-1.63605e+09,-1.63578e+09,-1.63621e+09,65361.9,-0.0237539,0.0106667,-0,0.0260389,15281.3,-56614.1,0,58640.2,65361.9
step02_gravity_refstate-mantle.xmf,1417,1.42815e-06,3.26223e-06,0,3.17141e-07,-1.68478e+09,-1.68454e+09,-1.68498e+09,42385.9,-0.0266784,0.00615695,-0,0.0273796,14493.3,-58121.4,0,59901.2,42385.9
step02_gravity_refstate-mantle.xmf,1418,1.53392e-06,3.34315e-06,0,1.5636e-07,-1.71699e+09,-1.71675e+09,-1.71719e+09,20897.5,-0.0280194,0.00296886,-0,0.0281762,14085.9,-59117.1,0,60772,20897.5
step02_gravity_refstate-mantle.xmf,1419,1.58002e-06,3.48032e-06,0,4.27079e-09,-1.74555e+09,-1.7453e+09,-1.74576e+09,570.792,-0.0290417,-3.58822e-20,-0,0.0290417,13573.4,-60000,0,61516.1,570.792
step02_gravity_refstate-mantle.xmf,1420,-4.78434e-07,2.70367e-06,0,-4.72818e-09,-1.23989e+09,-1.23947e+09,-1.23983e+09,-631.921,0.000244567,0.0442444,0,0.0442451,18694,-44364.6,0,48142.3,631.921
step02_gravity_refstate-mantle.xmf,1421,-4.49575e-07,2.59529e-06,0,1.64393e-08,-1.21721e+09,-1.2168e+09,-1.21715e+09,2197.12,0.000698211,0.0444637,0,0.0444691,19858.1,-43663.8,0,47967.4,2197.12
step02_gravity_refstate-mantle.xmf,1422,-4.53851e-07,2.49252e-06,0,4.36137e-09,-1.18567e+09,-1.18527e+09,-1.1856e+09,582.898,0.00142822,0.0455726,0,0.045595,20960.5,-42689.1,0,47557.3,582.898
step02_gravity_refstate-mantle.xmf,1423,-4.37726e-07,2.34958e-06,0,-1.67558e-08,-1.13995e+09,-1.13957e+09,-1.13989e+09,-2239.41,0.00197937,0.0468353,0,0.0468771,23008.7,-41276.5,0,47256.2,2239.41
step02_gravity_refstate-mantle.xmf,1424,-3.01809e-07,2.99794e-06,0,2.05045e-07,-1.34469e+09,-1.34425e+09,-1.34465e+09,27404.2,-0.00475446,0.0367077,-0,0.0370143,17565.1,-47603.8,0,50741,27404.2
step02_gravity_refstate-mantle.xmf,1425,4.32998e-07,3.21828e-06,0,5.97253e-07,-1.51694e+09,-1.51657e+09,-1.517e+09,79822.9,-0.015953,0.021783,-0,0.027,16140.9,-52930,0,55336.4,79822.9
step02_gravity_refstate-mantle.xmf,1426,6.42992e-07,3.14634e-06,0,6.01109e-07,-1.54678e+09,-1.54645e+09,-1.54687e+09,80338.2,-0.0178279,0.018717,-0,0.0258488,16279.8,-53852.9,0,56259.8,80338.2
step02_gravity_refstate-mantle.xmf,1427,8.8286e-07,3.07734e-06,0,5.70314e-07,-1.58331e+09,-1.58302e+09,-1.58343e+09,76222.5,-0.0199319,0.0151386,-0,0.0250291,16356.9,-54982.7,0,57364.2,76222.5
step02_gravity_refstate-mantle.xmf,1428,1.32418e-06,3.16329e-06,0,3.9158e-07,-1.66408e+09,-1.66384e+09,-1.66426e+09,52334.7,-0.0250606,0.00797192,-0,0.026298,15167,-57481,0,59448.4,52334.7
step02_gravity_refstate-mantle.xmf,1429,-3.76293e-07,2.78438e-06,0,1.02348e-07,-1.28285e+09,-1.28243e+09,-1.2828e+09,13678.8,-0.00181787,0.0405786,-0,0.0406193,18708.1,-45692.5,0,49374.1,13678.8
step02_gravity_refstate-mantle.xmf,1430,-4.11147e-07,2.42122e-06,0,2.39683e-08,-1.17255e+09,-1.17217e+09,-1.1725e+09,3203.37,0.00133918,0.0452129,0,0.0452328,22206.8,-42284.1,0,47760.7,3203.37
step02_gravity_refstate-mantle.xmf,1431,-4.71981e-07,2.26578e-06,0,-8.07982e-08,-1.09863e+09,-1.09827e+09,-1.09857e+09,-10798.7,0.00262375,0.0490087,0,0.0490789,23854.1,-40000,0,46572.7,10798.7
step02_gravity_refstate-mantle.xmf,1432,-2.56765e-07,2.85007e-06,0,2.1057e-07,-1.32524e+09,-1.32483e+09,-1.32521e+09,28142.7,-0.0039922,0.0368928,-0,0.0371082,18701,-47002.8,0,50586.4,28142.7
step02_gravity_refstate-mantle.xmf,1433,-1.4906e-07,3.04392e-06,0,3.26154e-07,-1.38531e+09,-1.38489e+09,-1.38529e+09,43590.5,-0.00717106,0.0329156,-0,0.0336877,17563.7,-48859.6,0,51920.6,43590.5
step02_gravity_refstate-mantle.xmf,1434,3.14004e-08,3.05112e-06,0,4.27512e-07,-1.42533e+09,-1.42493e+09,-1.42534e+09,57137,-0.00963881,0.0291167,-0,0.0306706,17582.7,-50097.1,0,53093.1,57137
step02_gravity_refstate-mantle.xmf,1435,2.33461e-07,3.03896e-06,0,5.05441e-07,-1.46396e+09,-1.46358e+09,-1.46399e+09,67552.1,-0.0120406,0.0254567,-0,0.0281606,17596.9,-51291.6,0,54226.1,67552.1
step02_gravity_refstate-mantle.xmf,1436,5.43675e-07,3.06357e-06,0,5.83277e-07,-1.52316e+09,-1.52282e+09,-1.52323e+09,77955,-0.015896,0.0203295,-0,0.0258064,17079.2,-53122.3,0,55800.4,77955
step02_gravity_refstate-mantle.xmf,1437,1.11333e-06,3.03444e-06,0,5.0131e-07,-1.62167e+09,-1.62141e+09,-1.62182e+09,67000,-0.0219133,0.0115336,-0,0.0247632,16314,-56169.1,0,58490.3,67000
step02_gravity_refstate-mantle.xmf,1438,1.30123e-06,3.01525e-06,0,3.71269e-07,-1.66234e+09,-1.66211e+09,-1.66252e+09,49620.1,-0.0236709,0.0077814,-0,0.0249171,16181.8,-57426.7,0,59663,49620.1
step02_gravity_refstate-mantle.xmf,1439,1.40786e-06,3.09703e-06,0,2.92761e-07,-1.68625e+09,-1.68602e+09,-1.68643e+09,39127.4,-0.0252562,0.00571051,-0,0.0258937,15527.5,-58166,0,60202.9,39127.4
step02_gravity_refstate-mantle.xmf,1440,1.48352e-06,3.14542e-06,0,1.55529e-07,-1.71451e+09,-1.71429e+09,-1.71471e+09,20786.5,-0.0262469,0.00304003,-0,0.0264224,15236.4,-59039.6,0,60974,20786.5
step02_gravity_refstate-mantle.xmf,1441,1.53584e-06,3.26746e-06,0,4.48594e-09,-1.74558e+09,-1.74535e+09,-1.74578e+09,599.546,-0.0273081,-3.70257e-20,-0,0.0273081,14685.8,-60000,0,61771.1,599.546
step02_gravity_refstate-mantle.xmf,1442,-3.41334e-07,2.6656e-06,0,1.16848e-07,-1.26138e+09,-1.26098e+09,-1.26133e+09,15616.8,-0.00123093,0.0408115,-0,0.0408301,19906.2,-45029,0,49232.8,15616.8
step02_gravity_refstate-mantle.xmf,1443,-3.21444e-07,2.55909e-06,0,1.17295e-07,-1.23757e+09,-1.23718e+09,-1.23753e+09,15676.4,-0.000621687,0.0413386,-0,0.0413433,21122.9,-44293.4,0,49072.2,15676.4
step02_gravity_refstate-mantle.xmf,1444,-3.08356e-07,2.46669e-06,0,1.08714e-07,-1.21338e+09,-1.21301e+09,-1.21334e+09,14529.7,-9.79223e-05,0.0419875,-0,0.0419876,22352.7,-43546.2,0,48948.1,14529.7
step02_gravity_refstate-mantle.xmf,1445,-3.07626e-07,2.38112e-06,0,8.53207e-08,-1.18503e+09,-1.18467e+09,-1.18499e+09,11403.1,0.000449564,0.0430315,0,0.0430338,23587,-42670.3,0,48755.5,11403.1
step02_gravity_refstate-mantle.xmf,1446,-3.37278e-07,2.29621e-06,0,3.28284e-08,-1.14515e+09,-1.1448e+09,-1.14511e+09,4387.52,0.00118331,0.0450365,0,0.045052,24708.6,-41437.9,0,48245.4,4387.52
step02_gravity_refstate-mantle.xmf,1447,-1.15075e-07,2.89939e-06,0,3.16197e-07,-1.36657e+09,-1.36617e+09,-1.36656e+09,42259.8,-0.00623046,0.0332506,-0,0.0338293,18673.9,-48280.6,0,51766.1,42259.8
step02_gravity_refstate-mantle.xmf,1448,4.21248e-07,3.0089e-06,0,5.46862e-07,-1.49673e+09,-1.49638e+09,-1.49678e+09,73088.1,-0.01402,0.022329,-0,0.0263656,17661.8,-52304.9,0,55206.4,73088.1
step02_gravity_refstate-mantle.xmf,1449,7.87273e-07,2.97103e-06,0,5.58584e-07,-1.56216e+09,-1.56187e+09,-1.56226e+09,74654.8,-0.0179639,0.016502,-0,0.024393,17338.3,-54328.5,0,57028.1,74654.8
step02_gravity_refstate-mantle.xmf,1450,1.01598e-06,2.91775e-06,0,4.94699e-07,-1.60419e+09,-1.60394e+09,-1.60433e+09,66116.6,-0.0200217,0.0126584,-0,0.0236876,17357.6,-55628.3,0,58273.5,66116.6
step02_gravity_refstate-mantle.xmf,1451,-2.19555e-07,2.72393e-06,0,2.14934e-07,-1.30595e+09,-1.30556e+09,-1.30592e+09,28725.9,-0.00329976,0.0371205,-0,0.0372669,19885.9,-46406.8,0,50488,28725.9
step02_gravity_refstate-mantle.xmf,1452,-3.80384e-07,2.21142e-06,0,-4.21081e-08,-1.09862e+09,-1.09827e+09,-1.09857e+09,-5627.75,0.00189437,0.0476545,0,0.0476921,25563.1,-40000,0,47470.8,5627.75
step02_gravity_refstate-mantle.xmf,1453,-9.11925e-08,2.76885e-06,0,3.02701e-07,-1.34742e+09,-1.34704e+09,-1.34741e+09,40456,-0.00533467,0.0336691,-0,0.0340891,19818.2,-47688.8,0,51642.8,40456
step02_gravity_refstate-mantle.xmf,1454,5.08136e-08,2.91835e-06,0,4.08936e-07,-1.40698e+09,-1.4066e+09,-1.40699e+09,54654.3,-0.00850437,0.0296153,-0,0.0308122,18674.3,-49530.1,0,52933.5,54654.3
step02_gravity_refstate-mantle.xmf,1455,2.34885e-07,2.90747e-06,0,4.76529e-07,-1.44729e+09,-1.44693e+09,-1.44732e+09,63688.2,-0.0107982,0.0259734,-0,0.0281286,18682.7,-50776.2,0,54104.2,63688.2
step02_gravity_refstate-mantle.xmf,1456,4.37368e-07,2.88832e-06,0,5.22227e-07,-1.48798e+09,-1.48765e+09,-1.48804e+09,69795.6,-0.0130946,0.0223481,-0,0.0259019,18646.5,-52034.6,0,55274.6,69795.6
step02_gravity_refstate-mantle.xmf,1457,6.71675e-07,2.88114e-06,0,5.48432e-07,-1.53256e+09,-1.53227e+09,-1.53265e+09,73298,-0.0156343,0.0185339,-0,0.0242474,18396.4,-53413.3,0,56492.5,73298
step02_gravity_refstate-mantle.xmf,1458,1.20534e-06,2.8933e-06,0,3.98335e-07,-1.64408e+09,-1.64386e+09,-1.64424e+09,53237.5,-0.0216726,0.00909593,-0,0.023504,17294.5,-56861.7,0,59433.6,53237.5
step02_gravity_refstate-mantle.xmf,1459,1.41703e-06,2.98583e-06,0,1.78232e-07,-1.70625e+09,-1.70604e+09,-1.70644e+09,23820.7,-0.0244391,0.00365894,-0,0.0247115,16398.1,-58783.8,0,61028.1,23820.7
step02_gravity_refstate-mantle.xmf,1460,1.48161e-06,3.09444e-06,0,5.62619e-09,-1.7456e+09,-1.74539e+09,-1.7458e+09,751.94,-0.0255463,-4.51851e-20,-0,0.0255463,15854,-60000,0,62059.2,751.94
step02_gravity_refstate-mantle.xmf,1461,-1.91457e-07,2.61203e-06,0,2.1367e-07,-1.28515e+09,-1.28477e+09,-1.28512e+09,28557,-0.00261301,0.0375007,-0,0.0375916,21157.2,-45764.2,0,50418.1,28557
step02_gravity_refstate-mantle.xmf,1462,-1.75882e-07,2.51207e-06,0,2.01504e-07,-1.26252e+09,-1.26216e+09,-1.26249e+09,26931,-0.00193287,0.0381144,-0,0.0381634,22457.2,-45064.9,0,50350.5,26931
step02_gravity_refstate-mantle.xmf,1463,-1.73923e-07,2.42178e-06,0,1.7714e-07,-1.23629e+09,-1.23595e+09,-1.23627e+09,23674.7,-0.00123097,0.0390736,-0,0.039093,23785.6,-44254.7,0,50241.7,23674.7
step02_gravity_refstate-mantle.xmf,1464,-1.80709e-07,2.32811e-06,0,1.39608e-07,-1.20284e+09,-1.2025e+09,-1.20281e+09,18658.6,-0.000496041,0.0404804,-0,0.0404834,25347.3,-43221,0,50105.3,18658.6
step02_gravity_refstate-mantle.xmf,1465,-2.46374e-07,2.2412e-06,0,6.15559e-08,-1.1489e+09,-1.14857e+09,-1.14887e+09,8226.94,0.000592128,0.0436344,0,0.0436384,26433.8,-41554.3,0,49249.4,8226.94
step02_gravity_refstate-mantle.xmf,1466,6.0106e-08,2.79474e-06,0,3.85418e-07,-1.38791e+09,-1.38754e+09,-1.38792e+09,51511.1,-0.00740969,0.0302111,-0,0.0311065,19791,-48940.6,0,52790.8,51511.1
step02_gravity_refstate-mantle.xmf,1467,9.33452e-07,2.81676e-06,0,4.8749e-07,-1.58578e+09,-1.58553e+09,-1.58591e+09,65153.1,-0.0181713,0.013824,-0,0.022832,18427.8,-55058.7,0,58060.7,65153.1
step02_gravity_refstate-mantle.xmf,1468,1.11644e-06,2.80042e-06,0,4.02513e-07,-1.62864e+09,-1.62841e+09,-1.62879e+09,53795.9,-0.0199694,0.0101428,-0,0.0223976,18308.2,-56383.7,0,59281.6,53795.9
step02_gravity_refstate-mantle.xmf,1469,1.32026e-06,2.89426e-06,0,2.76212e-07,-1.67866e+09,-1.67844e+09,-1.67883e+09,36915.7,-0.0228291,0.00603301,-0,0.0236128,17174.6,-57930.4,0,60422.7,36915.7
step02_gravity_refstate-mantle.xmf,1470,-5.68708e-08,2.65213e-06,0,2.96886e-07,-1.33055e+09,-1.33018e+09,-1.33054e+09,39678.8,-0.00462014,0.0338515,-0,0.0341653,21108.5,-47167.5,0,51675.4,39678.8
step02_gravity_refstate-mantle.xmf,1471,-2.93117e-07,2.15722e-06,0,-1.43067e-08,-1.0986e+09,-1.09828e+09,-1.09857e+09,-1912.09,0.00129126,0.0465277,0,0.0465456,27351,-40000,0,48457,1912.09
step02_gravity_refstate-mantle.xmf,1472,5.61851e-08,2.69638e-06,0,3.61311e-07,-1.36875e+09,-1.3684e+09,-1.36876e+09,48289.2,-0.00639909,0.0309465,-0,0.0316012,20812,-48348.5,0,52637.6,48289.2
step02_gravity_refstate-mantle.xmf,1473,2.3213e-07,2.79345e-06,0,4.50546e-07,-1.42841e+09,-1.42806e+09,-1.42844e+09,60215.4,-0.00951037,0.0266865,-0,0.0283305,19821.5,-50192.7,0,53964.8,60215.4
step02_gravity_refstate-mantle.xmf,1474,4.19925e-07,2.77336e-06,0,4.88922e-07,-1.47123e+09,-1.47091e+09,-1.47129e+09,65344.4,-0.0117121,0.0230051,-0,0.0258149,19810.4,-51516.7,0,55194.4,65344.4
step02_gravity_refstate-mantle.xmf,1475,6.28078e-07,2.75083e-06,0,5.02515e-07,-1.51661e+09,-1.51633e+09,-1.5167e+09,67161.1,-0.013983,0.0191684,-0,0.0237266,19730,-52919.9,0,56478.2,67161.1
step02_gravity_refstate-mantle.xmf,1476,1.25528e-06,2.78671e-06,0,2.80867e-07,-1.66965e+09,-1.66944e+09,-1.66982e+09,37537.9,-0.021169,0.00660167,-0,0.0221745,18299.5,-57651.5,0,60486.1,37537.9
step02_gravity_refstate-mantle.xmf,1477,1.36625e-06,2.85531e-06,0,1.38697e-07,-1.71095e+09,-1.71076e+09,-1.71114e+09,18536.9,-0.0226926,0.00308419,-0,0.0229013,17699,-58928.3,0,61528.9,18536.9
step02_gravity_refstate-mantle.xmf,1478,1.41973e-06,2.95537e-06,0,3.34898e-09,-1.74563e+09,-1.74542e+09,-1.74582e+09,447.592,-0.0237652,-3.81667e-20,-0,0.0237652,17080.8,-60000,0,62383.9,447.592
step02_gravity_refstate-mantle.xmf,1479,-2.07202e-08,2.54744e-06,0,2.88903e-07,-1.31535e+09,-1.31501e+09,-1.31535e+09,38611.9,-0.00402095,0.0339559,-0,0.0341932,22489.9,-46698.1,0,51831.5,38611.9
step02_gravity_refstate-mantle.xmf,1480,-2.65876e-08,2.46181e-06,0,2.61706e-07,-1.2912e+09,-1.29087e+09,-1.2912e+09,34977,-0.00313015,0.0349523,-0,0.0350921,23752,-45951.8,0,51727.4,34977
step02_gravity_refstate-mantle.xmf,1481,-3.63234e-08,2.38073e-06,0,2.28134e-07,-1.26486e+09,-1.26453e+09,-1.26485e+09,30490.1,-0.00229332,0.0360999,-0,0.0361727,25121.3,-45137.8,0,51657.6,30490.1
step02_gravity_refstate-mantle.xmf,1482,-1.66058e-07,2.18438e-06,0,7.39345e-08,-1.14935e+09,-1.14903e+09,-1.14933e+09,9881.34,0.000198171,0.0426493,0,0.0426497,28300.3,-41568.4,0,50287.5,9881.34
step02_gravity_refstate-mantle.xmf,1483,-1.01098e-07,2.25596e-06,0,1.42797e-07,-1.20027e+09,-1.19996e+09,-1.20026e+09,19084.8,-0.000709874,0.0396062,-0,0.0396126,27313.3,-43142,0,51061.2,19084.8
step02_gravity_refstate-mantle.xmf,1484,2.14649e-07,2.68601e-06,0,4.17265e-07,-1.4067e+09,-1.40637e+09,-1.40673e+09,55767.4,-0.00817828,0.0276472,-0,0.0288314,20997.5,-49521.8,0,53789.4,55767.4
step02_gravity_refstate-mantle.xmf,1485,8.61736e-07,2.72438e-06,0,4.79955e-07,-1.56601e+09,-1.56576e+09,-1.56613e+09,64146,-0.0162536,0.0150239,-0,0.0221336,19639.3,-54447.4,0,57881.1,64146
step02_gravity_refstate-mantle.xmf,1486,1.07671e-06,2.69882e-06,0,3.84936e-07,-1.62092e+09,-1.6207e+09,-1.62106e+09,51446.7,-0.0183855,0.0104577,-0,0.0211516,19524,-56144.8,0,59442.6,51446.7
step02_gravity_refstate-mantle.xmf,1487,1.17297e-06,2.7364e-06,0,3.33662e-07,-1.64719e+09,-1.64699e+09,-1.64735e+09,44594,-0.0198126,0.00838751,-0,0.0215149,18945.6,-56957.2,0,60025.5,44594
step02_gravity_refstate-mantle.xmf,1488,1.41034e-07,2.58942e-06,0,3.65055e-07,-1.37101e+09,-1.37068e+09,-1.37103e+09,48789.6,-0.00637074,0.0297837,-0,0.0304575,22130.8,-48418.5,0,53236.5,48789.6
step02_gravity_refstate-mantle.xmf,1489,-2.19344e-07,2.10526e-06,0,1.66038e-09,-1.09859e+09,-1.09828e+09,-1.09856e+09,221.91,0.000816397,0.0456083,0,0.0456156,29222.3,-40000,0,49537.3,221.91
step02_gravity_refstate-mantle.xmf,1490,-3.86533e-08,2.31326e-06,0,1.97282e-07,-1.24228e+09,-1.24197e+09,-1.24228e+09,26366.8,-0.0016914,0.0370512,-0,0.0370897,26443.9,-44440.4,0,51712.9,26366.8
step02_gravity_refstate-mantle.xmf,1491,3.95344e-07,2.67576e-06,0,4.59449e-07,-1.45096e+09,-1.45066e+09,-1.45102e+09,61405.3,-0.0102423,0.0239605,-0,0.0260578,21025,-50890.3,0,55062.4,61405.3
step02_gravity_refstate-mantle.xmf,1492,5.83431e-07,2.6524e-06,0,4.69145e-07,-1.49736e+09,-1.49709e+09,-1.49744e+09,62701.3,-0.0123431,0.0201501,-0,0.0236301,20996.3,-52324.7,0,56380.1,62701.3
step02_gravity_refstate-mantle.xmf,1493,7.79228e-07,2.63103e-06,0,4.49605e-07,-1.54534e+09,-1.54509e+09,-1.54545e+09,60089.7,-0.014381,0.016256,-0,0.0217041,20920.4,-53808,0,57731.9,60089.7
step02_gravity_refstate-mantle.xmf,1494,1.20589e-06,2.68105e-06,0,2.5258e-07,-1.66814e+09,-1.66794e+09,-1.6683e+09,33757.3,-0.0194217,0.00649536,-0,0.020479,19694,-57604.2,0,60877.8,33757.3
step02_gravity_refstate-mantle.xmf,1495,1.30309e-06,2.74918e-06,0,1.31299e-07,-1.70847e+09,-1.70827e+09,-1.70864e+09,17548.2,-0.0209061,0.00318713,-0,0.0211476,19016.5,-58850.8,0,61846.9,17548.2
step02_gravity_refstate-mantle.xmf,1496,1.35758e-06,2.84148e-06,0,3.85045e-09,-1.74565e+09,-1.74545e+09,-1.74583e+09,514.613,-0.0219757,-3.97283e-20,-0,0.0219757,18369.3,-60000,0,62749,514.613
step02_gravity_refstate-mantle.xmf,1497,-1.49942e-07,2.05924e-06,0,1.1829e-08,-1.09858e+09,-1.09829e+09,-1.09856e+09,1580.95,0.000465433,0.0448777,0,0.0448801,31181.6,-40000,0,50717.8,1580.95
step02_gravity_refstate-mantle.xmf,1498,-9.40415e-08,2.13423e-06,0,7.55323e-08,-1.15334e+09,-1.15305e+09,-1.15333e+09,10094.9,-0.000117076,0.0416325,-0,0.0416327,30247.4,-41692.2,0,51508.7,10094.9
step02_gravity_refstate-mantle.xmf,1499,1.39607e-07,2.49165e-06,0,3.34906e-07,-1.3478e+09,-1.34748e+09,-1.34782e+09,44760.2,-0.00522684,0.0306911,-0,0.031133,23630.9,-47701.3,0,53233.8,44760.2
step02_gravity_refstate-mantle.xmf,1500,1.16246e-07,2.41046e-06,0,2.96149e-07,-1.32105e+09,-1.32074e+09,-1.32106e+09,39580.4,-0.00410635,0.0319891,-0,0.0322515,25024.6,-46874.7,0,53136.3,39580.4
step02_gravity_refstate-mantle.xmf,1501,8.73351e-08,2.33765e-06,0,2.53463e-07,-1.29148e+09,-1.29118e+09,-1.2915e+09,33875.4,-0.00305556,0.0335105,-0,0.0336495,26453.3,-45961,0,53030.1,33875.4
step02_gravity_refstate-mantle.xmf,1502,4.97066e-08,2.27289e-06,0,2.06572e-07,-1.2578e+09,-1.2575e+09,-1.2578e+09,27608.4,-0.00208093,0.0353627,-0,0.0354239,27834.9,-44920,0,52845,27608.4
step02_gravity_refstate-mantle.xmf,1503,-3.96113e-10,2.20537e-06,0,1.50665e-07,-1.21515e+09,-1.21486e+09,-1.21515e+09,20136.4,-0.00112571,0.0377934,-0,0.0378102,29319.2,-43602.2,0,52543.1,20136.4
step02_gravity_refstate-mantle.xmf,1504,3.56077e-07,2.58374e-06,0,4.22208e-07,-1.42724e+09,-1.42694e+09,-1.42728e+09,56428.1,-0.00873213,0.0251924,-0,0.0266628,22282.3,-50156.9,0,54883.7,56428.1
step02_gravity_refstate-mantle.xmf,1505,9.73109e-07,2.61673e-06,0,3.92701e-07,-1.59564e+09,-1.59542e+09,-1.59577e+09,52484.5,-0.0162523,0.0122004,-0,0.0203221,20829.4,-55363,0,59151.8,52484.5
step02_gravity_refstate-mantle.xmf,1506,-9.31832e-08,2.02096e-06,0,1.5762e-08,-1.09857e+09,-1.09829e+09,-1.09856e+09,2106.59,0.000229044,0.04432,0,0.0443206,33233.9,-40000,0,52004.7,2106.59
step02_gravity_refstate-mantle.xmf,1507,-3.64698e-08,2.09228e-06,0,6.83852e-08,-1.15416e+09,-1.15387e+09,-1.15415e+09,9139.68,-0.000245695,0.0410348,-0,0.0410356,32168.8,-41717.6,0,52680.1,9139.68
step02_gravity_refstate-mantle.xmf,1508,3.08099e-07,2.49634e-06,0,3.79115e-07,-1.40067e+09,-1.40037e+09,-1.40071e+09,50668.8,-0.0072394,0.0266306,-0,0.027597,23594.4,-49335.5,0,54687.2,50668.8
step02_gravity_refstate-mantle.xmf,1509,5.38833e-07,2.57183e-06,0,4.4138e-07,-1.47563e+09,-1.47535e+09,-1.4757e+09,58990.4,-0.0107269,0.0213419,-0,0.023886,22269.4,-51652.8,0,56248.9,58990.4
step02_gravity_refstate-mantle.xmf,1510,7.14954e-07,2.55234e-06,0,4.24414e-07,-1.5244e+09,-1.52416e+09,-1.5245e+09,56722.9,-0.0126228,0.0174928,-0,0.0215716,22222.6,-53160.6,0,57618.5,56722.9
step02_gravity_refstate-mantle.xmf,1511,8.85295e-07,2.54003e-06,0,3.79155e-07,-1.5736e+09,-1.57337e+09,-1.57371e+09,50674.1,-0.0143357,0.0136345,-0,0.0197841,22154.2,-54681.3,0,58998.8,50674.1
step02_gravity_refstate-mantle.xmf,1512,1.1127e-06,2.61073e-06,0,2.95807e-07,-1.64224e+09,-1.64204e+09,-1.64239e+09,39534.6,-0.0175751,0.00844125,-0,0.0194972,20800.9,-56803.4,0,60492.2,39534.6
step02_gravity_refstate-mantle.xmf,1513,1.24682e-06,2.66784e-06,0,1.12618e-07,-1.70951e+09,-1.70932e+09,-1.70968e+09,15051.4,-0.0192028,0.00300838,-0,0.0194371,20359.8,-58882.5,0,62303.1,15051.4
step02_gravity_refstate-mantle.xmf,1514,1.29373e-06,2.75015e-06,0,2.78345e-09,-1.74567e+09,-1.74548e+09,-1.74584e+09,372.008,-0.0201808,-3.79576e-20,-0,0.0201808,19722.9,-60000,0,63158.5,372.008
step02_gravity_refstate-mantle.xmf,1515,-4.86195e-08,1.99077e-06,0,1.33834e-08,-1.09857e+09,-1.09829e+09,-1.09856e+09,1788.68,8.90883e-05,0.0439228,0,0.0439229,35384.1,-40000,0,53404.5,1788.68
step02_gravity_refstate-mantle.xmf,1516,3.38414e-08,2.06751e-06,0,6.26676e-08,-1.16691e+09,-1.16664e+09,-1.16692e+09,8375.52,-0.000369151,0.0397788,-0,0.0397805,34425.7,-42112.1,0,54392.6,8375.52
step02_gravity_refstate-mantle.xmf,1517,-2.02484e-08,1.97109e-06,0,7.55657e-09,-1.09856e+09,-1.09829e+09,-1.09856e+09,1009.94,2.39721e-05,0.0436808,0,0.0436808,37637.7,-40000,0,54923.5,1009.94
step02_gravity_refstate-mantle.xmf,1518,4.72376e-08,2.032e-06,0,3.41154e-08,-1.15558e+09,-1.15531e+09,-1.15558e+09,4559.53,-0.00019947,0.0402293,-0,0.0402297,36675.6,-41761.8,0,55580.1,4559.53
step02_gravity_refstate-mantle.xmf,1519,3.87056e-08,2.14989e-06,0,1.23009e-07,-1.20773e+09,-1.20745e+09,-1.20773e+09,16440.2,-0.000958607,0.0377278,-0,0.03774,31314.6,-43373,0,53496,16440.2
step02_gravity_refstate-mantle.xmf,1520,2.78246e-07,2.42391e-06,0,3.44392e-07,-1.37547e+09,-1.37518e+09,-1.37551e+09,46027.9,-0.00593507,0.0279408,-0,0.0285642,24983.8,-48556.8,0,54607.2,46027.9
step02_gravity_refstate-mantle.xmf,1521,2.38706e-07,2.35599e-06,0,3.02347e-07,-1.34719e+09,-1.34691e+09,-1.34722e+09,40408.7,-0.00468144,0.0294877,-0,0.029857,26406.2,-47682.8,0,54506.3,40408.7
step02_gravity_refstate-mantle.xmf,1522,1.9583e-07,2.29346e-06,0,2.56475e-07,-1.31573e+09,-1.31545e+09,-1.31575e+09,34277.9,-0.00350562,0.0312561,-0,0.0314521,27888.7,-46710.6,0,54402.7,34277.9
step02_gravity_refstate-mantle.xmf,1523,1.47907e-07,2.23593e-06,0,2.07399e-07,-1.2803e+09,-1.28003e+09,-1.28032e+09,27718.9,-0.00243722,0.0333041,-0,0.0333932,29379.7,-45615.9,0,54258.4,27718.9
step02_gravity_refstate-mantle.xmf,1524,4.88138e-07,2.495e-06,0,4.06137e-07,-1.45205e+09,-1.45178e+09,-1.45211e+09,54280.2,-0.00915449,0.022663,-0,0.0244421,23593.8,-50923.9,0,56124.1,54280.2
step02_gravity_refstate-mantle.xmf,1525,1.02892e-06,2.5411e-06,0,3.08197e-07,-1.62083e+09,-1.62063e+09,-1.62097e+09,41190.5,-0.0156964,0.0099359,-0,0.0185769,22089,-56141.3,0,60330.5,41190.5
step02_gravity_refstate-mantle.xmf,1526,1.18425e-06,2.61455e-06,0,1.95916e-07,-1.67867e+09,-1.67848e+09,-1.67883e+09,26184.2,-0.0181416,0.00548214,-0,0.0189518,20922.1,-57929.2,0,61591.6,26184.2
step02_gravity_refstate-mantle.xmf,1527,-1.01402e-08,1.96651e-06,0,-1.62067e-09,-1.09856e+09,-1.0983e+09,-1.09856e+09,-216.602,5.86683e-21,0.0435975,0,0.0435975,40000,-40000,0,56568.5,216.602
step02_gravity_refstate-mantle.xmf,1528,5.58893e-08,2.01814e-06,0,1.61669e-08,-1.15114e+09,-1.15087e+09,-1.15114e+09,2160.7,-9.63462e-05,0.0403984,-0,0.0403985,38346.3,-41624.7,0,56595.5,2160.7
step02_gravity_refstate-mantle.xmf,1529,7.60975e-08,2.11654e-06,0,1.02163e-07,-1.20671e+09,-1.20644e+09,-1.20672e+09,13654.1,-0.000848843,0.0374463,-0,0.0374559,32976.6,-43341.8,0,54460.7,13654.1
step02_gravity_refstate-mantle.xmf,1530,1.32781e-07,2.18972e-06,0,1.69467e-07,-1.25868e+09,-1.25841e+09,-1.2587e+09,22649.3,-0.00182303,0.0344249,-0,0.0344732,30825.2,-44947.8,0,54502.2,22649.3
step02_gravity_refstate-mantle.xmf,1531,4.3777e-07,2.42199e-06,0,3.65379e-07,-1.42773e+09,-1.42746e+09,-1.42779e+09,48833,-0.00768022,0.0240282,-0,0.0252258,24971.3,-50172.2,0,56043,48833
step02_gravity_refstate-mantle.xmf,1532,6.58195e-07,2.48588e-06,0,4.01984e-07,-1.502e+09,-1.50175e+09,-1.50208e+09,53725.2,-0.0109327,0.0188309,-0,0.0217744,23552.1,-52467.9,0,57511.6,53725.2
step02_gravity_refstate-mantle.xmf,1533,8.12247e-07,2.47575e-06,0,3.64107e-07,-1.55167e+09,-1.55145e+09,-1.55178e+09,48663,-0.0125477,0.0150349,-0,0.019583,23487.6,-54003.5,0,58890.1,48663
step02_gravity_refstate-mantle.xmf,1534,9.48308e-07,2.47741e-06,0,3.04095e-07,-1.60015e+09,-1.59994e+09,-1.60027e+09,40642.2,-0.0138901,0.011332,-0,0.0179263,23424.2,-55501.7,0,60242.2,40642.2
step02_gravity_refstate-mantle.xmf,1535,1.13011e-06,2.5552e-06,0,2.11919e-07,-1.66565e+09,-1.66546e+09,-1.6658e+09,28322.9,-0.016657,0.00641244,-0,0.0178487,22032.2,-57526.5,0,61601.3,28322.9
step02_gravity_refstate-mantle.xmf,1536,1.19181e-06,2.60024e-06,0,1.02794e-07,-1.70781e+09,-1.70762e+09,-1.70797e+09,13738.5,-0.0175267,0.00307469,-0,0.0177944,21723.4,-58829.4,0,62712.1,13738.5
step02_gravity_refstate-mantle.xmf,1537,1.23142e-06,2.67618e-06,0,2.50718e-09,-1.74569e+09,-1.7455e+09,-1.74586e+09,335.084,-0.0183851,-3.92274e-20,-0,0.0183851,21144.8,-60000,0,63616.8,335.084
step02_gravity_refstate-mantle.xmf,1538,8.85095e-08,2.03319e-06,0,-7.96862e-10,-1.17178e+09,-1.17152e+09,-1.17179e+09,-106.501,2.12799e-20,0.0390728,0,0.0390728,40000,-42262.6,0,58190.5,106.501
step02_gravity_refstate-mantle.xmf,1539,1.34517e-07,2.05991e-06,0,2.83949e-08,-1.20419e+09,-1.20393e+09,-1.20421e+09,3794.98,-0.000253907,0.0370629,-0,0.0370638,38158.5,-43264,0,57687.5,3794.98
step02_gravity_refstate-mantle.xmf,1540,1.37825e-07,2.08129e-06,0,6.27681e-08,-1.21582e+09,-1.21556e+09,-1.21583e+09,8388.96,-0.000584212,0.0364457,-0,0.0364504,36145,-43623.3,0,56652,8388.96
step02_gravity_refstate-mantle.xmf,1541,1.57333e-07,2.11439e-06,0,9.93454e-08,-1.23794e+09,-1.23768e+09,-1.23797e+09,13277.5,-0.00102044,0.0351917,-0,0.0352065,34404.5,-44307.1,0,56096.3,13277.5
step02_gravity_refstate-mantle.xmf,1542,1.83848e-07,2.15785e-06,0,1.4591e-07,-1.2659e+09,-1.26563e+09,-1.26592e+09,19500.9,-0.00166461,0.0336105,-0,0.0336517,32543.6,-45170.9,0,55673.1,19500.9
step02_gravity_refstate-mantle.xmf,1543,2.51318e-07,2.2049e-06,0,1.95786e-07,-1.30969e+09,-1.30943e+09,-1.30972e+09,26166.8,-0.00267317,0.030917,-0,0.0310324,31043.6,-46524.1,0,55930.3,26166.8
step02_gravity_refstate-mantle.xmf,1544,3.9537e-07,2.36232e-06,0,3.30238e-07,-1.40177e+09,-1.40151e+09,-1.40182e+09,44136.4,-0.0062805,0.0255043,-0,0.0262663,26415.1,-49369.9,0,55992.4,44136.4
step02_gravity_refstate-mantle.xmf,1545,3.46206e-07,2.30492e-06,0,2.87615e-07,-1.37275e+09,-1.37249e+09,-1.3728e+09,38439.8,-0.0049404,0.0271943,-0,0.0276394,27921.4,-48473.1,0,55939.7,38439.8
step02_gravity_refstate-mantle.xmf,1546,2.9606e-07,2.2529e-06,0,2.42327e-07,-1.34126e+09,-1.341e+09,-1.3413e+09,32387,-0.00371781,0.029057,-0,0.0292938,29457,-47499.8,0,55892.3,32387
step02_gravity_refstate-mantle.xmf,1547,5.99197e-07,2.42372e-06,0,3.71937e-07,-1.4784e+09,-1.47816e+09,-1.47848e+09,49709.3,-0.00932739,0.0202479,-0,0.022293,24910.7,-51738.5,0,57423.1,49709.3
step02_gravity_refstate-mantle.xmf,1548,1.05554e-06,2.49682e-06,0,2.26893e-07,-1.64673e+09,-1.64654e+09,-1.64687e+09,30324.3,-0.014952,0.00776394,-0,0.0168476,23311.8,-56941.4,0,61528.6,30324.3
step02_gravity_refstate-mantle.xmf,1549,5.47606e-07,2.36231e-06,0,3.33236e-07,-1.45626e+09,-1.45602e+09,-1.45634e+09,44536.9,-0.00784625,0.0215324,-0,0.0229174,26377.1,-51054.2,0,57465.5,44536.9
step02_gravity_refstate-mantle.xmf,1550,7.52543e-07,2.41896e-06,0,3.46455e-07,-1.53011e+09,-1.52988e+09,-1.53021e+09,46303.7,-0.0108302,0.0163773,-0,0.0196344,24912.2,-53336.7,0,58867.8,46303.7
step02_gravity_refstate-mantle.xmf,1551,8.79318e-07,2.42117e-06,0,2.94345e-07,-1.57984e+09,-1.57963e+09,-1.57996e+09,39339.2,-0.0121226,0.0126655,-0,0.0175321,24848.5,-54873.9,0,60237.8,39339.2
step02_gravity_refstate-mantle.xmf,1552,9.82407e-07,2.44022e-06,0,2.30106e-07,-1.62675e+09,-1.62656e+09,-1.62688e+09,30753.6,-0.0131875,0.00915431,-0,0.0160534,24711,-56323.7,0,61506,30753.6
step02_gravity_refstate-mantle.xmf,1553,1.12181e-06,2.53028e-06,0,1.12735e-07,-1.6973e+09,-1.69711e+09,-1.69745e+09,15067,-0.0155517,0.00383324,-0,0.0160171,23356,-58503.9,0,62993.8,15067
step02_gravity_refstate-mantle.xmf,1554,1.17197e-06,2.61591e-06,0,3.66974e-09,-1.74571e+09,-1.74552e+09,-1.74587e+09,490.461,-0.0165904,-4.80445e-20,-0,0.0165904,22638.7,-60000,0,64128.8,490.461
step02_gravity_refstate-mantle.xmf,1555,2.06272e-07,2.08095e-06,0,-8.42206e-10,-1.2443e+09,-1.24405e+09,-1.24432e+09,-112.561,5.2189e-20,0.0344621,0,0.0344621,40000,-44503.5,0,59837.8,112.561
step02_gravity_refstate-mantle.xmf,1556,2.38104e-07,2.11612e-06,0,8.53019e-08,-1.27305e+09,-1.27279e+09,-1.27308e+09,11400.6,-0.00104553,0.0327602,-0,0.0327768,35818.8,-45391.9,0,57822.3,11400.6
step02_gravity_refstate-mantle.xmf,1557,2.56878e-07,2.10372e-06,0,4.55477e-08,-1.27687e+09,-1.27663e+09,-1.27691e+09,6087.44,-0.000584115,0.032401,-0,0.0324062,37764.8,-45510.3,0,59138.5,6087.44
step02_gravity_refstate-mantle.xmf,1558,2.80252e-07,2.14516e-06,0,1.23617e-07,-1.30168e+09,-1.30143e+09,-1.30172e+09,16521.4,-0.00167958,0.0310011,-0,0.0310466,34364.9,-46276.8,0,57641,16521.4
step02_gravity_refstate-mantle.xmf,1559,3.36173e-07,2.18164e-06,0,1.68973e-07,-1.33737e+09,-1.33712e+09,-1.33741e+09,22583.2,-0.00261101,0.0287892,-0,0.0289074,32748.7,-47379.6,0,57596.1,22583.2
step02_gravity_refstate-mantle.xmf,1560,3.88455e-07,2.22159e-06,0,2.15184e-07,-1.36986e+09,-1.36961e+09,-1.36991e+09,28759.4,-0.0037184,0.0267937,-0,0.0270505,31089.5,-48383.7,0,57511.2,28759.4
step02_gravity_refstate-mantle.xmf,1561,4.97652e-07,2.31266e-06,0,2.99862e-07,-1.43003e+09,-1.42978e+09,-1.43009e+09,40076.6,-0.0063765,0.0231126,-0,0.023976,27895.8,-50243.3,0,57468,40076.6
step02_gravity_refstate-mantle.xmf,1562,4.4167e-07,2.26508e-06,0,2.59171e-07,-1.40056e+09,-1.40031e+09,-1.40061e+09,34638.3,-0.00497801,0.0249152,-0,0.0254076,29465.3,-49332.4,0,57462.1,34638.3
step02_gravity_refstate-mantle.xmf,1563,6.94199e-07,2.36754e-06,0,3.20801e-07,-1.50852e+09,-1.50829e+09,-1.50861e+09,42875.1,-0.00924404,0.0177177,-0,0.0199842,26339.4,-52669.3,0,58888.2,42875.1
step02_gravity_refstate-mantle.xmf,1564,1.05252e-06,2.47193e-06,0,1.63725e-07,-1.66646e+09,-1.66627e+09,-1.6666e+09,21881.8,-0.0140303,0.00615865,-0,0.0153225,24459,-57550.7,0,62532.6,21881.8
step02_gravity_refstate-mantle.xmf,1565,6.38096e-07,2.31809e-06,0,2.87432e-07,-1.48644e+09,-1.48622e+09,-1.48653e+09,38415.3,-0.00772411,0.0190814,-0,0.0205855,27847.2,-51986.9,0,58975.5,38415.3
step02_gravity_refstate-mantle.xmf,1566,8.21579e-07,2.37259e-06,0,2.81318e-07,-1.55985e+09,-1.55965e+09,-1.55996e+09,37598.2,-0.0104041,0.0139532,-0,0.0174051,26365.3,-54255.9,0,60322.8,37598.2
step02_gravity_refstate-mantle.xmf,1567,9.22386e-07,2.39134e-06,0,2.20908e-07,-1.6106e+09,-1.61041e+09,-1.61073e+09,29524.4,-0.011445,0.0102264,-0,0.0153482,26258.3,-55824.3,0,61691.6,29524.4
step02_gravity_refstate-mantle.xmf,1568,1.00701e-06,2.43278e-06,0,1.56193e-07,-1.659e+09,-1.65881e+09,-1.65914e+09,20875.2,-0.0125677,0.00664771,-0,0.0142176,25794.5,-57320,0,62856.5,20875.2
step02_gravity_refstate-mantle.xmf,1569,1.06889e-06,2.48959e-06,0,8.49823e-08,-1.70251e+09,-1.70232e+09,-1.70265e+09,11357.9,-0.0136563,0.00336507,-0,0.0140648,25121.4,-58664.4,0,63817,11357.9
step02_gravity_refstate-mantle.xmf,1570,1.11394e-06,2.5699e-06,0,2.58236e-09,-1.74573e+09,-1.74553e+09,-1.74587e+09,345.133,-0.0147957,-4.22367e-20,-0,0.0147957,24208.2,-60000,0,64699.6,345.133
step02_gravity_refstate-mantle.xmf,1571,3.34287e-07,2.11711e-06,0,-3.1345e-10,-1.3163e+09,-1.31606e+09,-1.31634e+09,-41.8926,7.11157e-20,0.0297917,0,0.0297917,40000,-46728.6,0,61510.7,41.8926
step02_gravity_refstate-mantle.xmf,1572,3.50165e-07,2.13808e-06,0,8.93295e-08,-1.33031e+09,-1.33007e+09,-1.33036e+09,11938.9,-0.00136565,0.0289733,-0,0.0290054,36164.8,-47161.7,0,59431.7,11938.9
step02_gravity_refstate-mantle.xmf,1573,4.08879e-07,2.16772e-06,0,1.3371e-07,-1.3655e+09,-1.36527e+09,-1.36556e+09,17870.3,-0.00231428,0.0267391,-0,0.0268391,34468.2,-48249.2,0,59296.2,17870.3
step02_gravity_refstate-mantle.xmf,1574,4.68055e-07,2.20084e-06,0,1.78e-07,-1.39961e+09,-1.39938e+09,-1.39968e+09,23789.7,-0.00346694,0.0245723,-0,0.0248157,32762.3,-49303.4,0,59196.2,23789.7
step02_gravity_refstate-mantle.xmf,1575,5.25752e-07,2.23707e-06,0,2.19799e-07,-1.43093e+09,-1.4307e+09,-1.431e+09,29376.1,-0.00477573,0.0225876,-0,0.0230869,31072.3,-50271.2,0,59098.9,29376.1
step02_gravity_refstate-mantle.xmf,1576,5.82499e-07,2.27651e-06,0,2.57299e-07,-1.45951e+09,-1.45929e+09,-1.45959e+09,34388.1,-0.00619642,0.0207816,-0,0.0216857,29433.5,-51154.6,0,59018,34388.1
step02_gravity_refstate-mantle.xmf,1577,7.58228e-07,2.33079e-06,0,2.62619e-07,-1.53717e+09,-1.53696e+09,-1.53728e+09,35099.1,-0.00879941,0.0154382,-0,0.0177699,27825.9,-53554.9,0,60352.4,35099.1
step02_gravity_refstate-mantle.xmf,1578,4.0082e-07,2.13673e-06,0,4.57277e-08,-1.35416e+09,-1.35393e+09,-1.35421e+09,6111.51,-0.000778423,0.0273272,-0,0.0273383,38066.3,-47898.6,0,61182.7,6111.51
step02_gravity_refstate-mantle.xmf,1579,7.02829e-07,2.29015e-06,0,2.35564e-07,-1.51511e+09,-1.5149e+09,-1.51521e+09,31483.1,-0.00728385,0.0168651,-0,0.0183708,29350,-52872.9,0,60472.9,31483.1
step02_gravity_refstate-mantle.xmf,1580,8.6308e-07,2.34608e-06,0,2.05499e-07,-1.59289e+09,-1.59269e+09,-1.593e+09,27464.9,-0.0096095,0.011396,-0,0.0149068,28007.3,-55276.5,0,61967,27464.9
step02_gravity_refstate-mantle.xmf,1581,9.55994e-07,2.39323e-06,0,1.45656e-07,-1.64921e+09,-1.64902e+09,-1.64934e+09,19466.9,-0.0108315,0.00729966,-0,0.0130617,27455.6,-57017.1,0,63283.1,19466.9
step02_gravity_refstate-mantle.xmf,1582,1.01881e-06,2.45363e-06,0,7.84227e-08,-1.69846e+09,-1.69827e+09,-1.69859e+09,10481.2,-0.011923,0.00363321,-0,0.0124643,26759.1,-58538.9,0,64365,10481.2
step02_gravity_refstate-mantle.xmf,1583,1.06072e-06,2.53388e-06,0,2.84734e-09,-1.74574e+09,-1.74554e+09,-1.74588e+09,380.546,-0.0130028,-4.57066e-20,-0,0.0130028,25857.2,-60000,0,65334.5,380.546
step02_gravity_refstate-mantle.xmf,1584,4.65074e-07,2.14741e-06,0,-2.17621e-10,-1.38798e+09,-1.38775e+09,-1.38804e+09,-29.0851,9.24575e-20,0.0250681,0,0.0250681,40000,-48943.8,0,63209.9,29.0851
step02_gravity_refstate-mantle.xmf,1585,4.72578e-07,2.16249e-06,0,9.13222e-08,-1.39448e+09,-1.39426e+09,-1.39455e+09,12205.2,-0.0017688,0.0247041,-0,0.0247673,36271.5,-49144.8,0,61080.6,12205.2
step02_gravity_refstate-mantle.xmf,1586,5.34561e-07,2.19037e-06,0,1.34256e-07,-1.42956e+09,-1.42933e+09,-1.42963e+09,17943.3,-0.00294887,0.0224237,-0,0.0226168,34496.9,-50228.7,0,60934,17943.3
step02_gravity_refstate-mantle.xmf,1587,5.95664e-07,2.22166e-06,0,1.73427e-07,-1.46256e+09,-1.46235e+09,-1.46264e+09,23178.5,-0.0043065,0.0202721,-0,0.0207245,32737.6,-51248.8,0,60812.7,23178.5
step02_gravity_refstate-mantle.xmf,1588,6.54573e-07,2.25538e-06,0,2.07833e-07,-1.49191e+09,-1.4917e+09,-1.492e+09,27776.8,-0.00577361,0.018358,-0,0.0192445,31027.3,-52155.8,0,60687,27776.8
step02_gravity_refstate-mantle.xmf,1589,7.89615e-07,2.31219e-06,0,2.12373e-07,-1.55919e+09,-1.55899e+09,-1.5593e+09,28383.7,-0.0081777,0.0137471,-0,0.0159955,29122.7,-54235.2,0,61559.6,28383.7
step02_gravity_refstate-mantle.xmf,1590,5.30208e-07,2.16658e-06,0,4.53001e-08,-1.42555e+09,-1.42533e+09,-1.42562e+09,6054.36,-0.00099457,0.0225789,-0,0.0226008,38125,-50104.9,0,62960.4,6054.36
step02_gravity_refstate-mantle.xmf,1591,7.72871e-07,2.28488e-06,0,1.78163e-07,-1.55645e+09,-1.55624e+09,-1.55655e+09,23811.5,-0.00679773,0.0138409,-0,0.0154201,30843.2,-54150.2,0,62318.1,23811.5
step02_gravity_refstate-mantle.xmf,1592,8.44519e-07,2.32067e-06,0,1.72904e-07,-1.59381e+09,-1.59361e+09,-1.59392e+09,23108.6,-0.00813962,0.0112328,-0,0.0138719,29747.3,-55304.7,0,62797.4,23108.6
step02_gravity_refstate-mantle.xmf,1593,9.11384e-07,2.36223e-06,0,1.29103e-07,-1.64159e+09,-1.64139e+09,-1.64171e+09,17254.6,-0.00909065,0.00779384,-0,0.0119743,29241,-56781.3,0,63868.2,17254.6
step02_gravity_refstate-mantle.xmf,1594,9.73537e-07,2.42656e-06,0,6.91649e-08,-1.69549e+09,-1.6953e+09,-1.69562e+09,9243.9,-0.0101922,0.00382352,-0,0.0108857,28481,-58447,0,65017,9243.9
step02_gravity_refstate-mantle.xmf,1595,1.01107e-06,2.50707e-06,0,2.54924e-09,-1.74575e+09,-1.74555e+09,-1.74589e+09,340.706,-0.0112078,-4.81443e-20,-0,0.0112078,27590,-60000,0,66039.4,340.706
step02_gravity_refstate-mantle.xmf,1596,5.88669e-07,2.17994e-06,0,-1.29994e-11,-1.45953e+09,-1.45932e+09,-1.45961e+09,-1.73737,1.13209e-19,0.0202836,0,0.0202836,40000,-51155,0,64937.2,1.73737
step02_gravity_refstate-mantle.xmf,1597,5.93387e-07,2.1907e-06,0,8.7091e-08,-1.4616e+09,-1.46139e+09,-1.46168e+09,11639.7,-0.0021866,0.0201883,-0,0.0203064,36301.8,-51219,0,62779,11639.7
step02_gravity_refstate-mantle.xmf,1598,6.54313e-07,2.219e-06,0,1.23794e-07,-1.49613e+09,-1.49592e+09,-1.49622e+09,16545,-0.00356865,0.0178882,-0,0.0182407,34487.8,-52286,0,62635.7,16545
step02_gravity_refstate-mantle.xmf,1599,7.10952e-07,2.2492e-06,0,1.54888e-07,-1.52563e+09,-1.52543e+09,-1.52573e+09,20700.8,-0.00508956,0.0159178,-0,0.0167117,32670.5,-53197.9,0,62429,20700.8
step02_gravity_refstate-mantle.xmf,1600,6.45324e-07,2.20139e-06,0,4.14057e-08,-1.49542e+09,-1.49521e+09,-1.49551e+09,5533.87,-0.001202,0.0178631,-0,0.0179035,38134.6,-52264,0,64697.6,5533.87
step02_gravity_refstate-mantle.xmf,1601,8.62607e-07,2.32933e-06,0,1.1527e-07,-1.6265e+09,-1.62631e+09,-1.62662e+09,15405.9,-0.00721654,0.00883311,-0,0.0114062,31209.6,-56314.9,0,64384.8,15405.9
step02_gravity_refstate-mantle.xmf,1602,9.32143e-07,2.40495e-06,0,5.87737e-08,-1.69231e+09,-1.69211e+09,-1.69243e+09,7855.11,-0.0083996,0.00403535,-0,0.00931865,30347.8,-58348.2,0,65768.6,7855.11
step02_gravity_refstate-mantle.xmf,1603,9.66435e-07,2.48747e-06,0,2.5107e-09,-1.74576e+09,-1.74556e+09,-1.74589e+09,335.556,-0.0094076,-5.07089e-20,-0,0.0094076,29410.7,-60000,0,66820.6,335.556
step02_gravity_refstate-mantle.xmf,1604,6.96111e-07,2.22161e-06,0,1.40961e-10,-1.53108e+09,-1.53088e+09,-1.53117e+09,18.8395,1.29046e-19,0.0154179,0,0.0154179,40000,-53365.9,0,66692.8,18.8395
step02_gravity_refstate-mantle.xmf,1605,6.99368e-07,2.2272e-06,0,7.49927e-08,-1.52898e+09,-1.52877e+09,-1.52907e+09,10022.8,-0.00255828,0.015589,-0,0.0157975,36314.3,-53301,0,64495.9,10022.8
step02_gravity_refstate-mantle.xmf,1606,7.93698e-07,2.28467e-06,0,1.26291e-07,-1.58209e+09,-1.58189e+09,-1.58219e+09,16878.8,-0.00576088,0.0119676,-0,0.013282,32514.3,-54942.3,0,63842.3,16878.8
step02_gravity_refstate-mantle.xmf,1607,7.66869e-07,2.26234e-06,0,9.88971e-08,-1.5692e+09,-1.569e+09,-1.56931e+09,13217.6,-0.00413548,0.0128285,-0,0.0134786,34478.9,-54544.1,0,64527.9,13217.6
step02_gravity_refstate-mantle.xmf,1608,7.38976e-07,2.24673e-06,0,3.36557e-08,-1.56395e+09,-1.56375e+09,-1.56405e+09,4498.08,-0.00135571,0.013153,-0,0.0132227,38161.3,-54381.6,0,66435.3,4498.08
step02_gravity_refstate-mantle.xmf,1609,8.39917e-07,2.32025e-06,0,8.03031e-08,-1.63159e+09,-1.6314e+09,-1.63171e+09,10732.5,-0.00538276,0.00842702,-0,0.00999944,33404,-56472,0,65611.8,10732.5
step02_gravity_refstate-mantle.xmf,1610,8.95325e-07,2.38865e-06,0,4.82342e-08,-1.6887e+09,-1.6885e+09,-1.68882e+09,6446.51,-0.00658294,0.0042834,-0,0.00785383,32320.8,-58236.6,0,66604.4,6446.51
step02_gravity_refstate-mantle.xmf,1611,9.27443e-07,2.47397e-06,0,2.4445e-09,-1.74577e+09,-1.74557e+09,-1.7459e+09,326.707,-0.00759597,-5.36261e-20,-0,0.00759597,31323.8,-60000,0,67684.4,326.707
step02_gravity_refstate-mantle.xmf,1612,7.79263e-07,2.27859e-06,0,2.76818e-10,-1.60263e+09,-1.60243e+09,-1.60274e+09,36.9968,1.65074e-19,0.0104438,0,0.0104438,40000,-55576.9,0,68474.7,36.9968
step02_gravity_refstate-mantle.xmf,1613,7.74354e-07,2.26775e-06,0,5.75007e-08,-1.58623e+09,-1.58603e+09,-1.58633e+09,7684.96,-0.00269561,0.0116095,-0,0.0119184,36474.6,-55070,0,66053.8,7684.96
step02_gravity_refstate-mantle.xmf,1614,8.15077e-07,2.31154e-06,0,2.5646e-08,-1.63511e+09,-1.63491e+09,-1.63522e+09,3427.59,-0.0017205,0.00814257,-0,0.00832236,37870,-56580.4,0,68084.3,3427.59
step02_gravity_refstate-mantle.xmf,1615,8.28059e-07,2.31502e-06,0,5.36833e-08,-1.63389e+09,-1.63369e+09,-1.634e+09,7174.78,-0.00361077,0.00824083,-0,0.00899716,35548.5,-56542.9,0,66789.2,7174.78
step02_gravity_refstate-mantle.xmf,1616,8.67951e-07,2.3817e-06,0,3.3298e-08,-1.6894e+09,-1.6892e+09,-1.68951e+09,4450.28,-0.00472248,0.0042195,-0,0.00633293,34432.9,-58257.9,0,67672.8,4450.28
step02_gravity_refstate-mantle.xmf,1617,8.94804e-07,2.46537e-06,0,2.21758e-09,-1.74578e+09,-1.74557e+09,-1.7459e+09,296.379,-0.00576394,-5.29356e-20,-0,0.00576394,33334.3,-60000,0,68638,296.379
step02_gravity_refstate-mantle.xmf,1618,8.31832e-07,2.35603e-06,0,4.58168e-12,-1.67419e+09,-1.67399e+09,-1.6743e+09,0.612341,1.32246e-19,0.00532158,0,0.00532158,40000,-57787.8,0,70281.1,0.612341
step02_gravity_refstate-mantle.xmf,1619,8.42297e-07,2.38205e-06,0,1.02373e-08,-1.6943e+09,-1.6941e+09,-1.69441e+09,1368.21,-0.00136695,0.00384906,-0,0.00408458,38373.9,-58409.2,0,69887,1368.21
step02_gravity_refstate-mantle.xmf,1620,8.55817e-07,2.37895e-06,0,2.11781e-08,-1.69063e+09,-1.69043e+09,-1.69075e+09,2830.45,-0.00291236,0.00412195,-0,0.005047,36543.1,-58296,0,68802.8,2830.45
step02_gravity_refstate-mantle.xmf,1621,8.48368e-07,2.45707e-06,0,-2.76862e-09,-1.74579e+09,-1.74558e+09,-1.74591e+09,-370.026,-6.1026e-19,-3.75148e-19,-0,7.16348e-19,40000,-60000,0,72111,370.026
step02_gravity_refstate-mantle.xmf,1622,8.69952e-07,2.46026e-06,0,1.99747e-09,-1.74579e+09,-1.74558e+09,-1.7459e+09,266.961,-0.00389956,-5.18929e-20,-0,0.00389956,35446.9,-60000,0,69688.5,266.961
step02_gravity_refstate-mantle.xmf,1623,8.54141e-07,2.45752e-06,0,-2.12489e-09,-1.74579e+09,-1.74558e+09,-1.74591e+09,-283.992,-0.00198574,-4.01761e-19,-0,0.00198574,37667,-60000,0,70843.5,283.992
step02_gravity_refstate-intrusion.xmf,0,2.43731e-06,-5.97683e-06,0,9.84874e-06,-1.42243e+09,-1.42336e+09,-1.4227e+09,1.09069e+06,-0.00831638,0.126421,-0,0.126695,-2000,-50000,-0,50040,1.09069e+06
step02_gravity_refstate-intrusion.xmf,1,1.0773e-06,-3.35915e-06,0,1.15382e-05,-1.43869e+09,-1.43918e+09,-1.43881e+09,1.27778e+06,-0.00755318,0.128361,-0,0.128583,-2000,-50500.3,-0,50539.9,1.27778e+06
step02_gravity_refstate-intrusion.xmf,2,6.46624e-07,-1.56236e-06,0,1.27031e-05,-1.45482e+09,-1.45507e+09,-1.45489e+09,1.40679e+06,-0.00597536,0.129566,-0,0.129704,-2000,-51000.2,-0,51039.4,1.40679e+06
step02_gravity_refstate-intrusion.xmf,3,1.4454e-07,1.93771e-07,0,1.35753e-05,-1.47099e+09,-1.47098e+09,-1.471e+09,1.50338e+06,-0.00402179,0.129919,-0,0.129981,-2000,-51500.6,-0,51539.4,1.50338e+06
step02_gravity_refstate-intrusion.xmf,4,-4.16875e-07,1.99511e-06,0,1.42679e-05,-1.48715e+09,-1.48689e+09,-1.48711e+09,1.58008e+06,-0.00186999,0.129378,-0,0.129391,-2000,-52000.7,-0,52039.1,1.58008e+06
step02_gravity_refstate-intrusion.xmf,5,3.6714e-06,-9.97679e-06,0,7.68581e-06,-1.42249e+09,-1.424e+09,-1.42289e+09,851156,-0.00677724,0.134908,-0,0.135078,-1499.83,-50000,-0,50022.5,851156
step02_gravity_refstate-intrusion.xmf,6,-1.08629e-06,3.86634e-06,0,1.47413e-05,-1.50331e+09,-1.50276e+09,-1.50319e+09,1.63251e+06,0.00038881,0.127915,0,0.127915,-2000,-52500.1,-0,52538.2,1.63251e+06
step02_gravity_refstate-intrusion.xmf,7,-1.83306e-06,5.76642e-06,0,1.50118e-05,-1.51947e+09,-1.51863e+09,-1.51927e+09,1.66246e+06,0.00270723,0.12551,0,0.125539,-2000,-52999.3,-0,53037,1.66246e+06
step02_gravity_refstate-intrusion.xmf,8,4.41884e-06,-1.20576e-05,0,5.09847e-06,-1.4225e+09,-1.42432e+09,-1.42299e+09,564625,-0.00475215,0.141013,-0,0.141093,-1000,-50000,-0,50010,564625
step02_gravity_refstate-intrusion.xmf,9,-2.58178e-06,7.70953e-06,0,1.51232e-05,-1.53564e+09,-1.53451e+09,-1.53536e+09,1.6748e+06,0.00506577,0.122142,0,0.122247,-2000,-53498.9,-0,53536.3,1.6748e+06
step02_gravity_refstate-intrusion.xmf,10,-3.39365e-06,9.67561e-06,0,1.50138e-05,-1.55185e+09,-1.5504e+09,-1.55147e+09,1.66269e+06,0.00745338,0.117795,0,0.118031,-2000,-53999.2,-0,54036.2,1.66269e+06
step02_gravity_refstate-intrusion.xmf,11,-4.18946e-06,1.16418e-05,0,1.47412e-05,-1.56805e+09,-1.5663e+09,-1.56759e+09,1.6325e+06,0.00986053,0.112463,0,0.112894,-2000,-54499.5,-0,54536.2,1.6325e+06
step02_gravity_refstate-intrusion.xmf,12,-4.96354e-06,1.36725e-05,0,1.42764e-05,-1.58422e+09,-1.58216e+09,-1.58367e+09,1.58103e+06,0.0122789,0.106146,0,0.106854,-2000,-54999.2,-0,55035.5,1.58103e+06
step02_gravity_refstate-intrusion.xmf,13,-5.70412e-06,1.56892e-05,0,1.36146e-05,-1.60037e+09,-1.598e+09,-1.59974e+09,1.50773e+06,0.0146903,0.0988373,0,0.0999231,-2000,-55498.3,-0,55534.3,1.50773e+06
step02_gravity_refstate-intrusion.xmf,14,-6.37614e-06,1.76814e-05,0,1.2731e-05,-1.61652e+09,-1.61386e+09,-1.61582e+09,1.40989e+06,0.0170692,0.0905352,0,0.0921303,-2000,-55997.8,-0,56033.5,1.40989e+06
step02_gravity_refstate-intrusion.xmf,15,-6.9419e-06,1.96177e-05,0,1.16314e-05,-1.63268e+09,-1.62974e+09,-1.63191e+09,1.28811e+06,0.0193595,0.0812229,0,0.0834982,-2000,-56497.8,-0,56533.2,1.28811e+06
step02_gravity_refstate-intrusion.xmf,16,4.8055e-06,-1.31528e-05,0,2.54521e-06,-1.42251e+09,-1.4245e+09,-1.42304e+09,281866,-0.00244046,0.144676,-0,0.144696,-500.172,-50000,-0,50002.5,281866
step02_gravity_refstate-intrusion.xmf,17,-7.45604e-06,2.15824e-05,0,1.02201e-05,-1.64883e+09,-1.64562e+09,-1.64801e+09,1.13181e+06,0.0214436,0.070918,0,0.074089,-2000,-56998.3,-0,57033.3,1.13181e+06
step02_gravity_refstate-intrusion.xmf,18,-7.95243e-06,2.34856e-05,0,8.38875e-06,-1.66497e+09,-1.66149e+09,-1.66409e+09,929003,0.023092,0.059653,0,0.0639665,-2000,-57498.2,-0,57532.9,929003
step02_gravity_refstate-intrusion.xmf,19,4.95483e-06,-1.35023e-05,0,-4.14335e-08,-1.4225e+09,-1.42455e+09,-1.42305e+09,-4588.51,-7.54606e-07,0.145897,-0,0.145897,0,-50000,0,50000,4588.51
step02_gravity_refstate-intrusion.xmf,20,-9.17082e-06,2.70128e-05,0,6.09601e-06,-1.68119e+09,-1.67718e+09,-1.68017e+09,675096,0.0236526,0.0474382,0,0.0530078,-2000,-58000,-0,58034.5,675096
step02_gravity_refstate-intrusion.xmf,21,4.82415e-06,-1.31618e-05,0,-2.60286e-06,-1.4225e+09,-1.4245e+09,-1.42304e+09,-288251,0.00244201,0.144676,0,0.144696,500.172,-50000,0,50002.5,288251
step02_gravity_refstate-intrusion.xmf,22,-1.10725e-05,3.19303e-05,0,5.27617e-06,-1.68119e+09,-1.67643e+09,-1.67996e+09,584303,0.01859,0.0526329,0,0.0558194,-1499.28,-58000,-0,58019.4,584303
step02_gravity_refstate-intrusion.xmf,23,4.43555e-06,-1.20641e-05,0,-5.20142e-06,-1.4225e+09,-1.42432e+09,-1.42299e+09,-576026,0.00475073,0.141012,0,0.141092,1000,-50000,0,50010,576026
step02_gravity_refstate-intrusion.xmf,24,-1.22166e-05,3.4527e-05,0,3.50276e-06,-1.68121e+09,-1.67604e+09,-1.67986e+09,387909,0.0127654,0.0566797,0,0.0580994,-999.317,-58000,-0,58008.6,387909
step02_gravity_refstate-intrusion.xmf,25,3.71685e-06,-1.00149e-05,0,-7.80084e-06,-1.42248e+09,-1.424e+09,-1.42289e+09,-863895,0.00677829,0.134907,0,0.135078,1499.83,-50000,0,50022.5,863895
step02_gravity_refstate-intrusion.xmf,26,-1.28837e-05,3.59448e-05,0,1.73025e-06,-1.68123e+09,-1.67583e+09,-1.67981e+09,191615,0.00649418,0.059129,0,0.0594846,-499.831,-58000,-0,58002.2,191615
step02_gravity_refstate-intrusion.xmf,27,1.57017e-06,-4.5361e-06,0,-1.01191e-05,-1.42249e+09,-1.42316e+09,-1.42266e+09,-1.12062e+06,0.00831616,0.126422,0,0.126695,2000,-50000,0,50040,1.12062e+06
step02_gravity_refstate-intrusion.xmf,28,-1.31039e-05,3.64011e-05,0,-2.73739e-08,-1.68124e+09,-1.67576e+09,-1.67979e+09,-3031.49,8.97678e-08,0.0599479,0,0.0599479,-2.07592e-10,-58000,-0,58000,3031.49
step02_gravity_refstate-intrusion.xmf,29,1.10851e-06,-3.23999e-06,0,-1.15875e-05,-1.43867e+09,-1.43916e+09,-1.4388e+09,-1.28324e+06,0.00755281,0.128359,0,0.128581,2000,-50500.3,0,50539.9,1.28324e+06
step02_gravity_refstate-intrusion.xmf,30,6.78943e-07,-1.58361e-06,0,-1.27173e-05,-1.45482e+09,-1.45507e+09,-1.45489e+09,-1.40836e+06,0.00597661,0.129565,0,0.129703,2000,-51000.2,0,51039.4,1.40836e+06
step02_gravity_refstate-intrusion.xmf,31,-1.28905e-05,3.59451e-05,0,-1.7916e-06,-1.68123e+09,-1.67583e+09,-1.67981e+09,-198409,-0.00649389,0.0591293,-0,0.0594848,499.831,-58000,0,58002.2,198409
step02_gravity_refstate-intrusion.xmf,32,1.74237e-07,1.72321e-07,0,-1.35982e-05,-1.47099e+09,-1.47099e+09,-1.471e+09,-1.50592e+06,0.00402264,0.129919,0,0.129981,2000,-51500.6,0,51539.4,1.50592e+06
step02_gravity_refstate-intrusion.xmf,33,-4.66069e-07,1.99159e-06,0,-1.42706e-05,-1.48716e+09,-1.48689e+09,-1.48711e+09,-1.58038e+06,0.00186994,0.129378,0,0.129391,2000,-52000.7,0,52039.1,1.58038e+06
step02_gravity_refstate-intrusion.xmf,34,-1.09046e-06,3.86485e-06,0,-1.47375e-05,-1.50331e+09,-1.50276e+09,-1.50319e+09,-1.63209e+06,-0.000389216,0.127915,-0,0.127915,2000,-52500.1,0,52538.2,1.63209e+06
step02_gravity_refstate-intrusion.xmf,35,-1.81555e-06,5.77014e-06,0,-1.5022e-05,-1.51947e+09,-1.51863e+09,-1.51927e+09,-1.6636e+06,-0.00270791,0.12551,-0,0.125539,2000,-52999.3,0,53037,1.6636e+06
step02_gravity_refstate-intrusion.xmf,36,-2.58152e-06,7.70669e-06,0,-1.51203e-05,-1.53565e+09,-1.53451e+09,-1.53536e+09,-1.67448e+06,-0.00506639,0.122142,-0,0.122247,2000,-53498.9,0,53536.3,1.67448e+06
step02_gravity_refstate-intrusion.xmf,37,-3.36913e-06,9.66567e-06,0,-1.5033e-05,-1.55185e+09,-1.5504e+09,-1.55147e+09,-1.66482e+06,-0.00745378,0.117795,-0,0.118031,2000,-53999.2,0,54036.2,1.66482e+06
step02_gravity_refstate-intrusion.xmf,38,-4.15851e-06,1.16443e-05,0,-1.47577e-05,-1.56804e+09,-1.56629e+09,-1.56758e+09,-1.63433e+06,-0.00986111,0.112463,-0,0.112894,2000,-54499.5,0,54536.2,1.63433e+06
step02_gravity_refstate-intrusion.xmf,39,-1.22381e-05,3.45702e-05,0,-3.60214e-06,-1.68121e+09,-1.67603e+09,-1.67986e+09,-398915,-0.0127654,0.0566795,-0,0.0580992,999.317,-58000,0,58008.6,398915
step02_gravity_refstate-intrusion.xmf,40,-4.92975e-06,1.36298e-05,0,-1.42889e-05,-1.58422e+09,-1.58217e+09,-1.58367e+09,-1.58241e+06,-0.0122784,0.106146,-0,0.106854,2000,-54999.2,0,55035.5,1.58241e+06
step02_gravity_refstate-intrusion.xmf,41,-5.65701e-06,1.56109e-05,0,-1.36276e-05,-1.60037e+09,-1.59802e+09,-1.59974e+09,-1.50917e+06,-0.0146892,0.0988374,-0,0.0999229,2000,-55498.3,0,55534.3,1.50917e+06
step02_gravity_refstate-intrusion.xmf,42,-1.10584e-05,3.21104e-05,0,-5.57094e-06,-1.68117e+09,-1.67639e+09,-1.67995e+09,-616948,-0.0185946,0.0526325,-0,0.0558206,1499.28,-58000,0,58019.4,616948
step02_gravity_refstate-intrusion.xmf,43,-6.34163e-06,1.76343e-05,0,-1.27517e-05,-1.61652e+09,-1.61387e+09,-1.61582e+09,-1.41217e+06,-0.0170684,0.0905355,-0,0.0921304,2000,-55997.8,0,56033.5,1.41217e+06
step02_gravity_refstate-intrusion.xmf,44,-6.94969e-06,1.96167e-05,0,-1.16224e-05,-1.63268e+09,-1.62974e+09,-1.63191e+09,-1.28711e+06,-0.0193594,0.081224,-0,0.0834993,2000,-56497.8,0,56533.2,1.28711e+06
step02_gravity_refstate-intrusion.xmf,45,-7.5314e-06,2.15748e-05,0,-1.02858e-05,-1.64885e+09,-1.64562e+09,-1.64801e+09,-1.13909e+06,-0.0214432,0.0709173,-0,0.0740883,2000,-56998.3,0,57033.3,1.13909e+06
step02_gravity_refstate-intrusion.xmf,46,-7.96501e-06,2.34862e-05,0,-8.37044e-06,-1.66497e+09,-1.66149e+09,-1.66409e+09,-926976,-0.0230919,0.0596545,-0,0.063968,2000,-57498.2,0,57532.9,926976
step02_gravity_refstate-intrusion.xmf,47,-9.09989e-06,2.69927e-05,0,-6.08114e-06,-1.68118e+09,-1.67718e+09,-1.68017e+09,-673450,-0.0236414,0.0474439,-0,0.0530079,2000,-58000,0,58034.5,673450
step02_gravity_refstate-intrusion.xmf,48,2.97398e-06,-7.06492e-06,0,8.49828e-06,-1.43431e+09,-1.43542e+09,-1.43464e+09,941133,-0.00706952,0.135861,-0,0.136045,-1628.39,-50367.6,-0,50393.9,941133
step02_gravity_refstate-intrusion.xmf,49,2.03585e-06,-4.42041e-06,0,9.51287e-06,-1.44676e+09,-1.44748e+09,-1.44699e+09,1.05349e+06,-0.00636637,0.136779,-0,0.136927,-1689.07,-50752.8,-0,50780.9,1.05349e+06
step02_gravity_refstate-intrusion.xmf,50,1.66925e-06,-2.88791e-06,0,9.60925e-06,-1.4603e+09,-1.46081e+09,-1.46049e+09,1.06417e+06,-0.00489979,0.140421,-0,0.140506,-1594.12,-51172.3,-0,51197.1,1.06417e+06
step02_gravity_refstate-intrusion.xmf,51,8.27115e-07,-5.43573e-07,0,1.02928e-05,-1.47717e+09,-1.47733e+09,-1.47727e+09,1.13987e+06,-0.00305435,0.141588,-0,0.141621,-1581.82,-51693.9,-0,51718.1,1.13987e+06
step02_gravity_refstate-intrusion.xmf,52,-1.10948e-07,1.93054e-06,0,1.09849e-05,-1.4943e+09,-1.49408e+09,-1.49429e+09,1.21651e+06,-0.00105385,0.141003,-0,0.141007,-1589.9,-52223.1,-0,52247.3,1.21651e+06
step02_gravity_refstate-intrusion.xmf,53,3.99182e-06,-9.27744e-06,0,6.39538e-06,-1.43263e+09,-1.4341e+09,-1.43307e+09,708249,-0.0057733,0.141583,-0,0.141701,-1242.74,-50316.5,-0,50331.8,708249
step02_gravity_refstate-intrusion.xmf,54,3.51062e-06,-7.14694e-06,0,6.51212e-06,-1.44575e+09,-1.44693e+09,-1.44614e+09,721178,-0.00514555,0.145172,-0,0.145263,-1222.83,-50723.8,-0,50738.5,721178
step02_gravity_refstate-intrusion.xmf,55,2.42837e-06,-3.84626e-06,0,6.66682e-06,-1.46535e+09,-1.46604e+09,-1.46562e+09,738310,-0.00350433,0.149653,-0,0.149694,-1141.96,-51330.3,-0,51343,738310
step02_gravity_refstate-intrusion.xmf,56,1.07527e-06,-5.01333e-07,0,7.42409e-06,-1.48475e+09,-1.48493e+09,-1.48487e+09,822173,-0.00186835,0.150537,-0,0.150548,-1162.69,-51929.5,-0,51942.5,822173
step02_gravity_refstate-intrusion.xmf,57,-1.04092e-06,4.16946e-06,0,1.14446e-05,-1.51037e+09,-1.50979e+09,-1.51025e+09,1.26742e+06,0.000899675,0.139243,0,0.139246,-1599.31,-52719.1,-0,52743.3,1.26742e+06
step02_gravity_refstate-intrusion.xmf,58,-1.71889e-07,2.47295e-06,0,8.01088e-06,-1.50266e+09,-1.50237e+09,-1.50264e+09,887156,-0.000210101,0.149665,-0,0.149665,-1179.15,-52482.1,-0,52495.3,887156
step02_gravity_refstate-intrusion.xmf,59,-2.16749e-06,6.7137e-06,0,1.17296e-05,-1.52885e+09,-1.52787e+09,-1.52861e+09,1.29898e+06,0.00320591,0.135827,0,0.135864,-1610.8,-53289.1,-0,53313.5,1.29898e+06
step02_gravity_refstate-intrusion.xmf,60,4.58722e-06,-1.02063e-05,0,3.85124e-06,-1.43713e+09,-1.43877e+09,-1.43764e+09,426502,-0.00357002,0.148323,-0,0.148366,-751.739,-50456.9,-0,50462.5,426502
step02_gravity_refstate-intrusion.xmf,61,3.67297e-06,-6.67254e-06,0,3.96117e-06,-1.45591e+09,-1.45705e+09,-1.45631e+09,438676,-0.00285168,0.153316,-0,0.153342,-732.631,-51039.5,-0,51044.7,438676
step02_gravity_refstate-intrusion.xmf,62,2.30421e-06,-3.02555e-06,0,4.37923e-06,-1.47516e+09,-1.47575e+09,-1.47541e+09,484973,-0.00187127,0.156038,-0,0.156049,-739.851,-51634.5,-0,51639.8,484973
step02_gravity_refstate-intrusion.xmf,63,8.48255e-07,3.65988e-07,0,4.75062e-06,-1.49391e+09,-1.49396e+09,-1.494e+09,526103,-0.000759139,0.156703,-0,0.156705,-743.483,-52212.8,-0,52218.1,526103
step02_gravity_refstate-intrusion.xmf,64,-1.42814e-06,5.23147e-06,0,8.47225e-06,-1.52026e+09,-1.51952e+09,-1.5201e+09,938250,0.00151011,0.147026,0,0.147034,-1207.05,-53024.7,-0,53038.4,938250
step02_gravity_refstate-intrusion.xmf,65,-3.07697e-06,8.82649e-06,0,1.15873e-05,-1.54417e+09,-1.54285e+09,-1.54383e+09,1.28322e+06,0.00506646,0.1327,0,0.132796,-1590.79,-53761.9,-0,53785.5,1.28322e+06
step02_gravity_refstate-intrusion.xmf,66,-4.26561e-06,1.13937e-05,0,1.06668e-05,-1.56227e+09,-1.56054e+09,-1.5618e+09,1.18128e+06,0.00696392,0.12934,0,0.129527,-1503.61,-54320,-0,54340.8,1.18128e+06
step02_gravity_refstate-intrusion.xmf,67,-5.02682e-06,1.32903e-05,0,1.15966e-05,-1.57662e+09,-1.57459e+09,-1.57606e+09,1.28425e+06,0.00947674,0.119838,0,0.120212,-1655.32,-54763,-0,54788,1.28425e+06
step02_gravity_refstate-intrusion.xmf,68,-5.98534e-06,1.55195e-05,0,1.05334e-05,-1.5905e+09,-1.58812e+09,-1.58983e+09,1.16651e+06,0.0108273,0.115785,0,0.11629,-1575.66,-55191.3,-0,55213.8,1.16651e+06
step02_gravity_refstate-intrusion.xmf,69,-6.97641e-06,1.79823e-05,0,9.91981e-06,-1.60728e+09,-1.60451e+09,-1.60651e+09,1.09856e+06,0.0130337,0.106847,0,0.107639,-1587.79,-55709.4,-0,55732.1,1.09856e+06
step02_gravity_refstate-intrusion.xmf,70,-7.93296e-06,2.05421e-05,0,9.04608e-06,-1.62414e+09,-1.62099e+09,-1.62326e+09,1.0018e+06,0.0152035,0.0966761,0,0.0978642,-1595.53,-56230.6,-0,56253.3,1.0018e+06
step02_gravity_refstate-intrusion.xmf,71,-6.12555e-07,3.61655e-06,0,5.20273e-06,-1.51219e+09,-1.51172e+09,-1.51212e+09,576171,0.000393538,0.155233,0,0.155234,-770.264,-52776.5,-0,52782.1,576171
step02_gravity_refstate-intrusion.xmf,72,-2.63782e-06,7.79184e-06,0,8.54838e-06,-1.53702e+09,-1.53587e+09,-1.53673e+09,946681,0.00315965,0.143641,0,0.143676,-1207.89,-53541.3,-0,53554.9,946681
step02_gravity_refstate-intrusion.xmf,73,-8.82435e-06,2.29649e-05,0,7.91682e-06,-1.64005e+09,-1.63653e+09,-1.63907e+09,876739,0.0170769,0.0860198,0,0.0876985,-1594.66,-56722.2,-0,56744.6,876739
step02_gravity_refstate-intrusion.xmf,74,4.91153e-06,-1.14122e-05,0,1.3216e-06,-1.43354e+09,-1.43535e+09,-1.43408e+09,146359,-0.00123964,0.149863,-0,0.149868,-252.011,-50345.2,-0,50345.8,146359
step02_gravity_refstate-intrusion.xmf,75,4.49545e-06,-8.91053e-06,0,1.32845e-06,-1.44779e+09,-1.44928e+09,-1.44829e+09,147117,-0.00112992,0.154332,-0,0.154336,-253.613,-50788.6,-0,50789.2,147117
step02_gravity_refstate-intrusion.xmf,76,3.36733e-06,-5.42109e-06,0,1.51905e-06,-1.46569e+09,-1.46667e+09,-1.46607e+09,168226,-0.000913987,0.158149,-0,0.158151,-272.56,-51342.8,-0,51343.6,168226
step02_gravity_refstate-intrusion.xmf,77,1.88543e-06,-1.7886e-06,0,1.74367e-06,-1.48451e+09,-1.48492e+09,-1.48472e+09,193101,-0.000543614,0.160093,-0,0.160094,-288.248,-51923.8,-0,51924.6,193101
step02_gravity_refstate-intrusion.xmf,78,2.90081e-07,1.72765e-06,0,1.97325e-06,-1.50338e+09,-1.50322e+09,-1.50342e+09,218526,-9.05679e-05,0.159969,-0,0.159969,-305.363,-52505.4,-0,52506.3,218526
step02_gravity_refstate-intrusion.xmf,79,-2.0249e-06,6.56881e-06,0,5.39551e-06,-1.5298e+09,-1.52884e+09,-1.52957e+09,597520,0.00156015,0.15233,0,0.152338,-781.321,-53318.9,-0,53324.6,597520
step02_gravity_refstate-intrusion.xmf,80,-3.66206e-06,9.99304e-06,0,8.58745e-06,-1.55148e+09,-1.54996e+09,-1.55107e+09,951008,0.00463078,0.139446,0,0.139523,-1218.74,-53986.9,-0,54000.6,951008
step02_gravity_refstate-intrusion.xmf,81,-5.62467e-06,1.42555e-05,0,8.21062e-06,-1.57866e+09,-1.57646e+09,-1.57804e+09,909277,0.00741403,0.129168,0,0.12938,-1223.92,-54824.8,-0,54838.5,909277
step02_gravity_refstate-intrusion.xmf,82,-7.02713e-06,1.73701e-05,0,7.27248e-06,-1.59656e+09,-1.59386e+09,-1.59578e+09,805383,0.00881009,0.121653,0,0.121972,-1160.37,-55376.7,-0,55388.9,805383
step02_gravity_refstate-intrusion.xmf,83,-8.34527e-06,2.05239e-05,0,6.75272e-06,-1.61513e+09,-1.61193e+09,-1.61421e+09,747823,0.0108726,0.110339,0,0.110874,-1189.24,-55949.9,-0,55962.5,747823
step02_gravity_refstate-intrusion.xmf,84,-9.55051e-06,2.36067e-05,0,6.02812e-06,-1.63223e+09,-1.62856e+09,-1.63117e+09,667578,0.0126439,0.0985403,0,0.0993481,-1201.9,-56478.1,-0,56490.9,667578
step02_gravity_refstate-intrusion.xmf,85,-1.00969e-05,2.64439e-05,0,6.35307e-06,-1.65664e+09,-1.6526e+09,-1.65553e+09,703564,0.0181957,0.074371,0,0.0765646,-1538.73,-57235.3,-0,57256,703564
step02_gravity_refstate-intrusion.xmf,86,-1.29565e-06,5.09377e-06,0,2.21431e-06,-1.52183e+09,-1.52113e+09,-1.52169e+09,245221,0.000422598,0.157894,0,0.157895,-327.478,-53073.8,-0,53074.8,245221
step02_gravity_refstate-intrusion.xmf,87,-3.43889e-06,9.45323e-06,0,5.55668e-06,-1.54714e+09,-1.54571e+09,-1.54676e+09,615369,0.00279436,0.147731,0,0.147757,-805.723,-53853,-0,53859,615369
step02_gravity_refstate-intrusion.xmf,88,-4.90838e-06,1.25686e-05,0,6.17292e-06,-1.56593e+09,-1.564e+09,-1.56539e+09,683614,0.0046225,0.13983,0,0.139906,-913.956,-54432,-0,54439.7,683614
step02_gravity_refstate-intrusion.xmf,89,-1.03415e-05,2.59237e-05,0,5.54122e-06,-1.64549e+09,-1.64147e+09,-1.64434e+09,613657,0.0141605,0.0879205,0,0.0890535,-1235.71,-56888.2,-0,56901.6,613657
step02_gravity_refstate-intrusion.xmf,90,-1.03267e-05,2.82784e-05,0,5.98991e-06,-1.66953e+09,-1.66525e+09,-1.66839e+09,663346,0.0200111,0.062017,0,0.0651655,-1636.38,-57636.1,-0,57659.3,663346
step02_gravity_refstate-intrusion.xmf,91,4.87263e-06,-1.07943e-05,0,-1.26499e-06,-1.43788e+09,-1.43962e+09,-1.43842e+09,-140090,0.0011853,0.151372,0,0.151376,245.479,-50480.5,0,50481.1,140090
step02_gravity_refstate-intrusion.xmf,92,3.9847e-06,-7.18389e-06,0,-1.28807e-06,-1.45676e+09,-1.458e+09,-1.4572e+09,-142646,0.000956921,0.156556,0,0.156559,241.785,-51066.4,0,51067,142646
step02_gravity_refstate-intrusion.xmf,93,2.67229e-06,-3.63569e-06,0,-1.31447e-06,-1.47506e+09,-1.47576e+09,-1.47535e+09,-145569,0.000607684,0.159563,0,0.159564,229.252,-51632.1,0,51632.6,145569
step02_gravity_refstate-intrusion.xmf,94,1.10269e-06,-1.03492e-08,0,-1.28349e-06,-1.49414e+09,-1.49426e+09,-1.49426e+09,-142139,0.00022329,0.160638,0,0.160638,204.992,-52220.6,0,52221,142139
step02_gravity_refstate-intrusion.xmf,95,-5.33527e-07,3.48518e-06,0,-1.11031e-06,-1.5132e+09,-1.51275e+09,-1.51314e+09,-122960,-9.06317e-05,0.159678,-0,0.159678,168.673,-52807.9,0,52808.1,122960
step02_gravity_refstate-intrusion.xmf,96,-2.84382e-06,8.23288e-06,0,2.23556e-06,-1.53983e+09,-1.5386e+09,-1.53951e+09,247575,0.00093452,0.1542,0,0.154203,-328.222,-53627.8,-0,53628.8,247575
step02_gravity_refstate-intrusion.xmf,97,-6.64156e-06,1.61564e-05,0,5.1376e-06,-1.58671e+09,-1.58418e+09,-1.58597e+09,568958,0.0055881,0.132061,0,0.13218,-812.584,-55071.9,-0,55077.9,568958
step02_gravity_refstate-intrusion.xmf,98,-9.79818e-06,2.3402e-05,0,4.04225e-06,-1.62442e+09,-1.62074e+09,-1.62333e+09,447655,0.00804139,0.109453,0,0.109748,-791.529,-56234.9,-0,56240.5,447655
step02_gravity_refstate-intrusion.xmf,99,-8.28124e-06,1.9828e-05,0,4.61276e-06,-1.6061e+09,-1.60298e+09,-1.60518e+09,510835,0.00684998,0.121516,0,0.121709,-798.344,-55669.6,-0,55675.4,510835
step02_gravity_refstate-intrusion.xmf,100,-1.10836e-05,2.68622e-05,0,3.72024e-06,-1.64184e+09,-1.63764e+09,-1.64062e+09,411994,0.00959811,0.0955817,0,0.0960624,-834.294,-56773.6,-0,56779.7,411994
step02_gravity_refstate-intrusion.xmf,101,-1.1652e-05,2.92452e-05,0,4.08209e-06,-1.65629e+09,-1.65176e+09,-1.655e+09,452067,0.012492,0.0813032,0,0.0822573,-1016.81,-57221.9,-0,57230.9,452067
step02_gravity_refstate-intrusion.xmf,102,-1.16989e-05,3.09026e-05,0,4.6101e-06,-1.66885e+09,-1.66413e+09,-1.66756e+09,510541,0.0155929,0.0673627,0,0.0691439,-1238.13,-57613.1,-0,57626.4,510541
step02_gravity_refstate-intrusion.xmf,103,-2.16108e-06,6.82931e-06,0,-1.0405e-06,-1.53184e+09,-1.53084e+09,-1.5316e+09,-115229,-0.000330361,0.156744,-0,0.156745,153.646,-53381.7,0,53381.9,115229
step02_gravity_refstate-intrusion.xmf,104,-4.44115e-06,1.14812e-05,0,2.39842e-06,-1.55822e+09,-1.55646e+09,-1.55773e+09,265611,0.00159207,0.148464,0,0.148473,-357.742,-54194.1,-0,54195.3,265611
step02_gravity_refstate-intrusion.xmf,105,-6.11257e-06,1.49323e-05,0,2.34125e-06,-1.57733e+09,-1.575e+09,-1.57666e+09,259279,0.00223535,0.140689,0,0.140707,-364.391,-54782.7,-0,54783.9,259279
step02_gravity_refstate-intrusion.xmf,106,4.6464e-06,-1.06733e-05,0,-3.75687e-06,-1.43369e+09,-1.43539e+09,-1.43421e+09,-416051,0.00359195,0.147278,0,0.147322,744.373,-50350.1,0,50355.6,416051
step02_gravity_refstate-intrusion.xmf,107,4.12266e-06,-8.13598e-06,0,-3.88428e-06,-1.4483e+09,-1.44966e+09,-1.44875e+09,-430161,0.00319896,0.151537,0,0.151571,740.973,-50803.8,0,50809.2,430161
step02_gravity_refstate-intrusion.xmf,108,3.05165e-06,-4.94542e-06,0,-4.05458e-06,-1.4651e+09,-1.46598e+09,-1.46544e+09,-449020,0.00237147,0.155026,0,0.155045,721.789,-51323.7,0,51328.8,449020
step02_gravity_refstate-intrusion.xmf,109,1.57909e-06,-1.2091e-06,0,-4.75485e-06,-1.48431e+09,-1.48462e+09,-1.48448e+09,-526571,0.00138766,0.156253,0,0.156259,772.721,-51917,0,51922.7,526571
step02_gravity_refstate-intrusion.xmf,110,5.05133e-08,2.17257e-06,0,-4.43103e-06,-1.50432e+09,-1.50408e+09,-1.50432e+09,-490709,0.000114432,0.157029,0,0.157029,676.348,-52533.9,0,52538.3,490709
step02_gravity_refstate-intrusion.xmf,111,-1.48878e-06,5.42917e-06,0,-4.36523e-06,-1.52336e+09,-1.5226e+09,-1.5232e+09,-483423,-0.000925873,0.155146,-0,0.155149,642.828,-53120.7,0,53124.6,483423
step02_gravity_refstate-intrusion.xmf,112,-3.74352e-06,1.001e-05,0,-9.91739e-07,-1.54995e+09,-1.54843e+09,-1.54954e+09,-109829,-0.000540924,0.152072,-0,0.152073,145.042,-53939.4,0,53939.6,109829
step02_gravity_refstate-intrusion.xmf,113,-7.83113e-06,1.84343e-05,0,2.05674e-06,-1.59661e+09,-1.5937e+09,-1.59574e+09,227771,0.00276958,0.130882,0,0.130911,-352.397,-55376.1,-0,55377.2,227771
step02_gravity_refstate-intrusion.xmf,114,-1.10495e-05,2.61306e-05,0,1.67146e-06,-1.63371e+09,-1.62959e+09,-1.63248e+09,185104,0.00398754,0.105505,0,0.105581,-359.814,-56520.8,-0,56522,185104
step02_gravity_refstate-intrusion.xmf,115,-9.53309e-06,2.23606e-05,0,1.8051e-06,-1.61562e+09,-1.61209e+09,-1.61457e+09,199904,0.00324972,0.119032,0,0.119076,-339.935,-55962.5,-0,55963.5,199904
step02_gravity_refstate-intrusion.xmf,116,-1.22728e-05,2.99058e-05,0,1.79182e-06,-1.65241e+09,-1.64774e+09,-1.65106e+09,198433,0.00551103,0.0889616,0,0.0891322,-446.273,-57100,-0,57101.8,198433
step02_gravity_refstate-intrusion.xmf,117,-1.25939e-05,3.26142e-05,0,2.74314e-06,-1.66774e+09,-1.66273e+09,-1.66634e+09,303786,0.00943865,0.0725327,0,0.0731442,-733.669,-57577.5,-0,57582.2,303786
step02_gravity_refstate-intrusion.xmf,118,-3.01762e-06,8.53822e-06,0,-4.34525e-06,-1.54163e+09,-1.54035e+09,-1.54129e+09,-481210,-0.00189437,0.151336,-0,0.151348,631.415,-53683.1,0,53686.8,481210
step02_gravity_refstate-intrusion.xmf,119,-5.3758e-06,1.33795e-05,0,-9.22597e-07,-1.56856e+09,-1.56648e+09,-1.56797e+09,-102172,-0.000758647,0.145397,-0,0.145398,141.251,-54512.4,0,54512.6,102172
step02_gravity_refstate-intrusion.xmf,120,-7.0457e-06,1.6843e-05,0,-8.94189e-07,-1.58721e+09,-1.58456e+09,-1.58643e+09,-99026,-0.00102259,0.136755,-0,0.136759,145.314,-55086.7,0,55086.8,99026
step02_gravity_refstate-intrusion.xmf,121,3.95291e-06,-8.79178e-06,0,-6.27806e-06,-1.43648e+09,-1.43789e+09,-1.43692e+09,-695257,0.00558989,0.142917,0,0.143027,1223.9,-50436.4,0,50451.2,695257
step02_gravity_refstate-intrusion.xmf,122,3.00876e-06,-5.56551e-06,0,-6.4972e-06,-1.45506e+09,-1.45601e+09,-1.45539e+09,-719525,0.0043733,0.147694,0,0.147759,1173.85,-51012,0,51025.5,719525
step02_gravity_refstate-intrusion.xmf,123,1.96974e-06,-2.77227e-06,0,-7.06484e-06,-1.47087e+09,-1.47139e+09,-1.47109e+09,-782388,0.00312006,0.149639,0,0.149672,1175.91,-51500.7,0,51514.1,782388
step02_gravity_refstate-intrusion.xmf,124,1.20614e-07,1.77955e-06,0,-7.76984e-06,-1.49849e+09,-1.49831e+09,-1.49851e+09,-860462,0.000601758,0.150225,0,0.150226,1163.86,-52353.5,0,52366.4,860462
step02_gravity_refstate-intrusion.xmf,125,-1.07629e-06,4.44932e-06,0,-7.74988e-06,-1.51566e+09,-1.51505e+09,-1.51554e+09,-858252,-0.000966127,0.149355,-0,0.149358,1122.03,-52882.9,0,52894.8,858252
step02_gravity_refstate-intrusion.xmf,126,-2.38246e-06,7.2624e-06,0,-7.74394e-06,-1.53358e+09,-1.53252e+09,-1.53332e+09,-857594,-0.00257197,0.146463,-0,0.146485,1103.68,-53435.4,0,53446.8,857594
step02_gravity_refstate-intrusion.xmf,127,-4.51886e-06,1.16043e-05,0,-4.27743e-06,-1.55962e+09,-1.55783e+09,-1.55912e+09,-473700,-0.00286682,0.145773,-0,0.145801,629.901,-54237.1,0,54240.7,473700
step02_gravity_refstate-intrusion.xmf,128,-8.77383e-06,2.04093e-05,0,-8.67191e-07,-1.60617e+09,-1.60294e+09,-1.6052e+09,-96036.1,-0.0012762,0.12591,-0,0.125917,145.976,-55670.4,0,55670.6,96036.1
step02_gravity_refstate-intrusion.xmf,129,-1.18472e-05,2.82658e-05,0,-2.98012e-07,-1.64264e+09,-1.6382e+09,-1.64133e+09,-33003,-0.000886896,0.0987489,-0,0.0987529,75.1286,-56796.9,0,56797,33003
step02_gravity_refstate-intrusion.xmf,130,-1.04254e-05,2.44124e-05,0,-6.83041e-07,-1.62484e+09,-1.62098e+09,-1.62369e+09,-75642.7,-0.00145477,0.113059,-0,0.113069,140.122,-56246.7,0,56246.9,75642.7
step02_gravity_refstate-intrusion.xmf,131,-1.29933e-05,3.34199e-05,0,9.47506e-07,-1.66742e+09,-1.66228e+09,-1.66598e+09,104930,0.00324694,0.0748015,0,0.0748719,-249.916,-57567.3,-0,57567.8,104930
step02_gravity_refstate-intrusion.xmf,132,9.37658e-07,-2.63207e-07,0,-8.10106e-06,-1.4847e+09,-1.48483e+09,-1.4848e+09,-897143,0.00196333,0.148839,0,0.148852,1254.09,-51927.6,0,51942.7,897143
step02_gravity_refstate-intrusion.xmf,133,-3.7157e-06,1.00232e-05,0,-7.73147e-06,-1.55118e+09,-1.54965e+09,-1.55076e+09,-856213,-0.00417639,0.1418,-0,0.141861,1102.66,-53977.4,0,53988.6,856213
step02_gravity_refstate-intrusion.xmf,134,-6.0347e-06,1.48372e-05,0,-4.0333e-06,-1.57777e+09,-1.57546e+09,-1.5771e+09,-446663,-0.00382732,0.138461,-0,0.138514,623.617,-54796.3,0,54799.9,446663
step02_gravity_refstate-intrusion.xmf,135,-7.63887e-06,1.82611e-05,0,-3.70484e-06,-1.59645e+09,-1.59358e+09,-1.5956e+09,-410289,-0.00480572,0.129048,-0,0.129138,616.924,-55371.8,0,55375.3,410289
step02_gravity_refstate-intrusion.xmf,136,-1.26673e-05,3.12586e-05,0,4.30349e-08,-1.65674e+09,-1.65187e+09,-1.65533e+09,4765.85,-1.42518e-06,0.0858169,-0,0.0858169,0.0332396,-57234.2,0,57234.2,4765.85
step02_gravity_refstate-intrusion.xmf,137,3.08123e-06,-7.28393e-06,0,-8.42576e-06,-1.43417e+09,-1.43532e+09,-1.43451e+09,-933102,0.00709719,0.135684,0,0.13587,1636.51,-50363.5,0,50390.1,933102
step02_gravity_refstate-intrusion.xmf,138,2.38868e-06,-5.04712e-06,0,-8.77006e-06,-1.4467e+09,-1.44752e+09,-1.44696e+09,-971231,0.00614744,0.138948,0,0.139084,1586.17,-50751.4,0,50776.2,971231
step02_gravity_refstate-intrusion.xmf,139,7.13926e-07,-3.00958e-07,0,-1.0486e-05,-1.4782e+09,-1.47832e+09,-1.47828e+09,-1.16126e+06,0.00295122,0.141139,0,0.14117,1600.64,-51725.6,0,51750.3,1.16126e+06
step02_gravity_refstate-intrusion.xmf,140,1.5394e-06,-2.56564e-06,0,-9.68513e-06,-1.46277e+09,-1.46322e+09,-1.46294e+09,-1.07257e+06,0.00464008,0.140735,0,0.140812,1589.43,-51248.4,0,51273,1.07257e+06
step02_gravity_refstate-intrusion.xmf,141,-8.8436e-08,1.79844e-06,0,-1.09626e-05,-1.49325e+09,-1.49304e+09,-1.49324e+09,-1.21404e+06,0.00117899,0.140948,0,0.140953,1594.37,-52190.5,0,52214.9,1.21404e+06
step02_gravity_refstate-intrusion.xmf,142,-9.77673e-07,3.98369e-06,0,-1.11713e-05,-1.5092e+09,-1.50865e+09,-1.50909e+09,-1.23715e+06,-0.000730864,0.140089,-0,0.14009,1573.02,-52683,0,52706.5,1.23715e+06
step02_gravity_refstate-intrusion.xmf,143,-1.98179e-06,6.31693e-06,0,-1.12475e-05,-1.52605e+09,-1.52513e+09,-1.52583e+09,-1.2456e+06,-0.00274727,0.137877,-0,0.137905,1555.68,-53202.9,0,53225.7,1.2456e+06
step02_gravity_refstate-intrusion.xmf,144,-3.03493e-06,8.69967e-06,0,-1.1263e-05,-1.54304e+09,-1.54174e+09,-1.54271e+09,-1.24731e+06,-0.00481149,0.134012,-0,0.134099,1553.33,-53727.1,0,53749.5,1.24731e+06
step02_gravity_refstate-intrusion.xmf,145,-5.02025e-06,1.2795e-05,0,-7.51423e-06,-1.56855e+09,-1.56658e+09,-1.56799e+09,-832155,-0.00575937,0.135767,-0,0.135889,1098.53,-54512.8,0,54523.8,832155
step02_gravity_refstate-intrusion.xmf,146,-9.30565e-06,2.18432e-05,0,-3.394e-06,-1.61563e+09,-1.61218e+09,-1.6146e+09,-375865,-0.0058855,0.117195,-0,0.117343,620.959,-55962.9,0,55966.3,375865
step02_gravity_refstate-intrusion.xmf,147,-1.22877e-05,3.01046e-05,0,-1.82478e-06,-1.65307e+09,-1.64837e+09,-1.65171e+09,-202084,-0.00587643,0.0882167,-0,0.0884122,474.598,-57120.6,0,57122.6,202084
step02_gravity_refstate-intrusion.xmf,148,-1.0974e-05,2.61432e-05,0,-2.69886e-06,-1.63514e+09,-1.63103e+09,-1.63393e+09,-298882,-0.00658879,0.103035,-0,0.103245,592.876,-56565.5,0,56568.6,298882
step02_gravity_refstate-intrusion.xmf,149,-1.29889e-05,3.34707e-05,0,-9.37661e-07,-1.66771e+09,-1.66256e+09,-1.66627e+09,-103840,-0.00341208,0.0744789,-0,0.074557,262.513,-57576.2,0,57576.8,103840
step02_gravity_refstate-intrusion.xmf,150,-4.12132e-06,1.10699e-05,0,-1.11808e-05,-1.55995e+09,-1.55827e+09,-1.5595e+09,-1.2382e+06,-0.0069082,0.128739,-0,0.128924,1557.95,-54248.5,0,54270.9,1.2382e+06
step02_gravity_refstate-intrusion.xmf,151,-6.36406e-06,1.58101e-05,0,-7.0122e-06,-1.58651e+09,-1.58405e+09,-1.5858e+09,-776558,-0.00734552,0.128101,-0,0.128311,1084.96,-55066.5,0,55077.2,776558
step02_gravity_refstate-intrusion.xmf,152,-7.84915e-06,1.91125e-05,0,-6.30507e-06,-1.60567e+09,-1.60269e+09,-1.6048e+09,-698248,-0.00900367,0.118064,-0,0.118406,1069.56,-55657.4,0,55667.7,698248
step02_gravity_refstate-intrusion.xmf,153,-5.1843e-06,1.34922e-05,0,-1.0792e-05,-1.57679e+09,-1.57472e+09,-1.57622e+09,-1.19515e+06,-0.00897119,0.122518,-0,0.122846,1551.88,-54767.9,0,54789.9,1.19515e+06
step02_gravity_refstate-intrusion.xmf,154,-9.18724e-06,2.26159e-05,0,-6.11552e-06,-1.62569e+09,-1.62217e+09,-1.62468e+09,-677257,-0.0116965,0.103724,-0,0.104382,1166.24,-56276,0,56288.1,677257
step02_gravity_refstate-intrusion.xmf,155,-1.25909e-05,3.25353e-05,0,-2.73756e-06,-1.66742e+09,-1.66242e+09,-1.66602e+09,-303169,-0.0096323,0.0727632,-0,0.073398,749.574,-57567.4,0,57572.3,303169
step02_gravity_refstate-intrusion.xmf,156,-1.10855e-05,2.74382e-05,0,-4.54212e-06,-1.64925e+09,-1.64498e+09,-1.64802e+09,-503012,-0.0127202,0.0868719,-0,0.0877983,1074.14,-57003.5,0,57013.7,503012
step02_gravity_refstate-intrusion.xmf,157,-6.23223e-06,1.60334e-05,0,-1.01586e-05,-1.59388e+09,-1.59142e+09,-1.59319e+09,-1.125e+06,-0.0110684,0.114888,-0,0.11542,1545.69,-55295.6,0,55317.2,1.125e+06
step02_gravity_refstate-intrusion.xmf,158,-7.1756e-06,1.83731e-05,0,-9.6299e-06,-1.60971e+09,-1.60688e+09,-1.60891e+09,-1.06645e+06,-0.0131945,0.105965,-0,0.106783,1567.72,-55784.3,0,55806.3,1.06645e+06
step02_gravity_refstate-intrusion.xmf,159,-7.79313e-06,2.0263e-05,0,-9.55089e-06,-1.62486e+09,-1.62175e+09,-1.624e+09,-1.0577e+06,-0.0158103,0.0947268,-0,0.0960371,1661.64,-56253,0,56277.6,1.0577e+06
step02_gravity_refstate-intrusion.xmf,160,-8.85251e-06,2.31562e-05,0,-7.83378e-06,-1.63962e+09,-1.63607e+09,-1.63864e+09,-867543,-0.0168543,0.0867201,-0,0.0883428,1574.21,-56709.1,0,56731,867543
step02_gravity_refstate-intrusion.xmf,161,-1.16122e-05,3.05224e-05,0,-4.6129e-06,-1.66762e+09,-1.66295e+09,-1.66633e+09,-510851,-0.0157935,0.0683295,-0,0.0701309,1258.65,-57574.7,0,57588.4,510851
step02_gravity_refstate-intrusion.xmf,162,-9.831e-06,2.59574e-05,0,-6.69107e-06,-1.65667e+09,-1.6527e+09,-1.65558e+09,-740996,-0.0187201,0.0735023,-0,0.0758487,1591.5,-57236.4,0,57258.5,740996
step02_gravity_refstate-intrusion.xmf,163,-1.07425e-05,2.84602e-05,0,-6.18178e-06,-1.66959e+09,-1.66525e+09,-1.6684e+09,-684594,-0.0200129,0.0620143,-0,0.0651636,1636.38,-57636.1,0,57659.3,684594
step02_gravity_refstate-crust.xmf,0,-9.12785e-09,3.82564e-06,0,-2.0696e-09,-1.09856e+09,-1.0983e+09,-1.09856e+09,-141.975,-6.01625e-21,0.0435975,-0,0.0435975,-40000,-40000,-0,56568.5,141.975
step02_gravity_refstate-crust.xmf,1,-1.54008e-08,3.83368e-06,0,-1.68108e-08,-1.09856e+09,-1.09829e+09,-1.09856e+09,-1153.22,-2.40031e-05,0.0436808,-0,0.0436808,-37637.7,-40000,-0,54923.5,1153.22
step02_gravity_refstate-crust.xmf,2,-4.37146e-08,3.86224e-06,0,-2.80936e-08,-1.09856e+09,-1.09829e+09,-1.09856e+09,-1927.22,-8.90452e-05,0.0439228,-0,0.0439229,-35384.1,-40000,-0,53404.5,1927.22
step02_gravity_refstate-crust.xmf,3,-8.66295e-08,3.90476e-06,0,-3.13342e-08,-1.09856e+09,-1.09829e+09,-1.09856e+09,-2149.53,-0.000229039,0.04432,-0,0.0443206,-33233.9,-40000,-0,52004.7,2149.53
step02_gravity_refstate-crust.xmf,4,-2.18387e-07,4.02161e-06,0,-8.39239e-10,-1.09857e+09,-1.09828e+09,-1.09856e+09,-57.5718,-0.000816346,0.0456083,-0,0.0456156,-29222.3,-40000,-0,49537.3,57.5718
step02_gravity_refstate-crust.xmf,5,-1.48874e-07,3.9573e-06,0,-2.10179e-08,-1.09857e+09,-1.09829e+09,-1.09856e+09,-1441.83,-0.000465528,0.0448777,-0,0.0448801,-31181.6,-40000,-0,50717.8,1441.83
step02_gravity_refstate-crust.xmf,6,-2.94237e-07,4.09552e-06,0,3.11977e-08,-1.09858e+09,-1.09828e+09,-1.09856e+09,2140.16,-0.00129128,0.0465276,-0,0.0465455,-27351,-40000,-0,48457,2140.16
step02_gravity_refstate-crust.xmf,7,-3.81579e-07,4.16976e-06,0,8.5311e-08,-1.09859e+09,-1.09827e+09,-1.09856e+09,5852.33,-0.00189436,0.0476544,-0,0.047692,-25563.1,-40000,-0,47470.8,5852.33
step02_gravity_refstate-crust.xmf,8,-4.73323e-07,4.24289e-06,0,1.60481e-07,-1.09859e+09,-1.09827e+09,-1.09856e+09,11009,-0.00262373,0.0490085,-0,0.0490787,-23854.1,-40000,-0,46572.7,11009
step02_gravity_refstate-crust.xmf,9,-5.65627e-07,4.30994e-06,0,2.58837e-07,-1.0986e+09,-1.09827e+09,-1.09856e+09,17756.3,-0.00347154,0.0506096,-0,0.0507285,-22219.5,-40000,-0,45757,17756.3
step02_gravity_refstate-crust.xmf,10,-6.53205e-07,4.36271e-06,0,3.83107e-07,-1.09861e+09,-1.09826e+09,-1.09856e+09,26281.2,-0.00442413,0.0524759,-0,0.0526621,-20655.1,-40000,-0,45018.2,26281.2
step02_gravity_refstate-crust.xmf,11,-7.31466e-07,4.39693e-06,0,5.33406e-07,-1.09861e+09,-1.09826e+09,-1.09856e+09,36591.6,-0.00546128,0.0546226,-0,0.0548949,-19156.9,-40000,-0,44350.7,36591.6
step02_gravity_refstate-crust.xmf,12,-7.94649e-07,4.40723e-06,0,7.09181e-07,-1.09862e+09,-1.09826e+09,-1.09857e+09,48649.8,-0.00655599,0.05706,-0,0.0574354,-17720.9,-40000,-0,43749.6,48649.8
step02_gravity_refstate-crust.xmf,13,-8.33559e-07,4.38449e-06,0,9.08145e-07,-1.09863e+09,-1.09827e+09,-1.09857e+09,62298.8,-0.00767612,0.0597932,-0,0.0602839,-16343,-40000,-0,43209.9,62298.8
step02_gravity_refstate-crust.xmf,14,-8.38636e-07,4.31337e-06,0,1.129e-06,-1.09863e+09,-1.09828e+09,-1.09857e+09,77449.5,-0.00878381,0.0628191,-0,0.0634302,-15019.5,-40000,-0,42726.9,77449.5
step02_gravity_refstate-crust.xmf,15,-8.10096e-07,4.19482e-06,0,1.3625e-06,-1.09863e+09,-1.09829e+09,-1.09858e+09,93467.8,-0.00983379,0.0661259,-0,0.0668531,-13746.6,-40000,-0,42296.2,93467.8
step02_gravity_refstate-crust.xmf,16,-7.30175e-07,4.01701e-06,0,1.60466e-06,-1.09863e+09,-1.0983e+09,-1.09858e+09,110080,-0.0107807,0.0696905,-0,0.0705195,-12520.4,-40000,-0,41913.7,110080
step02_gravity_refstate-crust.xmf,17,-6.01331e-07,3.7781e-06,0,1.84011e-06,-1.09863e+09,-1.09833e+09,-1.09858e+09,126232,-0.0115697,0.0734771,-0,0.0743824,-11337.1,-40000,-0,41575.6,126232
step02_gravity_refstate-crust.xmf,18,-4.12912e-07,3.47104e-06,0,2.05734e-06,-1.09862e+09,-1.09835e+09,-1.09859e+09,141134,-0.0121518,0.0774382,-0,0.0783858,-10193,-40000,-0,41278.3,141134
step02_gravity_refstate-crust.xmf,19,-1.65424e-07,3.09707e-06,0,2.23896e-06,-1.09861e+09,-1.09838e+09,-1.0986e+09,153593,-0.0124746,0.0815104,-0,0.0824594,-9083.97,-40000,-0,41018.5,153593
step02_gravity_refstate-crust.xmf,20,1.38602e-07,2.66372e-06,0,2.36518e-06,-1.09859e+09,-1.09842e+09,-1.0986e+09,162251,-0.0124908,0.0856159,-0,0.0865223,-8006.22,-40000,-0,40793.4,162251
step02_gravity_refstate-crust.xmf,21,4.94236e-07,2.17579e-06,0,2.42115e-06,-1.09857e+09,-1.09846e+09,-1.09861e+09,166091,-0.0121612,0.0896627,-0,0.0904837,-6955.6,-40000,-0,40600.2,166091
step02_gravity_refstate-crust.xmf,22,8.84942e-07,1.65472e-06,0,2.38515e-06,-1.09855e+09,-1.0985e+09,-1.09861e+09,163621,-0.0114552,0.0935449,-0,0.0942437,-5927.94,-40000,-0,40436.9,163621
step02_gravity_refstate-crust.xmf,23,1.29383e-06,1.12262e-06,0,2.24394e-06,-1.09853e+09,-1.09854e+09,-1.09862e+09,153934,-0.0103593,0.0971459,-0,0.0976966,-4918.91,-40000,-0,40301.3,153934
step02_gravity_refstate-crust.xmf,24,1.69293e-06,6.12902e-07,0,1.98826e-06,-1.09851e+09,-1.09858e+09,-1.09862e+09,136394,-0.00887741,0.100341,-0,0.100733,-3924.05,-40000,-0,40192,136394
step02_gravity_refstate-crust.xmf,25,2.05073e-06,1.6688e-07,0,1.61721e-06,-1.09849e+09,-1.09861e+09,-1.09863e+09,110941,-0.00703595,0.103005,-0,0.103245,-2938.83,-40000,-0,40107.8,110941
step02_gravity_refstate-crust.xmf,26,2.33647e-06,-1.81419e-07,0,1.14068e-06,-1.09847e+09,-1.09864e+09,-1.09863e+09,78250.7,-0.00488498,0.10502,-0,0.105133,-1958.59,-40000,-0,40047.9,78250.7
step02_gravity_refstate-crust.xmf,27,2.52472e-06,-4.09608e-07,0,5.91335e-07,-1.09846e+09,-1.09866e+09,-1.09863e+09,40565.6,-0.00250514,0.106278,-0,0.106308,-979.295,-40000,-0,40012,40565.6
step02_gravity_refstate-crust.xmf,28,2.59195e-06,-4.87227e-07,0,-7.31454e-09,-1.09845e+09,-1.09866e+09,-1.09863e+09,-501.777,-5.93186e-08,0.106708,-0,0.106708,0,-40000,0,40000,501.777
step02_gravity_refstate-crust.xmf,29,2.52407e-06,-4.00632e-07,0,-6.04884e-07,-1.09846e+09,-1.09866e+09,-1.09863e+09,-41495,0.0025051,0.106278,0,0.106308,979.295,-40000,0,40012,41495
step02_gravity_refstate-crust.xmf,30,2.33804e-06,-1.67882e-07,0,-1.15311e-06,-1.09847e+09,-1.09864e+09,-1.09863e+09,-79103.3,0.00488496,0.10502,0,0.105133,1958.59,-40000,0,40047.9,79103.3
step02_gravity_refstate-crust.xmf,31,2.04497e-06,1.9625e-07,0,-1.62419e-06,-1.09848e+09,-1.09861e+09,-1.09862e+09,-111419,0.00703596,0.103005,0,0.103245,2938.83,-40000,0,40107.8,111419
step02_gravity_refstate-crust.xmf,32,1.6852e-06,6.49909e-07,0,-1.99086e-06,-1.09851e+09,-1.09858e+09,-1.09862e+09,-136573,0.00887744,0.100341,0,0.100733,3924.05,-40000,0,40192,136573
step02_gravity_refstate-crust.xmf,33,1.28687e-06,1.15797e-06,0,-2.24274e-06,-1.09853e+09,-1.09854e+09,-1.09862e+09,-153852,0.0103594,0.0971459,0,0.0976966,4918.91,-40000,0,40301.3,153852
step02_gravity_refstate-crust.xmf,34,8.79832e-07,1.6851e-06,0,-2.37967e-06,-1.09855e+09,-1.0985e+09,-1.09861e+09,-163246,0.0114552,0.0935448,0,0.0942436,5927.94,-40000,0,40436.9,163246
step02_gravity_refstate-crust.xmf,35,4.8864e-07,2.20168e-06,0,-2.41317e-06,-1.09857e+09,-1.09845e+09,-1.09861e+09,-165544,0.0121613,0.0896627,0,0.0904837,6955.6,-40000,0,40600.2,165544
step02_gravity_refstate-crust.xmf,36,1.3514e-07,2.68316e-06,0,-2.35605e-06,-1.09859e+09,-1.09842e+09,-1.0986e+09,-161625,0.012491,0.0856159,0,0.0865223,8006.22,-40000,0,40793.4,161625
step02_gravity_refstate-crust.xmf,37,-1.68889e-07,3.11345e-06,0,-2.22775e-06,-1.09861e+09,-1.09838e+09,-1.09859e+09,-152824,0.0124745,0.0815103,0,0.0824593,9083.97,-40000,0,41018.5,152824
step02_gravity_refstate-crust.xmf,38,-4.1591e-07,3.48244e-06,0,-2.04678e-06,-1.09862e+09,-1.09835e+09,-1.09859e+09,-140409,0.0121518,0.0774382,0,0.0783858,10193,-40000,0,41278.3,140409
step02_gravity_refstate-crust.xmf,39,-6.03076e-07,3.78397e-06,0,-1.83017e-06,-1.09863e+09,-1.09833e+09,-1.09858e+09,-125550,0.0115695,0.0734771,0,0.0743823,11337.1,-40000,0,41575.6,125550
step02_gravity_refstate-crust.xmf,40,-7.33917e-07,4.01973e-06,0,-1.59743e-06,-1.09863e+09,-1.0983e+09,-1.09858e+09,-109584,0.0107803,0.0696905,0,0.0705194,12520.4,-40000,0,41913.7,109584
step02_gravity_refstate-crust.xmf,41,-8.10267e-07,4.19292e-06,0,-1.35826e-06,-1.09863e+09,-1.09829e+09,-1.09858e+09,-93176.8,0.00983443,0.0661263,0,0.0668536,13746.6,-40000,0,42296.2,93176.8
step02_gravity_refstate-crust.xmf,42,-8.40268e-07,4.30893e-06,0,-1.12468e-06,-1.09863e+09,-1.09828e+09,-1.09857e+09,-77153.2,0.0087837,0.0628194,0,0.0634306,15019.5,-40000,0,42726.9,77153.2
step02_gravity_refstate-crust.xmf,43,-8.31768e-07,4.37482e-06,0,-9.05892e-07,-1.09863e+09,-1.09827e+09,-1.09857e+09,-62144.2,0.0076762,0.0597933,0,0.060284,16343,-40000,0,43209.9,62144.2
step02_gravity_refstate-crust.xmf,44,-7.92611e-07,4.39836e-06,0,-7.07952e-07,-1.09862e+09,-1.09826e+09,-1.09857e+09,-48565.5,0.0065559,0.0570599,0,0.0574353,17720.9,-40000,0,43749.6,48565.5
step02_gravity_refstate-crust.xmf,45,-7.30621e-07,4.3891e-06,0,-5.33831e-07,-1.09861e+09,-1.09826e+09,-1.09856e+09,-36620.8,0.00546114,0.0546225,0,0.0548948,19156.9,-40000,0,44350.7,36620.8
step02_gravity_refstate-crust.xmf,46,-6.5199e-07,4.35377e-06,0,-3.84594e-07,-1.09861e+09,-1.09826e+09,-1.09856e+09,-26383.1,0.00442401,0.052476,0,0.0526622,20655.1,-40000,0,45018.2,26383.1
step02_gravity_refstate-crust.xmf,47,-5.6398e-07,4.30002e-06,0,-2.61379e-07,-1.0986e+09,-1.09827e+09,-1.09856e+09,-17930.6,0.00347152,0.0506098,0,0.0507287,22219.5,-40000,0,45757,17930.6
step02_gravity_refstate-crust.xmf,48,-4.71981e-07,4.23425e-06,0,-1.63332e-07,-1.09859e+09,-1.09827e+09,-1.09856e+09,-11204.6,0.00262375,0.0490087,0,0.0490789,23854.1,-40000,0,46572.7,11204.6
step02_gravity_refstate-crust.xmf,49,-3.80384e-07,4.1625e-06,0,-8.83988e-08,-1.09859e+09,-1.09827e+09,-1.09856e+09,-6064.16,0.00189437,0.0476545,0,0.0476921,25563.1,-40000,0,47470.8,6064.16
step02_gravity_refstate-crust.xmf,50,-2.93117e-07,4.08946e-06,0,-3.44229e-08,-1.09858e+09,-1.09828e+09,-1.09856e+09,-2361.41,0.00129126,0.0465277,0,0.0465456,27351,-40000,0,48457,2361.41
step02_gravity_refstate-crust.xmf,51,-2.13496e-07,4.01942e-06,0,1.04006e-09,-1.09857e+09,-1.09828e+09,-1.09856e+09,71.3479,0.000816397,0.0456083,0,0.0456156,29222.3,-40000,0,49537.3,71.3479
step02_gravity_refstate-crust.xmf,52,-1.4372e-07,3.95567e-06,0,2.09674e-08,-1.09857e+09,-1.09829e+09,-1.09856e+09,1438.36,0.000465433,0.0448777,0,0.0448801,31181.6,-40000,0,50717.8,1438.36
step02_gravity_refstate-crust.xmf,53,-8.64778e-08,3.90175e-06,0,2.72229e-08,-1.09856e+09,-1.09829e+09,-1.09856e+09,1867.49,0.000229044,0.04432,0,0.0443206,33233.9,-40000,0,52004.7,1867.49
step02_gravity_refstate-crust.xmf,54,-4.23462e-08,3.85954e-06,0,2.444e-08,-1.09856e+09,-1.09829e+09,-1.09856e+09,1676.58,8.90883e-05,0.0439228,0,0.0439229,35384.1,-40000,0,53404.5,1676.58
step02_gravity_refstate-crust.xmf,55,-1.522e-08,3.83313e-06,0,1.44117e-08,-1.09856e+09,-1.09829e+09,-1.09856e+09,988.644,2.39721e-05,0.0436808,0,0.0436808,37637.7,-40000,0,54923.5,988.644
step02_gravity_refstate-crust.xmf,56,-5.07531e-09,3.82211e-06,0,2.35343e-09,-1.09856e+09,-1.0983e+09,-1.09856e+09,161.445,5.39082e-21,0.0435975,0,0.0435975,40000,-40000,0,56568.5,161.445
step02_gravity_refstate-crust.xmf,57,-7.63971e-08,3.7187e-06,0,-2.89799e-09,-1.05337e+09,-1.05311e+09,-1.05337e+09,-198.802,-0.000120129,0.0498473,-0,0.0498475,-38367.1,-38354.5,-0,54250.3,198.802
step02_gravity_refstate-crust.xmf,58,-1.01024e-07,3.65998e-06,0,-1.55268e-09,-1.03194e+09,-1.03168e+09,-1.03194e+09,-106.514,-1.91558e-20,0.0526764,-0,0.0526764,-40000,-37574.1,-0,54880,106.514
step02_gravity_refstate-crust.xmf,59,-9.57718e-08,3.72484e-06,0,-8.31219e-10,-1.05e+09,-1.04974e+09,-1.05e+09,-57.0216,-0.000294481,0.0504774,-0,0.0504783,-36480.6,-38231.8,-0,52844.2,57.0216
step02_gravity_refstate-crust.xmf,60,-1.50486e-07,3.56271e-06,0,1.18473e-08,-9.94458e+08,-9.94203e+08,-9.94447e+08,812.723,-0.000300967,0.05769,-0,0.0576908,-37919.5,-36209.1,-0,52430.8,812.723
step02_gravity_refstate-crust.xmf,61,-1.72722e-07,3.47082e-06,0,-1.00409e-09,-9.64309e+08,-9.64059e+08,-9.64297e+08,-68.8803,-2.88738e-20,0.061457,-0,0.061457,-40000,-35111.3,-0,53224.1,68.8803
step02_gravity_refstate-crust.xmf,62,-1.63055e-07,3.61327e-06,0,2.71134e-08,-1.00449e+09,-1.00423e+09,-1.00448e+09,1859.98,-0.000669144,0.0567473,-0,0.0567513,-35311,-36574.3,-0,50838.4,1859.98
step02_gravity_refstate-crust.xmf,63,-1.28597e-07,3.75798e-06,0,5.03059e-09,-1.05066e+09,-1.05039e+09,-1.05065e+09,345.098,-0.000538904,0.0507702,-0,0.0507731,-34264.7,-38255.6,-0,51357.2,345.098
step02_gravity_refstate-crust.xmf,64,-2.05725e-07,3.37114e-06,0,2.68043e-08,-9.29854e+08,-9.29608e+08,-9.2984e+08,1838.78,-0.00043176,0.0658511,-0,0.0658525,-37860.6,-33856.6,-0,50790.7,1838.78
step02_gravity_refstate-crust.xmf,65,-1.9541e-07,3.4662e-06,0,3.94116e-08,-9.57923e+08,-9.57672e+08,-9.5791e+08,2703.64,-0.000694455,0.0625811,-0,0.0625849,-36218.3,-34878.7,-0,50282.1,2703.64
step02_gravity_refstate-crust.xmf,66,-2.23386e-07,3.25838e-06,0,-9.79721e-10,-8.95464e+08,-8.95225e+08,-8.95449e+08,-67.2089,-4.33335e-20,0.0698922,-0,0.0698922,-40000,-32604.4,-0,51604.7,67.2089
step02_gravity_refstate-crust.xmf,67,-2.20397e-07,3.47579e-06,0,6.82182e-08,-9.54855e+08,-9.54601e+08,-9.5484e+08,4679.77,-0.00111271,0.0633942,-0,0.063404,-34265.5,-34766.9,-0,48814.6,4679.77
step02_gravity_refstate-crust.xmf,68,-2.02756e-07,3.63873e-06,0,5.28821e-08,-1.0021e+09,-1.00184e+09,-1.00209e+09,3627.71,-0.00109146,0.0576172,-0,0.0576275,-33080.3,-36487.3,-0,49250.6,3627.71
step02_gravity_refstate-crust.xmf,69,-1.77639e-07,3.80072e-06,0,2.15225e-08,-1.05023e+09,-1.04996e+09,-1.05022e+09,1476.45,-0.000873594,0.0514084,-0,0.0514159,-32098.6,-38239.9,-0,49926.1,1476.45
step02_gravity_refstate-crust.xmf,70,-2.33855e-07,3.31899e-06,0,6.76362e-08,-9.09611e+08,-9.09368e+08,-9.09595e+08,4639.85,-0.000968534,0.0686633,-0,0.0686701,-35616.2,-33119.5,-0,48635.5,4639.85
step02_gravity_refstate-crust.xmf,71,-2.50327e-07,3.13861e-06,0,5.03632e-08,-8.5788e+08,-8.57648e+08,-8.57863e+08,3454.91,-0.000640788,0.0744388,-0,0.0744415,-37374.3,-31235.8,-0,48708.5,3454.91
step02_gravity_refstate-crust.xmf,72,-2.55352e-07,3.02497e-06,0,-1.91893e-10,-8.25209e+08,-8.24984e+08,-8.25191e+08,-13.1639,-4.07061e-20,0.0779286,-0,0.0779286,-40000,-30046.2,-0,50027.7,13.1639
step02_gravity_refstate-crust.xmf,73,-2.61993e-07,3.31549e-06,0,1.15618e-07,-9.03198e+08,-9.02953e+08,-9.0318e+08,7931.37,-0.00155633,0.070062,-0,0.0700793,-33328.4,-32885.9,-0,46821.7,7931.37
step02_gravity_refstate-crust.xmf,74,-2.96784e-07,3.91845e-06,0,8.34705e-08,-1.05575e+09,-1.05546e+09,-1.05573e+09,5726.07,-0.00169946,0.0522692,-0,0.0522969,-28262.9,-38440.6,-0,47712.4,5726.07
step02_gravity_refstate-crust.xmf,75,-2.34481e-07,3.85473e-06,0,4.6774e-08,-1.05302e+09,-1.05274e+09,-1.053e+09,3208.7,-0.00122828,0.0517212,-0,0.0517358,-30202,-38341.3,-0,48807.9,3208.7
step02_gravity_refstate-crust.xmf,76,-2.58092e-07,3.49578e-06,0,1.1035e-07,-9.52391e+08,-9.52134e+08,-9.52374e+08,7570.01,-0.00165533,0.0644279,-0,0.0644492,-32051.5,-34677.1,-0,47220.8,7570.01
step02_gravity_refstate-crust.xmf,77,-2.55207e-07,3.67602e-06,0,9.20658e-08,-1.0006e+09,-1.00033e+09,-1.00059e+09,6315.71,-0.00162176,0.0586448,-0,0.0586673,-30812.6,-36432.7,-0,47715.3,6315.71
step02_gravity_refstate-crust.xmf,78,-2.65695e-07,3.13664e-06,0,1.08691e-07,-8.53957e+08,-8.53724e+08,-8.53939e+08,7456.22,-0.00134512,0.0754393,-0,0.0754513,-34650,-31092.9,-0,46555.2,7456.22
step02_gravity_refstate-crust.xmf,79,-2.67646e-07,2.9007e-06,0,5.22731e-08,-7.89277e+08,-7.89059e+08,-7.89258e+08,3585.93,-0.000592392,0.0819343,-0,0.0819364,-37759.2,-28737.8,-0,47451.2,3585.93
step02_gravity_refstate-crust.xmf,80,-3.62789e-07,3.99317e-06,0,1.2768e-07,-1.05966e+09,-1.05936e+09,-1.05963e+09,8758.84,-0.00223326,0.0528096,-0,0.0528568,-26460.5,-38582.6,-0,46784.3,8758.84
step02_gravity_refstate-crust.xmf,81,-2.70363e-07,2.9573e-06,0,9.81314e-08,-8.04444e+08,-8.04223e+08,-8.04425e+08,6731.82,-0.00112603,0.080662,-0,0.0806699,-35732.1,-29290.1,-0,46202.7,6731.82
step02_gravity_refstate-crust.xmf,82,-2.69163e-07,2.77133e-06,0,-9.64538e-12,-7.53344e+08,-7.53136e+08,-7.53326e+08,-0.661673,-3.6186e-20,0.0855128,-0,0.0855128,-40000,-27429.4,-0,48501.3,0.661673
step02_gravity_refstate-crust.xmf,83,-2.88659e-07,3.13369e-06,0,1.69516e-07,-8.49608e+08,-8.49374e+08,-8.49589e+08,11628.8,-0.0020112,0.0767421,-0,0.0767685,-32282.1,-30934.5,-0,44711.1,11628.8
step02_gravity_refstate-crust.xmf,84,-2.94414e-07,3.32467e-06,0,1.72419e-07,-9.00009e+08,-8.99761e+08,-8.99989e+08,11828,-0.00219079,0.0713393,-0,0.071373,-31093.7,-32769.7,-0,45173.8,11828
step02_gravity_refstate-crust.xmf,85,-3.47607e-07,3.84172e-06,0,1.5628e-07,-1.02578e+09,-1.02549e+09,-1.02576e+09,10720.8,-0.00240908,0.0570943,-0,0.0571451,-27279,-37349.1,-0,46250.4,10720.8
step02_gravity_refstate-crust.xmf,86,-3.14576e-07,3.72724e-06,0,1.42942e-07,-1.00215e+09,-1.00187e+09,-1.00212e+09,9805.83,-0.00221222,0.0594968,-0,0.059538,-28679.4,-36488.6,-0,46410.4,9805.83
step02_gravity_refstate-crust.xmf,87,-3.02551e-07,3.51715e-06,0,1.65411e-07,-9.496e+08,-9.49338e+08,-9.49579e+08,11347.2,-0.00227817,0.0657594,-0,0.0657988,-29892.8,-34575.4,-0,45706,11347.2
step02_gravity_refstate-crust.xmf,88,-4.07753e-07,3.88047e-06,0,2.21767e-07,-1.02398e+09,-1.02369e+09,-1.02396e+09,15213.2,-0.00306309,0.058552,-0,0.0586321,-25606.1,-37283.5,-0,45229.8,15213.2
step02_gravity_refstate-crust.xmf,89,-4.3934e-07,4.05432e-06,0,1.9893e-07,-1.06045e+09,-1.06015e+09,-1.06042e+09,13646.6,-0.00292495,0.0540277,-0,0.0541069,-24704.5,-38611.4,-0,45838.3,13646.6
step02_gravity_refstate-crust.xmf,90,-2.82882e-07,2.94659e-06,0,1.52747e-07,-7.99623e+08,-7.99401e+08,-7.99603e+08,10478.4,-0.0017115,0.0817677,-0,0.0817856,-33633.9,-29114.5,-0,44484.7,10478.4
step02_gravity_refstate-crust.xmf,91,-2.78389e-07,2.75811e-06,0,1.16168e-07,-7.49139e+08,-7.48931e+08,-7.4912e+08,7969.12,-0.00122507,0.0864723,-0,0.086481,-35492.9,-27276.3,-0,44763.2,7969.12
step02_gravity_refstate-crust.xmf,92,-2.7158e-07,2.69893e-06,0,4.93145e-08,-7.33222e+08,-7.33019e+08,-7.33204e+08,3382.97,-0.000522509,0.0876144,-0,0.087616,-38069.8,-26696.8,-0,46497.6,3382.97
step02_gravity_refstate-crust.xmf,93,-2.7074e-07,2.50188e-06,0,-9.31986e-11,-6.7967e+08,-6.7948e+08,-6.79652e+08,-6.39343,-3.64346e-20,0.0925863,-0,0.0925863,-40000,-24746.9,-0,47036.2,6.39343
step02_gravity_refstate-crust.xmf,94,-3.78846e-07,3.70906e-06,0,2.34876e-07,-9.87043e+08,-9.86762e+08,-9.87017e+08,16112.5,-0.00306994,0.0628686,-0,0.0629435,-26631.7,-35938.5,-0,44730.5,16112.5
step02_gravity_refstate-crust.xmf,95,-2.71669e-07,2.51885e-06,0,8.54644e-08,-6.84375e+08,-6.84184e+08,-6.84357e+08,5862.86,-0.000853905,0.092419,-0,0.0924229,-36844.9,-24918.2,-0,44479.9,5862.86
step02_gravity_refstate-crust.xmf,96,-2.98309e-07,2.93868e-06,0,2.21545e-07,-7.96353e+08,-7.96131e+08,-7.96332e+08,15198,-0.00239877,0.0830696,-0,0.0831042,-31280.7,-28995.4,-0,42652.2,15198
step02_gravity_refstate-crust.xmf,97,-3.12009e-07,3.1363e-06,0,2.34954e-07,-8.4755e+08,-8.47314e+08,-8.47529e+08,16117.8,-0.0026731,0.0780107,-0,0.0780565,-30094.9,-30859.5,-0,43104.7,16117.8
step02_gravity_refstate-crust.xmf,98,-3.28897e-07,3.33402e-06,0,2.40236e-07,-8.97481e+08,-8.9723e+08,-8.97459e+08,16480.2,-0.00287608,0.0728,-0,0.0728568,-28930.1,-32677.5,-0,43643.7,16480.2
step02_gravity_refstate-crust.xmf,99,-3.49938e-07,3.52889e-06,0,2.3756e-07,-9.44967e+08,-9.44701e+08,-9.44943e+08,16296.6,-0.00299611,0.0675978,-0,0.0676642,-27789.6,-34406.5,-0,44227.5,16296.6
step02_gravity_refstate-crust.xmf,100,-4.31889e-07,3.74065e-06,0,3.18767e-07,-9.86684e+08,-9.86398e+08,-9.86655e+08,21867.4,-0.00383659,0.0644539,-0,0.064568,-24745.1,-35925.3,-0,43622.8,21867.4
step02_gravity_refstate-crust.xmf,101,-4.73714e-07,3.92428e-06,0,3.1191e-07,-1.02463e+09,-1.02432e+09,-1.02459e+09,21397,-0.00385135,0.0600513,-0,0.0601747,-23798.9,-37306.7,-0,44251.3,21397
step02_gravity_refstate-crust.xmf,102,-5.19177e-07,4.11556e-06,0,2.92694e-07,-1.06218e+09,-1.06186e+09,-1.06215e+09,20078.8,-0.00373454,0.0554068,-0,0.0555325,-22956.4,-38674,-0,44974.2,20078.8
step02_gravity_refstate-crust.xmf,103,-2.86782e-07,2.7365e-06,0,2.03301e-07,-7.43159e+08,-7.42952e+08,-7.4314e+08,13946.4,-0.00209465,0.0880662,-0,0.0880911,-32409.3,-27058.5,-0,42220,13946.4
step02_gravity_refstate-crust.xmf,104,-2.65368e-07,2.3225e-06,0,5.51098e-08,-6.31888e+08,-6.3171e+08,-6.31869e+08,3780.53,-0.000522291,0.0968849,-0,0.0968864,-38031.3,-23007,-0,44448.9,3780.53
step02_gravity_refstate-crust.xmf,105,-2.61592e-07,2.21842e-06,0,2.05111e-10,-6.03983e+08,-6.03813e+08,-6.03966e+08,14.0706,-4.01053e-20,0.0990906,-0,0.0990906,-40000,-21991,-0,45646.5,14.0706
step02_gravity_refstate-crust.xmf,106,-3.95447e-07,3.54396e-06,0,3.23928e-07,-9.4388e+08,-9.4361e+08,-9.43853e+08,22221.5,-0.00375549,0.0692442,-0,0.069346,-25766.9,-34366.8,-0,42953.6,22221.5
step02_gravity_refstate-crust.xmf,107,-2.7668e-07,2.5364e-06,0,1.66329e-07,-6.89872e+08,-6.8968e+08,-6.89854e+08,11410.2,-0.00163382,0.0926023,-0,0.0926167,-34001,-25118.3,-0,42272.9,11410.2
step02_gravity_refstate-crust.xmf,108,-2.63913e-07,2.2748e-06,0,1.2555e-07,-6.20063e+08,-6.19889e+08,-6.20045e+08,8612.73,-0.00116853,0.0982866,-0,0.0982936,-35566,-22576.5,-0,42126.4,8612.73
step02_gravity_refstate-crust.xmf,109,-2.55503e-07,2.09382e-06,0,6.38421e-08,-5.71346e+08,-5.71185e+08,-5.71329e+08,4379.57,-0.000576239,0.101784,-0,0.101786,-37745.7,-20802.6,-0,43098.6,4379.57
step02_gravity_refstate-crust.xmf,110,-2.9348e-07,2.7281e-06,0,2.7074e-07,-7.42062e+08,-7.41855e+08,-7.42042e+08,18572.7,-0.00272434,0.0891929,-0,0.0892345,-30238.3,-27018.6,-0,40550.7,18572.7
step02_gravity_refstate-crust.xmf,111,-3.11969e-07,2.93166e-06,0,2.93374e-07,-7.94672e+08,-7.9445e+08,-7.94651e+08,20125.5,-0.00307068,0.0844299,-0,0.0844857,-29082.9,-28934.1,-0,41024.3,20125.5
step02_gravity_refstate-crust.xmf,112,-3.34118e-07,3.13353e-06,0,3.10159e-07,-8.45564e+08,-8.45326e+08,-8.45541e+08,21276.9,-0.00337153,0.0795425,-0,0.0796139,-27946.7,-30787.1,-0,41579.6,21276.9
step02_gravity_refstate-crust.xmf,113,-3.61175e-07,3.33832e-06,0,3.19664e-07,-8.95428e+08,-8.95174e+08,-8.95403e+08,21929,-0.00360393,0.0744599,-0,0.0745471,-26845.3,-32602.7,-0,42232.7,21929
step02_gravity_refstate-crust.xmf,114,-4.33828e-07,3.57089e-06,0,4.15457e-07,-9.47213e+08,-9.46938e+08,-9.47183e+08,28500.4,-0.00453225,0.0705638,-0,0.0707092,-23839.8,-34488,-0,41925.6,28500.4
step02_gravity_refstate-crust.xmf,115,-4.83283e-07,3.76827e-06,0,4.23591e-07,-9.88658e+08,-9.88366e+08,-9.88624e+08,29058.4,-0.00467403,0.0660363,-0,0.0662015,-22875.4,-35996.9,-0,42650.5,29058.4
step02_gravity_refstate-crust.xmf,116,-5.95608e-07,4.16889e-06,0,4.08636e-07,-1.06467e+09,-1.06435e+09,-1.06463e+09,28032.4,-0.00462635,0.0569332,-0,0.0571208,-21284,-38764.6,-0,44223.3,28032.4
step02_gravity_refstate-crust.xmf,117,-5.3871e-07,3.96211e-06,0,4.28229e-07,-1.02643e+09,-1.02612e+09,-1.02639e+09,29376.5,-0.00476224,0.0617702,-0,0.0619535,-21956.1,-37372,-0,43344.5,29376.5
step02_gravity_refstate-crust.xmf,118,-2.47701e-07,1.9243e-06,0,4.28433e-10,-5.26078e+08,-5.25929e+08,-5.26061e+08,29.3905,-4.65193e-20,0.104966,-0,0.104966,-40000,-19154.4,-0,44349.6,29.3905
step02_gravity_refstate-crust.xmf,119,-2.77976e-07,2.52566e-06,0,2.40981e-07,-6.8873e+08,-6.88538e+08,-6.88711e+08,16531.3,-0.00233233,0.0936835,-0,0.0937125,-31474.5,-25076.7,-0,40242.9,16531.3
step02_gravity_refstate-crust.xmf,120,-3.88184e-07,3.3364e-06,0,4.12481e-07,-8.95096e+08,-8.94841e+08,-8.9507e+08,28296.2,-0.00436106,0.0761726,-0,0.0762974,-24826.3,-32590.5,-0,40969.3,28296.2
step02_gravity_refstate-crust.xmf,121,-6.60239e-07,4.22328e-06,0,5.1717e-07,-1.07187e+09,-1.07153e+09,-1.07182e+09,35477.9,-0.00536339,0.057649,-0,0.057898,-19933.6,-39026.4,-0,43822.4,35477.9
step02_gravity_refstate-crust.xmf,122,-2.39526e-07,1.79703e-06,0,7.62737e-08,-4.92739e+08,-4.92599e+08,-4.92722e+08,5232.38,-0.000666556,0.107417,-0,0.107419,-37229,-17940.5,-0,41326.2,5232.38
step02_gravity_refstate-crust.xmf,123,-2.64042e-07,2.30799e-06,0,2.04589e-07,-6.30803e+08,-6.30627e+08,-6.30785e+08,14034.8,-0.00190064,0.0982198,-0,0.0982382,-32826,-22967.5,-0,40063.2,14034.8
step02_gravity_refstate-crust.xmf,124,-2.4967e-07,2.02128e-06,0,1.20712e-07,-5.52978e+08,-5.52823e+08,-5.52961e+08,8280.83,-0.00108115,0.103503,-0,0.103508,-35700.2,-20133.9,-0,40986.3,8280.83
step02_gravity_refstate-crust.xmf,125,-2.77061e-07,2.51349e-06,0,3.11377e-07,-6.88807e+08,-6.88616e+08,-6.88788e+08,21360.5,-0.00295369,0.094829,-0,0.094875,-29236.1,-25079.5,-0,38519.2,21360.5
step02_gravity_refstate-crust.xmf,126,-2.96797e-07,2.714e-06,0,3.44953e-07,-7.4145e+08,-7.41244e+08,-7.4143e+08,23663.8,-0.00337524,0.090563,-0,0.0906259,-28031.6,-26996.2,-0,38917.5,23663.8
step02_gravity_refstate-crust.xmf,127,-3.21087e-07,2.91658e-06,0,3.72134e-07,-7.93198e+08,-7.92976e+08,-7.93176e+08,25528.4,-0.00375159,0.0860278,-0,0.0861095,-26932.4,-28880.4,-0,39489.6,25528.4
step02_gravity_refstate-crust.xmf,128,-3.51616e-07,3.12471e-06,0,3.96096e-07,-8.44703e+08,-8.44465e+08,-8.44679e+08,27172.2,-0.00410039,0.0812324,-0,0.0813358,-25824.2,-30755.7,-0,40159.7,27172.2
step02_gravity_refstate-crust.xmf,129,-4.17976e-07,3.39739e-06,0,5.01504e-07,-9.11147e+08,-9.10885e+08,-9.11118e+08,34403.2,-0.00509217,0.0761202,-0,0.0762903,-22892.1,-33174.8,-0,40306.5,34403.2
step02_gravity_refstate-crust.xmf,130,-4.64972e-07,3.57878e-06,0,5.22882e-07,-9.50271e+08,-9.49993e+08,-9.50239e+08,35869.7,-0.00533007,0.0721264,-0,0.0723231,-22028.3,-34599.2,-0,41016.5,35869.7
step02_gravity_refstate-crust.xmf,131,-5.23358e-07,3.77134e-06,0,5.49935e-07,-9.89446e+08,-9.89152e+08,-9.8941e+08,37725.6,-0.00557539,0.0680666,-0,0.0682946,-21072.4,-36025.5,-0,41735.9,37725.6
step02_gravity_refstate-crust.xmf,132,-6.05878e-07,4.00277e-06,0,5.77997e-07,-1.03264e+09,-1.03233e+09,-1.0326e+09,39650.6,-0.00578695,0.0633662,-0,0.0636299,-20040.4,-37598.1,-0,42605.6,39650.6
step02_gravity_refstate-crust.xmf,133,-6.97073e-07,4.18291e-06,0,6.78455e-07,-1.06481e+09,-1.06447e+09,-1.06476e+09,46542,-0.00641034,0.0609177,-0,0.0612541,-18531.4,-38769.1,-0,42970.4,46542
step02_gravity_refstate-crust.xmf,134,-2.33159e-07,1.62379e-06,0,-2.85738e-11,-4.45745e+08,-4.45617e+08,-4.45729e+08,-1.96016,-8.49524e-20,0.110154,-0,0.110154,-40000,-16229.4,-0,43167,1.96016
step02_gravity_refstate-crust.xmf,135,-2.25497e-07,1.46995e-06,0,5.88471e-08,-4.04736e+08,-4.0462e+08,-4.04721e+08,4036.91,-0.000524476,0.11259,-0,0.112591,-37689.4,-14736.2,-0,40467.8,4036.91
step02_gravity_refstate-crust.xmf,136,-2.2371e-07,1.31781e-06,0,1.1145e-10,-3.62771e+08,-3.62665e+08,-3.62755e+08,7.64547,-2.83561e-20,0.114593,-0,0.114593,-40000,-13208.2,-0,42124.3,7.64547
step02_gravity_refstate-crust.xmf,137,-2.19702e-07,1.16936e-06,0,5.71929e-08,-3.22251e+08,-3.22156e+08,-3.22236e+08,3923.43,-0.000565541,0.116576,-0,0.116577,-37458.1,-11732.8,-0,39252.6,3923.43
step02_gravity_refstate-crust.xmf,138,-2.26302e-07,1.0097e-06,0,9.33031e-10,-2.76938e+08,-2.76854e+08,-2.76923e+08,64.0059,-4.76792e-20,0.118227,-0,0.118227,-40000,-10082.9,-0,41251.2,64.0059
step02_gravity_refstate-crust.xmf,139,-2.60719e-07,2.31262e-06,0,2.75312e-07,-6.35208e+08,-6.35032e+08,-6.3519e+08,18886.4,-0.00253144,0.0988873,-0,0.0989197,-30446.9,-23127.9,-0,38235,18886.4
step02_gravity_refstate-crust.xmf,140,-2.51851e-07,2.10105e-06,0,1.71493e-07,-5.7559e+08,-5.75429e+08,-5.75573e+08,11764.4,-0.00153941,0.102263,-0,0.102274,-33964.1,-20957.2,-0,39909.5,11764.4
step02_gravity_refstate-crust.xmf,141,-3.86701e-07,3.25162e-06,0,4.90231e-07,-8.78675e+08,-8.78425e+08,-8.78648e+08,33629.8,-0.004928,0.0794579,-0,0.0796105,-23458.1,-31992.5,-0,39671.2,33629.8
step02_gravity_refstate-crust.xmf,142,-2.2773e-07,8.50223e-07,0,5.49904e-08,-2.31382e+08,-2.31308e+08,-2.31366e+08,3772.34,-0.000687078,0.119963,-0,0.119964,-37063.3,-8424.07,-0,38008.6,3772.34
step02_gravity_refstate-crust.xmf,143,-2.48389e-07,7.0766e-07,0,7.78891e-10,-1.88025e+08,-1.8796e+08,-1.88008e+08,53.4319,-4.74673e-20,0.121009,-0,0.121009,-40000,-6845.33,-0,40581.5,53.4319
step02_gravity_refstate-crust.xmf,144,-2.36111e-07,1.84644e-06,0,1.68037e-07,-5.08587e+08,-5.08444e+08,-5.08571e+08,11527.4,-0.00145927,0.107082,-0,0.107092,-33950.2,-18517.5,-0,38671.9,11527.4
step02_gravity_refstate-crust.xmf,145,-2.43763e-07,2.06107e-06,0,2.4156e-07,-5.68424e+08,-5.68265e+08,-5.68407e+08,16571,-0.00213185,0.103705,-0,0.103727,-31526,-20696.2,-0,37712.3,16571
step02_gravity_refstate-crust.xmf,146,-2.53783e-07,2.30518e-06,0,3.41561e-07,-6.38131e+08,-6.37955e+08,-6.38113e+08,23431.1,-0.00309142,0.0998313,-0,0.0998792,-28296.2,-23234.3,-0,36613,23431.1
step02_gravity_refstate-crust.xmf,147,-2.71187e-07,2.49569e-06,0,3.82524e-07,-6.89549e+08,-6.89359e+08,-6.8953e+08,26241.1,-0.00354742,0.0961306,-0,0.096196,-27076.2,-25106.5,-0,36925,26241.1
step02_gravity_refstate-crust.xmf,148,-2.93555e-07,2.69088e-06,0,4.2174e-07,-7.41159e+08,-7.40954e+08,-7.41139e+08,28931.4,-0.00400271,0.0921213,-0,0.0922082,-25904.4,-26985.6,-0,37406.7,28931.4
step02_gravity_refstate-crust.xmf,149,-3.55314e-07,3.07457e-06,0,4.93332e-07,-8.38013e+08,-8.37777e+08,-8.37988e+08,33842.6,-0.00483474,0.0838487,-0,0.083988,-23750.4,-30512,-0,38666,33842.6
step02_gravity_refstate-crust.xmf,150,-3.21481e-07,2.88563e-06,0,4.57315e-07,-7.91073e+08,-7.90853e+08,-7.91051e+08,31371.8,-0.00442567,0.0879456,-0,0.0880569,-24828.1,-28803,-0,38026.9,31371.8
step02_gravity_refstate-crust.xmf,151,-3.84723e-07,3.20971e-06,0,5.58244e-07,-8.73683e+08,-8.73437e+08,-8.73657e+08,38295.5,-0.00540069,0.0813399,-0,0.081519,-22240.2,-31810.7,-0,38814.3,38295.5
step02_gravity_refstate-crust.xmf,152,-4.26237e-07,3.37361e-06,0,6.01783e-07,-9.11704e+08,-9.11444e+08,-9.11675e+08,41282.3,-0.00578865,0.0779551,-0,0.0781697,-21239.4,-33195,-0,39408.4,41282.3
step02_gravity_refstate-crust.xmf,153,-4.78328e-07,3.54946e-06,0,6.45782e-07,-9.50046e+08,-9.49769e+08,-9.50013e+08,44300.7,-0.00614832,0.0743469,-0,0.0746007,-20294.6,-34590.9,-0,40104.9,44300.7
step02_gravity_refstate-crust.xmf,154,-5.42304e-07,3.7334e-06,0,6.97331e-07,-9.87764e+08,-9.87471e+08,-9.87727e+08,47836.9,-0.0065168,0.0707422,-0,0.0710418,-19321.7,-35964.1,-0,40825.8,47836.9
step02_gravity_refstate-crust.xmf,155,-6.19138e-07,3.91839e-06,0,7.70431e-07,-1.02397e+09,-1.02365e+09,-1.02392e+09,52851.6,-0.00696913,0.067464,-0,0.067823,-18221.5,-37282.1,-0,41496.7,52851.6
step02_gravity_refstate-crust.xmf,156,-7.07682e-07,4.11468e-06,0,8.71928e-07,-1.05897e+09,-1.05864e+09,-1.05892e+09,59814.2,-0.00754946,0.0645893,-0,0.065029,-16992.6,-38556.3,-0,42134.7,59814.2
step02_gravity_refstate-crust.xmf,157,-2.14138e-07,1.04956e-06,0,1.00185e-07,-2.90023e+08,-2.89937e+08,-2.90009e+08,6872.67,-0.00105985,0.118247,-0,0.118252,-35217.1,-10559.3,-0,36766,6872.67
step02_gravity_refstate-crust.xmf,158,-2.16616e-07,8.41205e-07,0,1.07931e-07,-2.30867e+08,-2.30794e+08,-2.30852e+08,7404.06,-0.00134757,0.120538,-0,0.120546,-34120.1,-8405.37,-0,35140.2,7404.06
step02_gravity_refstate-crust.xmf,159,-2.67847e-07,5.54449e-07,0,3.33778e-08,-1.4063e+08,-1.40573e+08,-1.40611e+08,2289.71,-0.000692884,0.122237,-0,0.122239,-37457.1,-5119.54,-0,37805.4,2289.71
step02_gravity_refstate-crust.xmf,160,-3.0474e-07,4.19633e-07,0,5.8565e-10,-9.58033e+07,-9.57536e+07,-9.57824e+07,40.1756,-5.68688e-20,0.1229,-0,0.1229,-40000,-3487.23,-0,40151.7,40.1756
step02_gravity_refstate-crust.xmf,161,-2.25935e-07,1.59991e-06,0,1.2164e-07,-4.41598e+08,-4.41473e+08,-4.41582e+08,8344.49,-0.00105576,0.110905,-0,0.11091,-35416.1,-16078.4,-0,38894.9,8344.49
step02_gravity_refstate-crust.xmf,162,-2.13506e-07,1.32219e-06,0,1.26925e-07,-3.66422e+08,-3.66316e+08,-3.66407e+08,8707.03,-0.00116856,0.11507,-0,0.115076,-34698.4,-13341.1,-0,37174.8,8707.03
step02_gravity_refstate-crust.xmf,163,-2.41441e-07,2.13944e-06,0,3.05792e-07,-5.93043e+08,-5.9288e+08,-5.93026e+08,20977.4,-0.00270913,0.102867,-0,0.102902,-29365.4,-21592.7,-0,36449.5,20977.4
step02_gravity_refstate-crust.xmf,164,-1.99389e-07,1.07272e-06,0,1.53315e-07,-2.99196e+08,-2.99108e+08,-2.99182e+08,10517.4,-0.00156687,0.118549,-0,0.118559,-32745.4,-10893.4,-0,34509.8,10517.4
step02_gravity_refstate-crust.xmf,165,-2.43348e-07,6.45076e-07,0,7.213e-08,-1.70443e+08,-1.70382e+08,-1.70426e+08,4948.12,-0.00121308,0.121929,-0,0.121935,-35203.2,-6205.16,-0,35745.9,4948.12
step02_gravity_refstate-crust.xmf,166,-3.25013e-07,3.34744e-07,0,1.74604e-08,-6.73663e+07,-6.73211e+07,-6.7344e+07,1197.78,-0.000807574,0.123416,-0,0.123418,-37548.2,-2451.74,-0,37628.2,1197.78
step02_gravity_refstate-crust.xmf,167,-4.12513e-07,1.57666e-07,0,-3.6343e-09,-39137.6,-23.2473,-10839.1,-249.313,-4.05326e-20,0.123896,-0,0.123896,-40000,0,-0,40000,249.313
step02_gravity_refstate-crust.xmf,168,-2.15074e-07,1.57141e-06,0,1.88049e-07,-4.36873e+08,-4.36751e+08,-4.36859e+08,12900.2,-0.00162422,0.111909,-0,0.111921,-32812.2,-15906.4,-0,36464.4,12900.2
step02_gravity_refstate-crust.xmf,169,-2.20465e-07,1.93689e-06,0,3.08458e-07,-5.41444e+08,-5.41296e+08,-5.41429e+08,21160.2,-0.00265691,0.106897,-0,0.106931,-28993.3,-19713.9,-0,35060.6,21160.2
step02_gravity_refstate-crust.xmf,170,-2.17694e-07,1.77233e-06,0,2.50614e-07,-4.93944e+08,-4.93807e+08,-4.93929e+08,17192.1,-0.00214596,0.109214,-0,0.109235,-30814.6,-17984.4,-0,35678.8,17192.1
step02_gravity_refstate-crust.xmf,171,-2.26254e-07,2.09148e-06,0,3.58679e-07,-5.85902e+08,-5.85743e+08,-5.85886e+08,24605.4,-0.00312539,0.104506,-0,0.104553,-27495.1,-21332.7,-0,34800.3,24605.4
step02_gravity_refstate-crust.xmf,172,-2.39231e-07,2.27589e-06,0,4.07202e-07,-6.37646e+08,-6.37474e+08,-6.3763e+08,27934,-0.00361295,0.101273,-0,0.101337,-26174.3,-23216.7,-0,34987.3,27934
step02_gravity_refstate-crust.xmf,173,-2.57121e-07,2.46375e-06,0,4.53916e-07,-6.89465e+08,-6.89279e+08,-6.89448e+08,31138.6,-0.00410378,0.0977136,-0,0.0977997,-24969,-25103.4,-0,35406.7,31138.6
step02_gravity_refstate-crust.xmf,174,-2.8044e-07,2.65356e-06,0,5.0048e-07,-7.40723e+08,-7.40522e+08,-7.40704e+08,34332.9,-0.00459709,0.0939096,-0,0.0940221,-23828.7,-26969.7,-0,35988.5,34332.9
step02_gravity_refstate-crust.xmf,175,-3.37653e-07,2.99661e-06,0,6.00499e-07,-8.31179e+08,-8.3095e+08,-8.31156e+08,41194.2,-0.00556643,0.0868511,-0,0.0870293,-21606,-30263.2,-0,37184.4,41194.2
step02_gravity_refstate-crust.xmf,176,-3.08246e-07,2.83439e-06,0,5.47121e-07,-7.88423e+08,-7.88208e+08,-7.88402e+08,37532.5,-0.00507373,0.0901732,-0,0.0903158,-22749,-28706.5,-0,36627.6,37532.5
step02_gravity_refstate-crust.xmf,177,-3.7174e-07,3.153e-06,0,6.59232e-07,-8.7138e+08,-8.71138e+08,-8.71355e+08,45223.3,-0.00605785,0.0836706,-0,0.0838896,-20495.3,-31726.8,-0,37771,45223.3
step02_gravity_refstate-crust.xmf,178,-4.14575e-07,3.3145e-06,0,7.16805e-07,-9.10156e+08,-9.099e+08,-9.10127e+08,49172.8,-0.00650586,0.0803793,-0,0.0806422,-19532.1,-33138.6,-0,38466.4,49172.8
step02_gravity_refstate-crust.xmf,179,-4.65946e-07,3.47841e-06,0,7.78895e-07,-9.47359e+08,-9.47089e+08,-9.47327e+08,53432.2,-0.00694238,0.0771201,-0,0.0774319,-18617.4,-34493.1,-0,39196.7,53432.2
step02_gravity_refstate-crust.xmf,180,-5.26924e-07,3.64474e-06,0,8.52872e-07,-9.83389e+08,-9.83103e+08,-9.83353e+08,58507,-0.00740454,0.0739773,-0,0.0743469,-17678.7,-35804.8,-0,39931.4,58507
step02_gravity_refstate-crust.xmf,181,-5.94513e-07,3.80437e-06,0,9.39224e-07,-1.01642e+09,-1.01611e+09,-1.01638e+09,64430.7,-0.00788871,0.0711876,-0,0.0716233,-16748.4,-37007.1,-0,40620.6,64430.7
step02_gravity_refstate-crust.xmf,182,-7.39518e-07,4.124e-06,0,1.06833e-06,-1.07051e+09,-1.07018e+09,-1.07046e+09,73287.5,-0.00853492,0.0659156,-0,0.0664659,-15536.6,-38976.5,-0,41958.9,73287.5
step02_gravity_refstate-crust.xmf,183,-1.93577e-07,8.25749e-07,0,1.54575e-07,-2.30055e+08,-2.29985e+08,-2.30042e+08,10603.9,-0.00192281,0.121421,-0,0.121436,-31321.6,-8375.87,-0,32422.2,10603.9
step02_gravity_refstate-crust.xmf,184,-2.28009e-07,6.0226e-07,0,1.01431e-07,-1.6022e+08,-1.60163e+08,-1.60204e+08,6958.19,-0.00181718,0.122768,-0,0.122782,-32760.9,-5832.96,-0,33276.1,6958.19
step02_gravity_refstate-crust.xmf,185,-2.90592e-07,3.88704e-07,0,4.87805e-08,-8.84481e+07,-8.84015e+07,-8.84282e+07,3346.34,-0.00160519,0.123572,-0,0.123582,-34720.9,-3219.47,-0,34869.9,3346.34
step02_gravity_refstate-crust.xmf,186,-3.96789e-07,1.50221e-07,0,-1.99401e-09,-37706.8,-181.857,-10487,-136.789,-0.00145571,0.124141,-0,0.12415,-36412.7,0,-0,36412.7,136.789
step02_gravity_refstate-crust.xmf,187,-6.41624e-07,3.90871e-06,0,1.03901e-06,-1.03982e+09,-1.03951e+09,-1.03978e+09,71276,-0.00841005,0.069721,-0,0.0702264,-15846.1,-37859.1,-0,41041.6,71276
step02_gravity_refstate-crust.xmf,188,-7.3861e-07,4.07607e-06,0,1.24687e-06,-1.07711e+09,-1.07678e+09,-1.07706e+09,85535,-0.00934235,0.0675961,-0,0.0682387,-14418.4,-39216.7,-0,41783.2,85535
step02_gravity_refstate-crust.xmf,189,-1.93824e-07,1.31698e-06,0,2.04535e-07,-3.69359e+08,-3.69255e+08,-3.69345e+08,14031.1,-0.00184882,0.115985,-0,0.116,-31364.6,-13448.1,-0,34126.1,14031.1
step02_gravity_refstate-crust.xmf,190,-1.75449e-07,1.05924e-06,0,2.08015e-07,-2.99725e+08,-2.9964e+08,-2.99713e+08,14269.8,-0.00209286,0.119575,-0,0.119593,-29935.7,-10912.7,-0,31862.7,14269.8
step02_gravity_refstate-crust.xmf,191,-1.91697e-07,1.5154e-06,0,2.62223e-07,-4.27629e+08,-4.27512e+08,-4.27616e+08,17988.5,-0.00224475,0.113699,-0,0.113722,-29688.8,-15569.8,-0,33523.8,17988.5
step02_gravity_refstate-crust.xmf,192,-1.9577e-07,1.87761e-06,0,3.70679e-07,-5.33554e+08,-5.33412e+08,-5.33541e+08,25428.6,-0.00313642,0.108876,-0,0.108921,-26566.5,-19426.7,-0,32911.6,25428.6
step02_gravity_refstate-crust.xmf,193,-1.90232e-07,1.69516e-06,0,3.20578e-07,-4.80705e+08,-4.80575e+08,-4.80691e+08,21991.6,-0.00270486,0.111507,-0,0.11154,-27917.4,-17502.4,-0,32950.2,21991.6
step02_gravity_refstate-crust.xmf,194,-2.03161e-07,2.05506e-06,0,4.22645e-07,-5.85452e+08,-5.85297e+08,-5.85438e+08,28993.4,-0.00361422,0.10608,-0,0.106142,-25210.6,-21316.3,-0,33014.6,28993.4
step02_gravity_refstate-crust.xmf,195,-3.04685e-07,2.91626e-06,0,6.97606e-07,-8.28322e+08,-8.28101e+08,-8.28301e+08,47855.8,-0.00616444,0.0894147,-0,0.0896269,-19709.2,-30159.2,-0,36028.1,47855.8
step02_gravity_refstate-crust.xmf,196,-2.15331e-07,2.23742e-06,0,4.74302e-07,-6.38191e+08,-6.38023e+08,-6.38176e+08,32537.1,-0.00411472,0.102904,-0,0.102986,-23977.4,-23236.6,-0,33389.4,32537.1
step02_gravity_refstate-crust.xmf,197,-2.32408e-07,2.4205e-06,0,5.26267e-07,-6.90338e+08,-6.90156e+08,-6.90322e+08,36101.9,-0.00462778,0.0994555,-0,0.0995632,-22844.3,-25135.3,-0,33965.3,36101.9
step02_gravity_refstate-crust.xmf,198,-2.53932e-07,2.59801e-06,0,5.78974e-07,-7.40007e+08,-7.39811e+08,-7.39989e+08,39717.6,-0.00513824,0.0959286,-0,0.0960661,-21791.2,-26943.7,-0,34652.8,39717.6
step02_gravity_refstate-crust.xmf,199,-2.77727e-07,2.76282e-06,0,6.36691e-07,-7.86094e+08,-7.85885e+08,-7.86075e+08,43677,-0.00565837,0.0925767,-0,0.0927494,-20720.2,-28621.7,-0,35334.5,43677
step02_gravity_refstate-crust.xmf,200,-3.37843e-07,3.06931e-06,0,7.63716e-07,-8.69044e+08,-8.6881e+08,-8.6902e+08,52390.9,-0.00666836,0.0862448,-0,0.0865022,-18751.1,-31641.8,-0,36780.5,52390.9
step02_gravity_refstate-crust.xmf,201,-3.78687e-07,3.22332e-06,0,8.34462e-07,-9.07996e+08,-9.07748e+08,-9.0797e+08,57244.1,-0.00716028,0.083083,-0,0.0833909,-17865.6,-33059.9,-0,37578.4,57244.1
step02_gravity_refstate-crust.xmf,202,-4.26221e-07,3.37478e-06,0,9.13715e-07,-9.44838e+08,-9.44577e+08,-9.44809e+08,62680.9,-0.00765674,0.0800642,-0,0.0804295,-17002.4,-34401.3,-0,38373.5,62680.9
step02_gravity_refstate-crust.xmf,203,-4.78533e-07,3.51924e-06,0,1.00643e-06,-9.7928e+08,-9.79006e+08,-9.79247e+08,69041.1,-0.00817786,0.0773273,-0,0.0777585,-16126.8,-35655.2,-0,39132.6,69041.1
step02_gravity_refstate-crust.xmf,204,-5.35998e-07,3.65838e-06,0,1.11345e-06,-1.01147e+09,-1.01118e+09,-1.01144e+09,76382.6,-0.00872141,0.0748551,-0,0.0753614,-15267.1,-36827.1,-0,39866.3,76382.6
step02_gravity_refstate-crust.xmf,205,-6.18587e-07,3.827e-06,0,1.23827e-06,-1.04591e+09,-1.04561e+09,-1.04587e+09,84945.4,-0.0093003,0.0720365,-0,0.0726344,-14437.5,-38080.8,-0,40725.8,84945.4
step02_gravity_refstate-crust.xmf,206,-6.61119e-07,3.90192e-06,0,1.42368e-06,-1.07187e+09,-1.07156e+09,-1.07183e+09,97664.4,-0.0100799,0.0711505,-0,0.0718609,-13352,-39026,-0,41246.8,97664.4
step02_gravity_refstate-crust.xmf,207,-1.61113e-07,8.0933e-07,0,1.98119e-07,-2.30489e+08,-2.30423e+08,-2.30478e+08,13591,-0.00242611,0.122573,-0,0.122597,-28476.9,-8391.8,-0,29687.6,13591
step02_gravity_refstate-crust.xmf,208,-1.9475e-07,5.86092e-07,0,1.36458e-07,-1.59752e+08,-1.59698e+08,-1.59738e+08,9361,-0.00242594,0.12377,-0,0.123794,-29890.1,-5816.04,-0,30450.7,9361
step02_gravity_refstate-crust.xmf,209,-2.5555e-07,3.53149e-07,0,7.03649e-08,-8.16774e+07,-8.16356e+07,-8.16598e+07,4827.03,-0.00257189,0.124587,-0,0.124613,-31321.6,-2973.06,-0,31462.4,4827.03
step02_gravity_refstate-crust.xmf,210,-3.56953e-07,1.34591e-07,0,1.86866e-10,-33944.4,-224.539,-9457.48,12.819,-0.00277229,0.124834,-0,0.124865,-32925.8,0,-0,32925.8,12.819
step02_gravity_refstate-crust.xmf,211,-1.65104e-07,1.26913e-06,0,2.65517e-07,-3.62391e+08,-3.62293e+08,-3.6238e+08,18214.5,-0.00238361,0.117656,-0,0.11768,-28349.1,-13194.5,-0,31269.3,18214.5
step02_gravity_refstate-crust.xmf,212,-1.41524e-07,1.02661e-06,0,2.56968e-07,-2.96987e+08,-2.96907e+08,-2.96978e+08,17628,-0.00255571,0.121063,-0,0.12109,-27021,-10813.1,-0,29104.2,17628
step02_gravity_refstate-crust.xmf,213,-1.57836e-07,1.45325e-06,0,3.25537e-07,-4.19213e+08,-4.19102e+08,-4.19202e+08,22331.9,-0.00275884,0.115758,-0,0.115791,-26646.4,-15263.5,-0,30708.4,22331.9
step02_gravity_refstate-crust.xmf,214,-1.63254e-07,1.83072e-06,0,4.30648e-07,-5.32229e+08,-5.32092e+08,-5.32218e+08,29542.4,-0.00357687,0.110666,-0,0.110724,-24082.5,-19378.5,-0,30911,29542.4
step02_gravity_refstate-crust.xmf,215,-1.59803e-07,1.65054e-06,0,3.78615e-07,-4.77914e+08,-4.7779e+08,-4.77903e+08,25973,-0.00314581,0.113239,-0,0.113283,-25345.4,-17400.8,-0,30743.7,25973
step02_gravity_refstate-crust.xmf,216,-2.5305e-07,2.81983e-06,0,7.89535e-07,-8.27377e+08,-8.27166e+08,-8.27359e+08,54162.1,-0.00666651,0.0919061,-0,0.0921476,-17888.1,-30124.8,-0,35035.5,54162.1
step02_gravity_refstate-crust.xmf,217,-1.70014e-07,2.01071e-06,0,4.83581e-07,-5.86492e+08,-5.86343e+08,-5.86481e+08,33173.7,-0.00405145,0.107782,-0,0.107858,-22896.1,-21354.3,-0,31308.7,33173.7
step02_gravity_refstate-crust.xmf,218,-2.29899e-07,2.6746e-06,0,7.19682e-07,-7.84857e+08,-7.84658e+08,-7.84842e+08,49370.2,-0.00613966,0.0949794,-0,0.0951776,-18794.4,-28576.7,-0,34203.2,49370.2
step02_gravity_refstate-crust.xmf,219,-1.80737e-07,2.18851e-06,0,5.37402e-07,-6.39737e+08,-6.39575e+08,-6.39725e+08,36865.8,-0.00455221,0.104637,-0,0.104736,-21812.1,-23292.9,-0,31911.2,36865.8
step02_gravity_refstate-crust.xmf,220,-1.94475e-07,2.35963e-06,0,5.93693e-07,-6.90838e+08,-6.90663e+08,-6.90825e+08,40727.3,-0.0050716,0.101387,-0,0.101514,-20779.4,-25153.5,-0,32626.4,40727.3
step02_gravity_refstate-crust.xmf,221,-2.11978e-07,2.52644e-06,0,6.54449e-07,-7.40304e+08,-7.40116e+08,-7.4029e+08,44895.2,-0.00560864,0.0980417,-0,0.098202,-19780,-26954.6,-0,33433.5,44895.2
step02_gravity_refstate-crust.xmf,222,-2.82003e-07,2.96287e-06,0,8.65243e-07,-8.67929e+08,-8.67706e+08,-8.67909e+08,59355.7,-0.00719073,0.0888561,-0,0.0891466,-17043.7,-31601.3,-0,35904.4,59355.7
step02_gravity_refstate-crust.xmf,223,-3.16878e-07,3.10263e-06,0,9.48098e-07,-9.06232e+08,-9.05998e+08,-9.06211e+08,65039.5,-0.00771293,0.0859034,-0,0.0862489,-16245.9,-32995.8,-0,36778.4,65039.5
step02_gravity_refstate-crust.xmf,224,-3.55913e-07,3.23603e-06,0,1.04391e-06,-9.42596e+08,-9.42349e+08,-9.42571e+08,71612.5,-0.00825598,0.0831453,-0,0.0835542,-15436.2,-34319.7,-0,37631.4,71612.5
step02_gravity_refstate-crust.xmf,225,-3.99101e-07,3.36301e-06,0,1.15447e-06,-9.76967e+08,-9.76709e+08,-9.76939e+08,79196.5,-0.00882213,0.0806138,-0,0.0810951,-14627.8,-35571,-0,38461.3,79196.5
step02_gravity_refstate-crust.xmf,226,-4.49024e-07,3.4872e-06,0,1.28535e-06,-1.01029e+09,-1.01002e+09,-1.01026e+09,88175.1,-0.00943066,0.0782605,-0,0.0788266,-13811.3,-36784.1,-0,39291.5,88175.1
step02_gravity_refstate-crust.xmf,227,-5.38515e-07,3.6749e-06,0,1.63267e-06,-1.07011e+09,-1.06982e+09,-1.07007e+09,112001,-0.0108273,0.0749986,-0,0.0757761,-12084.5,-38961.8,-0,40792.8,112001
step02_gravity_refstate-crust.xmf,228,-4.92928e-07,3.58618e-06,0,1.44521e-06,-1.04095e+09,-1.04067e+09,-1.04091e+09,99141.4,-0.0101042,0.0764766,-0,0.0771412,-12937.1,-37900.3,-0,40047.5,99141.4
step02_gravity_refstate-crust.xmf,229,-1.19824e-07,7.89266e-07,0,2.3598e-07,-2.31553e+08,-2.31491e+08,-2.31545e+08,16188.2,-0.00282587,0.12397,-0,0.124002,-25613,-8430.67,-0,26964.8,16188.2
step02_gravity_refstate-crust.xmf,230,-1.5063e-07,5.81574e-07,0,1.71451e-07,-1.64453e+08,-1.64403e+08,-1.64443e+08,11761.5,-0.00290005,0.124936,-0,0.12497,-27007.7,-5987.36,-0,27663.4,11761.5
step02_gravity_refstate-crust.xmf,231,-2.01541e-07,3.31336e-07,0,9.16672e-08,-8.15036e+07,-8.1467e+07,-8.14898e+07,6288.37,-0.00330945,0.125818,-0,0.125861,-28101.5,-2966.92,-0,28257.7,6288.37
step02_gravity_refstate-crust.xmf,232,-2.9304e-07,1.10486e-07,0,9.56029e-10,-27866.9,-185.065,-7764.39,65.5836,-0.00388146,0.125901,-0,0.125961,-29529.6,0,-0,29529.6,65.5836
step02_gravity_refstate-crust.xmf,233,-1.796e-07,2.69979e-06,0,8.70786e-07,-8.26788e+08,-8.26591e+08,-8.26776e+08,59735.9,-0.00704175,0.0944608,-0,0.0947229,-16132.3,-30103.5,-0,34153.6,59735.9
step02_gravity_refstate-crust.xmf,234,-1.29796e-07,1.22744e-06,0,3.15257e-07,-3.5897e+08,-3.58877e+08,-3.58961e+08,21626.7,-0.00279332,0.119342,-0,0.119375,-25541.4,-13070,-0,28691.2,21626.7
step02_gravity_refstate-crust.xmf,235,-1.01098e-07,9.95756e-07,0,2.96254e-07,-2.9636e+08,-2.96284e+08,-2.96353e+08,20323,-0.00289373,0.122642,-0,0.122676,-24235.5,-10790.4,-0,26529.1,20323
step02_gravity_refstate-crust.xmf,236,-1.23764e-07,1.41996e-06,0,3.73346e-07,-4.19677e+08,-4.19571e+08,-4.19668e+08,25611.5,-0.00311419,0.11729,-0,0.117332,-24132,-15280.5,-0,28563,25611.5
step02_gravity_refstate-crust.xmf,237,-1.20111e-07,1.77653e-06,0,4.81858e-07,-5.32428e+08,-5.32298e+08,-5.3242e+08,33055.4,-0.00392819,0.112546,-0,0.112614,-21614.6,-19385.8,-0,29034.5,33055.4
step02_gravity_refstate-crust.xmf,238,-1.20274e-07,1.60047e-06,0,4.27847e-07,-4.76588e+08,-4.7647e+08,-4.7658e+08,29350.3,-0.0034964,0.115074,-0,0.115127,-22804.9,-17352.7,-0,28656.2,29350.3
step02_gravity_refstate-crust.xmf,239,-3.68954e-07,3.3973e-06,0,1.82107e-06,-1.06916e+09,-1.0689e+09,-1.06913e+09,124926,-0.0113653,0.0788451,-0,0.07966,-10870.8,-38927.6,-0,40416.9,124926
step02_gravity_refstate-crust.xmf,240,-1.64259e-07,2.56857e-06,0,7.92017e-07,-7.84405e+08,-7.84218e+08,-7.84394e+08,54332.3,-0.00649816,0.0973776,-0,0.0975942,-16957.3,-28560.4,-0,33215.1,54332.3
step02_gravity_refstate-crust.xmf,241,-1.26402e-07,1.95454e-06,0,5.35096e-07,-5.87742e+08,-5.876e+08,-5.87734e+08,36707.6,-0.00439022,0.109586,-0,0.109674,-20663.6,-21399.9,-0,29747.9,36707.6
step02_gravity_refstate-crust.xmf,242,-1.54089e-07,2.4376e-06,0,7.20181e-07,-7.40967e+08,-7.40789e+08,-7.40957e+08,49404.4,-0.00596591,0.100205,-0,0.100383,-17858,-26978.8,-0,32353.7,49404.4
step02_gravity_refstate-crust.xmf,243,-1.3359e-07,2.12351e-06,0,5.91946e-07,-6.40982e+08,-6.40827e+08,-6.40973e+08,40607.5,-0.00489208,0.106519,-0,0.106631,-19705.4,-23338.3,-0,30544.7,40607.5
step02_gravity_refstate-crust.xmf,244,-1.42963e-07,2.28485e-06,0,6.52618e-07,-6.9199e+08,-6.91823e+08,-6.9198e+08,44769.6,-0.00541739,0.103369,-0,0.103511,-18782.1,-25195.5,-0,31425.8,44769.6
step02_gravity_refstate-crust.xmf,245,-2.02894e-07,2.83188e-06,0,9.55899e-07,-8.67382e+08,-8.67174e+08,-8.67368e+08,65574.7,-0.00758428,0.091501,-0,0.0918147,-15401.1,-31581.5,-0,35136.6,65574.7
step02_gravity_refstate-crust.xmf,246,-2.29712e-07,2.95568e-06,0,1.05103e-06,-9.05421e+08,-9.05203e+08,-9.05406e+08,72100.7,-0.00813207,0.0887189,-0,0.0890908,-14684.3,-32966.4,-0,36089,72100.7
step02_gravity_refstate-crust.xmf,247,-2.53633e-07,3.06233e-06,0,1.16298e-06,-9.41103e+08,-9.40875e+08,-9.41086e+08,79780.5,-0.00870808,0.0862866,-0,0.0867249,-13906.6,-34265.5,-0,36980,79780.5
step02_gravity_refstate-crust.xmf,248,-2.83817e-07,3.16784e-06,0,1.29094e-06,-9.75688e+08,-9.75451e+08,-9.75669e+08,88558.3,-0.0093106,0.0839452,-0,0.08446,-13159.2,-35524.7,-0,37883.6,88558.3
step02_gravity_refstate-crust.xmf,249,-3.10277e-07,3.25456e-06,0,1.44267e-06,-1.00837e+09,-1.00812e+09,-1.00835e+09,98967.4,-0.00995637,0.0819864,-0,0.0825887,-12372.1,-36714.4,-0,38743,98967.4
step02_gravity_refstate-crust.xmf,250,-3.32788e-07,3.3224e-06,0,1.6206e-06,-1.03918e+09,-1.03893e+09,-1.03916e+09,111173,-0.0106446,0.0804043,-0,0.0811058,-11577.8,-37836.3,-0,39568,111173
step02_gravity_refstate-crust.xmf,251,-9.9737e-08,5.5915e-07,0,1.95135e-07,-1.64766e+08,-1.64721e+08,-1.64759e+08,13386.3,-0.00325308,0.126389,-0,0.126431,-24172.7,-5998.94,-0,24905.9,13386.3
step02_gravity_refstate-crust.xmf,252,-7.32818e-08,7.67485e-07,0,2.64879e-07,-2.33374e+08,-2.33316e+08,-2.33369e+08,18170.7,-0.00308769,0.12548,-0,0.125518,-22854.4,-8497.11,-0,24382.9,18170.7
step02_gravity_refstate-crust.xmf,253,-1.30191e-07,3.08119e-07,0,1.12454e-07,-8.33174e+07,-8.32873e+07,-8.33084e+07,7714.34,-0.00386262,0.127431,-0,0.127489,-24636.6,-3033.2,-0,24822.6,7714.34
step02_gravity_refstate-crust.xmf,254,-2.11022e-07,7.97012e-08,0,1.76963e-09,-20061.4,-117.819,-5585.32,121.396,-0.00472336,0.127258,-0,0.127346,-26214.4,0,-0,26214.4,121.396
step02_gravity_refstate-crust.xmf,255,-7.60969e-08,2.43895e-06,0,8.51831e-07,-7.84738e+08,-7.84566e+08,-7.84733e+08,58435.6,-0.00672455,0.0998517,-0,0.100078,-15113.6,-28572.6,-0,32323.6,58435.6
step02_gravity_refstate-crust.xmf,256,-9.0245e-08,2.57338e-06,0,9.38623e-07,-8.29361e+08,-8.29179e+08,-8.29355e+08,64389.5,-0.00729539,0.0967273,-0,0.097002,-14465.2,-30197.4,-0,33483.1,64389.5
step02_gravity_refstate-crust.xmf,257,-8.87431e-08,1.19248e-06,0,3.54763e-07,-3.5919e+08,-3.59102e+08,-3.59184e+08,24336.8,-0.00308628,0.120994,-0,0.121033,-22864.2,-13078.2,-0,26340.2,24336.8
step02_gravity_refstate-crust.xmf,258,-5.55575e-08,9.6692e-07,0,3.25271e-07,-2.97842e+08,-2.97772e+08,-2.97838e+08,22313.6,-0.00310431,0.124249,-0,0.124287,-21549.3,-10844.5,-0,24124.1,22313.6
step02_gravity_refstate-crust.xmf,259,-7.38809e-08,1.72843e-06,0,5.18956e-07,-5.357e+08,-5.35576e+08,-5.35695e+08,35600.4,-0.00415834,0.114123,-0,0.114199,-19456.2,-19505.1,-0,27549.8,35600.4
step02_gravity_refstate-crust.xmf,260,-7.89969e-08,1.37244e-06,0,4.11651e-07,-4.19225e+08,-4.19126e+08,-4.1922e+08,28239.2,-0.00337812,0.119107,-0,0.119155,-21517.4,-15264.1,-0,26381.7,28239.2
step02_gravity_refstate-crust.xmf,261,-7.46727e-08,1.55459e-06,0,4.65592e-07,-4.78722e+08,-4.7861e+08,-4.78717e+08,31939.6,-0.00374165,0.116761,-0,0.116821,-20404.2,-17430.4,-0,26835.7,31939.6
step02_gravity_refstate-crust.xmf,262,-1.49778e-07,3.04262e-06,0,1.76e-06,-1.03934e+09,-1.03912e+09,-1.03933e+09,120736,-0.0109387,0.0838763,-0,0.0845866,-10369.7,-37842.4,-0,39237.5,120736
step02_gravity_refstate-crust.xmf,263,-1.43986e-07,3.05698e-06,0,1.98398e-06,-1.06908e+09,-1.06886e+09,-1.06907e+09,136101,-0.0116747,0.0827837,-0,0.0836028,-9662.47,-38924.9,-0,40106.3,136101
step02_gravity_refstate-crust.xmf,264,-8.44858e-08,2.33858e-06,0,7.71476e-07,-7.42383e+08,-7.42217e+08,-7.42377e+08,52923.3,-0.00619121,0.102265,-0,0.102452,-16079.1,-27030.5,-0,31451.3,52923.3
step02_gravity_refstate-crust.xmf,265,-7.378e-08,1.89076e-06,0,5.74601e-07,-5.89962e+08,-5.89828e+08,-5.89957e+08,39417.6,-0.00461836,0.111352,-0,0.111448,-18548.1,-21480.8,-0,28380.6,39417.6
step02_gravity_refstate-crust.xmf,266,-8.06742e-08,2.20576e-06,0,6.99921e-07,-6.95419e+08,-6.95262e+08,-6.95413e+08,48014.6,-0.00565878,0.105174,-0,0.105326,-16899.9,-25320.5,-0,30442.3,48014.6
step02_gravity_refstate-crust.xmf,267,-7.48393e-08,2.04871e-06,0,6.35445e-07,-6.43429e+08,-6.43283e+08,-6.43424e+08,43591.5,-0.00512472,0.108372,-0,0.108493,-17670,-23427.5,-0,29344.2,43591.5
step02_gravity_refstate-crust.xmf,268,-1.05284e-07,2.68569e-06,0,1.03038e-06,-8.68357e+08,-8.68166e+08,-8.6835e+08,70683.8,-0.00783408,0.0939893,-0,0.0943152,-13851,-31617.1,-0,34518,70683.8
step02_gravity_refstate-crust.xmf,269,-1.12621e-07,2.77411e-06,0,1.13602e-06,-9.04396e+08,-9.04198e+08,-9.04389e+08,77930.7,-0.00838205,0.0916599,-0,0.0920424,-13151.5,-32929.3,-0,35458.4,77930.7
step02_gravity_refstate-crust.xmf,270,-1.19977e-07,2.85531e-06,0,1.25981e-06,-9.3994e+08,-9.39736e+08,-9.39932e+08,86422.9,-0.00896849,0.089446,-0,0.0898945,-12432.1,-34223.4,-0,36411.5,86422.9
step02_gravity_refstate-crust.xmf,271,-1.29802e-07,2.93149e-06,0,1.40321e-06,-9.7478e+08,-9.7457e+08,-9.74771e+08,96260,-0.00959393,0.0873316,-0,0.087857,-11729.8,-35491.9,-0,37379.9,96260
step02_gravity_refstate-crust.xmf,272,-1.39219e-07,2.99278e-06,0,1.56922e-06,-1.00784e+09,-1.00762e+09,-1.00783e+09,107649,-0.0102487,0.0854881,-0,0.0861003,-11035.2,-36695.5,-0,38318.9,107649
step02_gravity_refstate-crust.xmf,273,-7.47799e-08,4.08011e-07,0,1.61947e-07,-1.2179e+08,-1.21756e+08,-1.21784e+08,11109.5,-0.00368789,0.12796,-0,0.128013,-22696.1,-4434.2,-0,23125.2,11109.5
step02_gravity_refstate-crust.xmf,274,-2.26824e-08,7.42109e-07,0,2.83426e-07,-2.35306e+08,-2.35253e+08,-2.35304e+08,19443,-0.00321244,0.127067,-0,0.127107,-20165.3,-8567.61,-0,21909.9,19443
step02_gravity_refstate-crust.xmf,275,-4.5024e-08,5.62646e-07,0,2.22082e-07,-1.74607e+08,-1.74565e+08,-1.74604e+08,15234.8,-0.00339706,0.127749,-0,0.127794,-21426.5,-6357.43,-0,22349.7,15234.8
step02_gravity_refstate-crust.xmf,276,-1.1603e-07,4.41087e-08,0,2.22186e-09,-11018.7,-33.1226,-3058.98,152.42,-0.00525855,0.128811,-0,0.128918,-22970.9,0,-0,22970.9,152.42
step02_gravity_refstate-crust.xmf,277,-2.2322e-08,1.67718e-06,0,5.43747e-07,-5.40021e+08,-5.39904e+08,-5.4002e+08,37301,-0.00428625,0.115606,-0,0.115685,-17433.8,-19662.5,-0,26278.3,37301
step02_gravity_refstate-crust.xmf,278,1.17413e-08,2.19858e-06,0,8.01764e-07,-7.39303e+08,-7.39153e+08,-7.39303e+08,55001,-0.00622527,0.104892,-0,0.105077,-14208.7,-26918.5,-0,30438.4,55001
step02_gravity_refstate-crust.xmf,279,3.2617e-08,2.31206e-06,0,9.03233e-07,-7.92056e+08,-7.91899e+08,-7.92058e+08,61961.8,-0.00685734,0.101932,-0,0.102163,-13199.3,-28839.3,-0,31716.4,61961.8
step02_gravity_refstate-crust.xmf,280,-5.5984e-09,2.47126e-06,0,9.92835e-07,-8.37045e+08,-8.36875e+08,-8.37045e+08,68108.5,-0.00745919,0.0981678,-0,0.0984508,-13102.7,-30477.3,-0,33174.5,68108.5
step02_gravity_refstate-crust.xmf,281,-4.13694e-08,1.15178e-06,0,3.81627e-07,-3.59751e+08,-3.5967e+08,-3.59749e+08,26179.6,-0.00325782,0.122727,-0,0.122771,-20249.4,-13098.7,-0,24116.7,26179.6
step02_gravity_refstate-crust.xmf,282,-4.88812e-08,2.31419e-07,0,1.03657e-07,-6.90389e+07,-6.90197e+07,-6.90356e+07,7110.89,-0.00432621,0.129337,-0,0.12941,-21319.7,-2513.59,-0,21467.4,7110.89
step02_gravity_refstate-crust.xmf,283,-6.50324e-09,9.33204e-07,0,3.41228e-07,-2.99107e+08,-2.99042e+08,-2.99106e+08,23408.2,-0.00318511,0.125889,-0,0.12593,-18966,-10890.7,-0,21870.4,23408.2
step02_gravity_refstate-crust.xmf,284,-2.366e-08,1.51526e-06,0,4.91802e-07,-4.84967e+08,-4.84862e+08,-4.84966e+08,33737.6,-0.00389143,0.118231,-0,0.118295,-18118.8,-17658,-0,25300.1,33737.6
step02_gravity_refstate-crust.xmf,285,-2.88698e-08,1.33238e-06,0,4.38331e-07,-4.23153e+08,-4.23059e+08,-4.23151e+08,30069.5,-0.00353122,0.12075,-0,0.120802,-19006.4,-15407.2,-0,24466.8,30069.5
step02_gravity_refstate-crust.xmf,286,6.91397e-08,2.69155e-06,0,1.65961e-06,-1.00791e+09,-1.00773e+09,-1.00792e+09,113849,-0.0102957,0.0889391,-0,0.089533,-9740.99,-36698.5,-0,37969.3,113849
step02_gravity_refstate-crust.xmf,287,1.04921e-07,2.67647e-06,0,1.86428e-06,-1.03897e+09,-1.03879e+09,-1.03897e+09,127889,-0.0109605,0.0878067,-0,0.0884882,-9071.86,-37829.1,-0,38901.7,127889
step02_gravity_refstate-crust.xmf,288,1.29459e-07,2.66879e-06,0,2.10003e-06,-1.06987e+09,-1.0697e+09,-1.06988e+09,144062,-0.0117058,0.0866498,-0,0.0874369,-8493.04,-38954.5,-0,39869.6,144062
step02_gravity_refstate-crust.xmf,289,-2.3225e-08,2.14873e-06,0,7.34323e-07,-7.03241e+08,-7.03092e+08,-7.03239e+08,50374.6,-0.00581524,0.106284,-0,0.106443,-15403.6,-25605.4,-0,29881.6,50374.6
step02_gravity_refstate-crust.xmf,290,-1.2826e-08,1.81599e-06,0,5.99637e-07,-5.91829e+08,-5.91704e+08,-5.91828e+08,41135.1,-0.0047209,0.113129,-0,0.113227,-16536.5,-21548.9,-0,27162.7,41135.1
step02_gravity_refstate-crust.xmf,291,-6.26278e-11,1.96406e-06,0,6.6992e-07,-6.49602e+08,-6.49467e+08,-6.49602e+08,45956.5,-0.00526345,0.110141,-0,0.110267,-15548.1,-23652.5,-0,28305.2,45956.5
step02_gravity_refstate-crust.xmf,292,1.27108e-08,2.51447e-06,0,1.08126e-06,-8.6824e+08,-8.68068e+08,-8.6824e+08,74174.2,-0.00790046,0.0965239,-0,0.0968467,-12392.3,-31613.1,-0,33955.2,74174.2
step02_gravity_refstate-crust.xmf,293,2.83464e-08,2.56855e-06,0,1.19451e-06,-9.03799e+08,-9.03625e+08,-9.03801e+08,81943.1,-0.00843544,0.0945463,-0,0.0949219,-11674.4,-32907.8,-0,34917.3,81943.1
step02_gravity_refstate-crust.xmf,294,4.54162e-08,2.61532e-06,0,1.33076e-06,-9.39871e+08,-9.39694e+08,-9.39874e+08,91290,-0.00902263,0.0925705,-0,0.0930091,-10970.8,-34221.2,-0,35936.7,91290
step02_gravity_refstate-crust.xmf,295,4.22347e-08,2.68424e-06,0,1.48963e-06,-9.76803e+08,-9.76622e+08,-9.76806e+08,102188,-0.00968868,0.0902827,-0,0.0908011,-10409.4,-35565.8,-0,37057.8,102188
step02_gravity_refstate-crust.xmf,296,-1.54258e-08,3.82978e-07,0,1.6885e-07,-1.21524e+08,-1.21496e+08,-1.21523e+08,11583.1,-0.00380897,0.12946,-0,0.129516,-20058.9,-4424.72,-0,20541.1,11583.1
step02_gravity_refstate-crust.xmf,297,2.76362e-08,7.14543e-07,0,2.89062e-07,-2.3673e+08,-2.36683e+08,-2.36732e+08,19829.7,-0.00320339,0.128602,-0,0.128642,-17653.9,-8619.62,-0,19645.8,19829.7
step02_gravity_refstate-crust.xmf,298,1.23271e-08,5.21991e-07,0,2.27431e-07,-1.70961e+08,-1.70926e+08,-1.70962e+08,15601.7,-0.00346092,0.129434,-0,0.12948,-18719.3,-6224.88,-0,19727.2,15601.7
step02_gravity_refstate-crust.xmf,299,-1.02928e-08,4.55438e-09,0,3.07027e-09,-950.152,68.364,-244.066,210.621,-0.00546623,0.130462,-0,0.130577,-19789.7,0,-0,19789.7,210.621
step02_gravity_refstate-crust.xmf,300,1.75383e-08,1.50497e-06,0,5.09783e-07,-4.97479e+08,-4.97377e+08,-4.9748e+08,34971.1,-0.00397903,0.118925,-0,0.118991,-16431.8,-18113.6,-0,24456.2,34971.1
step02_gravity_refstate-crust.xmf,301,5.15384e-08,2.00208e-06,0,7.27526e-07,-6.87344e+08,-6.87211e+08,-6.87348e+08,49908.3,-0.00562317,0.109098,-0,0.109243,-14015.3,-25026.8,-0,28683.9,49908.3
step02_gravity_refstate-crust.xmf,302,3.53956e-08,1.60416e-06,0,5.50777e-07,-5.3946e+08,-5.39353e+08,-5.39463e+08,37783.3,-0.00426924,0.117311,-0,0.117388,-15534.1,-19642.2,-0,25042.4,37783.3
step02_gravity_refstate-crust.xmf,303,9.56492e-08,2.11607e-06,0,8.29427e-07,-7.50671e+08,-7.50533e+08,-7.50678e+08,56898.7,-0.00628262,0.105994,-0,0.10618,-12664.9,-27332.6,-0,30124.3,56898.7
step02_gravity_refstate-crust.xmf,304,2.50797e-07,2.39674e-06,0,1.52448e-06,-9.76732e+08,-9.76585e+08,-9.76749e+08,104579,-0.00949336,0.0934746,-0,0.0939554,-9098.74,-35563.6,-0,36709.1,104579
step02_gravity_refstate-crust.xmf,305,1.20303e-07,2.27691e-06,0,9.98173e-07,-8.28166e+08,-8.28018e+08,-8.28174e+08,68474.7,-0.00724865,0.101251,-0,0.101511,-11649.1,-30154.2,-0,32326.1,68474.7
step02_gravity_refstate-crust.xmf,306,9.94427e-09,1.11541e-06,0,3.96143e-07,-3.63256e+08,-3.6318e+08,-3.63257e+08,27175.4,-0.00330775,0.124356,-0,0.1244,-17709.8,-13226.5,-0,22103.8,27175.4
step02_gravity_refstate-crust.xmf,307,4.26117e-08,8.99698e-07,0,3.44154e-07,-3.00921e+08,-3.00862e+08,-3.00924e+08,23609,-0.00314228,0.127434,-0,0.127473,-16532.2,-10956.9,-0,19833.5,23609
step02_gravity_refstate-crust.xmf,308,3.35536e-08,2.56671e-07,0,1.32064e-07,-8.71284e+07,-8.71131e+07,-8.71307e+07,9059.61,-0.00413299,0.130954,-0,0.131019,-18146.4,-3172.53,-0,18421.6,9059.61
step02_gravity_refstate-crust.xmf,309,2.9182e-08,1.30302e-06,0,4.55766e-07,-4.34301e+08,-4.34214e+08,-4.34303e+08,31265.5,-0.00358833,0.122161,-0,0.122213,-16427,-15813.3,-0,22801.5,31265.5
step02_gravity_refstate-crust.xmf,310,4.06918e-07,2.28912e-06,0,2.18494e-06,-1.07462e+09,-1.07449e+09,-1.07465e+09,149887,-0.0115657,0.0898563,-0,0.0905975,-7438.84,-39127.8,-0,39828.7,149887
step02_gravity_refstate-crust.xmf,311,3.18648e-07,2.3452e-06,0,1.69294e-06,-1.00706e+09,-1.00692e+09,-1.00708e+09,116136,-0.0100254,0.0924943,-0,0.093036,-8453.35,-36667.9,-0,37629.7,116136
step02_gravity_refstate-crust.xmf,312,4.27608e-07,2.24009e-06,0,1.91376e-06,-1.04052e+09,-1.0404e+09,-1.04055e+09,131284,-0.0106469,0.091795,-0,0.0924104,-7711.59,-37886.5,-0,38663.4,131284
step02_gravity_refstate-crust.xmf,313,9.39083e-08,2.02435e-06,0,7.71915e-07,-7.16141e+08,-7.16008e+08,-7.16147e+08,52953.4,-0.00588338,0.108198,-0,0.108358,-12981.6,-26075.3,-0,29128.1,52953.4
step02_gravity_refstate-crust.xmf,314,5.84703e-08,1.71671e-06,0,6.02656e-07,-5.8905e+08,-5.88937e+08,-5.89054e+08,41342.2,-0.00465032,0.115203,-0,0.115297,-14550.8,-21447.9,-0,25917.9,41342.2
step02_gravity_refstate-crust.xmf,315,6.74901e-08,1.409e-06,0,4.96361e-07,-4.85146e+08,-4.85054e+08,-4.85151e+08,34050.4,-0.00382241,0.120945,-0,0.121005,-14754.9,-17664.7,-0,23016.3,34050.4
step02_gravity_refstate-crust.xmf,316,1.66289e-07,2.09236e-06,0,8.80287e-07,-7.77048e+08,-7.76916e+08,-7.77059e+08,60387.7,-0.00648069,0.10558,-0,0.105778,-11465.3,-28293.1,-0,30527.9,60387.7
step02_gravity_refstate-crust.xmf,317,1.48435e-07,2.3268e-06,0,1.10671e-06,-8.68967e+08,-8.68818e+08,-8.68978e+08,75920.6,-0.00779447,0.0990044,-0,0.0993108,-10941,-31639.8,-0,33478.1,75920.6
step02_gravity_refstate-crust.xmf,318,1.96096e-07,2.33439e-06,0,1.21938e-06,-9.03419e+08,-9.03272e+08,-9.03432e+08,83649.6,-0.00826233,0.0974493,-0,0.0977989,-10192.1,-32894.3,-0,34437.1,83649.6
step02_gravity_refstate-crust.xmf,319,2.63821e-07,2.31771e-06,0,1.36135e-06,-9.40458e+08,-9.40317e+08,-9.40476e+08,93388.8,-0.00879441,0.0959269,-0,0.0963292,-9391.77,-34243,-0,35507.6,93388.8
step02_gravity_refstate-crust.xmf,320,6.76523e-08,7.14501e-07,0,2.92387e-07,-2.45454e+08,-2.45409e+08,-2.45458e+08,20057.7,-0.0030911,0.129656,-0,0.129693,-15595.2,-8937.37,-0,17974.6,20057.7
step02_gravity_refstate-crust.xmf,321,7.01649e-08,4.9267e-07,0,2.25966e-07,-1.713e+08,-1.71271e+08,-1.71305e+08,15501.3,-0.00334456,0.131047,-0,0.13109,-15993.5,-6237.41,-0,17166.7,15501.3
step02_gravity_refstate-crust.xmf,322,9.63477e-08,-3.61554e-08,0,3.76611e-09,9169.55,79.8361,2560.1,258.355,-0.00533877,0.132112,-0,0.13222,-16661.6,0,-0,16661.6,258.355
step02_gravity_refstate-crust.xmf,323,7.3874e-07,1.84526e-06,0,2.17891e-06,-1.07607e+09,-1.076e+09,-1.07612e+09,149473,-0.0110254,0.0932867,-0,0.093936,-6409.68,-39181.4,-0,39702.2,149473
step02_gravity_refstate-crust.xmf,324,4.83835e-07,2.08515e-06,0,1.52022e-06,-9.78643e+08,-9.78533e+08,-9.78676e+08,104287,-0.00906777,0.0963892,-0,0.0968148,-7820.13,-35633.7,-0,36481.7,104287
step02_gravity_refstate-crust.xmf,325,9.25282e-08,1.80668e-06,0,6.57484e-07,-6.36624e+08,-6.36506e+08,-6.3663e+08,45103.4,-0.00503595,0.113208,-0,0.11332,-13471.1,-23180.1,-0,26810.2,45103.4
step02_gravity_refstate-crust.xmf,326,1.40356e-07,1.86318e-06,0,7.11642e-07,-6.79889e+08,-6.79771e+08,-6.79899e+08,48818.6,-0.00537482,0.111549,-0,0.111679,-12303.5,-24755.5,-0,27644.4,48818.6
step02_gravity_refstate-crust.xmf,327,1.86746e-07,1.92608e-06,0,7.78277e-07,-7.25956e+08,-7.25836e+08,-7.25969e+08,53389.8,-0.00578474,0.109415,-0,0.109568,-11388.1,-26432.9,-0,28781.7,53389.8
step02_gravity_refstate-crust.xmf,328,9.93704e-08,1.51258e-06,0,5.37882e-07,-5.34812e+08,-5.34715e+08,-5.34819e+08,36898.7,-0.00410165,0.119242,-0,0.119313,-13606,-19473.1,-0,23755.5,36898.7
step02_gravity_refstate-crust.xmf,329,3.97079e-07,2.16714e-06,0,1.42184e-06,-9.56269e+08,-9.56148e+08,-9.56297e+08,97538.5,-0.00881306,0.0967593,-0,0.0971599,-8417.21,-34818.9,-0,35821.9,97538.5
step02_gravity_refstate-crust.xmf,330,2.43417e-07,2.14352e-06,0,1.02381e-06,-8.40909e+08,-8.40779e+08,-8.40926e+08,70233.2,-0.00718521,0.102527,-0,0.102779,-10199.1,-30618.4,-0,32272.5,70233.2
step02_gravity_refstate-crust.xmf,331,2.67129e-07,2.02543e-06,0,9.25772e-07,-8.04478e+08,-8.04358e+08,-8.04497e+08,63508,-0.00658605,0.105449,-0,0.105655,-10091.7,-29292.1,-0,30981.7,63508
step02_gravity_refstate-crust.xmf,332,9.73255e-08,8.36073e-07,0,3.24855e-07,-2.94199e+08,-2.94148e+08,-2.94205e+08,22285.1,-0.00295341,0.129297,-0,0.12933,-13946.4,-10712.3,-0,17585.6,22285.1
step02_gravity_refstate-crust.xmf,333,6.55744e-08,1.06348e-06,0,3.91476e-07,-3.63366e+08,-3.63297e+08,-3.6337e+08,26855.2,-0.00321329,0.126099,-0,0.126139,-15200.3,-13230.6,-0,20151.9,26855.2
step02_gravity_refstate-crust.xmf,334,1.09061e-07,6.12529e-07,0,2.58969e-07,-2.19915e+08,-2.1988e+08,-2.19922e+08,17765.2,-0.00296998,0.13136,-0,0.131393,-13766.4,-8007.6,-0,15925.9,17765.2
step02_gravity_refstate-crust.xmf,335,1.20886e-07,1.95865e-07,0,1.18252e-07,-7.9092e+07,-7.90869e+07,-7.91003e+07,8112.08,-0.00396695,0.132841,-0,0.1329,-14852.8,-2880.22,-0,15129.5,8112.08
step02_gravity_refstate-crust.xmf,336,9.41117e-08,1.20576e-06,0,4.34327e-07,-4.24778e+08,-4.24702e+08,-4.24785e+08,29794.9,-0.00338119,0.124476,-0,0.124522,-13892.1,-15466.7,-0,20789.7,29794.9
step02_gravity_refstate-crust.xmf,337,6.36881e-07,1.97413e-06,0,2.0116e-06,-1.05545e+09,-1.05536e+09,-1.05549e+09,137996,-0.0106339,0.0933506,-0,0.0939544,-6832.35,-38430.3,-0,39033,137996
step02_gravity_refstate-crust.xmf,338,5.95317e-07,1.97501e-06,0,1.6595e-06,-1.00624e+09,-1.00614e+09,-1.00628e+09,113842,-0.00942587,0.0958971,-0,0.0963592,-7188.12,-36638.5,-0,37336.9,113842
step02_gravity_refstate-crust.xmf,339,1.35712e-07,1.60616e-06,0,5.82804e-07,-5.84192e+08,-5.84091e+08,-5.84201e+08,39980.3,-0.00441241,0.117343,-0,0.117426,-12564.8,-21271.1,-0,24705,39980.3
step02_gravity_refstate-crust.xmf,340,1.29062e-07,1.32146e-06,0,4.70662e-07,-4.79464e+08,-4.79383e+08,-4.79473e+08,32287.4,-0.00357698,0.122863,-0,0.122915,-12652.3,-17458,-0,21560.7,32287.4
step02_gravity_refstate-crust.xmf,341,2.99572e-07,1.86129e-06,0,8.0927e-07,-7.58431e+08,-7.58324e+08,-7.58452e+08,55516,-0.00580697,0.10924,-0,0.109395,-9689.66,-27615.6,-0,29266.2,55516
step02_gravity_refstate-crust.xmf,342,3.07107e-07,2.11188e-06,0,1.09582e-06,-8.68407e+08,-8.68283e+08,-8.68428e+08,75173,-0.00745069,0.101591,-0,0.101863,-9473.53,-31619.7,-0,33008.4,75173
step02_gravity_refstate-crust.xmf,343,3.85077e-07,2.07601e-06,0,1.18977e-06,-9.00579e+08,-9.00463e+08,-9.00605e+08,81618.2,-0.0077819,0.100458,-0,0.100759,-8722.16,-32791.2,-0,33931.4,81618.2
step02_gravity_refstate-crust.xmf,344,4.89688e-07,1.99559e-06,0,1.28008e-06,-9.29537e+08,-9.29433e+08,-9.2957e+08,87813.3,-0.00801964,0.0998082,-0,0.10013,-7932.04,-33845.8,-0,34762.8,87813.3
step02_gravity_refstate-crust.xmf,345,3.86765e-07,1.92241e-06,0,9.59537e-07,-8.30464e+08,-8.30359e+08,-8.30491e+08,65824.2,-0.00656184,0.105504,-0,0.105708,-8763.06,-30238.4,-0,31482.6,65824.2
step02_gravity_refstate-crust.xmf,346,1.3628e-07,6.94008e-07,0,2.73065e-07,-2.5553e+08,-2.55492e+08,-2.5554e+08,18732.3,-0.00273059,0.131416,-0,0.131444,-12163.2,-9304.46,-0,15313.9,18732.3
step02_gravity_refstate-crust.xmf,347,1.99282e-07,-7.50803e-08,0,3.67726e-09,18953.2,132.017,5282.53,252.26,-0.00488973,0.133665,-0,0.133755,-13577.4,0,-0,13577.4,252.26
step02_gravity_refstate-crust.xmf,348,7.5575e-07,1.79492e-06,0,1.79827e-06,-1.03197e+09,-1.0319e+09,-1.03202e+09,123362,-0.00967497,0.0959932,-0,0.0964795,-6485.36,-37575.8,-0,38131.3,123362
step02_gravity_refstate-crust.xmf,349,9.11245e-07,1.60577e-06,0,1.92363e-06,-1.05333e+09,-1.05328e+09,-1.05339e+09,131961,-0.00986078,0.0962726,-0,0.0967763,-5920.29,-38353.6,-0,38807.8,131961
step02_gravity_refstate-crust.xmf,350,1.1002e-06,1.37e-06,0,2.06819e-06,-1.07587e+09,-1.07585e+09,-1.07594e+09,141878,-0.0100618,0.0967208,-0,0.0972428,-5367.6,-39174.6,-0,39540.6,141878
step02_gravity_refstate-crust.xmf,351,6.06718e-07,1.88458e-06,0,1.35711e-06,-9.54011e+08,-9.53923e+08,-9.54053e+08,93097.7,-0.00815184,0.0995545,-0,0.0998877,-7199.47,-34737.1,-0,35475.3,93097.7
step02_gravity_refstate-crust.xmf,352,7.33409e-07,1.75781e-06,0,1.44537e-06,-9.79119e+08,-9.79048e+08,-9.79169e+08,99152.2,-0.00830774,0.0992683,-0,0.0996154,-6551.36,-35651.5,-0,36248.4,99152.2
step02_gravity_refstate-crust.xmf,353,1.82035e-07,1.68273e-06,0,6.31186e-07,-6.33238e+08,-6.33135e+08,-6.3325e+08,43299.4,-0.00473203,0.115384,-0,0.115481,-11512.1,-23057,-0,25771.2,43299.4
step02_gravity_refstate-crust.xmf,354,2.38596e-07,1.7346e-06,0,6.80483e-07,-6.79291e+08,-6.79188e+08,-6.79307e+08,46681.2,-0.00502489,0.113536,-0,0.113647,-10488.8,-24733.9,-0,26866,46681.2
step02_gravity_refstate-crust.xmf,355,1.68048e-07,1.42052e-06,0,5.06555e-07,-5.31558e+08,-5.31472e+08,-5.31569e+08,34749.7,-0.00380443,0.121081,-0,0.121141,-11579.3,-19354.8,-0,22554.1,34749.7
step02_gravity_refstate-crust.xmf,356,2.91426e-07,1.76419e-06,0,7.21246e-07,-7.15521e+08,-7.1542e+08,-7.15541e+08,49477.5,-0.00525562,0.112047,-0,0.112171,-9716.66,-26053.2,-0,27806.1,49477.5
step02_gravity_refstate-crust.xmf,357,3.80725e-07,1.83729e-06,0,8.51847e-07,-7.90881e+08,-7.90781e+08,-7.90907e+08,58436.7,-0.00595048,0.108233,-0,0.108396,-8753.35,-28797.2,-0,30098.2,58436.7
step02_gravity_refstate-crust.xmf,358,1.21878e-07,1.00786e-06,0,3.6842e-07,-3.62875e+08,-3.62814e+08,-3.62883e+08,25273.6,-0.00297897,0.127765,-0,0.1278,-12715.8,-13212.9,-0,18337.7,25273.6
step02_gravity_refstate-crust.xmf,359,1.48446e-07,8.28941e-07,0,3.05164e-07,-3.07017e+08,-3.0697e+08,-3.07027e+08,20934.2,-0.00265947,0.130406,-0,0.130433,-11414.6,-11179.1,-0,15977.1,20934.2
step02_gravity_refstate-crust.xmf,360,1.38959e-07,3.87352e-07,0,1.85754e-07,-1.47233e+08,-1.47216e+08,-1.47243e+08,12742.7,-0.00317228,0.133047,-0,0.133084,-13108,-5361.33,-0,14162.1,12742.7
step02_gravity_refstate-crust.xmf,361,1.57108e-07,5.324e-07,0,2.21332e-07,-2.02191e+08,-2.02165e+08,-2.02201e+08,15183.4,-0.0027094,0.13296,-0,0.132988,-11501,-7362.41,-0,13655.7,15183.4
step02_gravity_refstate-crust.xmf,362,1.98026e-07,1.43797e-07,0,9.95837e-08,-7.21203e+07,-7.2124e+07,-7.21339e+07,6831.44,-0.00356978,0.134378,-0,0.134425,-11900.6,-2626.64,-0,12187,6831.44
step02_gravity_refstate-crust.xmf,363,1.53331e-07,1.13689e-06,0,4.01129e-07,-4.22896e+08,-4.22828e+08,-4.22906e+08,27517.5,-0.00308355,0.126164,-0,0.126202,-11564.2,-15398.3,-0,19257.2,27517.5
step02_gravity_refstate-crust.xmf,364,8.83809e-07,1.59781e-06,0,1.54734e-06,-1.00535e+09,-1.0053e+09,-1.00541e+09,106147,-0.00847185,0.0990727,-0,0.0994343,-5928.26,-36606.8,-0,37083.8,106147
step02_gravity_refstate-crust.xmf,365,2.14997e-07,1.50802e-06,0,5.46064e-07,-5.84271e+08,-5.84182e+08,-5.84286e+08,37460,-0.00406451,0.119078,-0,0.119148,-10575,-21274.2,-0,23757.5,37460
step02_gravity_refstate-crust.xmf,366,1.923e-07,1.24649e-06,0,4.29552e-07,-4.78652e+08,-4.7858e+08,-4.78665e+08,29467.3,-0.00322242,0.124462,-0,0.124503,-10477.6,-17428.5,-0,20335.5,29467.3
step02_gravity_refstate-crust.xmf,367,3.70047e-07,1.69769e-06,0,7.02197e-07,-7.28231e+08,-7.28139e+08,-7.28256e+08,48170.7,-0.00502122,0.112529,-0,0.112641,-8530.52,-26516.1,-0,27854.5,48170.7
step02_gravity_refstate-crust.xmf,368,4.71675e-07,1.89237e-06,0,1.03997e-06,-8.67092e+08,-8.66994e+08,-8.67124e+08,71341.8,-0.00686427,0.104074,-0,0.1043,-8027.03,-31572.2,-0,32576.6,71341.8
step02_gravity_refstate-crust.xmf,369,5.75869e-07,1.82324e-06,0,1.11311e-06,-8.98718e+08,-8.98633e+08,-8.98758e+08,76359.4,-0.00705783,0.103138,-0,0.103379,-7287.45,-32723.9,-0,33525.5,76359.4
step02_gravity_refstate-crust.xmf,370,6.98037e-07,1.71867e-06,0,1.17556e-06,-9.26802e+08,-9.26732e+08,-9.2685e+08,80643.4,-0.00714812,0.102585,-0,0.102833,-6558.11,-33746.6,-0,34378,80643.4
step02_gravity_refstate-crust.xmf,371,4.25615e-07,1.70391e-06,0,7.45252e-07,-7.60635e+08,-7.60547e+08,-7.60664e+08,51124.3,-0.00522133,0.111108,-0,0.111231,-7991.43,-27696,-0,28825.9,51124.3
step02_gravity_refstate-crust.xmf,372,5.15855e-07,1.68495e-06,0,7.96578e-07,-8.00395e+08,-8.00315e+08,-8.00431e+08,54645.2,-0.00540903,0.109524,-0,0.109658,-7230.88,-29143.9,-0,30027.5,54645.2
step02_gravity_refstate-crust.xmf,373,1.73427e-07,6.62853e-07,0,2.44274e-07,-2.5433e+08,-2.54297e+08,-2.54342e+08,16757.2,-0.00242511,0.132481,-0,0.132504,-10187.8,-9260.88,-0,13767.9,16757.2
step02_gravity_refstate-crust.xmf,374,2.91565e-07,-1.09859e-07,0,3.49434e-09,27729.7,192.028,7728.32,239.712,-0.00414685,0.135033,-0,0.135097,-10528.1,0,-0,10528.1,239.712
step02_gravity_refstate-crust.xmf,375,1.06457e-06,1.39253e-06,0,1.65097e-06,-1.03089e+09,-1.03086e+09,-1.03096e+09,113257,-0.00858286,0.0991478,-0,0.0995186,-5317.74,-37536.9,-0,37911.7,113257
step02_gravity_refstate-crust.xmf,376,1.46883e-06,8.97162e-07,0,1.85646e-06,-1.0764e+09,-1.07644e+09,-1.0765e+09,127353,-0.00872101,0.0998619,-0,0.100242,-4308.26,-39194.6,-0,39430.7,127353
step02_gravity_refstate-crust.xmf,377,1.26737e-06,1.1467e-06,0,1.72903e-06,-1.05262e+09,-1.05263e+09,-1.05271e+09,118611,-0.00854871,0.099615,-0,0.0999812,-4735.16,-38328.7,-0,38620.1,118611
step02_gravity_refstate-crust.xmf,378,8.35745e-07,1.58507e-06,0,1.2282e-06,-9.52413e+08,-9.52362e+08,-9.5247e+08,84254.3,-0.007157,0.102288,-0,0.102538,-5868.13,-34679.4,-0,35172.4,84254.3
step02_gravity_refstate-crust.xmf,379,9.8725e-07,1.43019e-06,0,1.28703e-06,-9.78336e+08,-9.78305e+08,-9.78403e+08,88290.1,-0.00717372,0.102016,-0,0.102268,-5253.78,-35623.5,-0,36008.8,88290.1
step02_gravity_refstate-crust.xmf,380,2.74106e-07,1.57043e-06,0,5.84658e-07,-6.3464e+08,-6.34551e+08,-6.34659e+08,40107.6,-0.00430013,0.117127,-0,0.117206,-9553.61,-23108.2,-0,25005.2,40107.6
step02_gravity_refstate-crust.xmf,381,3.53073e-07,1.6074e-06,0,6.24543e-07,-6.85696e+08,-6.8561e+08,-6.8572e+08,42843.7,-0.00450853,0.115137,-0,0.115225,-8486.22,-24967.4,-0,26370.2,42843.7
step02_gravity_refstate-crust.xmf,382,2.37748e-07,1.342e-06,0,4.59094e-07,-5.33341e+08,-5.33266e+08,-5.33358e+08,31493.8,-0.00340135,0.122537,-0,0.122585,-9523.06,-19419.9,-0,21629.1,31493.8
step02_gravity_refstate-crust.xmf,383,5.32562e-07,1.76122e-06,0,9.10072e-07,-8.39171e+08,-8.39087e+08,-8.39207e+08,62430.9,-0.00604173,0.106966,-0,0.107136,-7327.78,-30555.7,-0,31422.1,62430.9
step02_gravity_refstate-crust.xmf,384,1.75588e-07,9.63247e-07,0,3.30289e-07,-3.65757e+08,-3.65703e+08,-3.65769e+08,22657.9,-0.00262561,0.129135,-0,0.129161,-10272.1,-13318,-0,16819.2,22657.9
step02_gravity_refstate-crust.xmf,385,1.94445e-07,7.97034e-07,0,2.62823e-07,-3.10046e+08,-3.10005e+08,-3.10059e+08,18029.6,-0.00224707,0.131586,-0,0.131605,-8979.76,-11289.6,-0,14425.3,18029.6
step02_gravity_refstate-crust.xmf,386,1.98486e-07,3.28638e-07,0,1.51925e-07,-1.36852e+08,-1.36843e+08,-1.36865e+08,10422.1,-0.00276647,0.134537,-0,0.134565,-10356.5,-4983.53,-0,11493.2,10422.1
step02_gravity_refstate-crust.xmf,387,2.03443e-07,4.88972e-07,0,1.8192e-07,-1.96692e+08,-1.96672e+08,-1.96706e+08,12479.7,-0.0022593,0.134268,-0,0.134287,-8930.73,-7162.35,-0,11448,12479.7
step02_gravity_refstate-crust.xmf,388,2.6506e-07,1.07305e-07,0,8.02087e-08,-6.88458e+07,-6.88566e+07,-6.8864e+07,5502.31,-0.00291959,0.135661,-0,0.135693,-8961.31,-2507.64,-0,9305.55,5502.31
step02_gravity_refstate-crust.xmf,389,2.10494e-07,1.07949e-06,0,3.51256e-07,-4.24424e+08,-4.24364e+08,-4.24438e+08,24096.1,-0.00266627,0.127541,-0,0.127569,-9227.44,-15454.1,-0,17999.3,24096.1
step02_gravity_refstate-crust.xmf,390,1.1609e-06,1.24281e-06,0,1.3507e-06,-1.00452e+09,-1.00451e+09,-1.0046e+09,92658.1,-0.00717697,0.101861,-0,0.102114,-4681.26,-36577.1,-0,36875.4,92658.1
step02_gravity_refstate-crust.xmf,391,2.93145e-07,1.41765e-06,0,4.88261e-07,-5.86229e+08,-5.86152e+08,-5.86249e+08,33494.7,-0.00358128,0.120537,-0,0.12059,-8604.18,-21345.6,-0,23014.5,33494.7
step02_gravity_refstate-crust.xmf,392,2.5344e-07,1.18588e-06,0,3.72416e-07,-4.8221e+08,-4.82146e+08,-4.82227e+08,25547.7,-0.00276021,0.125681,-0,0.125711,-8304.07,-17558.2,-0,19422.9,25547.7
step02_gravity_refstate-crust.xmf,393,4.51474e-07,1.57211e-06,0,6.1909e-07,-7.20302e+08,-7.20225e+08,-7.20333e+08,42469.5,-0.00436347,0.11437,-0,0.114453,-7157.28,-26227.6,-0,27186.6,42469.5
step02_gravity_refstate-crust.xmf,394,6.34378e-07,1.68102e-06,0,9.39663e-07,-8.65668e+08,-8.65597e+08,-8.65712e+08,64460.9,-0.00604807,0.106325,-0,0.106497,-6596.08,-31520.7,-0,32203.4,64460.9
step02_gravity_refstate-crust.xmf,395,9.01699e-07,1.4582e-06,0,1.0178e-06,-9.26309e+08,-9.26271e+08,-9.26371e+08,69821.1,-0.00602726,0.104924,-0,0.105097,-5167.29,-33729.1,-0,34122.6,69821.1
step02_gravity_refstate-crust.xmf,396,7.61439e-07,1.58501e-06,0,9.88704e-07,-8.98329e+08,-8.98272e+08,-8.98381e+08,67825.1,-0.00610286,0.10543,-0,0.105606,-5868.18,-32710.1,-0,33232.3,67825.1
step02_gravity_refstate-crust.xmf,397,6.54431e-07,1.5922e-06,0,7.90504e-07,-8.32236e+08,-8.32172e+08,-8.32281e+08,54228.6,-0.00516143,0.10906,-0,0.109182,-6021.87,-30303.5,-0,30896,54228.6
step02_gravity_refstate-crust.xmf,398,5.43164e-07,1.55049e-06,0,6.36341e-07,-7.58521e+08,-7.58451e+08,-7.58558e+08,43653,-0.00437537,0.112996,-0,0.113081,-6298.88,-27619.3,-0,28328.5,43653
step02_gravity_refstate-crust.xmf,399,2.14267e-07,6.31053e-07,0,1.96722e-07,-2.53788e+08,-2.53759e+08,-2.53802e+08,13495.1,-0.00193775,0.133616,-0,0.13363,-7673.39,-9241.24,-0,12011.7,13495.1
step02_gravity_refstate-crust.xmf,400,3.67012e-07,-1.38261e-07,0,3.32856e-09,34906.2,244.502,9729.22,228.339,-0.003155,0.136136,-0,0.136172,-7504.6,0,-0,7504.6,228.339
step02_gravity_refstate-crust.xmf,401,1.3629e-06,1.0113e-06,0,1.40812e-06,-1.0298e+09,-1.02983e+09,-1.0299e+09,96597.2,-0.00710858,0.101953,-0,0.102201,-4126.13,-37498.1,-0,37724.4,96597.2
step02_gravity_refstate-crust.xmf,402,1.81275e-06,4.62311e-07,0,1.5482e-06,-1.07807e+09,-1.07817e+09,-1.0782e+09,106207,-0.00706275,0.102491,-0,0.102734,-3264.94,-39256.4,-0,39391.9,106207
step02_gravity_refstate-crust.xmf,403,1.59066e-06,7.36484e-07,0,1.46492e-06,-1.05445e+09,-1.05451e+09,-1.05456e+09,100494,-0.00701117,0.10223,-0,0.10247,-3620.99,-38395.9,-0,38566.2,100494
step02_gravity_refstate-crust.xmf,404,1.05346e-06,1.30731e-06,0,1.02939e-06,-9.51374e+08,-9.51357e+08,-9.51447e+08,70616.2,-0.00585013,0.104663,-0,0.104827,-4506.7,-34642,-0,34933.9,70616.2
step02_gravity_refstate-crust.xmf,405,1.21439e-06,1.14251e-06,0,1.05624e-06,-9.77586e+08,-9.77591e+08,-9.77669e+08,72458.1,-0.00574907,0.10431,-0,0.104469,-3973.78,-35596.7,-0,35817.8,72458.1
step02_gravity_refstate-crust.xmf,406,3.63164e-07,1.46066e-06,0,5.08131e-07,-6.34641e+08,-6.34565e+08,-6.34666e+08,34857.8,-0.00367886,0.118746,-0,0.118803,-7602.29,-23108.5,-0,24326.8,34857.8
step02_gravity_refstate-crust.xmf,407,3.0327e-07,1.27823e-06,0,3.96641e-07,-5.38703e+08,-5.38636e+08,-5.38723e+08,27209.6,-0.00290496,0.123588,-0,0.123622,-7544.77,-19615.2,-0,21016.2,27209.6
step02_gravity_refstate-crust.xmf,408,4.50266e-07,1.46433e-06,0,5.07601e-07,-6.77347e+08,-6.77278e+08,-6.77378e+08,34821.4,-0.00360626,0.117342,-0,0.117398,-6450.83,-24663.6,-0,25493.3,34821.4
step02_gravity_refstate-crust.xmf,409,6.59555e-07,1.49106e-06,0,6.30573e-07,-7.94802e+08,-7.94745e+08,-7.94847e+08,43257.3,-0.00419927,0.111927,-0,0.112006,-5295.87,-28940.5,-0,29421.1,43257.3
step02_gravity_refstate-crust.xmf,410,2.23595e-07,9.23215e-07,0,2.75405e-07,-3.68579e+08,-3.68531e+08,-3.68594e+08,18892.8,-0.00215669,0.130274,-0,0.130291,-7876.5,-13420.8,-0,15561.4,18892.8
step02_gravity_refstate-crust.xmf,411,2.32994e-07,7.68377e-07,0,2.06135e-07,-3.12158e+08,-3.12121e+08,-3.12174e+08,14140.9,-0.00173527,0.13255,-0,0.132561,-6569.82,-11366.6,-0,13128.6,14140.9
step02_gravity_refstate-crust.xmf,412,2.4798e-07,2.98644e-07,0,1.1651e-07,-1.34687e+08,-1.34684e+08,-1.34705e+08,7992.58,-0.00213832,0.135714,-0,0.135731,-7496.41,-4904.9,-0,8958.47,7992.58
step02_gravity_refstate-crust.xmf,413,2.41785e-07,4.67119e-07,0,1.34494e-07,-1.974e+08,-1.97385e+08,-1.97417e+08,9226.31,-0.00165022,0.135265,-0,0.135275,-6200.12,-7188.26,-0,9492.76,9226.31
step02_gravity_refstate-crust.xmf,414,3.15762e-07,8.69007e-08,0,5.87066e-08,-6.88679e+07,-6.88836e+07,-6.88896e+07,4027.27,-0.00206053,0.136641,-0,0.136657,-6004.58,-2508.62,-0,6507.54,4027.27
step02_gravity_refstate-crust.xmf,415,2.62847e-07,1.03376e-06,0,2.8367e-07,-4.28539e+08,-4.28486e+08,-4.28557e+08,19459.8,-0.00212649,0.128596,-0,0.128614,-6869.9,-15604,-0,17049.4,19459.8
step02_gravity_refstate-crust.xmf,416,1.4004e-06,9.4211e-07,0,1.08415e-06,-1.00434e+09,-1.00437e+09,-1.00443e+09,74372.5,-0.00563201,0.104071,-0,0.104223,-3477.45,-36571,-0,36736,74372.5
step02_gravity_refstate-crust.xmf,417,3.63462e-07,1.33703e-06,0,4.09625e-07,-5.87953e+08,-5.87886e+08,-5.87978e+08,28100.3,-0.00296886,0.121754,-0,0.12179,-6696.4,-21408.6,-0,22431.4,28100.3
step02_gravity_refstate-crust.xmf,418,3.09164e-07,1.1392e-06,0,2.99008e-07,-4.88944e+08,-4.88887e+08,-4.88965e+08,20511.9,-0.00219366,0.126522,-0,0.126541,-6160.49,-17803.5,-0,18839.2,20511.9
step02_gravity_refstate-crust.xmf,419,5.41024e-07,1.45366e-06,0,5.06341e-07,-7.17949e+08,-7.17887e+08,-7.17987e+08,34735,-0.00352031,0.115892,-0,0.115946,-5506.57,-26142.1,-0,26715.8,34735
step02_gravity_refstate-crust.xmf,420,7.81841e-07,1.49097e-06,0,8.00445e-07,-8.64513e+08,-8.64465e+08,-8.64567e+08,54910.5,-0.00504469,0.108217,-0,0.108334,-5204.19,-31478.9,-0,31906.2,54910.5
step02_gravity_refstate-crust.xmf,421,1.0759e-06,1.23699e-06,0,8.00277e-07,-9.25165e+08,-9.25154e+08,-9.25239e+08,54899,-0.00464669,0.106858,-0,0.106959,-3789.72,-33687.8,-0,33900.3,54899
step02_gravity_refstate-crust.xmf,422,9.26338e-07,1.3743e-06,0,8.09937e-07,-8.9706e+08,-8.97029e+08,-8.97124e+08,55561.7,-0.0048967,0.107399,-0,0.10751,-4462.33,-32664.2,-0,32967.6,55561.7
step02_gravity_refstate-crust.xmf,423,7.78013e-07,1.43116e-06,0,6.3294e-07,-8.30142e+08,-8.30098e+08,-8.30196e+08,43419.7,-0.00405946,0.110771,-0,0.110845,-4520.89,-30227.5,-0,30563.7,43419.7
step02_gravity_refstate-crust.xmf,424,6.43446e-07,1.4216e-06,0,4.96066e-07,-7.57041e+08,-7.56988e+08,-7.57086e+08,34030.2,-0.00335901,0.114505,-0,0.114554,-4611.24,-27565.7,-0,27948.7,34030.2
step02_gravity_refstate-crust.xmf,425,2.44094e-07,6.09775e-07,0,1.41157e-07,-2.54396e+08,-2.54371e+08,-2.54413e+08,9683.4,-0.00138094,0.134428,-0,0.134435,-5248.06,-9263.48,-0,10646.8,9683.4
step02_gravity_refstate-crust.xmf,426,4.20493e-07,-1.58474e-07,0,2.90074e-09,39990.1,272.924,11144.2,198.991,-0.00197335,0.13691,-0,0.136924,-4497.88,0,-0,4497.88,198.991
step02_gravity_refstate-crust.xmf,427,2.07669e-06,1.53328e-07,0,1.2367e-06,-1.08222e+09,-1.08235e+09,-1.08236e+09,84837.4,-0.00552203,0.104207,-0,0.104353,-2416.72,-39408,-0,39482,84837.4
step02_gravity_refstate-crust.xmf,428,1.63799e-06,6.72318e-07,0,1.0831e-06,-1.03168e+09,-1.03174e+09,-1.03179e+09,74300.6,-0.00533925,0.104152,-0,0.104289,-2917.44,-37566.9,-0,37680,74300.6
step02_gravity_refstate-crust.xmf,429,1.92204e-06,3.39505e-07,0,1.05644e-06,-1.05842e+09,-1.05852e+09,-1.05855e+09,72471.9,-0.0049319,0.104494,-0,0.10461,-2379.22,-38541,-0,38614.4,72471.9
step02_gravity_refstate-crust.xmf,430,1.22592e-06,1.09074e-06,0,7.87676e-07,-9.51128e+08,-9.51137e+08,-9.51212e+08,54034.6,-0.00439794,0.1064,-0,0.106491,-3236.39,-34633.4,-0,34784.3,54034.6
step02_gravity_refstate-crust.xmf,431,1.39015e-06,9.24883e-07,0,7.82057e-07,-9.77454e+08,-9.77486e+08,-9.77549e+08,53649.1,-0.00418935,0.105957,-0,0.106039,-2777.87,-35592.2,-0,35700.5,53649.1
step02_gravity_refstate-crust.xmf,432,4.37514e-07,1.36526e-06,0,4.06857e-07,-6.32985e+08,-6.32921e+08,-6.33015e+08,27910.4,-0.00290888,0.120134,-0,0.12017,-5712.18,-23048.3,-0,23745.6,27910.4
step02_gravity_refstate-crust.xmf,433,3.58949e-07,1.22168e-06,0,3.15251e-07,-5.4235e+08,-5.42291e+08,-5.42374e+08,21626.2,-0.0022896,0.124472,-0,0.124493,-5618.93,-19748.1,-0,20531.9,21626.2
step02_gravity_refstate-crust.xmf,434,5.22941e-07,1.37078e-06,0,3.91746e-07,-6.76024e+08,-6.75966e+08,-6.7606e+08,26873.8,-0.00275213,0.118576,-0,0.118608,-4717.7,-24615.6,-0,25063.6,26873.8
step02_gravity_refstate-crust.xmf,435,7.55946e-07,1.36932e-06,0,4.7544e-07,-7.94461e+08,-7.94419e+08,-7.94513e+08,32615.2,-0.0031239,0.113193,-0,0.113236,-3780.94,-28928.3,-0,29174.4,32615.2
step02_gravity_refstate-crust.xmf,436,2.63878e-07,8.95671e-07,0,2.06069e-07,-3.73537e+08,-3.73493e+08,-3.73555e+08,14136.3,-0.0015878,0.131077,-0,0.131087,-5487.59,-13601.4,-0,14666.7,14136.3
step02_gravity_refstate-crust.xmf,437,2.61538e-07,7.52832e-07,0,1.40829e-07,-3.16419e+08,-3.16385e+08,-3.16436e+08,9660.89,-0.00116713,0.133153,-0,0.133158,-4250.04,-11521.8,-0,12280.6,9660.89
step02_gravity_refstate-crust.xmf,438,2.82274e-07,2.89793e-07,0,7.5168e-08,-1.3747e+08,-1.3747e+08,-1.3749e+08,5156.53,-0.00135827,0.136524,-0,0.13653,-4592.33,-5006.34,-0,6793.6,5156.53
step02_gravity_refstate-crust.xmf,439,2.67812e-07,4.77271e-07,0,7.54394e-08,-2.07367e+08,-2.07353e+08,-2.07386e+08,5175.14,-0.000890817,0.13581,-0,0.135813,-3259.81,-7551.24,-0,8224.81,5175.14
step02_gravity_refstate-crust.xmf,440,3.47972e-07,7.4668e-08,0,3.24917e-08,-6.92482e+07,-6.9267e+07,-6.92721e+07,2228.93,-0.00107462,0.137263,-0,0.137267,-3038.44,-2522.57,-0,3949.11,2228.93
step02_gravity_refstate-crust.xmf,441,3.14121e-07,1.01262e-06,0,1.91993e-07,-4.40931e+08,-4.40883e+08,-4.40952e+08,13170.7,-0.00142742,0.12912,-0,0.129128,-4293.81,-16055.4,-0,16619.6,13170.7
step02_gravity_refstate-crust.xmf,442,1.58758e-06,7.12408e-07,0,7.49961e-07,-1.00395e+09,-1.00401e+09,-1.00406e+09,51447.3,-0.00384123,0.105717,-0,0.105787,-2282.7,-36557.5,-0,36628.7,51447.3
step02_gravity_refstate-crust.xmf,443,4.20565e-07,1.27101e-06,0,3.13345e-07,-5.88848e+08,-5.88789e+08,-5.88876e+08,21495.4,-0.00225106,0.12272,-0,0.122741,-4849.75,-21441.3,-0,21982.9,21495.4
step02_gravity_refstate-crust.xmf,444,3.60576e-07,1.12271e-06,0,2.1637e-07,-5.05209e+08,-5.05157e+08,-5.05234e+08,14843,-0.00156875,0.126679,-0,0.126688,-4088.28,-18395.8,-0,18844.7,14843
step02_gravity_refstate-crust.xmf,445,6.18136e-07,1.35863e-06,0,3.69198e-07,-7.18156e+08,-7.18105e+08,-7.18198e+08,25327,-0.00253859,0.116989,-0,0.117016,-3809.25,-26149.8,-0,26425.8,25327
step02_gravity_refstate-crust.xmf,446,9.1123e-07,1.32746e-06,0,6.17081e-07,-8.63949e+08,-8.63921e+08,-8.64012e+08,42331.7,-0.00382722,0.10976,-0,0.109827,-3774.12,-31458.7,-0,31684.3,42331.7
step02_gravity_refstate-crust.xmf,447,1.20652e-06,1.07334e-06,0,5.50542e-07,-9.25592e+08,-9.25601e+08,-9.25675e+08,37767.2,-0.00315573,0.108159,-0,0.108205,-2478.68,-33703.6,-0,33794.7,37767.2
step02_gravity_refstate-crust.xmf,448,1.05969e-06,1.20549e-06,0,5.86305e-07,-8.96228e+08,-8.96218e+08,-8.96301e+08,40220.5,-0.00348928,0.108902,-0,0.108958,-3055.36,-32634.2,-0,32777,40220.5
step02_gravity_refstate-crust.xmf,449,8.78744e-07,1.30489e-06,0,4.48528e-07,-8.30601e+08,-8.30572e+08,-8.30662e+08,30769,-0.00283239,0.111939,-0,0.111975,-3033.4,-30244.5,-0,30396.2,30769
step02_gravity_refstate-crust.xmf,450,7.20533e-07,1.32725e-06,0,3.34626e-07,-7.5766e+08,-7.57618e+08,-7.57709e+08,22955.3,-0.0022423,0.115489,-0,0.115511,-2966.39,-27588.3,-0,27747.4,22955.3
step02_gravity_refstate-crust.xmf,451,2.61232e-07,6.26972e-07,0,9.67899e-08,-2.66264e+08,-2.66239e+08,-2.66282e+08,6639.79,-0.000900366,0.134609,-0,0.134612,-3344.05,-9695.64,-0,10256.1,6639.79
step02_gravity_refstate-crust.xmf,452,4.47934e-07,-1.68835e-07,0,2.25935e-09,42598.9,288.515,11870.6,154.991,-0.000671514,0.137309,-0,0.137311,-1498.97,0,-0,1498.97,154.991
step02_gravity_refstate-crust.xmf,453,2.22905e-06,-3.68933e-08,0,7.95887e-07,-1.07782e+09,-1.07797e+09,-1.07797e+09,54597.9,-0.00353744,0.105544,-0,0.105604,-1534.47,-39248,-0,39278,54597.9
step02_gravity_refstate-crust.xmf,454,1.82496e-06,4.44464e-07,0,6.52578e-07,-1.02988e+09,-1.02998e+09,-1.03001e+09,44766.9,-0.00318765,0.105776,-0,0.105824,-1691.08,-37501.9,-0,37540,44766.9
step02_gravity_refstate-crust.xmf,455,1.34695e-06,9.45354e-07,0,5.40771e-07,-9.52428e+08,-9.52455e+08,-9.5252e+08,37096.9,-0.00298903,0.107447,-0,0.107489,-2128.16,-34681,-0,34746.2,37096.9
step02_gravity_refstate-crust.xmf,456,1.50687e-06,7.82806e-07,0,4.74565e-07,-9.76849e+08,-9.76899e+08,-9.76952e+08,32555.1,-0.00252616,0.107044,-0,0.107074,-1634.68,-35570.5,-0,35608,32555.1
step02_gravity_refstate-crust.xmf,457,4.95722e-07,1.29439e-06,0,2.89201e-07,-6.32921e+08,-6.32866e+08,-6.32955e+08,19839.2,-0.00205109,0.121096,-0,0.121113,-3874.54,-23046.1,-0,23369.5,19839.2
step02_gravity_refstate-crust.xmf,458,4.03686e-07,1.19376e-06,0,2.33993e-07,-5.50982e+08,-5.50928e+08,-5.5101e+08,16051.9,-0.00168675,0.124799,-0,0.12481,-3929.93,-20062.5,-0,20443.8,16051.9
step02_gravity_refstate-crust.xmf,459,3.61968e-07,1.06241e-06,0,1.29485e-07,-4.80965e+08,-4.80917e+08,-4.80989e+08,8882.65,-0.000931587,0.128057,-0,0.12806,-2520.27,-17513.1,-0,17693.5,8882.65
step02_gravity_refstate-crust.xmf,460,5.80539e-07,1.30224e-06,0,2.5555e-07,-6.76789e+08,-6.7674e+08,-6.76829e+08,17530.7,-0.00178321,0.11939,-0,0.119404,-2952.84,-24643.6,-0,24819.8,17530.7
step02_gravity_refstate-crust.xmf,461,8.30609e-07,1.27969e-06,0,2.91106e-07,-7.9581e+08,-7.9578e+08,-7.95867e+08,19969.9,-0.00189733,0.114015,-0,0.114031,-2221.93,-28977.6,-0,29062.7,19969.9
step02_gravity_refstate-crust.xmf,462,2.9269e-07,8.74956e-07,0,1.22791e-07,-3.77238e+08,-3.77198e+08,-3.77258e+08,8423.47,-0.000936614,0.131606,-0,0.13161,-3119.78,-13736.3,-0,14086.1,8423.47
step02_gravity_refstate-crust.xmf,463,2.77809e-07,7.30778e-07,0,5.7309e-08,-3.14918e+08,-3.14887e+08,-3.14938e+08,3931.4,-0.000484933,0.13364,-0,0.133641,-1730.92,-11467.2,-0,11597.1,3931.4
step02_gravity_refstate-crust.xmf,464,2.70255e-07,5.86029e-07,0,4.28835e-08,-2.5263e+08,-2.52608e+08,-2.52649e+08,2941.81,-0.000419265,0.135155,-0,0.135156,-1541.45,-9199.25,-0,9327.5,2941.81
step02_gravity_refstate-crust.xmf,465,3.02007e-07,2.80518e-07,0,2.57755e-08,-1.37556e+08,-1.37557e+08,-1.37576e+08,1768.2,-0.000493106,0.13698,-0,0.136981,-1630.62,-5009.51,-0,5268.22,1768.2
step02_gravity_refstate-crust.xmf,466,3.57601e-07,7.51564e-08,0,3.51282e-09,-7.09779e+07,-7.09973e+07,-7.10024e+07,240.98,-2.86407e-05,0.137477,-0,0.137477,-80.5328,-2585.59,-0,2586.84,240.98
step02_gravity_refstate-crust.xmf,467,2.07614e-06,1.48493e-07,0,4.4102e-07,-1.05311e+09,-1.05325e+09,-1.05326e+09,30254,-0.00205392,0.1061,-0,0.10612,-979.295,-38348.3,-0,38360.8,30254
step02_gravity_refstate-crust.xmf,468,1.70233e-06,5.73809e-07,0,3.68196e-07,-1.00344e+09,-1.00352e+09,-1.00356e+09,25258.3,-0.0018813,0.106719,-0,0.106736,-1094.24,-36539.1,-0,36555.5,25258.3
step02_gravity_refstate-crust.xmf,469,1.27535e-06,9.95808e-07,0,3.45639e-07,-9.26882e+08,-9.26901e+08,-9.26969e+08,23710.8,-0.00196291,0.108755,-0,0.108773,-1509.07,-33750.8,-0,33784.5,23710.8
step02_gravity_refstate-crust.xmf,470,4.61385e-07,1.22046e-06,0,1.97113e-07,-5.87799e+08,-5.87747e+08,-5.8783e+08,13521.9,-0.00141152,0.123495,-0,0.123503,-2958.38,-21403.2,-0,21606.6,13521.9
step02_gravity_refstate-crust.xmf,471,3.33155e-07,9.7378e-07,0,8.53953e-08,-4.33936e+08,-4.33892e+08,-4.33959e+08,5858.12,-0.000635286,0.129905,-0,0.129907,-1891.02,-15800.7,-0,15913.5,5858.12
step02_gravity_refstate-crust.xmf,472,4.14388e-07,1.13766e-06,0,1.26518e-07,-5.33198e+08,-5.33148e+08,-5.33226e+08,8679.16,-0.000896868,0.126038,-0,0.126041,-2137.78,-19415,-0,19532.4,8679.16
step02_gravity_refstate-crust.xmf,473,6.73068e-07,1.2939e-06,0,2.08868e-07,-7.19161e+08,-7.19118e+08,-7.19207e+08,14328.3,-0.00142946,0.117682,-0,0.117691,-2082.76,-26186.5,-0,26269.2,14328.3
step02_gravity_refstate-crust.xmf,474,1.01041e-06,1.20595e-06,0,3.95225e-07,-8.64197e+08,-8.64184e+08,-8.64267e+08,27112.5,-0.00243047,0.110846,-0,0.110873,-2317.91,-31467.9,-0,31553.2,27112.5
step02_gravity_refstate-crust.xmf,475,1.1667e-06,1.08384e-06,0,3.12762e-07,-8.98783e+08,-8.98789e+08,-8.98863e+08,21455.5,-0.00185113,0.109795,-0,0.109811,-1563.1,-32727.5,-0,32764.8,21455.5
step02_gravity_refstate-crust.xmf,476,9.4298e-07,1.22329e-06,0,2.39478e-07,-8.30658e+08,-8.30639e+08,-8.30723e+08,16428.2,-0.00149805,0.112678,-0,0.112688,-1567.66,-30246.7,-0,30287.3,16428.2
step02_gravity_refstate-crust.xmf,477,7.72282e-07,1.26922e-06,0,1.47887e-07,-7.59979e+08,-7.59945e+08,-7.60032e+08,10145.1,-0.000986297,0.115987,-0,0.115991,-1269.75,-27672.9,-0,27702,10145.1
step02_gravity_refstate-crust.xmf,478,2.78791e-07,4.56136e-07,0,1.70715e-09,-2.01605e+08,-2.01593e+08,-2.01625e+08,117.11,-4.30772e-05,0.136188,-0,0.136188,-156.284,-7341.48,-0,7343.14,117.11
step02_gravity_refstate-crust.xmf,479,4.47393e-07,-1.68749e-07,0,1.26283e-09,42542.4,275.144,11851.3,86.6301,0.00067185,0.137309,0,0.137311,1498.97,0,0,1498.97,86.6301
step02_gravity_refstate-crust.xmf,480,2.33012e-06,-1.61471e-07,0,2.54892e-07,-1.07627e+09,-1.07644e+09,-1.07643e+09,17485.6,-0.00114616,0.106354,-0,0.10636,-492.113,-39191.8,-0,39194.9,17485.6
step02_gravity_refstate-crust.xmf,481,1.91003e-06,3.41201e-07,0,1.9088e-07,-1.02869e+09,-1.0288e+09,-1.02882e+09,13094.4,-0.000941757,0.106546,-0,0.10655,-493.568,-37458.7,-0,37461.9,13094.4
step02_gravity_refstate-crust.xmf,482,1.40753e-06,8.70635e-07,0,2.63713e-07,-9.50352e+08,-9.50389e+08,-9.50449e+08,18090.7,-0.00146117,0.108172,-0,0.108182,-1030.48,-34605.6,-0,34620.9,18090.7
step02_gravity_refstate-crust.xmf,483,1.5603e-06,7.1777e-07,0,1.40969e-07,-9.75657e+08,-9.75715e+08,-9.75764e+08,9670.49,-0.000760509,0.107603,-0,0.107605,-487.935,-35527.2,-0,35530.5,9670.49
step02_gravity_refstate-crust.xmf,484,5.36016e-07,1.24857e-06,0,1.55901e-07,-6.34013e+08,-6.33964e+08,-6.3405e+08,10694.8,-0.00110376,0.12166,-0,0.121665,-2029,-23086,-0,23175,10694.8
step02_gravity_refstate-crust.xmf,485,3.79243e-07,1.05933e-06,0,4.48774e-08,-4.87209e+08,-4.87162e+08,-4.87235e+08,3078.59,-0.000317016,0.128041,-0,0.128041,-837.143,-17740.5,-0,17760.2,3078.59
step02_gravity_refstate-crust.xmf,486,6.14629e-07,1.26388e-06,0,1.03206e-07,-6.77852e+08,-6.77808e+08,-6.77894e+08,7079.91,-0.000723247,0.119817,-0,0.119819,-1173.15,-24682.3,-0,24710.2,7079.91
step02_gravity_refstate-crust.xmf,487,8.71072e-07,1.233e-06,0,9.19336e-08,-7.97841e+08,-7.97817e+08,-7.97901e+08,6306.65,-0.000604085,0.114358,-0,0.11436,-693.165,-29051.6,-0,29059.9,6306.65
step02_gravity_refstate-crust.xmf,488,1.29178e-06,9.67054e-07,0,1.27627e-07,-9.22302e+08,-9.22325e+08,-9.22391e+08,8755.21,-0.00071295,0.10925,-0,0.109252,-551.98,-33584.1,-0,33588.6,8755.21
step02_gravity_refstate-crust.xmf,489,3.06851e-07,8.68723e-07,0,3.49844e-08,-3.80755e+08,-3.80716e+08,-3.80776e+08,2399.93,-0.000261659,0.131789,-0,0.131789,-854.141,-13864.3,-0,13890.6,2399.93
step02_gravity_refstate-crust.xmf,490,2.74502e-07,6.32377e-07,0,-2.19504e-08,-2.72994e+08,-2.7297e+08,-2.73013e+08,-1505.8,0.000214519,0.134753,0,0.134753,783.795,-9940.71,0,9971.56,1505.8
step02_gravity_refstate-crust.xmf,491,3.0254e-07,2.82283e-07,0,-2.57295e-08,-1.382e+08,-1.38201e+08,-1.38221e+08,-1765.04,0.000396433,0.136997,0,0.136997,1311.38,-5032.97,0,5201.01,1765.04
step02_gravity_refstate-crust.xmf,492,3.46511e-07,8.17248e-08,0,-2.65506e-08,-7.1889e+07,-7.19072e+07,-7.19128e+07,-1821.37,0.00101264,0.137277,0,0.137281,2882.1,-2618.72,0,3894.12,1821.37
step02_gravity_refstate-crust.xmf,493,2.11786e-06,9.8285e-08,0,-3.56222e-08,-1.05285e+09,-1.05299e+09,-1.05299e+09,-2443.68,0.00014044,0.10642,0,0.10642,66.5437,-38338.6,0,38338.7,2443.68
step02_gravity_refstate-crust.xmf,494,1.73505e-06,5.36301e-07,0,-3.30333e-08,-1.00299e+09,-1.00307e+09,-1.00311e+09,-2266.08,0.000143754,0.107027,0,0.107027,83.1797,-36522.8,0,36522.9,2266.08
step02_gravity_refstate-crust.xmf,495,4.86593e-07,1.19433e-06,0,6.55528e-08,-5.89147e+08,-5.89098e+08,-5.8918e+08,4496.92,-0.000471824,0.123831,-0,0.123832,-969.341,-21452.3,-0,21474.2,4496.92
step02_gravity_refstate-crust.xmf,496,3.41225e-07,9.73647e-07,0,-1.07098e-08,-4.37228e+08,-4.37185e+08,-4.37252e+08,-734.694,7.19738e-05,0.129917,0,0.129917,211.552,-15920.6,0,15922,734.694
step02_gravity_refstate-crust.xmf,497,4.31592e-07,1.13221e-06,0,-2.5606e-09,-5.39292e+08,-5.39244e+08,-5.39322e+08,-175.657,2.44763e-05,0.12599,0,0.12599,57.042,-19637,0,19637,175.657
step02_gravity_refstate-crust.xmf,498,6.99989e-07,1.26716e-06,0,3.32e-08,-7.21039e+08,-7.21e+08,-7.21087e+08,2277.52,-0.000238978,0.117911,-0,0.117911,-342.71,-26254.9,-0,26257.2,2277.52
step02_gravity_refstate-crust.xmf,499,1.06195e-06,1.14268e-06,0,1.58738e-07,-8.63375e+08,-8.6337e+08,-8.63448e+08,10889.4,-0.000980668,0.111457,-0,0.111461,-921.643,-31438.1,-0,31451.6,10889.4
step02_gravity_refstate-crust.xmf,500,9.67035e-07,1.19152e-06,0,2.45771e-08,-8.30846e+08,-8.30831e+08,-8.30913e+08,1685.99,-0.000150579,0.112943,-0,0.112943,-156.028,-30253.6,-0,30254,1685.99
step02_gravity_refstate-crust.xmf,501,7.94512e-07,1.25208e-06,0,-6.28512e-08,-7.65912e+08,-7.65881e+08,-7.65967e+08,-4311.59,0.000419661,0.115829,0,0.11583,528.997,-27888.9,0,27894,4311.59
step02_gravity_refstate-crust.xmf,502,1.17825e-06,1.05883e-06,0,2.11947e-08,-8.93062e+08,-8.9307e+08,-8.93142e+08,1453.96,-0.000137848,0.110377,-0,0.110377,-117.437,-32519.2,-0,32519.4,1453.96
step02_gravity_refstate-crust.xmf,503,2.87706e-07,7.76503e-07,0,-1.29935e-08,-3.36471e+08,-3.36438e+08,-3.36491e+08,-891.355,0.000107725,0.133135,0,0.133136,373.158,-12251.9,0,12257.6,891.355
step02_gravity_refstate-crust.xmf,504,2.71744e-07,4.70007e-07,0,-6.17702e-08,-2.05214e+08,-2.052e+08,-2.05233e+08,-4237.44,0.00068976,0.135961,0,0.135963,2506.95,-7472.85,0,7882.15,4237.44
step02_gravity_refstate-crust.xmf,505,4.1879e-07,-1.58111e-07,0,3.16555e-10,39816.2,240.788,11087.2,21.7157,0.00197352,0.13691,0,0.136924,4497.88,0,0,4497.88,21.7157
step02_gravity_refstate-crust.xmf,506,2.32785e-06,-1.56351e-07,0,-2.95708e-07,-1.07642e+09,-1.07659e+09,-1.07658e+09,-20285.6,0.00127226,0.106333,0,0.10634,546.228,-39197.2,0,39201,20285.6
step02_gravity_refstate-crust.xmf,507,1.90311e-06,3.52744e-07,0,-2.60531e-07,-1.02871e+09,-1.02882e+09,-1.02884e+09,-17872.4,0.00123043,0.106496,0,0.106503,645.508,-37459.6,0,37465.1,17872.4
step02_gravity_refstate-crust.xmf,508,1.42389e-06,8.50682e-07,0,-2.75737e-08,-9.49149e+08,-9.49189e+08,-9.49247e+08,-1891.56,0.000133923,0.10841,0,0.10841,94.2889,-34561.8,0,34561.9,1891.56
step02_gravity_refstate-crust.xmf,509,1.55553e-06,7.26565e-07,0,-2.03398e-07,-9.75705e+08,-9.75762e+08,-9.75812e+08,-13953.1,0.00105116,0.107554,0,0.107559,675.021,-35528.9,0,35535.4,13953.1
step02_gravity_refstate-crust.xmf,510,5.51707e-07,1.2316e-06,0,1.23885e-08,-6.34566e+08,-6.34519e+08,-6.34604e+08,849.853,-9.65071e-05,0.12187,-0,0.121871,-175.609,-23106.1,-0,23106.8,849.853
step02_gravity_refstate-crust.xmf,511,3.81843e-07,1.06697e-06,0,-6.2241e-08,-4.91587e+08,-4.9154e+08,-4.91613e+08,-4269.73,0.000457352,0.127842,0,0.127842,1196.58,-17899.9,0,17939.9,4269.73
step02_gravity_refstate-crust.xmf,512,6.21728e-07,1.25996e-06,0,-5.31266e-08,-6.7919e+08,-6.79146e+08,-6.79232e+08,-3644.48,0.000354856,0.119825,0,0.119825,572.106,-24731.1,0,24737.7,3644.48
step02_gravity_refstate-crust.xmf,513,8.84246e-07,1.2292e-06,0,-7.70288e-08,-8.02848e+08,-8.02824e+08,-8.02908e+08,-5284.18,0.000487011,0.114151,0,0.114152,550.579,-29234,0,29239.1,5284.18
step02_gravity_refstate-crust.xmf,514,1.28688e-06,9.706e-07,0,-1.45665e-07,-9.21343e+08,-9.21365e+08,-9.21431e+08,-9992.64,0.000836242,0.109264,0,0.109267,649.56,-33549.1,0,33555.4,9992.64
step02_gravity_refstate-crust.xmf,515,3.07277e-07,8.78769e-07,0,-5.28294e-08,-3.85339e+08,-3.853e+08,-3.8536e+08,-3624.1,0.000408762,0.131609,0,0.13161,1326.96,-14031.3,0,14093.9,3624.1
step02_gravity_refstate-crust.xmf,516,2.79224e-07,7.65105e-07,0,-8.24955e-08,-3.28663e+08,-3.28629e+08,-3.28682e+08,-5659.19,0.000679997,0.133181,0,0.133183,2403.32,-11967.6,0,12206.5,5659.19
step02_gravity_refstate-crust.xmf,517,2.60423e-07,6.37455e-07,0,-1.0518e-07,-2.70251e+08,-2.70225e+08,-2.70268e+08,-7215.37,0.000978352,0.134459,0,0.134463,3640.21,-9840.78,0,10492.5,7215.37
step02_gravity_refstate-crust.xmf,518,2.82862e-07,2.93225e-07,0,-7.62396e-08,-1.38692e+08,-1.38692e+08,-1.38712e+08,-5230.04,0.0012856,0.136565,0,0.136571,4344.74,-5050.83,0,6662.4,5230.04
step02_gravity_refstate-crust.xmf,519,3.13769e-07,9.62351e-08,0,-5.53269e-08,-7.22984e+07,-7.23134e+07,-7.232e+07,-3795.42,0.00201157,0.136655,0,0.13667,5910.89,-2633.52,0,6471.02,3795.42
step02_gravity_refstate-crust.xmf,520,2.06472e-06,1.66301e-07,0,-5.38262e-07,-1.05388e+09,-1.05401e+09,-1.05402e+09,-36924.8,0.00246013,0.105957,0,0.105986,1172.5,-38376.3,0,38394.2,36924.8
step02_gravity_refstate-crust.xmf,521,1.68595e-06,5.99294e-07,0,-4.23988e-07,-1.00255e+09,-1.00263e+09,-1.00267e+09,-29085.6,0.00212264,0.106652,0,0.106674,1241.26,-36506.7,0,36527.8,29085.6
step02_gravity_refstate-crust.xmf,522,4.8741e-07,1.19446e-06,0,-6.56215e-08,-5.89594e+08,-5.89546e+08,-5.89627e+08,-4501.63,0.0004577,0.123814,0,0.123815,939.244,-21468.6,0,21489.1,4501.63
step02_gravity_refstate-crust.xmf,523,3.34874e-07,9.92307e-07,0,-1.09644e-07,-4.41638e+08,-4.41593e+08,-4.41661e+08,-7521.57,0.00080002,0.129559,0,0.129561,2351.85,-16081.2,0,16252.2,7521.57
step02_gravity_refstate-crust.xmf,524,4.25392e-07,1.15087e-06,0,-1.27149e-07,-5.44065e+08,-5.44015e+08,-5.44094e+08,-8722.42,0.00091534,0.125588,0,0.125591,2123.57,-19810.7,0,19924.2,8722.42
step02_gravity_refstate-crust.xmf,525,6.88686e-07,1.28087e-06,0,-1.41761e-07,-7.2014e+08,-7.201e+08,-7.20187e+08,-9724.8,0.000949147,0.11782,0,0.117824,1370.58,-26222.2,0,26258,9724.8
step02_gravity_refstate-crust.xmf,526,1.06265e-06,1.14011e-06,0,-8.84831e-08,-8.6176e+08,-8.61754e+08,-8.61833e+08,-6069.94,0.000522864,0.111602,0,0.111603,493.022,-31379.3,0,31383.2,6069.94
step02_gravity_refstate-crust.xmf,527,9.4991e-07,1.20721e-06,0,-1.76265e-07,-8.29683e+08,-8.29666e+08,-8.29748e+08,-12091.8,0.00110955,0.112846,0,0.112851,1160.19,-30211.2,0,30233.4,12091.8
step02_gravity_refstate-crust.xmf,528,8.43503e-07,1.26065e-06,0,-2.25872e-07,-7.95163e+08,-7.95135e+08,-7.95221e+08,-15494.8,0.00146584,0.114241,0,0.11425,1708.87,-28954.1,0,29004.5,15494.8
step02_gravity_refstate-crust.xmf,529,1.1528e-06,1.08965e-06,0,-2.44832e-07,-8.92032e+08,-8.92037e+08,-8.92111e+08,-16795.5,0.00142791,0.1102,0,0.110209,1227.83,-32481.7,0,32504.9,16795.5
step02_gravity_refstate-crust.xmf,530,2.50211e-07,4.94543e-07,0,-1.20771e-07,-2.09872e+08,-2.09855e+08,-2.09889e+08,-8284.87,0.00136721,0.135361,0,0.135368,5111.84,-7642.37,0,9194.38,8284.87
step02_gravity_refstate-crust.xmf,531,3.64371e-07,-1.37923e-07,0,-6.79535e-10,34627.2,169.83,9631.32,-46.6161,0.00315502,0.136136,0,0.136172,7504.6,0,0,7504.6,46.6161
step02_gravity_refstate-crust.xmf,532,2.21903e-06,-2.51051e-08,0,-8.26632e-07,-1.07776e+09,-1.07792e+09,-1.07791e+09,-56707,0.00363488,0.105492,0,0.105555,1578.81,-39245.9,0,39277.7,56707
step02_gravity_refstate-crust.xmf,533,1.80559e-06,4.79262e-07,0,-7.07691e-07,-1.02972e+09,-1.02981e+09,-1.02985e+09,-48547.6,0.00340753,0.105656,0,0.105711,1813.95,-37496.1,0,37539.9,48547.6
step02_gravity_refstate-crust.xmf,534,1.3885e-06,8.96409e-07,0,-3.37514e-07,-9.48908e+08,-9.48942e+08,-9.49003e+08,-23153.5,0.00183341,0.108098,0,0.108114,1303.36,-34552.9,0,34577.5,23153.5
step02_gravity_refstate-crust.xmf,535,1.4826e-06,8.20033e-07,0,-5.48361e-07,-9.76093e+08,-9.76138e+08,-9.76194e+08,-37617.5,0.00288456,0.106881,0,0.10692,1880.09,-35542.9,0,35592.6,37617.5
step02_gravity_refstate-crust.xmf,536,5.43181e-07,1.24359e-06,0,-1.2694e-07,-6.35517e+08,-6.35469e+08,-6.35555e+08,-8708.11,0.000883809,0.121679,0,0.121682,1613.02,-23140.8,0,23196.9,8708.11
step02_gravity_refstate-crust.xmf,537,3.68045e-07,1.09576e-06,0,-1.67944e-07,-4.96816e+08,-4.96766e+08,-4.96841e+08,-11520.9,0.00122367,0.127276,0,0.127282,3214.45,-18090.3,0,18373.6,11520.9
step02_gravity_refstate-crust.xmf,538,7.42118e-07,1.29757e-06,0,-2.59346e-07,-7.57153e+08,-7.57115e+08,-7.57204e+08,-17791.1,0.00173248,0.115818,0,0.115831,2271.45,-27569.9,0,27663.3,17791.1
step02_gravity_refstate-crust.xmf,539,5.97957e-07,1.28551e-06,0,-1.97944e-07,-6.77472e+08,-6.77425e+08,-6.77513e+08,-13579,0.00136427,0.119598,0,0.119606,2235.07,-24668.5,0,24769.5,13579
step02_gravity_refstate-crust.xmf,540,1.2308e-06,1.03819e-06,0,-4.29332e-07,-9.21286e+08,-9.21299e+08,-9.2137e+08,-29452.2,0.00245802,0.108717,0,0.108745,1938.01,-33546.9,0,33602.9,29452.2
step02_gravity_refstate-crust.xmf,541,2.92751e-07,8.9695e-07,0,-1.41169e-07,-3.8686e+08,-3.86819e+08,-3.8688e+08,-9684.18,0.00108198,0.131199,0,0.131203,3564.51,-14086.6,0,14530.6,9684.18
step02_gravity_refstate-crust.xmf,542,2.59038e-07,7.86529e-07,0,-1.62317e-07,-3.29888e+08,-3.29852e+08,-3.29906e+08,-11135,0.00133005,0.132625,0,0.132631,4814.22,-12012.2,0,12941,11135
step02_gravity_refstate-crust.xmf,543,2.36609e-07,6.64793e-07,0,-1.7042e-07,-2.73708e+08,-2.73678e+08,-2.73724e+08,-11690.8,0.00157187,0.133742,0,0.133751,6025.63,-9966.59,0,11646.5,11690.8
step02_gravity_refstate-crust.xmf,544,2.41879e-07,3.50051e-07,0,-1.26829e-07,-1.53227e+08,-1.5322e+08,-1.53244e+08,-8700.48,0.0020239,0.135558,0,0.135573,7314.11,-5579.91,0,9199.54,8700.48
step02_gravity_refstate-crust.xmf,545,2.63335e-07,1.16505e-07,0,-8.01044e-08,-7.24453e+07,-7.24554e+07,-7.24634e+07,-5495.16,0.00288144,0.135658,0,0.135689,8931.82,-2638.69,0,9313.44,5495.16
step02_gravity_refstate-crust.xmf,546,1.90077e-06,3.46245e-07,0,-1.064e-06,-1.05758e+09,-1.05768e+09,-1.05771e+09,-72990.4,0.00493163,0.104491,0,0.104607,2388.13,-38510.3,0,38584.3,72990.4
step02_gravity_refstate-crust.xmf,547,1.56331e-06,7.54794e-07,0,-7.93939e-07,-1.00289e+09,-1.00294e+09,-1.00299e+09,-54464.2,0.00403798,0.105591,0,0.105669,2418.1,-36518.5,0,36598.5,54464.2
step02_gravity_refstate-crust.xmf,548,4.68502e-07,1.2272e-06,0,-2.08934e-07,-5.95126e+08,-5.95074e+08,-5.95158e+08,-14332.9,0.00148623,0.123137,0,0.123146,3060.34,-21670,0,21885,14332.9
step02_gravity_refstate-crust.xmf,549,3.12566e-07,1.03384e-06,0,-2.12528e-07,-4.49658e+08,-4.49608e+08,-4.49679e+08,-14579.4,0.00156767,0.128678,0,0.128688,4657.47,-16373.1,0,17022.7,14579.4
step02_gravity_refstate-crust.xmf,550,3.98956e-07,1.1971e-06,0,-2.511e-07,-5.50869e+08,-5.50814e+08,-5.50896e+08,-17225.5,0.00180146,0.124698,0,0.124711,4218.29,-20058.4,0,20497.2,17225.5
step02_gravity_refstate-crust.xmf,551,6.4244e-07,1.32957e-06,0,-2.99631e-07,-7.16502e+08,-7.16455e+08,-7.16546e+08,-20554.7,0.00203726,0.117455,0,0.117472,3028.6,-26089.6,0,26264.8,20554.7
step02_gravity_refstate-crust.xmf,552,1.02036e-06,1.19162e-06,0,-3.20525e-07,-8.60457e+08,-8.60446e+08,-8.60527e+08,-21988,0.00194618,0.111248,0,0.111265,1864.56,-31331.8,0,31387.2,21988
step02_gravity_refstate-crust.xmf,553,8.94689e-07,1.26814e-06,0,-3.70391e-07,-8.26831e+08,-8.26805e+08,-8.26892e+08,-25408.8,0.00234863,0.112425,0,0.11245,2519.5,-30107.2,0,30212.4,25408.8
step02_gravity_refstate-crust.xmf,554,7.80995e-07,1.32884e-06,0,-3.98992e-07,-7.91177e+08,-7.9114e+08,-7.91231e+08,-27370.8,0.00261187,0.113763,0,0.113793,3148.64,-28808.8,0,28980.4,27370.8
step02_gravity_refstate-crust.xmf,555,1.08e-06,1.18139e-06,0,-4.99017e-07,-8.91796e+08,-8.91789e+08,-8.9187e+08,-34232.5,0.00295254,0.109463,0,0.109503,2594.77,-32472.9,0,32576.4,34232.5
step02_gravity_refstate-crust.xmf,556,2.22951e-07,5.50781e-07,0,-1.71069e-07,-2.25113e+08,-2.25091e+08,-2.25129e+08,-11735.3,0.00185343,0.134405,0,0.134418,7223.77,-8197.23,0,10926,11735.3
step02_gravity_refstate-crust.xmf,557,2.88249e-07,-1.09477e-07,0,-1.51473e-09,27377.4,93.3721,7603.52,-103.91,0.00414644,0.135033,0,0.135097,10528.1,0,0,10528.1,103.91
step02_gravity_refstate-crust.xmf,558,2.07205e-06,1.43899e-07,0,-1.25034e-06,-1.08182e+09,-1.08196e+09,-1.08197e+09,-85773.2,0.00553517,0.104189,0,0.104336,2427.6,-39393.5,0,39468.2,85773.2
step02_gravity_refstate-crust.xmf,559,1.61414e-06,7.20313e-07,0,-1.09363e-06,-1.02936e+09,-1.02942e+09,-1.02947e+09,-75022.9,0.00537804,0.104126,0,0.104264,2970.36,-37482.6,0,37600.2,75022.9
step02_gravity_refstate-crust.xmf,560,1.2902e-06,1.02138e-06,0,-6.46873e-07,-9.49148e+08,-9.49166e+08,-9.49237e+08,-44375.5,0.00356506,0.107157,0,0.107216,2594.21,-34561.5,0,34658.7,44375.5
step02_gravity_refstate-crust.xmf,561,1.33961e-06,1.0007e-06,0,-8.75208e-07,-9.77073e+08,-9.77096e+08,-9.77165e+08,-60039.3,0.00468321,0.10552,0,0.105624,3144.85,-35578.3,0,35717,60039.3
step02_gravity_refstate-crust.xmf,562,5.27827e-07,1.27893e-06,0,-2.40204e-07,-6.42625e+08,-6.42573e+08,-6.42661e+08,-16478,0.00168222,0.120962,0,0.120973,3058.76,-23399.5,0,23598.6,16478
step02_gravity_refstate-crust.xmf,563,3.48771e-07,1.14056e-06,0,-2.5222e-07,-5.06216e+08,-5.06162e+08,-5.0624e+08,-17302.3,0.00183561,0.12637,0,0.126383,4831.66,-18432.5,0,19055.2,17302.3
step02_gravity_refstate-crust.xmf,564,6.74452e-07,1.37253e-06,0,-4.2023e-07,-7.53413e+08,-7.53365e+08,-7.53459e+08,-28827.8,0.00283157,0.115201,0,0.115236,3856.83,-27433.6,0,27703.4,28827.8
step02_gravity_refstate-crust.xmf,565,5.50911e-07,1.33638e-06,0,-3.26327e-07,-6.74319e+08,-6.74265e+08,-6.74356e+08,-22386.1,0.00226975,0.119128,0,0.119149,3838.83,-24553.5,0,24851.8,22386.1
step02_gravity_refstate-crust.xmf,566,1.11648e-06,1.1795e-06,0,-7.03275e-07,-9.21464e+08,-9.2146e+08,-9.21541e+08,-48244.7,0.0040719,0.107556,0,0.107633,3311.31,-33553.2,0,33716.2,48244.7
step02_gravity_refstate-crust.xmf,567,2.62885e-07,9.29146e-07,0,-2.26945e-07,-3.87757e+08,-3.87711e+08,-3.87775e+08,-15568.4,0.00174115,0.130446,0,0.130458,5930.74,-14119.2,0,15314.2,15568.4
step02_gravity_refstate-crust.xmf,568,2.27022e-07,8.21691e-07,0,-2.33104e-07,-3.3223e+08,-3.32189e+08,-3.32245e+08,-15990.9,0.00191451,0.131722,0,0.131736,7202.56,-12097.3,0,14079.2,15990.9
step02_gravity_refstate-crust.xmf,569,2.04065e-07,6.94012e-07,0,-2.24246e-07,-2.75232e+08,-2.75198e+08,-2.75246e+08,-15383.3,0.00207591,0.132834,0,0.132851,8309.76,-10022,0,13018.9,15383.3
step02_gravity_refstate-crust.xmf,570,1.97491e-07,1.37289e-07,0,-9.58669e-08,-7.05024e+07,-7.05065e+07,-7.0516e+07,-6576.47,0.00360272,0.134347,0,0.134395,11983.5,-2567.72,0,12255.5,6576.47
step02_gravity_refstate-crust.xmf,571,1.92555e-07,5.39888e-07,0,-2.011e-07,-2.13528e+08,-2.13504e+08,-2.13541e+08,-13795.5,0.00231149,0.133767,0,0.133787,9357.5,-7775.3,0,12166.3,13795.5
step02_gravity_refstate-crust.xmf,572,1.93447e-07,3.47552e-07,0,-1.59295e-07,-1.43173e+08,-1.43162e+08,-1.43186e+08,-10927.7,0.00276085,0.134394,0,0.134422,10498.5,-5213.66,0,11721.8,10927.7
step02_gravity_refstate-crust.xmf,573,1.80099e-06,4.75711e-07,0,-1.54574e-06,-1.07683e+09,-1.07692e+09,-1.07695e+09,-106038,0.00704274,0.102493,0,0.102735,3273.63,-39211,0,39347.4,106038
step02_gravity_refstate-crust.xmf,574,1.5866e-06,7.37926e-07,0,-1.42718e-06,-1.05144e+09,-1.0515e+09,-1.05155e+09,-97904.9,0.00686621,0.102401,0,0.102631,3579.71,-38286.2,0,38453.2,97904.9
step02_gravity_refstate-crust.xmf,575,1.37202e-06,9.9606e-07,0,-1.12096e-06,-1.00378e+09,-1.0038e+09,-1.00387e+09,-76898,0.00581801,0.103856,0,0.104019,3620.37,-36550.7,0,36729.5,76898
step02_gravity_refstate-crust.xmf,576,4.73114e-07,1.31407e-06,0,-3.33027e-07,-6.30689e+08,-6.30631e+08,-6.30722e+08,-22845.7,0.00236334,0.120891,0,0.120914,4546.53,-22964.8,0,23410.5,22845.7
step02_gravity_refstate-crust.xmf,577,3.06417e-07,1.13481e-06,0,-2.94594e-07,-4.84805e+08,-4.84749e+08,-4.84827e+08,-20209.2,0.00216716,0.126704,0,0.126722,6137.77,-17652.8,0,18689.4,20209.2
step02_gravity_refstate-crust.xmf,578,3.38311e-07,1.22901e-06,0,-3.40042e-07,-5.35462e+08,-5.354e+08,-5.35485e+08,-23326.9,0.00247375,0.124459,0,0.124484,6260.95,-19497.3,0,20477.9,23326.9
step02_gravity_refstate-crust.xmf,579,4.05835e-07,1.2825e-06,0,-3.37941e-07,-5.87153e+08,-5.87093e+08,-5.87181e+08,-23182.7,0.00242879,0.122576,0,0.1226,5304.83,-21379.5,0,22027.8,23182.7
step02_gravity_refstate-crust.xmf,580,5.73519e-07,1.40673e-06,0,-4.37387e-07,-7.13001e+08,-7.12944e+08,-7.1304e+08,-30004.8,0.00301624,0.116729,0,0.116768,4678.57,-25962,0,26380.2,30004.8
step02_gravity_refstate-crust.xmf,581,9.37134e-07,1.29504e-06,0,-5.38775e-07,-8.59552e+08,-8.59527e+08,-8.59616e+08,-36960,0.00331936,0.110396,0,0.110446,3274.9,-31298.6,0,31469.5,36960
step02_gravity_refstate-crust.xmf,582,8.05695e-07,1.37327e-06,0,-5.54701e-07,-8.24515e+08,-8.24476e+08,-8.24571e+08,-38052.5,0.00356178,0.111542,0,0.111599,3969.96,-30022.7,0,30284,38052.5
step02_gravity_refstate-crust.xmf,583,6.89765e-07,1.43595e-06,0,-5.59886e-07,-7.88349e+08,-7.88298e+08,-7.88396e+08,-38408.2,0.00371681,0.112812,0,0.112873,4685.46,-28705.6,0,29085.5,38408.2
step02_gravity_refstate-crust.xmf,584,9.60322e-07,1.33361e-06,0,-7.32596e-07,-8.92231e+08,-8.92205e+08,-8.92297e+08,-50256.1,0.00440686,0.108149,0,0.108239,4014.86,-32488.5,0,32735.6,50256.1
step02_gravity_refstate-crust.xmf,585,1.95354e-07,-7.45934e-08,0,-2.13237e-09,18537.5,19.0714,5136.18,-146.28,0.00488947,0.133666,0,0.133755,13577.4,0,0,13577.4,146.28
step02_gravity_refstate-crust.xmf,586,2.65041e-07,1.06375e-06,0,-2.96884e-07,-4.40642e+08,-4.40588e+08,-4.40661e+08,-20366.2,0.00221852,0.12806,0,0.128079,7027.34,-16044.7,0,17516.2,20366.2
step02_gravity_refstate-crust.xmf,587,1.34796e-06,1.05352e-06,0,-1.40903e-06,-1.02846e+09,-1.02848e+09,-1.02856e+09,-96659.5,0.00712975,0.101917,0,0.102166,4167.26,-37449.3,0,37680.5,96659.5
step02_gravity_refstate-crust.xmf,588,1.15342e-06,1.2356e-06,0,-1.15254e-06,-9.80289e+08,-9.80283e+08,-9.80368e+08,-79064.1,0.0062843,0.103521,0,0.103711,4381.08,-35695,0,35962.8,79064.1
step02_gravity_refstate-crust.xmf,589,1.12494e-06,1.22945e-06,0,-9.35439e-07,-9.5007e+08,-9.50062e+08,-9.50147e+08,-64171.1,0.00526304,0.105483,0,0.105614,3987.64,-34594.7,0,34823.8,64171.1
step02_gravity_refstate-crust.xmf,590,5.83497e-07,1.4789e-06,0,-5.59476e-07,-7.5039e+08,-7.50328e+08,-7.5043e+08,-38380.1,0.00382643,0.114174,0,0.114238,5481.96,-27323.3,0,27867.8,38380.1
step02_gravity_refstate-crust.xmf,591,4.84702e-07,1.41011e-06,0,-4.41607e-07,-6.70842e+08,-6.70778e+08,-6.70875e+08,-30294.3,0.00311037,0.118348,0,0.118389,5509.96,-24426.8,0,25040.5,30294.3
step02_gravity_refstate-crust.xmf,592,9.53551e-07,1.38714e-06,0,-9.52036e-07,-9.24081e+08,-9.24052e+08,-9.24147e+08,-65309.7,0.00560233,0.105654,0,0.105803,4750.71,-33648.1,0,33981.8,65309.7
step02_gravity_refstate-crust.xmf,593,1.20587e-07,1.68409e-07,0,-1.06805e-07,-7.05961e+07,-7.05929e+07,-7.06044e+07,-7326.79,0.00408266,0.132815,0,0.132878,15006.9,-2570.87,0,15225.5,7326.79
step02_gravity_refstate-crust.xmf,594,2.20818e-07,9.77308e-07,0,-3.00752e-07,-3.89816e+08,-3.89764e+08,-3.89831e+08,-20631.6,0.0023234,0.12933,0,0.129351,8309.65,-14194,0,16447.5,20631.6
step02_gravity_refstate-crust.xmf,595,1.86324e-07,8.63347e-07,0,-2.90703e-07,-3.33992e+08,-3.33945e+08,-3.34005e+08,-19942.2,0.0024023,0.130583,0,0.130605,9543.58,-12161.4,0,15459,19942.2
step02_gravity_refstate-crust.xmf,596,1.61363e-07,7.22132e-07,0,-2.68594e-07,-2.73228e+08,-2.7319e+08,-2.73239e+08,-18425.6,0.00252729,0.131701,0,0.131725,10785.4,-9948.91,0,14673.3,18425.6
step02_gravity_refstate-crust.xmf,597,1.34632e-07,3.68556e-07,0,-1.81052e-07,-1.40348e+08,-1.40332e+08,-1.40357e+08,-12420.2,0.00325927,0.132966,0,0.133006,13438.1,-5110.62,0,14377.1,12420.2
step02_gravity_refstate-crust.xmf,598,1.4596e-07,5.56404e-07,0,-2.33038e-07,-2.08735e+08,-2.08707e+08,-2.08745e+08,-15986.4,0.00277273,0.132558,0,0.132587,12025.4,-7600.66,0,14226,15986.4
step02_gravity_refstate-crust.xmf,599,1.46276e-06,9.03926e-07,0,-1.84958e-06,-1.07546e+09,-1.0755e+09,-1.07556e+09,-126881,0.0086954,0.0998836,0,0.100261,4311.74,-39160.6,0,39397.2,126881
step02_gravity_refstate-crust.xmf,600,1.25259e-06,1.16446e-06,0,-1.7323e-06,-1.05203e+09,-1.05204e+09,-1.05212e+09,-118836,0.0085852,0.0995266,0,0.0998962,4778.68,-38307.1,0,38604,118836
step02_gravity_refstate-crust.xmf,601,1.1417e-06,1.28802e-06,0,-1.37591e-06,-1.00556e+09,-1.00555e+09,-1.00564e+09,-94387.2,0.00731981,0.101603,0,0.101866,4783.93,-36614.9,0,36926.1,94387.2
step02_gravity_refstate-crust.xmf,602,4.06923e-07,1.38687e-06,0,-4.39776e-07,-6.27518e+08,-6.2745e+08,-6.27546e+08,-30168.6,0.0031519,0.119981,0,0.120022,6389.32,-22849.2,0,23725.7,30168.6
step02_gravity_refstate-crust.xmf,603,2.65375e-07,1.19356e-06,0,-3.67952e-07,-4.89244e+08,-4.8918e+08,-4.89262e+08,-25241.5,0.00271754,0.125563,0,0.125592,7980.33,-17814.3,0,19520.1,25241.5
step02_gravity_refstate-crust.xmf,604,3.37327e-07,1.35567e-06,0,-4.34489e-07,-5.83256e+08,-5.83186e+08,-5.83279e+08,-29805.9,0.00316343,0.121564,0,0.121605,7353.56,-21237.5,0,22474.5,29805.9
step02_gravity_refstate-crust.xmf,605,4.88982e-07,1.50578e-06,0,-5.51532e-07,-7.10263e+08,-7.10193e+08,-7.10296e+08,-37835.1,0.00386391,0.115664,0,0.115729,6321.16,-25862.1,0,26623.4,37835.1
step02_gravity_refstate-crust.xmf,606,8.16296e-07,1.44603e-06,0,-7.30684e-07,-8.5881e+08,-8.58767e+08,-8.58866e+08,-50124.9,0.00458647,0.109062,0,0.109159,4729.98,-31271.4,0,31627.1,50124.9
step02_gravity_refstate-crust.xmf,607,6.89141e-07,1.51673e-06,0,-7.1504e-07,-8.23346e+08,-8.23289e+08,-8.23393e+08,-49051.8,0.00467035,0.110183,0,0.110281,5471.36,-29979.9,0,30475.1,49051.8
step02_gravity_refstate-crust.xmf,608,5.78446e-07,1.57218e-06,0,-6.9358e-07,-7.86693e+08,-7.86625e+08,-7.86733e+08,-47579.6,0.00468672,0.111442,0,0.111541,6244.97,-28645.1,0,29318,47579.6
step02_gravity_refstate-crust.xmf,609,7.99754e-07,1.53842e-06,0,-9.27611e-07,-8.92853e+08,-8.92802e+08,-8.92908e+08,-63634.1,0.00570852,0.106295,0,0.106448,5482.78,-32510.8,0,32969.9,63634.1
step02_gravity_refstate-crust.xmf,610,9.21538e-08,-3.57436e-08,0,-2.73488e-09,8720.99,-52.7772,2399.24,-187.613,0.00533898,0.132112,0,0.13222,16661.6,0,0,16661.6,187.613
step02_gravity_refstate-crust.xmf,611,2.13118e-07,1.12948e-06,0,-3.70905e-07,-4.43918e+08,-4.43855e+08,-4.43933e+08,-25444.1,0.00279083,0.126682,0,0.126713,9353.85,-16163.9,0,18675.3,25444.1
step02_gravity_refstate-crust.xmf,612,1.05631e-06,1.42357e-06,0,-1.63662e-06,-1.02897e+09,-1.02894e+09,-1.02904e+09,-112272,0.00854338,0.0992099,0,0.0995771,5332.27,-37467.1,0,37844.7,112272
step02_gravity_refstate-crust.xmf,613,9.76479e-07,1.46875e-06,0,-1.35803e-06,-9.87422e+08,-9.87388e+08,-9.87489e+08,-93160.9,0.00751313,0.101275,0,0.101553,5384.29,-35954.3,0,36355.2,93160.9
step02_gravity_refstate-crust.xmf,614,9.07876e-07,1.50092e-06,0,-1.22153e-06,-9.59567e+08,-9.59526e+08,-9.59629e+08,-83797.1,0.0069853,0.102575,0,0.102812,5493.71,-34940,0,35369.2,83797.1
step02_gravity_refstate-crust.xmf,615,2.73066e-07,1.31726e-06,0,-4.32743e-07,-5.38785e+08,-5.38714e+08,-5.38804e+08,-29686.2,0.00318894,0.122955,0,0.122996,8531.51,-19618.2,0,21393,29686.2
step02_gravity_refstate-crust.xmf,616,4.81905e-07,1.60256e-06,0,-6.67575e-07,-7.48624e+08,-7.48547e+08,-7.48657e+08,-45795.6,0.00464553,0.112826,0,0.112922,7056.6,-27258.8,0,28157.4,45795.6
step02_gravity_refstate-crust.xmf,617,4.01157e-07,1.51145e-06,0,-5.45312e-07,-6.69767e+08,-6.69691e+08,-6.69795e+08,-37408.4,0.00390359,0.117066,0,0.117131,7321.39,-24387.5,0,25462.8,37408.4
step02_gravity_refstate-crust.xmf,618,7.47028e-07,1.65297e-06,0,-1.14713e-06,-9.27022e+08,-9.2696e+08,-9.27073e+08,-78693.4,0.00691492,0.103149,0,0.103381,6229.21,-33754.7,0,34324.7,78693.4
step02_gravity_refstate-crust.xmf,619,3.74276e-08,2.05851e-07,0,-1.1327e-07,-7.20495e+07,-7.2038e+07,-7.20521e+07,-7770.36,0.00430658,0.131138,0,0.131208,18045.5,-2623.51,0,18235.2,7770.36
step02_gravity_refstate-crust.xmf,620,6.96262e-08,4.00926e-07,0,-1.93683e-07,-1.40704e+08,-1.40682e+08,-1.40709e+08,-13286.7,0.00355286,0.131348,0,0.131396,16335.3,-5123.38,0,17119.9,13286.7
step02_gravity_refstate-crust.xmf,621,1.69956e-07,1.03491e-06,0,-3.59078e-07,-3.92026e+08,-3.91966e+08,-3.92037e+08,-24632.7,0.0027978,0.127935,0,0.127966,10691.9,-14274.4,0,17834.7,24632.7
step02_gravity_refstate-crust.xmf,622,1.35741e-07,9.10777e-07,0,-3.35891e-07,-3.34475e+08,-3.34422e+08,-3.34485e+08,-23042.1,0.00280765,0.129167,0,0.129197,12052.5,-12178.9,0,17134.4,23042.1
step02_gravity_refstate-crust.xmf,623,1.09956e-07,7.62352e-07,0,-3.022e-07,-2.73407e+08,-2.73362e+08,-2.73414e+08,-20730.9,0.00288532,0.130218,0,0.13025,13423.4,-9955.27,0,16712.1,20730.9
step02_gravity_refstate-crust.xmf,624,9.02949e-08,5.87474e-07,0,-2.54905e-07,-2.07578e+08,-2.07544e+08,-2.07584e+08,-17486.5,0.00310566,0.13102,0,0.131057,14818.3,-7558.37,0,16634.6,17486.5
step02_gravity_refstate-crust.xmf,625,1.09071e-06,1.38272e-06,0,-2.06672e-06,-1.07542e+09,-1.0754e+09,-1.0755e+09,-141777,0.010069,0.0966774,0,0.0972004,5388.5,-39158.5,0,39527.5,141777
step02_gravity_refstate-crust.xmf,626,9.18537e-07,1.59681e-06,0,-1.91109e-06,-1.05243e+09,-1.05238e+09,-1.05249e+09,-131101,0.00980667,0.0964072,0,0.0969046,5892.59,-38320.9,0,38771.3,131101
step02_gravity_refstate-crust.xmf,627,8.9911e-07,1.59903e-06,0,-1.5485e-06,-1.00714e+09,-1.00709e+09,-1.0072e+09,-106227,0.00846259,0.0991175,0,0.0994781,5864.85,-36672,0,37138,106227
step02_gravity_refstate-crust.xmf,628,3.1315e-07,1.50893e-06,0,-5.4701e-07,-6.2905e+08,-6.28968e+08,-6.29072e+08,-37524.9,0.00397858,0.118219,0,0.118286,8645.19,-22904.8,0,24482,37524.9
step02_gravity_refstate-crust.xmf,629,2.02342e-07,1.30259e-06,0,-4.51655e-07,-5.03747e+08,-5.03671e+08,-5.03761e+08,-30983.6,0.00336481,0.123389,0,0.123435,10340.5,-18342.2,0,21056.2,30983.6
step02_gravity_refstate-crust.xmf,630,2.74543e-07,1.43084e-06,0,-4.96177e-07,-5.81405e+08,-5.81325e+08,-5.81424e+08,-34037.7,0.0036591,0.120473,0,0.120529,9022.32,-21169.9,0,23012.4,34037.7
step02_gravity_refstate-crust.xmf,631,3.96468e-07,1.61966e-06,0,-6.40756e-07,-7.09497e+08,-7.09413e+08,-7.09524e+08,-43955.9,0.00457335,0.114255,0,0.114346,7942.68,-25834.1,0,27027.5,43955.9
step02_gravity_refstate-crust.xmf,632,6.68594e-07,1.63465e-06,0,-8.87543e-07,-8.59254e+08,-8.59188e+08,-8.593e+08,-60885.4,0.00569667,0.107235,0,0.107386,6216.09,-31287.3,0,31898.8,60885.4
step02_gravity_refstate-crust.xmf,633,5.53754e-07,1.68834e-06,0,-8.42188e-07,-8.23372e+08,-8.23294e+08,-8.2341e+08,-57774.1,0.00561687,0.108399,0,0.108545,6993.68,-29980.5,0,30785.4,57774.1
step02_gravity_refstate-crust.xmf,634,4.56175e-07,1.72585e-06,0,-7.94175e-07,-7.8599e+08,-7.85903e+08,-7.86021e+08,-54480.4,0.0054789,0.109748,0,0.109884,7794.54,-28619.3,0,29661.7,54480.4
step02_gravity_refstate-crust.xmf,635,6.17245e-07,1.77431e-06,0,-1.07023e-06,-8.94065e+08,-8.93986e+08,-8.94107e+08,-73417.6,0.00676617,0.104011,0,0.104231,6944.95,-32554.6,0,33287.1,73417.6
step02_gravity_refstate-crust.xmf,636,-1.48282e-08,4.37737e-09,0,-3.64629e-09,-1461.71,-144.208,-444.495,-250.136,0.00546562,0.130462,0,0.130576,19789.7,0,0,19789.7,250.136
step02_gravity_refstate-crust.xmf,637,1.50833e-07,1.20884e-06,0,-4.27706e-07,-4.48035e+08,-4.47963e+08,-4.48046e+08,-29340.6,0.00325425,0.124947,0,0.124989,11773.4,-16313.7,0,20118.3,29340.6
step02_gravity_refstate-crust.xmf,638,7.69957e-07,1.79226e-06,0,-1.77317e-06,-1.02992e+09,-1.02985e+09,-1.02997e+09,-121639,0.00956785,0.0962942,0,0.0967684,6424.69,-37501.1,0,38047.5,121639
step02_gravity_refstate-crust.xmf,639,7.64904e-07,1.74223e-06,0,-1.46312e-06,-9.84559e+08,-9.84492e+08,-9.84611e+08,-100370,0.00832728,0.0992635,0,0.0996122,6397.87,-35849.6,0,36416.1,100370
step02_gravity_refstate-crust.xmf,640,6.39713e-07,1.84705e-06,0,-1.36951e-06,-9.58713e+08,-9.5863e+08,-9.58757e+08,-93948,0.00814173,0.099626,0,0.0999581,7011.62,-34908.4,0,35605.6,93948
step02_gravity_refstate-crust.xmf,641,2.23443e-07,1.4012e-06,0,-4.91742e-07,-5.48202e+08,-5.48121e+08,-5.48217e+08,-33733.5,0.00364865,0.121376,0,0.121431,10093.7,-19960.9,0,22367.8,33733.5
step02_gravity_refstate-crust.xmf,642,3.73164e-07,1.74077e-06,0,-7.49213e-07,-7.48405e+08,-7.48311e+08,-7.48431e+08,-51396,0.00531669,0.111152,0,0.111279,8633.74,-27250.6,0,28585.6,51396
step02_gravity_refstate-crust.xmf,643,3.12488e-07,1.63206e-06,0,-6.30086e-07,-6.74295e+08,-6.74205e+08,-6.74316e+08,-43223.9,0.00458938,0.115217,0,0.115308,9111.93,-24552.2,0,26188.5,43223.9
step02_gravity_refstate-crust.xmf,644,5.28327e-07,1.93861e-06,0,-1.25948e-06,-9.27731e+08,-9.27634e+08,-9.27767e+08,-86400.2,0.00784648,0.100456,0,0.100762,7666.76,-33780.1,0,34639.2,86400.2
step02_gravity_refstate-crust.xmf,645,5.14519e-09,4.43808e-07,0,-1.98995e-07,-1.44679e+08,-1.44649e+08,-1.4468e+08,-13651,0.00362964,0.12966,0,0.129711,19117.4,-5267.9,0,19829.9,13651
step02_gravity_refstate-crust.xmf,646,-5.2103e-08,2.79006e-07,0,-1.21835e-07,-8.37031e+07,-8.36804e+07,-8.36995e+07,-8357.87,0.00414074,0.129089,0,0.129156,21521,-3047.52,0,21735.7,8357.87
step02_gravity_refstate-crust.xmf,647,3.19521e-08,6.25313e-07,0,-2.64043e-07,-2.08472e+08,-2.08432e+08,-2.08474e+08,-18113.3,0.00327337,0.129322,0,0.129364,17606.5,-7590.74,0,19173.1,18113.3
step02_gravity_refstate-crust.xmf,648,1.10518e-07,1.09747e-06,0,-3.99703e-07,-3.92696e+08,-3.92628e+08,-3.92703e+08,-27419.6,0.00315505,0.126295,0,0.126334,13216.3,-14298.6,0,19471.1,27419.6
step02_gravity_refstate-crust.xmf,649,7.86595e-08,9.60036e-07,0,-3.63503e-07,-3.33671e+08,-3.3361e+08,-3.33676e+08,-24936.3,0.00308981,0.127526,0,0.127563,14702.4,-12149.4,0,19072.7,24936.3
step02_gravity_refstate-crust.xmf,650,5.4198e-08,8.01144e-07,0,-3.18769e-07,-2.72207e+08,-2.72156e+08,-2.72211e+08,-21867.6,0.00310878,0.128572,0,0.128609,16147.3,-9911.43,0,18946.6,21867.6
step02_gravity_refstate-crust.xmf,651,7.27279e-07,1.8595e-06,0,-2.17586e-06,-1.07557e+09,-1.0755e+09,-1.07562e+09,-149264,0.0110332,0.0932053,0,0.0938561,6443.76,-39163.2,0,39689.7,149264
step02_gravity_refstate-crust.xmf,652,5.9658e-07,2.02142e-06,0,-1.99263e-06,-1.05264e+09,-1.05254e+09,-1.05268e+09,-136694,0.0106372,0.0930934,0,0.0936991,6980.67,-38327.8,0,38958.3,136694
step02_gravity_refstate-crust.xmf,653,6.6857e-07,1.89197e-06,0,-1.64445e-06,-1.0078e+09,-1.00772e+09,-1.00785e+09,-112810,0.00926801,0.0965976,0,0.0970411,6871.09,-36695.8,0,37333.5,112810
step02_gravity_refstate-crust.xmf,654,2.13964e-07,1.57251e-06,0,-5.80569e-07,-6.07771e+08,-6.07678e+08,-6.07786e+08,-39827.1,0.0043159,0.117637,0,0.117716,10714.2,-22129.8,0,24587,39827.1
step02_gravity_refstate-crust.xmf,655,1.24041e-07,1.39449e-06,0,-4.97342e-07,-5.03661e+08,-5.03574e+08,-5.0367e+08,-34117.7,0.00377333,0.121516,0,0.121574,12844.9,-18339,0,22389.9,34117.7
step02_gravity_refstate-crust.xmf,656,1.6357e-07,1.49048e-06,0,-5.37214e-07,-5.55091e+08,-5.55e+08,-5.55102e+08,-36852.9,0.00403398,0.119664,0,0.119732,11785.9,-20211.6,0,23396.9,36852.9
step02_gravity_refstate-crust.xmf,657,3.13333e-07,1.73502e-06,0,-7.09272e-07,-7.15048e+08,-7.1495e+08,-7.15069e+08,-48656,0.00514144,0.112465,0,0.112582,9360.46,-26036,0,27667.5,48656
step02_gravity_refstate-crust.xmf,658,5.02322e-07,1.84959e-06,0,-1.00021e-06,-8.59829e+08,-8.59737e+08,-8.59864e+08,-68614.7,0.00659605,0.105022,0,0.105229,7735.46,-31307.8,0,32249.3,68614.7
step02_gravity_refstate-crust.xmf,659,3.23981e-07,1.89605e-06,0,-8.63676e-07,-7.85935e+08,-7.85827e+08,-7.85957e+08,-59248.2,0.00610782,0.107712,0,0.107885,9409.11,-28617,0,30124.1,59248.2
step02_gravity_refstate-crust.xmf,660,4.04654e-07,1.88112e-06,0,-9.31622e-07,-8.23754e+08,-8.23653e+08,-8.23782e+08,-63909.3,0.00637594,0.106256,0,0.106447,8565.04,-29994.1,0,31193.1,63909.3
step02_gravity_refstate-crust.xmf,661,4.25524e-07,2.02643e-06,0,-1.15846e-06,-8.95494e+08,-8.95384e+08,-8.95523e+08,-79470.2,0.00756109,0.101391,0,0.101673,8417.29,-32606.2,0,33675.1,79470.2
step02_gravity_refstate-crust.xmf,662,-1.13856e-07,4.35435e-08,0,-2.22141e-09,-10801.1,-3.45861,-2990.54,-152.389,0.00525938,0.128811,0,0.128919,22970.9,0,0,22970.9,152.389
step02_gravity_refstate-crust.xmf,663,-1.33961e-07,2.70475e-07,0,-9.49032e-08,-7.01647e+07,-7.0137e+07,-7.01556e+07,-6510.36,0.00398788,0.127489,0,0.127551,24797.4,-2554.29,0,24928.6,6510.36
step02_gravity_refstate-crust.xmf,664,-2.14565e-07,8.05361e-08,0,-3.59434e-09,-20419.6,-175.722,-5700.5,-246.572,0.00472313,0.127258,0,0.127346,26214.4,0,0,26214.4,246.572
step02_gravity_refstate-crust.xmf,665,-2.36601e-08,6.6749e-07,0,-2.61764e-07,-2.11443e+08,-2.11396e+08,-2.11442e+08,-17957,0.00327478,0.127592,0,0.127634,20307.8,-7698.75,0,21718.2,17957
step02_gravity_refstate-crust.xmf,666,8.47865e-08,1.28967e-06,0,-4.60017e-07,-4.50574e+08,-4.50492e+08,-4.5058e+08,-31557.2,0.00355634,0.123071,0,0.123123,14205.8,-16405.9,0,21701.6,31557.2
step02_gravity_refstate-crust.xmf,667,4.90238e-07,2.15335e-06,0,-1.81976e-06,-1.02873e+09,-1.02861e+09,-1.02876e+09,-124836,0.0102252,0.093291,0,0.0938497,7524.49,-37457.1,0,38205.4,124836
step02_gravity_refstate-crust.xmf,668,4.93254e-07,2.09308e-06,0,-1.60547e-06,-9.93644e+08,-9.93534e+08,-9.93678e+08,-110135,0.00937795,0.0955415,0,0.0960007,7697.84,-36179.8,0,36989.7,110135
step02_gravity_refstate-crust.xmf,669,3.98501e-07,2.16893e-06,0,-1.4442e-06,-9.60971e+08,-9.60849e+08,-9.60998e+08,-99071.9,0.00890165,0.0964802,0,0.09689,8375.84,-34990.1,0,35978.6,99071.9
step02_gravity_refstate-crust.xmf,670,2.3913e-07,1.66942e-06,0,-6.38222e-07,-6.5431e+08,-6.54212e+08,-6.54327e+08,-43782,0.00472034,0.115191,0,0.115288,10385.7,-23824.4,0,25989.7,43782
step02_gravity_refstate-crust.xmf,671,2.59074e-07,1.88211e-06,0,-7.98676e-07,-7.46419e+08,-7.46307e+08,-7.46436e+08,-54789.2,0.00579769,0.109384,0,0.109538,10240.6,-27178.1,0,29043.4,54789.2
step02_gravity_refstate-crust.xmf,672,2.19194e-07,1.80997e-06,0,-7.22638e-07,-6.98964e+08,-6.98855e+08,-6.98979e+08,-49572.9,0.00533968,0.111877,0,0.112005,10848.9,-25450.2,0,27666,49572.9
step02_gravity_refstate-crust.xmf,673,3.18585e-07,2.2208e-06,0,-1.31231e-06,-9.29423e+08,-9.29292e+08,-9.29445e+08,-90024.2,0.00847557,0.0975199,0,0.0978875,9069.28,-33841.3,0,35035.5,90024.2
step02_gravity_refstate-crust.xmf,674,-4.86568e-08,5.16156e-07,0,-2.04739e-07,-1.59192e+08,-1.59154e+08,-1.59189e+08,-14045.1,0.00347708,0.127932,0,0.127979,21632.5,-5796.16,0,22395.6,14045.1
step02_gravity_refstate-crust.xmf,675,-2.05468e-07,3.11117e-07,0,-8.52033e-08,-7.47209e+07,-7.46855e+07,-7.47068e+07,-5844.95,0.00337788,0.125906,0,0.125952,28079.9,-2719.94,0,28211.3,5844.95
step02_gravity_refstate-crust.xmf,676,-1.57283e-09,8.44519e-07,0,-3.2029e-07,-2.72908e+08,-2.7285e+08,-2.72908e+08,-21971.9,0.00318064,0.12679,0,0.12683,18885.2,-9936.81,0,21339.9,21971.9
step02_gravity_refstate-crust.xmf,677,4.64613e-08,1.16455e-06,0,-4.19778e-07,-3.93138e+08,-3.93062e+08,-3.93142e+08,-28796.8,0.00336805,0.124405,0,0.12445,15895.9,-14314.6,0,21391.3,28796.8
step02_gravity_refstate-crust.xmf,678,2.05588e-08,1.01731e-06,0,-3.74351e-07,-3.35527e+08,-3.35459e+08,-3.35528e+08,-25680.5,0.00322799,0.125647,0,0.125688,17399.9,-12216.8,0,21260.5,25680.5
step02_gravity_refstate-crust.xmf,679,3.93336e-07,2.30766e-06,0,-2.19003e-06,-1.07521e+09,-1.07508e+09,-1.07523e+09,-150236,0.0116044,0.0896427,0,0.0903907,7486.15,-39149.1,0,39858.5,150236
step02_gravity_refstate-crust.xmf,680,3.11826e-07,2.40968e-06,0,-2.00862e-06,-1.05429e+09,-1.05415e+09,-1.05431e+09,-137792,0.0111506,0.0897226,0,0.0904128,8001.16,-38387.6,0,39212.6,137792
step02_gravity_refstate-crust.xmf,681,5.43908e-08,1.48693e-06,0,-5.18694e-07,-5.07091e+08,-5.06992e+08,-5.07094e+08,-35582.4,0.00400015,0.119505,0,0.119572,15100.3,-18463.7,0,23852.2,35582.4
step02_gravity_refstate-crust.xmf,682,1.60956e-07,1.76867e-06,0,-6.70585e-07,-6.55221e+08,-6.55111e+08,-6.55232e+08,-46002.1,0.0050423,0.113568,0,0.113679,11943.8,-23857.4,0,26680.1,46002.1
step02_gravity_refstate-crust.xmf,683,8.73112e-08,1.59081e-06,0,-5.65003e-07,-5.5752e+08,-5.57417e+08,-5.57526e+08,-38759.2,0.00431979,0.117707,0,0.117787,13893.9,-20299.9,0,24599.3,38759.2
step02_gravity_refstate-crust.xmf,684,1.22195e-07,1.68693e-06,0,-6.15577e-07,-6.07463e+08,-6.07356e+08,-6.07471e+08,-42228.6,0.00467458,0.115667,0,0.115761,12863.8,-22118.4,0,25587.1,42228.6
step02_gravity_refstate-crust.xmf,685,3.26444e-07,2.08357e-06,0,-1.07014e-06,-8.61722e+08,-8.61601e+08,-8.61744e+08,-73411.4,0.0072837,0.102369,0,0.102628,9314.18,-31376.4,0,32729.7,73411.4
step02_gravity_refstate-crust.xmf,686,1.90533e-07,2.07285e-06,0,-8.98419e-07,-7.8633e+08,-7.862e+08,-7.86343e+08,-61631.5,0.00654248,0.105415,0,0.105617,11075.6,-28631.1,0,30698.7,61631.5
step02_gravity_refstate-crust.xmf,687,2.4916e-07,2.08888e-06,0,-9.83309e-07,-8.25296e+08,-8.2517e+08,-8.25313e+08,-67455,0.00693862,0.103711,0,0.103943,10211.9,-30050,0,31737.7,67455
step02_gravity_refstate-crust.xmf,688,2.3995e-07,2.27811e-06,0,-1.19636e-06,-8.9793e+08,-8.9779e+08,-8.97947e+08,-82070.6,0.00809533,0.098493,0,0.0988251,9886.2,-32694.5,0,34156.6,82070.6
step02_gravity_refstate-crust.xmf,689,-1.02926e-07,4.95258e-07,0,-1.77499e-07,-1.44943e+08,-1.44902e+08,-1.44936e+08,-12176.4,0.00337598,0.12676,0,0.126805,24191.8,-5277.15,0,24760.7,12176.4
step02_gravity_refstate-crust.xmf,690,-7.5991e-08,6.96743e-07,0,-2.45524e-07,-2.11193e+08,-2.1114e+08,-2.11188e+08,-16842.9,0.00314008,0.125973,0,0.126012,23024.5,-7689.47,0,24274.6,16842.9
step02_gravity_refstate-crust.xmf,691,-2.9598e-07,1.1134e-07,0,-3.49232e-09,-28157.3,-215.205,-7853.11,-239.573,0.00388115,0.125902,0,0.125961,29529.6,0,0,29529.6,239.573
step02_gravity_refstate-crust.xmf,692,-1.4896e-07,5.25114e-07,0,-1.56179e-07,-1.46834e+08,-1.46788e+08,-1.46824e+08,-10713.9,0.00302168,0.125358,0,0.125395,26869.7,-5345.86,0,27396.3,10713.9
step02_gravity_refstate-crust.xmf,693,-5.33827e-08,8.86622e-07,0,-3.07938e-07,-2.74436e+08,-2.74372e+08,-2.74432e+08,-21124.5,0.00310607,0.125021,0,0.125059,21577.2,-9992.28,0,23778.6,21124.5
step02_gravity_refstate-crust.xmf,694,2.72838e-08,1.37295e-06,0,-4.74407e-07,-4.57053e+08,-4.5696e+08,-4.57055e+08,-32544.3,0.00371603,0.121102,0,0.121159,16359.3,-16641.7,0,23336.1,32544.3
step02_gravity_refstate-crust.xmf,695,2.52621e-07,2.46824e-06,0,-1.77373e-06,-1.02162e+09,-1.02147e+09,-1.02164e+09,-121678,0.0104416,0.0907563,0,0.091355,8620.63,-37198.1,0,38184,121678
step02_gravity_refstate-crust.xmf,696,1.75147e-07,2.47609e-06,0,-1.45266e-06,-9.62788e+08,-9.6263e+08,-9.628e+08,-99652.5,0.00932857,0.0932271,0,0.0936926,9725.4,-35055.8,0,36379.8,99652.5
step02_gravity_refstate-crust.xmf,697,2.23912e-07,2.45662e-06,0,-1.60817e-06,-9.93108e+08,-9.92954e+08,-9.93123e+08,-110321,0.00986273,0.0920638,0,0.0925905,9083.35,-36159.8,0,37283.2,110321
step02_gravity_refstate-crust.xmf,698,1.41886e-07,2.03544e-06,0,-8.22567e-07,-7.46075e+08,-7.45945e+08,-7.46085e+08,-56428.1,0.00614019,0.107241,0,0.107417,11968.5,-27165.3,0,29685,56428.1
step02_gravity_refstate-crust.xmf,699,1.31456e-07,2.48128e-06,0,-1.31593e-06,-9.3172e+08,-9.31558e+08,-9.31729e+08,-90273,0.00882232,0.0945235,0,0.0949343,10410.5,-33924.6,0,35486,90273
step02_gravity_refstate-crust.xmf,700,-2.5741e-07,3.42811e-07,0,-6.81897e-08,-7.81686e+07,-7.81274e+07,-7.8151e+07,-4677.81,0.00260853,0.124646,0,0.124673,31278.1,-2845.3,0,31407.3,4677.81
step02_gravity_refstate-crust.xmf,701,-1.9806e-07,5.58377e-07,0,-1.31341e-07,-1.51088e+08,-1.51036e+08,-1.51074e+08,-9009.97,0.0024743,0.123964,0,0.123989,29857.3,-5500.56,0,30359.7,9009.97
step02_gravity_refstate-crust.xmf,702,-3.47173e-07,1.33302e-07,0,-1.11751e-09,-32912.4,48.1947,-9096.35,-76.6614,0.0027728,0.124834,0,0.124865,32925.8,0,0,32925.8,76.6614
step02_gravity_refstate-crust.xmf,703,-2.89824e-07,3.5879e-07,0,-4.16065e-08,-7.81887e+07,-7.81442e+07,-7.81688e+07,-2854.2,0.00169931,0.123745,0,0.123757,34559.7,-2845.92,0,34676.7,2854.2
step02_gravity_refstate-crust.xmf,704,-3.983e-07,1.5019e-07,0,-1.10523e-09,-37876,-249.573,-10552.6,-75.8189,0.00145456,0.124142,0,0.12415,36412.7,0,0,36412.7,75.8189
step02_gravity_refstate-crust.xmf,705,-3.52502e-08,1.06717e-06,0,-3.65153e-07,-3.35859e+08,-3.35784e+08,-3.35857e+08,-25049.5,0.00320843,0.123762,0,0.123803,20147.6,-12228.8,0,23568.4,25049.5
step02_gravity_refstate-crust.xmf,706,-1.65914e-08,1.26958e-06,0,-4.28709e-07,-4.06745e+08,-4.06657e+08,-4.06744e+08,-29409.4,0.0034678,0.12185,0,0.1219,18571.5,-14809.9,0,23753.6,29409.4
step02_gravity_refstate-crust.xmf,707,9.31562e-08,2.72325e-06,0,-2.13191e-06,-1.07486e+09,-1.07468e+09,-1.07487e+09,-146249,0.0118511,0.0859721,0,0.0867851,8547.16,-39136,0,40058.4,146249
step02_gravity_refstate-crust.xmf,708,6.88824e-08,2.73934e-06,0,-1.92406e-06,-1.04934e+09,-1.04915e+09,-1.04934e+09,-131990,0.0112188,0.0868092,0,0.0875311,9063.09,-38206.7,0,39266.9,131990
step02_gravity_refstate-crust.xmf,709,-8.37774e-09,1.57844e-06,0,-5.21206e-07,-5.12574e+08,-5.12465e+08,-5.12573e+08,-35754.7,0.00408908,0.117401,0,0.117472,17239.6,-18663.2,0,25407,35754.7
step02_gravity_refstate-crust.xmf,710,1.03584e-07,1.97027e-06,0,-7.50218e-07,-7.0211e+08,-7.01982e+08,-7.02117e+08,-51464.9,0.00570437,0.10935,0,0.109499,12872.4,-25564.5,0,28622.4,51464.9
step02_gravity_refstate-crust.xmf,711,1.3019e-08,1.69326e-06,0,-5.71622e-07,-5.60933e+08,-5.60817e+08,-5.60934e+08,-39213.2,0.00445779,0.115548,0,0.115634,16062.1,-20424,0,25983.3,39213.2
step02_gravity_refstate-crust.xmf,712,6.72609e-08,1.89668e-06,0,-6.86706e-07,-6.57472e+08,-6.57346e+08,-6.57477e+08,-47108,0.00528938,0.111359,0,0.111485,13890.7,-23939.1,0,27677.3,47108
step02_gravity_refstate-crust.xmf,713,3.8203e-08,1.80109e-06,0,-6.2676e-07,-6.09802e+08,-6.09681e+08,-6.09805e+08,-42995.7,0.00486397,0.113499,0,0.113603,14936.9,-22203.4,0,26760.1,42995.7
step02_gravity_refstate-crust.xmf,714,1.36368e-07,2.34441e-06,0,-1.10613e-06,-8.68029e+08,-8.67878e+08,-8.68039e+08,-75880.6,0.00779791,0.0988599,0,0.099167,11069.2,-31605.7,0,33488,75880.6
step02_gravity_refstate-crust.xmf,715,6.29522e-08,2.25029e-06,0,-9.01906e-07,-7.88149e+08,-7.87999e+08,-7.88154e+08,-61870.8,0.00678586,0.102841,0,0.103064,12792.3,-28697.1,0,31419.2,61870.8
step02_gravity_refstate-crust.xmf,716,1.01699e-07,2.29081e-06,0,-9.90515e-07,-8.26225e+08,-8.26075e+08,-8.26232e+08,-67949.4,0.00724491,0.101063,0,0.101322,11872.1,-30083.5,0,32341.4,67949.4
step02_gravity_refstate-crust.xmf,717,8.86181e-08,2.49341e-06,0,-1.21247e-06,-9.05678e+08,-9.05513e+08,-9.05684e+08,-83175.1,0.00843311,0.0954607,0,0.0958325,11114.1,-32976.3,0,34798.9,83175.1
step02_gravity_refstate-crust.xmf,718,-1.22e-07,7.34543e-07,0,-2.23324e-07,-2.14883e+08,-2.14824e+08,-2.14875e+08,-15320,0.00286436,0.124393,0,0.124426,25688.1,-7823.67,0,26853.1,15320
step02_gravity_refstate-crust.xmf,719,-1.00395e-07,9.31886e-07,0,-2.84541e-07,-2.78211e+08,-2.78141e+08,-2.78205e+08,-19519.5,0.00289602,0.123251,0,0.123285,24282.7,-10129.6,0,26310.8,19519.5
step02_gravity_refstate-crust.xmf,720,-1.58258e-07,7.73831e-07,0,-1.90649e-07,-2.19684e+08,-2.1962e+08,-2.19673e+08,-13078.5,0.00246242,0.122909,0,0.122934,28423.7,-7998.38,0,29527.7,13078.5
step02_gravity_refstate-crust.xmf,721,-3.22235e-07,3.46447e-07,0,-1.80005e-08,-7.07792e+07,-7.07333e+07,-7.07571e+07,-1234.84,0.000848663,0.123389,0,0.123391,37397.2,-2576.02,0,37485.8,1234.84
step02_gravity_refstate-crust.xmf,722,-4.02435e-07,1.51282e-07,0,1.95424e-09,-38289.1,-304.152,-10682.1,134.061,6.36556e-20,0.123896,0,0.123896,40000,0,0,40000,134.061
step02_gravity_refstate-crust.xmf,723,-8.41129e-08,1.11671e-06,0,-3.42451e-07,-3.38257e+08,-3.38175e+08,-3.38251e+08,-23492.1,0.00305344,0.121905,0,0.121943,22815.7,-12316,0,25927.6,23492.1
step02_gravity_refstate-crust.xmf,724,-2.54204e-08,1.47136e-06,0,-4.78069e-07,-4.69651e+08,-4.69549e+08,-4.6965e+08,-32795.6,0.00379168,0.118851,0,0.118912,18384.7,-17100.3,0,25108.1,32795.6
step02_gravity_refstate-crust.xmf,725,2.99595e-08,2.78073e-06,0,-1.72782e-06,-1.02249e+09,-1.0223e+09,-1.02249e+09,-118528,0.0106173,0.0875568,0,0.0881982,9716.01,-37229.2,0,38476.2,118528
step02_gravity_refstate-crust.xmf,726,-2.05045e-08,2.75511e-06,0,-1.41277e-06,-9.65027e+08,-9.64836e+08,-9.65025e+08,-96916.1,0.00947544,0.089911,0,0.0904089,11058.6,-35136.9,0,36836.1,96916.1
step02_gravity_refstate-crust.xmf,727,-6.89185e-11,2.77324e-06,0,-1.56798e-06,-9.95363e+08,-9.95173e+08,-9.95363e+08,-107563,0.0100557,0.0885487,0,0.0891178,10363.9,-36241.5,0,37694.2,107563
step02_gravity_refstate-crust.xmf,728,3.09386e-08,2.1906e-06,0,-8.20654e-07,-7.47864e+08,-7.47716e+08,-7.47866e+08,-56296.9,0.00631757,0.104793,0,0.104983,13754,-27230.2,0,30506.7,56296.9
step02_gravity_refstate-crust.xmf,729,-3.69255e-08,2.72334e-06,0,-1.27608e-06,-9.33645e+08,-9.33455e+08,-9.33642e+08,-87539.4,0.00892019,0.0914564,0,0.0918904,11779.7,-33994.3,0,35977.4,87539.4
step02_gravity_refstate-crust.xmf,730,-2.32657e-07,5.91514e-07,0,-9.58214e-08,-1.56238e+08,-1.56181e+08,-1.56222e+08,-6573.35,0.00176755,0.122775,0,0.122788,33037.7,-5687.97,0,33523.8,6573.35
step02_gravity_refstate-crust.xmf,731,-1.94928e-07,8.18867e-07,0,-1.52686e-07,-2.27888e+08,-2.27818e+08,-2.27874e+08,-10474.3,0.00191547,0.121464,0,0.121479,31382.1,-8296.96,0,32460.3,10474.3
step02_gravity_refstate-crust.xmf,732,-2.60482e-07,5.88579e-07,0,-4.56006e-08,-1.52042e+08,-1.51984e+08,-1.52024e+08,-3128.2,0.000871979,0.12209,0,0.122093,36708.3,-5535.09,0,37123.2,3128.2
step02_gravity_refstate-crust.xmf,733,-3.02743e-07,4.1847e-07,0,1.07177e-09,-9.58031e+07,-9.57536e+07,-9.57823e+07,73.5236,6.32976e-20,0.1229,0,0.1229,40000,-3487.23,0,40151.7,73.5236
step02_gravity_refstate-crust.xmf,734,-7.2516e-08,1.29909e-06,0,-3.98641e-07,-3.98278e+08,-3.98184e+08,-3.98273e+08,-27346.8,0.00330771,0.120185,0,0.12023,21435.7,-14501.4,0,25880.1,27346.8
step02_gravity_refstate-crust.xmf,735,-1.60165e-07,3.0854e-06,0,-2.00735e-06,-1.07313e+09,-1.0729e+09,-1.07311e+09,-137704,0.0117699,0.0823975,0,0.0832339,9642.37,-39072.3,0,40244.5,137704
step02_gravity_refstate-crust.xmf,736,-6.80521e-08,1.48353e-06,0,-4.51948e-07,-4.5832e+08,-4.58214e+08,-4.58315e+08,-31003.6,0.00363597,0.117908,0,0.117964,20382.6,-16687.6,0,26342.5,31003.6
step02_gravity_refstate-crust.xmf,737,-6.34753e-08,1.65212e-06,0,-5.04844e-07,-5.14861e+08,-5.14744e+08,-5.14857e+08,-34632.3,0.0040285,0.115496,0,0.115567,19349.2,-18746.3,0,26941,34632.3
step02_gravity_refstate-crust.xmf,738,-1.67774e-07,3.0813e-06,0,-1.81647e-06,-1.04938e+09,-1.04916e+09,-1.04937e+09,-124610,0.0111621,0.0831535,0,0.0838993,10237.6,-38207.8,0,39555.6,124610
step02_gravity_refstate-crust.xmf,739,-5.33212e-08,1.7896e-06,0,-5.58489e-07,-5.64996e+08,-5.64869e+08,-5.64992e+08,-38312.4,0.00444707,0.113338,0,0.113425,18208.3,-20571.8,0,27472.5,38312.4
step02_gravity_refstate-crust.xmf,740,4.33493e-09,2.11143e-06,0,-7.46315e-07,-7.04857e+08,-7.04712e+08,-7.04857e+08,-51197.2,0.00583879,0.106906,0,0.107065,14770.4,-25664.3,0,29611.1,51197.2
step02_gravity_refstate-crust.xmf,741,-3.99475e-08,1.91616e-06,0,-6.1694e-07,-6.14282e+08,-6.14148e+08,-6.1428e+08,-42322.1,0.00490335,0.111089,0,0.111197,17063.1,-22366.4,0,28131.9,42322.1
step02_gravity_refstate-crust.xmf,742,-2.04349e-08,2.02264e-06,0,-6.79546e-07,-6.60784e+08,-6.60644e+08,-6.60783e+08,-46616.8,0.00537109,0.108962,0,0.109095,15889.5,-24059.6,0,28832.9,46616.8
step02_gravity_refstate-crust.xmf,743,-3.74912e-08,2.65435e-06,0,-1.15402e-06,-8.987e+08,-8.98515e+08,-8.98697e+08,-79166,0.00835284,0.0935706,0,0.0939427,12438.8,-32722,0,35006.5,79166
step02_gravity_refstate-crust.xmf,744,-8.33487e-09,2.52762e-06,0,-1.05814e-06,-8.61356e+08,-8.61182e+08,-8.61355e+08,-72588.2,0.00780191,0.0965906,0,0.0969052,12719.7,-31362.4,0,33843.6,72588.2
step02_gravity_refstate-crust.xmf,745,-5.13476e-08,2.41443e-06,0,-8.72889e-07,-7.89444e+08,-7.89275e+08,-7.89441e+08,-59880.2,0.00681283,0.100202,0,0.100433,14566.6,-28744,0,32224.3,59880.2
step02_gravity_refstate-crust.xmf,746,-3.1758e-08,2.48104e-06,0,-9.63462e-07,-8.27578e+08,-8.27406e+08,-8.27576e+08,-66093.5,0.00732489,0.0982391,0,0.0985118,13597.4,-30132.5,0,33058.4,66093.5
step02_gravity_refstate-crust.xmf,747,-1.41159e-07,9.83989e-07,0,-2.51503e-07,-2.85342e+08,-2.85265e+08,-2.85333e+08,-17253.1,0.00255901,0.121481,0,0.121508,27036.6,-10389.1,0,28963.9,17253.1
step02_gravity_refstate-crust.xmf,748,-1.26071e-07,1.16631e-06,0,-3.08699e-07,-3.42634e+08,-3.42546e+08,-3.42626e+08,-21176.8,0.00278174,0.120101,0,0.120133,25460.9,-12475.2,0,28352.9,21176.8
step02_gravity_refstate-crust.xmf,749,-1.70062e-07,1.02967e-06,0,-2.08658e-07,-2.92072e+08,-2.91989e+08,-2.9206e+08,-14313.9,0.00213583,0.119963,0,0.119982,29708.8,-10634.1,0,31554.6,14313.9
step02_gravity_refstate-crust.xmf,750,-1.17636e-07,1.35422e-06,0,-3.64605e-07,-4.01496e+08,-4.01395e+08,-4.01488e+08,-25011.9,0.00307048,0.118269,0,0.118309,24040.8,-14618.5,0,28136.4,25011.9
step02_gravity_refstate-crust.xmf,751,-1.88416e-07,3.1013e-06,0,-1.64365e-06,-1.02613e+09,-1.02591e+09,-1.02612e+09,-112754,0.0105957,0.0837531,0,0.0844207,10927.5,-37361.4,0,38926.7,112754
step02_gravity_refstate-crust.xmf,752,-1.89908e-07,3.00859e-06,0,-1.32842e-06,-9.66995e+08,-9.66775e+08,-9.66982e+08,-91129.3,0.00936109,0.0865165,0,0.0870215,12450.3,-35208.3,0,37344.8,91129.3
step02_gravity_refstate-crust.xmf,753,-1.99704e-07,3.07117e-06,0,-1.4825e-06,-9.99044e+08,-9.9882e+08,-9.9903e+08,-101699,0.0099888,0.0847518,0,0.0853384,11699.3,-36375.1,0,38210.3,101699
step02_gravity_refstate-crust.xmf,754,-6.55029e-08,2.32952e-06,0,-7.92068e-07,-7.49195e+08,-7.49031e+08,-7.49191e+08,-54335.9,0.00630231,0.102361,0,0.102554,15547.4,-27278.5,0,31398.1,54335.9
step02_gravity_refstate-crust.xmf,755,-1.78786e-07,2.93348e-06,0,-1.19627e-06,-9.33798e+08,-9.33585e+08,-9.33786e+08,-82063.9,0.00876791,0.088491,0,0.0889244,13209,-33999.7,0,36475.4,82063.9
step02_gravity_refstate-crust.xmf,756,-2.18388e-07,8.53067e-07,0,-1.03504e-07,-2.34056e+08,-2.33982e+08,-2.34041e+08,-7100.36,0.00127809,0.120367,0,0.120374,34418.6,-8521.48,0,35457.8,7100.36
step02_gravity_refstate-crust.xmf,757,-1.97627e-07,1.07912e-06,0,-1.61175e-07,-3.01718e+08,-3.0163e+08,-3.01704e+08,-11056.6,0.00162036,0.118539,0,0.11855,32469.3,-10985.2,0,34277.2,11056.6
step02_gravity_refstate-crust.xmf,758,-2.47139e-07,7.0721e-07,0,5.4046e-10,-1.88025e+08,-1.8796e+08,-1.88008e+08,37.0756,4.30912e-20,0.121007,0,0.121007,40000,-6845.33,0,40581.5,37.0756
step02_gravity_refstate-crust.xmf,759,-1.13557e-07,1.53788e-06,0,-4.19054e-07,-4.5943e+08,-4.59317e+08,-4.59423e+08,-28747.1,0.00342715,0.116099,0,0.11615,22743.1,-16727.9,0,28232.5,28747.1
step02_gravity_refstate-crust.xmf,760,-3.72695e-07,3.40948e-06,0,-1.84937e-06,-1.07319e+09,-1.07293e+09,-1.07316e+09,-126867,0.0114703,0.0786648,0,0.0794966,10770.7,-39074.3,0,40531.6,126867
step02_gravity_refstate-crust.xmf,761,-1.11803e-07,1.71274e-06,0,-4.72976e-07,-5.15384e+08,-5.15259e+08,-5.15377e+08,-32446.2,0.00384012,0.113691,0,0.113756,21537,-18765.3,0,28565.3,32446.2
step02_gravity_refstate-crust.xmf,762,-1.09519e-07,1.87251e-06,0,-5.28405e-07,-5.68242e+08,-5.68106e+08,-5.68234e+08,-36248.6,0.00429677,0.111226,0,0.111309,20343.1,-20689.9,0,29015.7,36248.6
step02_gravity_refstate-crust.xmf,763,-3.45465e-07,3.36352e-06,0,-1.69335e-06,-1.05187e+09,-1.05161e+09,-1.05184e+09,-116164,0.0109392,0.0797119,0,0.080459,11282.6,-38298,0,39925.4,116164
step02_gravity_refstate-crust.xmf,764,-1.07217e-07,2.02099e-06,0,-5.86661e-07,-6.18934e+08,-6.18788e+08,-6.18927e+08,-40245,0.00478486,0.108673,0,0.108778,19198.7,-22535.6,0,29604.8,40245
step02_gravity_refstate-crust.xmf,765,-8.25333e-08,2.24438e-06,0,-7.21761e-07,-7.09469e+08,-7.09309e+08,-7.09463e+08,-49512.8,0.0058153,0.104331,0,0.104493,16643.3,-25832.1,0,30729.4,49512.8
step02_gravity_refstate-crust.xmf,766,-1.04685e-07,2.164e-06,0,-6.51676e-07,-6.69401e+08,-6.69245e+08,-6.69394e+08,-44705,0.00531412,0.105955,0,0.106089,18075.6,-24373.1,0,30344.3,44705
step02_gravity_refstate-crust.xmf,767,-1.45111e-07,2.55189e-06,0,-8.15362e-07,-7.88622e+08,-7.88437e+08,-7.88612e+08,-55933.8,0.00662337,0.0977262,0,0.0979504,16403.6,-28713.9,0,33069.2,55933.8
step02_gravity_refstate-crust.xmf,768,-1.54255e-07,2.82466e-06,0,-1.09119e-06,-8.98538e+08,-8.98333e+08,-8.98527e+08,-74855.5,0.0082214,0.0910601,0,0.0914305,13795.5,-32715.9,0,35505.6,74855.5
step02_gravity_refstate-crust.xmf,769,-1.46936e-07,2.73487e-06,0,-9.90711e-07,-8.63074e+08,-8.62877e+08,-8.63064e+08,-67962.8,0.00768076,0.093298,0,0.0936136,14572.5,-31424.7,0,34639.2,67962.8
step02_gravity_refstate-crust.xmf,770,-1.46058e-07,2.65006e-06,0,-9.00576e-07,-8.2755e+08,-8.27358e+08,-8.2754e+08,-61779.5,0.00716098,0.0954135,0,0.0956819,15440.4,-30131.3,0,33857.1,61779.5
step02_gravity_refstate-crust.xmf,771,-1.61199e-07,1.2253e-06,0,-2.66289e-07,-3.51418e+08,-3.51323e+08,-3.51407e+08,-18267.4,0.00240854,0.118265,0,0.11829,28127.4,-12795,0,30900.8,18267.4
step02_gravity_refstate-crust.xmf,772,-1.54602e-07,1.41028e-06,0,-3.21037e-07,-4.07402e+08,-4.07294e+08,-4.07391e+08,-22023.2,0.0027366,0.116397,0,0.116429,26608,-14833.4,0,30463.3,22023.2
step02_gravity_refstate-crust.xmf,773,-1.857e-07,1.28969e-06,0,-2.16236e-07,-3.63388e+08,-3.63287e+08,-3.63376e+08,-14833.8,0.00196283,0.116518,0,0.116534,30740.9,-13230.8,0,33467.3,14833.8
step02_gravity_refstate-crust.xmf,774,-2.28622e-07,9.0511e-07,0,-5.06104e-08,-2.47265e+08,-2.47188e+08,-2.4725e+08,-3471.88,0.000605983,0.119416,0,0.119418,37375,-9002.42,0,38443.9,3471.88
step02_gravity_refstate-crust.xmf,775,-1.52771e-07,1.595e-06,0,-3.75326e-07,-4.63446e+08,-4.63326e+08,-4.63436e+08,-25747.4,0.00311832,0.114199,0,0.114242,25184.8,-16874.1,0,30315.1,25747.4
step02_gravity_refstate-crust.xmf,776,-4.08161e-07,3.44673e-06,0,-1.52051e-06,-1.03668e+09,-1.03641e+09,-1.03665e+09,-104307,0.0103597,0.0788244,0,0.0795022,12261.6,-37745,0,39686.7,104307
step02_gravity_refstate-crust.xmf,777,-3.2529e-07,3.22594e-06,0,-1.21177e-06,-9.68948e+08,-9.68705e+08,-9.68926e+08,-83127.5,0.0090144,0.0831319,0,0.0836192,13890.6,-35279.2,0,37915.3,83127.5
step02_gravity_refstate-crust.xmf,778,-3.61352e-07,3.33009e-06,0,-1.35029e-06,-1.00199e+09,-1.00174e+09,-1.00196e+09,-92630.1,0.0096375,0.0809792,0,0.0815507,13096.4,-36482.1,0,38761.6,92630.1
step02_gravity_refstate-crust.xmf,779,-1.40329e-07,2.44926e-06,0,-7.46342e-07,-7.51314e+08,-7.51137e+08,-7.51305e+08,-51199,0.0061499,0.10004,0,0.100229,17237.3,-27355.6,0,32333.5,51199
step02_gravity_refstate-crust.xmf,780,-2.91255e-07,3.11259e-06,0,-1.09687e-06,-9.34817e+08,-9.34583e+08,-9.34797e+08,-75245.1,0.00844254,0.0855451,0,0.0859607,14645.1,-34036.6,0,37053.6,75245.1
step02_gravity_refstate-crust.xmf,781,-2.13604e-07,1.12798e-06,0,-1.07035e-07,-3.12439e+08,-3.12347e+08,-3.12424e+08,-7342.59,0.00106262,0.117368,0,0.117373,35172.4,-11375.5,0,36966.2,7342.59
step02_gravity_refstate-crust.xmf,782,-2.07225e-07,1.35223e-06,0,-1.63514e-07,-3.76709e+08,-3.76602e+08,-3.76695e+08,-11217,0.00147048,0.11496,0,0.11497,33281.6,-13715.7,0,35997,11217
step02_gravity_refstate-crust.xmf,783,-2.25217e-07,1.00947e-06,0,4.776e-10,-2.76938e+08,-2.76854e+08,-2.76923e+08,32.7634,3.54577e-20,0.118227,0,0.118227,40000,-10082.9,0,41251.2,32.7634
step02_gravity_refstate-crust.xmf,784,-1.53915e-07,1.77608e-06,0,-4.29371e-07,-5.18792e+08,-5.1866e+08,-5.18782e+08,-29454.9,0.00355168,0.111724,0,0.11178,23842,-18889.3,0,30417.9,29454.9
step02_gravity_refstate-crust.xmf,785,-5.23013e-07,3.65681e-06,0,-1.65776e-06,-1.07109e+09,-1.0708e+09,-1.07105e+09,-113723,0.0109198,0.0753316,0,0.0761189,11928.8,-38997.5,0,40781.2,113723
step02_gravity_refstate-crust.xmf,786,-1.56185e-07,1.94386e-06,0,-4.84069e-07,-5.711e+08,-5.70956e+08,-5.7109e+08,-33207.1,0.00402168,0.109172,0,0.109246,22548.5,-20793.9,0,30672.8,33207.1
step02_gravity_refstate-crust.xmf,787,-1.6071e-07,2.10658e-06,0,-5.40595e-07,-6.22327e+08,-6.22172e+08,-6.22316e+08,-37084.8,0.00452283,0.106428,0,0.106524,21336.6,-22659.1,0,31123.7,37084.8
step02_gravity_refstate-crust.xmf,788,-1.67951e-07,2.2657e-06,0,-6.00146e-07,-6.72643e+08,-6.72476e+08,-6.72632e+08,-41170,0.0050493,0.103493,0,0.103616,20206.7,-24491.1,0,31751,41170
step02_gravity_refstate-crust.xmf,789,-1.75036e-07,2.4316e-06,0,-6.78002e-07,-7.27012e+08,-7.26834e+08,-7.27e+08,-46511,0.00568791,0.100285,0,0.100446,18852.3,-26470.7,0,32497.8,46511
step02_gravity_refstate-crust.xmf,790,-2.12933e-07,2.63997e-06,0,-7.32669e-07,-7.8142e+08,-7.81225e+08,-7.81406e+08,-50261.1,0.00620004,0.0957994,0,0.0959998,18402.4,-28451.6,0,33884.2,50261.1
step02_gravity_refstate-crust.xmf,791,-2.32449e-07,2.77659e-06,0,-8.06514e-07,-8.23525e+08,-8.23318e+08,-8.23509e+08,-55326.9,0.00673842,0.0928813,0,0.0931254,17465.9,-29984.6,0,34700.6,55326.9
step02_gravity_refstate-crust.xmf,792,-2.65081e-07,3.00166e-06,0,-9.94975e-07,-8.99965e+08,-8.99741e+08,-8.99947e+08,-68255.3,0.00789162,0.087967,0,0.0883203,15445.5,-32767.7,0,36225.5,68255.3
step02_gravity_refstate-crust.xmf,793,-2.49186e-07,2.89725e-06,0,-8.95499e-07,-8.63457e+08,-8.63241e+08,-8.6344e+08,-61431.3,0.00731485,0.0902657,0,0.0905616,16436.5,-31438.5,0,35475.9,61431.3
step02_gravity_refstate-crust.xmf,794,-1.82971e-07,1.45846e-06,0,-2.71915e-07,-4.13595e+08,-4.13483e+08,-4.13583e+08,-18653.4,0.00233429,0.114756,0,0.11478,29071.4,-15058.9,0,32740.1,18653.4
step02_gravity_refstate-crust.xmf,795,-1.85357e-07,1.65745e-06,0,-3.22761e-07,-4.71115e+08,-4.70989e+08,-4.71102e+08,-22141.4,0.00272231,0.112227,0,0.11226,27678.3,-17153.2,0,32562.6,22141.4
step02_gravity_refstate-crust.xmf,796,-2.05443e-07,1.56124e-06,0,-2.15863e-07,-4.35859e+08,-4.35738e+08,-4.35845e+08,-14808.2,0.00187172,0.1124,0,0.112415,31630.6,-15869.5,0,35388.4,14808.2
step02_gravity_refstate-crust.xmf,797,-2.21267e-07,1.19568e-06,0,-5.24159e-08,-3.29797e+08,-3.297e+08,-3.29782e+08,-3595.73,0.000508154,0.116222,0,0.116223,37717.8,-12007.6,0,39583,3595.73
step02_gravity_refstate-crust.xmf,798,-1.84861e-07,1.83124e-06,0,-3.76753e-07,-5.22858e+08,-5.22719e+08,-5.22845e+08,-25845.3,0.00318157,0.109886,0,0.109932,26119.8,-19037.2,0,32321.2,25845.3
step02_gravity_refstate-crust.xmf,799,-6.23405e-07,3.83452e-06,0,-1.45975e-06,-1.06768e+09,-1.06737e+09,-1.06764e+09,-100139,0.0102184,0.0724284,0,0.0731456,13100.7,-38873.3,0,41021.5,100139
step02_gravity_refstate-crust.xmf,800,-5.36889e-07,3.66936e-06,0,-1.32169e-06,-1.03592e+09,-1.03563e+09,-1.03588e+09,-90668,0.00965318,0.0750902,0,0.0757081,13742.2,-37717,0,40142.5,90668
step02_gravity_refstate-crust.xmf,801,-4.23863e-07,3.40138e-06,0,-1.07741e-06,-9.71161e+08,-9.70898e+08,-9.71132e+08,-73910.3,0.00848513,0.0798539,0,0.0803035,15353.7,-35359.6,0,38549.2,73910.3
step02_gravity_refstate-crust.xmf,802,-4.75976e-07,3.5333e-06,0,-1.19341e-06,-1.0042e+09,-1.00393e+09,-1.00417e+09,-81868.1,0.00905656,0.0774031,0,0.0779312,14531.3,-36562.5,0,39344.3,81868.1
step02_gravity_refstate-crust.xmf,803,-3.80777e-07,3.27303e-06,0,-9.74428e-07,-9.37156e+08,-9.36906e+08,-9.3713e+08,-66845.8,0.00793241,0.082361,0,0.0827421,16219.6,-34121.6,0,37780.5,66845.8
step02_gravity_refstate-crust.xmf,804,-2.19214e-07,1.39238e-06,0,-1.04929e-07,-3.85088e+08,-3.84978e+08,-3.85073e+08,-7198.16,0.000944167,0.11391,0,0.113914,35772.2,-14020.8,0,38421.8,7198.16
step02_gravity_refstate-crust.xmf,805,-2.22743e-07,1.61621e-06,0,-1.54126e-07,-4.47068e+08,-4.46942e+08,-4.47053e+08,-10573,0.00133923,0.110897,0,0.110905,34170.3,-16277.6,0,37849.3,10573
step02_gravity_refstate-crust.xmf,806,-2.23659e-07,1.3164e-06,0,1.79196e-10,-3.62771e+08,-3.62665e+08,-3.62755e+08,12.2928,3.04901e-20,0.114593,0,0.114593,40000,-13208.2,0,42124.3,12.2928
step02_gravity_refstate-crust.xmf,807,-1.917e-07,2.00178e-06,0,-4.30466e-07,-5.73757e+08,-5.73606e+08,-5.73744e+08,-29530,0.00365158,0.107276,0,0.107338,24754.8,-20890.5,0,32391.5,29530
step02_gravity_refstate-crust.xmf,808,-2.01534e-07,2.1781e-06,0,-4.8378e-07,-6.25849e+08,-6.25686e+08,-6.25835e+08,-33187.3,0.00415146,0.104285,0,0.104368,23501.3,-22787.2,0,32734.8,33187.3
step02_gravity_refstate-crust.xmf,809,-2.14078e-07,2.34788e-06,0,-5.38787e-07,-6.76048e+08,-6.75872e+08,-6.76033e+08,-36960.8,0.0046708,0.10119,0,0.101298,22304.2,-24615,0,33217.1,36960.8
step02_gravity_refstate-crust.xmf,810,-7.02333e-07,4.00473e-06,0,-1.2468e-06,-1.06824e+09,-1.06792e+09,-1.0682e+09,-85530.7,0.00935835,0.0689438,0,0.069576,14401.1,-38893.9,0,41474.4,85530.7
step02_gravity_refstate-crust.xmf,811,-2.31788e-07,2.5217e-06,0,-5.96877e-07,-7.26545e+08,-7.26356e+08,-7.26529e+08,-40945.7,0.00521182,0.0978092,0,0.097948,21177.9,-26453.6,0,33886.5,40945.7
step02_gravity_refstate-crust.xmf,812,-2.57951e-07,2.70514e-06,0,-6.56593e-07,-7.77513e+08,-7.7731e+08,-7.77496e+08,-45042.3,0.00575302,0.0940377,0,0.0942136,20187.3,-28309.3,0,34769.9,45042.3
step02_gravity_refstate-crust.xmf,813,-2.88702e-07,2.87521e-06,0,-7.17794e-07,-8.23689e+08,-8.23472e+08,-8.23669e+08,-49240.7,0.00626826,0.0904549,0,0.0906718,19273,-29990.5,0,35649.4,49240.7
step02_gravity_refstate-crust.xmf,814,-3.17332e-07,3.01924e-06,0,-7.93247e-07,-8.64584e+08,-8.64355e+08,-8.64562e+08,-54416.8,0.00681678,0.0874827,0,0.0877479,18223.4,-31479.4,0,36373.7,54416.8
step02_gravity_refstate-crust.xmf,815,-3.46982e-07,3.14978e-06,0,-8.79862e-07,-9.02241e+08,-9.02002e+08,-9.02218e+08,-60358.5,0.00737887,0.08483,0,0.0851503,17177.9,-32850.5,0,37070.7,60358.5
step02_gravity_refstate-crust.xmf,816,-2.04929e-07,1.85428e-06,0,-3.28416e-07,-5.22289e+08,-5.22147e+08,-5.22275e+08,-22529.4,0.00280626,0.108756,0,0.108793,28027.7,-19016.5,0,33870,22529.4
step02_gravity_refstate-crust.xmf,817,-2.13065e-07,1.79843e-06,0,-2.74879e-07,-5.02493e+08,-5.02355e+08,-5.02478e+08,-18856.7,0.00235534,0.109069,0,0.109094,29928,-18295.7,0,35077.3,18856.7
step02_gravity_refstate-crust.xmf,818,-2.30116e-07,1.84893e-06,0,-2.04874e-07,-5.10874e+08,-5.10731e+08,-5.10858e+08,-14054.3,0.00178344,0.107387,0,0.107402,32572,-18600.8,0,37509,14054.3
step02_gravity_refstate-crust.xmf,819,-2.24529e-07,1.43178e-06,0,-4.86293e-08,-3.94527e+08,-3.94413e+08,-3.94511e+08,-3335.97,0.000438852,0.113092,0,0.113093,38059.4,-14364.5,0,40679.9,3335.97
step02_gravity_refstate-crust.xmf,820,-2.14822e-07,2.04077e-06,0,-3.72722e-07,-5.74784e+08,-5.7463e+08,-5.7477e+08,-25568.7,0.00322304,0.105735,0,0.105784,26877.8,-20927.9,0,34064.6,25568.7
step02_gravity_refstate-crust.xmf,821,-6.14559e-07,3.8322e-06,0,-1.13786e-06,-1.03762e+09,-1.03732e+09,-1.03758e+09,-78057.5,0.00887651,0.071651,0,0.0721987,15102.6,-37779.2,0,40686.1,78057.5
step02_gravity_refstate-crust.xmf,822,-4.91466e-07,3.54893e-06,0,-9.30926e-07,-9.75348e+08,-9.7507e+08,-9.75314e+08,-63861.5,0.0078043,0.0764387,0,0.0768361,16878.4,-35512,0,39319,63861.5
step02_gravity_refstate-crust.xmf,823,-5.52957e-07,3.69538e-06,0,-1.03043e-06,-1.0082e+09,-1.00791e+09,-1.00816e+09,-70687.3,0.00833496,0.0738459,0,0.0743147,15966.2,-36708.1,0,40030,70687.3
step02_gravity_refstate-crust.xmf,824,-4.38671e-07,3.40126e-06,0,-8.39626e-07,-9.40297e+08,-9.40034e+08,-9.40267e+08,-57598.3,0.00728144,0.079228,0,0.0795619,17841.5,-34236,0,38606,57598.3
step02_gravity_refstate-crust.xmf,825,-2.31028e-07,1.6328e-06,0,-8.49413e-08,-4.49233e+08,-4.49105e+08,-4.49217e+08,-5826.98,0.000742973,0.110195,0,0.110197,36806.8,-16356.4,0,40277.5,5826.98
step02_gravity_refstate-crust.xmf,826,-2.41984e-07,1.89605e-06,0,-1.26323e-07,-5.20057e+08,-5.19911e+08,-5.20041e+08,-8665.75,0.00111346,0.105905,0,0.105911,35451.6,-18935.2,0,40191.5,8665.75
step02_gravity_refstate-crust.xmf,827,-2.32812e-07,1.62253e-06,0,5.02498e-10,-4.45745e+08,-4.45618e+08,-4.45729e+08,34.4714,3.46951e-20,0.110154,0,0.110154,40000,-16229.4,0,43167,34.4714
step02_gravity_refstate-crust.xmf,828,-2.29696e-07,2.23205e-06,0,-4.21196e-07,-6.28638e+08,-6.28469e+08,-6.28622e+08,-28894,0.00370135,0.102391,0,0.102458,25648.4,-22888.7,0,34376.4,28894
step02_gravity_refstate-crust.xmf,829,-2.31004e-07,2.05529e-06,0,-3.14904e-07,-5.72195e+08,-5.72038e+08,-5.72179e+08,-21602.4,0.00275501,0.104694,0,0.10473,28934.9,-20833.6,0,35654.8,21602.4
step02_gravity_refstate-crust.xmf,830,-2.46277e-07,2.41539e-06,0,-4.6986e-07,-6.79989e+08,-6.79806e+08,-6.79972e+08,-32232.4,0.00419779,0.098982,0,0.0990709,24444,-24758.4,0,34792,32232.4
step02_gravity_refstate-crust.xmf,831,-2.66464e-07,2.59322e-06,0,-5.19903e-07,-7.2926e+08,-7.29064e+08,-7.29242e+08,-35665.4,0.00470354,0.0955098,0,0.0956255,23274.3,-26552.4,0,35309,35665.4
step02_gravity_refstate-crust.xmf,832,-7.35824e-07,4.11741e-06,0,-1.04226e-06,-1.06858e+09,-1.06825e+09,-1.06853e+09,-71499,0.00841369,0.06581,0,0.0663456,15713.4,-38906.2,0,41959.5,71499
step02_gravity_refstate-crust.xmf,833,-2.92751e-07,2.77435e-06,0,-5.70809e-07,-7.78041e+08,-7.77831e+08,-7.78021e+08,-39157.5,0.00520727,0.0918131,0,0.0919606,22179.3,-28328.5,0,35978.1,39157.5
step02_gravity_refstate-crust.xmf,834,-3.25864e-07,2.9566e-06,0,-6.23946e-07,-8.25542e+08,-8.25317e+08,-8.2552e+08,-42802.7,0.0057041,0.0879962,0,0.0881808,21136,-30057.9,0,36745.2,42802.7
step02_gravity_refstate-crust.xmf,835,-3.62242e-07,3.12261e-06,0,-6.85762e-07,-8.6846e+08,-8.68221e+08,-8.68435e+08,-47043.3,0.00621426,0.0845752,0,0.0848032,20045.8,-31620.5,0,37439.2,47043.3
step02_gravity_refstate-crust.xmf,836,-3.97823e-07,3.262e-06,0,-7.60975e-07,-9.05294e+08,-9.05043e+08,-9.05267e+08,-52202.9,0.00675275,0.0818628,0,0.0821409,18895.9,-32961.6,0,37993.7,52202.9
step02_gravity_refstate-crust.xmf,837,-2.42147e-07,2.07003e-06,0,-2.50339e-07,-5.71097e+08,-5.70938e+08,-5.7108e+08,-17173.3,0.00221869,0.103651,0,0.103675,31188.9,-20793.6,0,37484.9,17173.3
step02_gravity_refstate-crust.xmf,838,-2.51186e-07,2.10483e-06,0,-1.83188e-07,-5.76914e+08,-5.76753e+08,-5.76897e+08,-12566.7,0.00164791,0.102297,0,0.102311,33538.9,-21005.4,0,39573.8,12566.7
step02_gravity_refstate-crust.xmf,839,-2.46148e-07,2.26372e-06,0,-3.56182e-07,-6.2897e+08,-6.28798e+08,-6.28953e+08,-24434.1,0.00319413,0.100912,0,0.100962,27781.3,-22900.8,0,36003.5,24434.1
step02_gravity_refstate-crust.xmf,840,-6.51879e-07,3.9415e-06,0,-9.85121e-07,-1.04008e+09,-1.03977e+09,-1.04004e+09,-67579.3,0.00814737,0.0688347,0,0.0693152,16253,-37868.8,0,41209.2,67579.3
step02_gravity_refstate-crust.xmf,841,-5.19078e-07,3.6357e-06,0,-7.83609e-07,-9.75805e+08,-9.7552e+08,-9.75769e+08,-53755.6,0.00701812,0.0737226,0,0.0740559,18437.4,-35528.7,0,40027.8,53755.6
step02_gravity_refstate-crust.xmf,842,-6.0779e-07,3.8668e-06,0,-8.56582e-07,-1.01952e+09,-1.01921e+09,-1.01948e+09,-58761.5,0.00746116,0.0694464,0,0.069846,17450.6,-37120.1,0,41017.4,58761.5
step02_gravity_refstate-crust.xmf,843,-4.66783e-07,3.49128e-06,0,-7.09973e-07,-9.438e+08,-9.43528e+08,-9.43768e+08,-48704.2,0.0065499,0.0763106,0,0.0765912,19463.4,-34363.5,0,39492.7,48704.2
step02_gravity_refstate-crust.xmf,844,-2.55291e-07,2.12542e-06,0,-1.21826e-07,-5.80571e+08,-5.80408e+08,-5.80554e+08,-8357.29,0.00110808,0.101423,0,0.101429,35684.4,-21138.5,0,41475.5,8357.29
step02_gravity_refstate-crust.xmf,845,-2.42689e-07,1.84218e-06,0,-5.77728e-08,-5.0458e+08,-5.04437e+08,-5.04563e+08,-3963.22,0.000506685,0.10655,0,0.106551,37915.4,-18371.6,0,42131.9,3963.22
step02_gravity_refstate-crust.xmf,846,-2.65114e-07,2.46088e-06,0,-3.98785e-07,-6.82398e+08,-6.82211e+08,-6.8238e+08,-27356.7,0.00366103,0.097127,0,0.097196,26576.9,-24846.1,0,36382.2,27356.7
step02_gravity_refstate-crust.xmf,847,-2.57797e-07,2.29027e-06,0,-2.9063e-07,-6.30404e+08,-6.3023e+08,-6.30387e+08,-19937.2,0.00265274,0.0995478,0,0.0995831,29941.2,-22953,0,37726.9,19937.2
step02_gravity_refstate-crust.xmf,848,-2.86372e-07,2.64844e-06,0,-4.41639e-07,-7.32673e+08,-7.32471e+08,-7.32653e+08,-30296.4,0.00413563,0.0933688,0,0.0934604,25372.1,-26676.6,0,36815.5,30296.4
step02_gravity_refstate-crust.xmf,849,-3.12396e-07,2.83326e-06,0,-4.8428e-07,-7.81107e+08,-7.80892e+08,-7.81086e+08,-33221.6,0.00460331,0.089535,0,0.0896532,24207.2,-28440.1,0,37347.4,33221.6
step02_gravity_refstate-crust.xmf,850,-7.27996e-07,4.1674e-06,0,-8.57134e-07,-1.06649e+09,-1.06616e+09,-1.06644e+09,-58799.4,0.00746218,0.0633791,0,0.0638169,17031.9,-38830.3,0,42401.4,58799.4
step02_gravity_refstate-crust.xmf,851,-3.44815e-07,3.01935e-06,0,-5.26812e-07,-8.28277e+08,-8.28046e+08,-8.28254e+08,-36139.3,0.00505455,0.0855807,0,0.0857299,23092.9,-30157.5,0,37983.7,36139.3
step02_gravity_refstate-crust.xmf,852,-3.84656e-07,3.20435e-06,0,-5.75916e-07,-8.73859e+08,-8.73613e+08,-8.73833e+08,-39507.8,0.00552113,0.0816735,0,0.0818599,21925.1,-31817.1,0,38639.9,39507.8
step02_gravity_refstate-crust.xmf,853,-4.26606e-07,3.35764e-06,0,-6.42289e-07,-9.11697e+08,-9.11438e+08,-9.11668e+08,-44061,0.00604939,0.0787297,0,0.0789618,20624.6,-33194.7,0,39080.2,44061
step02_gravity_refstate-crust.xmf,854,-5.24596e-07,3.71197e-06,0,-6.36485e-07,-9.80665e+08,-9.80374e+08,-9.80629e+08,-43662.9,0.00614541,0.0705977,0,0.0708646,20081.5,-35705.7,0,40965.4,43662.9
step02_gravity_refstate-crust.xmf,855,-2.64717e-07,2.32355e-06,0,-2.23126e-07,-6.35514e+08,-6.35337e+08,-6.35496e+08,-15306.4,0.00207337,0.0980697,0,0.0980916,32194.5,-23139.1,0,39647.2,15306.4
step02_gravity_refstate-crust.xmf,856,-2.68094e-07,2.3537e-06,0,-1.63186e-07,-6.41566e+08,-6.41386e+08,-6.41547e+08,-11194.6,0.00153861,0.0968306,0,0.0968428,34232.2,-23359.4,0,41442.8,11194.6
step02_gravity_refstate-crust.xmf,857,-2.55306e-07,2.08851e-06,0,-6.83048e-08,-5.69899e+08,-5.69738e+08,-5.69881e+08,-4685.71,0.000617277,0.101914,0,0.101916,37582,-20749.9,0,42929.8,4685.71
step02_gravity_refstate-crust.xmf,858,-2.47601e-07,1.92441e-06,0,2.13916e-10,-5.26078e+08,-5.25929e+08,-5.26061e+08,14.6747,4.25287e-20,0.104966,0,0.104966,40000,-19154.4,0,44349.6,14.6747
step02_gravity_refstate-crust.xmf,859,-2.74346e-07,2.49386e-06,0,-3.28498e-07,-6.84882e+08,-6.84692e+08,-6.84864e+08,-22535,0.00308925,0.0954919,0,0.0955419,28718,-24936.6,0,38033.6,22535
step02_gravity_refstate-crust.xmf,860,-5.95763e-07,3.90738e-06,0,-6.78903e-07,-1.0177e+09,-1.01739e+09,-1.01766e+09,-46572.8,0.00643482,0.0668112,0,0.0671203,19172.7,-37054.2,0,41720.5,46572.8
step02_gravity_refstate-crust.xmf,861,-4.73361e-07,3.55532e-06,0,-6.00817e-07,-9.48496e+08,-9.48219e+08,-9.48463e+08,-41216,0.00587111,0.0737599,0,0.0739932,20889.2,-34534.5,0,40360.8,41216
step02_gravity_refstate-crust.xmf,862,-2.6532e-07,2.31533e-06,0,-1.11693e-07,-6.30562e+08,-6.30385e+08,-6.30544e+08,-7662.12,0.00105029,0.0973057,0,0.0973114,36038.5,-22958.8,0,42730.3,7662.12
step02_gravity_refstate-crust.xmf,863,-2.94676e-07,2.68959e-06,0,-3.64072e-07,-7.3641e+08,-7.36205e+08,-7.36389e+08,-24975.3,0.00352417,0.0914131,0,0.091481,27504.1,-26812.7,0,38410.9,24975.3
step02_gravity_refstate-crust.xmf,864,-2.78708e-07,2.52874e-06,0,-2.56258e-07,-6.90044e+08,-6.89852e+08,-6.90025e+08,-17579.3,0.00247328,0.0937976,0,0.0938302,30972.3,-25124.5,0,39881.4,17579.3
step02_gravity_refstate-crust.xmf,865,-3.18471e-07,2.87751e-06,0,-3.99409e-07,-7.85045e+08,-7.84825e+08,-7.85023e+08,-27399.4,0.0039548,0.0873796,0,0.0874691,26282.2,-28583.5,0,38830,27399.4
step02_gravity_refstate-crust.xmf,866,-3.47729e-07,3.06436e-06,0,-4.33482e-07,-8.31932e+08,-8.31698e+08,-8.31908e+08,-29736.9,0.00436673,0.0832969,0,0.0834113,25085.9,-30290.7,0,39329.7,29736.9
step02_gravity_refstate-crust.xmf,867,-6.82718e-07,4.13533e-06,0,-7.02608e-07,-1.05672e+09,-1.05639e+09,-1.05668e+09,-48198.9,0.00657214,0.0623198,0,0.0626654,18425.3,-38474.7,0,42659.1,48198.9
step02_gravity_refstate-crust.xmf,868,-3.85025e-07,3.25778e-06,0,-4.66323e-07,-8.78425e+08,-8.78175e+08,-8.78398e+08,-31989.8,0.00475426,0.0790364,0,0.0791793,23910.9,-31983.4,0,39933.3,31989.8
step02_gravity_refstate-crust.xmf,869,-4.37882e-07,3.47443e-06,0,-5.11762e-07,-9.27496e+08,-9.27228e+08,-9.27466e+08,-35106.9,0.00521175,0.0745132,0,0.0746953,22494.5,-33770,0,40576.1,35106.9
step02_gravity_refstate-crust.xmf,870,-5.63299e-07,3.92637e-06,0,-5.28071e-07,-1.01851e+09,-1.0182e+09,-1.01847e+09,-36225.7,0.00546222,0.0643032,0,0.0645348,20839.1,-37083.7,0,42537.9,36225.7
step02_gravity_refstate-crust.xmf,871,-4.9706e-07,3.71568e-06,0,-5.10988e-07,-9.77733e+08,-9.77444e+08,-9.77699e+08,-35053.8,0.00530374,0.0688002,0,0.0690043,21762.2,-35599.1,0,41723.9,35053.8
step02_gravity_refstate-crust.xmf,872,-2.80025e-07,2.58349e-06,0,-1.80444e-07,-7.02489e+08,-7.02293e+08,-7.0247e+08,-12378.4,0.00179287,0.0916114,0,0.091629,33446.9,-25577.7,0,42106,12378.4
step02_gravity_refstate-crust.xmf,873,-2.73999e-07,2.53262e-06,0,-1.16288e-07,-6.88382e+08,-6.88189e+08,-6.88363e+08,-7977.36,0.00114977,0.0922621,0,0.0922693,35762.1,-25064,0,43670.8,7977.36
step02_gravity_refstate-crust.xmf,874,-2.67502e-07,2.36032e-06,0,-5.16982e-08,-6.41827e+08,-6.41647e+08,-6.41809e+08,-3546.5,0.000492071,0.0960254,0,0.0960266,38153.5,-23368.9,0,44741.4,3546.5
step02_gravity_refstate-crust.xmf,875,-2.61633e-07,2.21853e-06,0,-5.25941e-12,-6.03983e+08,-6.03813e+08,-6.03966e+08,-0.360795,3.39979e-20,0.0990906,0,0.0990906,40000,-21991,0,45646.5,0.360795
step02_gravity_refstate-crust.xmf,876,-2.9465e-07,2.71934e-06,0,-2.89464e-07,-7.40453e+08,-7.40247e+08,-7.40433e+08,-19857.2,0.0028839,0.0896504,0,0.0896968,29692.1,-26960,0,40105.6,19857.2
step02_gravity_refstate-crust.xmf,877,-6.40912e-07,4.14757e-06,0,-5.41175e-07,-1.05778e+09,-1.05745e+09,-1.05773e+09,-37124.6,0.00555525,0.0597817,0,0.0600393,19943.2,-38513.2,0,43370.5,37124.6
step02_gravity_refstate-crust.xmf,878,-3.14335e-07,2.91413e-06,0,-3.17346e-07,-7.90693e+08,-7.90472e+08,-7.90672e+08,-21769.9,0.0032764,0.0852597,0,0.0853226,28430.6,-28789.2,0,40461.3,21769.9
step02_gravity_refstate-crust.xmf,879,-2.89746e-07,2.75296e-06,0,-2.18163e-07,-7.47537e+08,-7.47328e+08,-7.47517e+08,-14966,0.00224595,0.0878512,0,0.0878799,31883.5,-27217.9,0,41921,14966
step02_gravity_refstate-crust.xmf,880,-3.38688e-07,3.09436e-06,0,-3.4716e-07,-8.36191e+08,-8.35955e+08,-8.36168e+08,-23815.2,0.00366891,0.0811951,0,0.0812779,27109.8,-30445.8,0,40766.2,23815.2
step02_gravity_refstate-crust.xmf,881,-3.68732e-07,3.28343e-06,0,-3.68885e-07,-8.82031e+08,-8.8178e+08,-8.82005e+08,-25305.5,0.00398837,0.076801,0,0.0769045,25920.9,-32114.8,0,41270.5,25305.5
step02_gravity_refstate-crust.xmf,882,-4.07714e-07,3.48326e-06,0,-3.87588e-07,-9.27992e+08,-9.27725e+08,-9.27964e+08,-26588.6,0.00426713,0.0721856,0,0.0723116,24723.3,-33788.2,0,41867.5,26588.6
step02_gravity_refstate-crust.xmf,883,-5.77728e-07,4.12836e-06,0,-3.98542e-07,-1.05829e+09,-1.05797e+09,-1.05825e+09,-27340,0.00455159,0.0575352,0,0.057715,21577.9,-38532.2,0,44162.6,27340
step02_gravity_refstate-crust.xmf,884,-5.11456e-07,3.90865e-06,0,-4.00138e-07,-1.01729e+09,-1.01698e+09,-1.01725e+09,-27449.5,0.00453771,0.062361,0,0.0625259,22582.6,-37039.3,0,43380.7,27449.5
step02_gravity_refstate-crust.xmf,885,-4.55079e-07,3.69383e-06,0,-3.97477e-07,-9.73727e+08,-9.73442e+08,-9.73695e+08,-27266.9,0.00444976,0.0672856,0,0.0674326,23615.9,-35453.4,0,42598.8,27266.9
step02_gravity_refstate-crust.xmf,886,-2.78663e-07,2.74816e-06,0,-1.14825e-07,-7.46387e+08,-7.46179e+08,-7.46368e+08,-7877.01,0.0012088,0.0867338,0,0.0867423,35553.8,-27176.1,0,44750.5,7877.01
step02_gravity_refstate-crust.xmf,887,-2.73061e-07,2.64617e-06,0,-5.70301e-08,-7.18788e+08,-7.18587e+08,-7.18769e+08,-3912.27,0.000586372,0.089044,0,0.0890459,37837.6,-26171.2,0,46006.7,3912.27
step02_gravity_refstate-crust.xmf,888,-2.70287e-07,2.50194e-06,0,-2.185e-10,-6.7967e+08,-6.7948e+08,-6.79652e+08,-14.9891,4.05849e-20,0.0925862,0,0.0925862,40000,-24746.9,0,47036.2,14.9891
step02_gravity_refstate-crust.xmf,889,-3.03442e-07,2.94046e-06,0,-2.41305e-07,-7.96889e+08,-7.96667e+08,-7.96869e+08,-16553.5,0.00258188,0.0833119,0,0.0833519,30669,-29014.9,0,42219.1,16553.5
step02_gravity_refstate-crust.xmf,890,-2.85074e-07,2.79488e-06,0,-1.63293e-07,-7.58738e+08,-7.58526e+08,-7.58718e+08,-11201.9,0.00172646,0.0860215,0,0.0860388,33689.2,-27625.8,0,43567.7,11201.9
step02_gravity_refstate-crust.xmf,891,-3.1996e-07,3.12702e-06,0,-2.60502e-07,-8.44505e+08,-8.44269e+08,-8.44483e+08,-17870.4,0.00291181,0.07877,0,0.0788238,29361.5,-30748.6,0,42515.6,17870.4
step02_gravity_refstate-crust.xmf,892,-2.87835e-07,2.97029e-06,0,-1.72477e-07,-8.05545e+08,-8.05322e+08,-8.05526e+08,-11831.9,0.00193209,0.0814172,0,0.0814401,32836.1,-29330.1,0,44028,11831.9
step02_gravity_refstate-crust.xmf,893,-3.45121e-07,3.30067e-06,0,-2.85567e-07,-8.87349e+08,-8.87099e+08,-8.87325e+08,-19589.9,0.00326968,0.0746929,0,0.0747645,27885.1,-32308.5,0,42678.1,19589.9
step02_gravity_refstate-crust.xmf,894,-3.71758e-07,3.48526e-06,0,-2.93356e-07,-9.31174e+08,-9.3091e+08,-9.31149e+08,-20124.2,0.0034728,0.0701204,0,0.0702063,26716,-33904.2,0,43165.3,20124.2
step02_gravity_refstate-crust.xmf,895,-4.05386e-07,3.67643e-06,0,-2.93442e-07,-9.74576e+08,-9.74296e+08,-9.74548e+08,-20130.1,0.00358973,0.0653516,0,0.0654501,25597.5,-35484.4,0,43753.6,20130.1
step02_gravity_refstate-crust.xmf,896,-5.04704e-07,4.0889e-06,0,-2.82598e-07,-1.05853e+09,-1.05821e+09,-1.05849e+09,-19386.2,0.00364281,0.0556538,0,0.0557728,23249.7,-38541,0,45010.6,19386.2
step02_gravity_refstate-crust.xmf,897,-4.48513e-07,3.87559e-06,0,-2.8981e-07,-1.01693e+09,-1.01663e+09,-1.0169e+09,-19881,0.00364468,0.0605305,0,0.0606401,24450.7,-37026.5,0,44371.1,19881
step02_gravity_refstate-crust.xmf,898,-2.76594e-07,2.97086e-06,0,-1.15642e-07,-8.07576e+08,-8.07354e+08,-8.07557e+08,-7933.01,0.00131664,0.0804961,0,0.0805069,35020.6,-29404.1,0,45727.9,7933.01
step02_gravity_refstate-crust.xmf,899,-2.64915e-07,2.9345e-06,0,-5.54535e-08,-7.98642e+08,-7.98423e+08,-7.98624e+08,-3804.11,0.000637763,0.0809625,0,0.080965,37572,-29078.8,0,47510.4,3804.11
step02_gravity_refstate-crust.xmf,900,-2.6956e-07,2.77179e-06,0,-5.09417e-10,-7.53344e+08,-7.53136e+08,-7.53326e+08,-34.946,4.44451e-20,0.0855127,0,0.0855127,40000,-27429.4,0,48501.3,34.946
step02_gravity_refstate-crust.xmf,901,-2.96973e-07,3.15347e-06,0,-1.866e-07,-8.54376e+08,-8.5414e+08,-8.54356e+08,-12800.8,0.00218698,0.0764707,0,0.076502,31638.7,-31108.1,0,44370.3,12800.8
step02_gravity_refstate-crust.xmf,902,-3.10745e-07,3.36498e-06,0,-1.92762e-07,-9.09254e+08,-9.09001e+08,-9.09232e+08,-13223.5,0.00241466,0.0706487,0,0.07069,30208.3,-33106.2,0,44817,13223.5
step02_gravity_refstate-crust.xmf,903,-2.70186e-07,3.16658e-06,0,-1.2296e-07,-8.61319e+08,-8.61083e+08,-8.613e+08,-8435.03,0.00153128,0.0748173,0,0.0748329,33896,-31361,0,46178.5,8435.03
step02_gravity_refstate-crust.xmf,904,-3.3755e-07,3.48116e-06,0,-2.23634e-07,-9.35303e+08,-9.35041e+08,-9.3528e+08,-15341.3,0.00281188,0.0683648,0,0.0684226,28514.6,-34054.7,0,44416.2,15341.3
step02_gravity_refstate-crust.xmf,905,-3.53028e-07,3.6631e-06,0,-2.05379e-07,-9.7975e+08,-9.79475e+08,-9.79726e+08,-14089,0.00277669,0.063154,0,0.063215,27627.1,-35673,0,45120.1,14089
step02_gravity_refstate-crust.xmf,906,-3.86341e-07,3.84997e-06,0,-2.02876e-07,-1.02047e+09,-1.02018e+09,-1.02044e+09,-13917.3,0.00286426,0.058577,0,0.0586469,26216.8,-37155.6,0,45473.8,13917.3
step02_gravity_refstate-crust.xmf,907,-4.27134e-07,4.03856e-06,0,-1.89298e-07,-1.05909e+09,-1.05878e+09,-1.05906e+09,-12985.8,0.00282539,0.0539967,0,0.0540705,24984.5,-38561.6,0,45948.1,12985.8
step02_gravity_refstate-crust.xmf,908,-2.5399e-07,3.16542e-06,0,-7.18205e-08,-8.64667e+08,-8.64433e+08,-8.6465e+08,-4926.88,0.000909678,0.0738389,0,0.0738445,36258.9,-31482.9,0,48019.6,4926.88
step02_gravity_refstate-crust.xmf,909,-2.55621e-07,3.02506e-06,0,-2.94745e-10,-8.25209e+08,-8.24984e+08,-8.25191e+08,-20.2195,2.82315e-20,0.0779293,0,0.0779293,40000,-30046.2,0,50027.7,20.2195
step02_gravity_refstate-crust.xmf,910,-2.70776e-07,3.34553e-06,0,-1.28564e-07,-9.10692e+08,-9.10444e+08,-9.10674e+08,-8819.5,0.00170528,0.0693909,0,0.0694119,32655.6,-33158.8,0,46539.2,8819.5
step02_gravity_refstate-crust.xmf,911,-2.44763e-07,3.14441e-06,0,-3.21129e-08,-8.60337e+08,-8.60104e+08,-8.6032e+08,-2202.94,0.000403074,0.0740548,0,0.0740559,38330.6,-31325.3,0,49502.6,2202.94
step02_gravity_refstate-crust.xmf,912,-3.02548e-07,3.58353e-06,0,-1.53207e-07,-9.68349e+08,-9.68082e+08,-9.68328e+08,-10510,0.00218767,0.0634145,0,0.0634522,29743.3,-35258,0,46128,10510
step02_gravity_refstate-crust.xmf,913,-2.3453e-07,3.35502e-06,0,-7.48431e-08,-9.19352e+08,-9.19105e+08,-9.19335e+08,-5134.23,0.0010932,0.0676291,0,0.0676379,34962.5,-33474.2,0,48403.5,5134.23
step02_gravity_refstate-crust.xmf,914,-2.63332e-07,3.52796e-06,0,-1.12729e-07,-9.61226e+08,-9.60966e+08,-9.61208e+08,-7733.19,0.00168823,0.063432,0,0.0634545,31713,-34998.8,0,47229.6,7733.19
step02_gravity_refstate-crust.xmf,915,-3.36749e-07,3.81236e-06,0,-1.49604e-07,-1.0206e+09,-1.02031e+09,-1.02057e+09,-10262.8,0.00232061,0.0575346,0,0.0575813,27722.2,-37160.4,0,46361.8,10262.8
step02_gravity_refstate-crust.xmf,916,-3.55077e-07,3.98893e-06,0,-1.20901e-07,-1.06024e+09,-1.05995e+09,-1.06022e+09,-8293.81,0.0021602,0.0526041,0,0.0526484,26638.8,-38604,0,46903.1,8293.81
step02_gravity_refstate-crust.xmf,917,-2.09391e-07,3.36388e-06,0,-2.98418e-08,-9.26967e+08,-9.26722e+08,-9.26952e+08,-2047.15,0.000474564,0.0662238,0,0.0662255,37677,-33751.5,0,50583.8,2047.15
step02_gravity_refstate-crust.xmf,918,-2.23005e-07,3.25814e-06,0,-1.15875e-09,-8.95464e+08,-8.95225e+08,-8.95449e+08,-79.4903,3.31069e-20,0.0698915,0,0.0698915,40000,-32604.4,0,51604.7,79.4903
step02_gravity_refstate-crust.xmf,919,-2.30763e-07,3.48994e-06,0,-8.03495e-08,-9.57272e+08,-9.57017e+08,-9.57256e+08,-5511.98,0.00125685,0.063285,0,0.0632975,33571,-34854.9,0,48392.9,5511.98
step02_gravity_refstate-crust.xmf,920,-2.96477e-07,3.74782e-06,0,-1.19636e-07,-1.0123e+09,-1.01202e+09,-1.01228e+09,-8207.02,0.00196212,0.0578535,0,0.0578867,29159.5,-36858.3,0,46998,8207.02
step02_gravity_refstate-crust.xmf,921,-2.46994e-07,3.69763e-06,0,-8.16063e-08,-1.00944e+09,-1.00917e+09,-1.00942e+09,-5598.19,0.00149026,0.0573702,0,0.0573896,31024.6,-36754.3,0,48097.9,5598.19
step02_gravity_refstate-crust.xmf,922,-1.82874e-07,3.55871e-06,0,-3.76551e-08,-9.86721e+08,-9.86465e+08,-9.86709e+08,-2583.14,0.000726637,0.0590367,0,0.0590411,35463.9,-35927.3,0,50482.3,2583.14
step02_gravity_refstate-crust.xmf,923,-2.02087e-07,3.65052e-06,0,-5.13298e-08,-1.00674e+09,-1.00647e+09,-1.00672e+09,-3521.23,0.00105248,0.0569934,0,0.0570032,33109.8,-36656.1,0,49395.6,3521.23
step02_gravity_refstate-crust.xmf,924,-2.91838e-07,3.92166e-06,0,-7.75532e-08,-1.05741e+09,-1.05712e+09,-1.05739e+09,-5320.15,0.00164329,0.0519714,0,0.0519974,28375.6,-38501.1,0,47827.9,5320.15
step02_gravity_refstate-crust.xmf,925,-1.728e-07,3.47099e-06,0,-8.89923e-10,-9.64309e+08,-9.64059e+08,-9.64297e+08,-61.0487,1.98999e-20,0.0614573,0,0.0614573,40000,-35111.3,0,53224.1,61.0487
step02_gravity_refstate-crust.xmf,926,-2.30367e-07,3.86036e-06,0,-4.35773e-08,-1.05515e+09,-1.05486e+09,-1.05513e+09,-2989.4,0.00119959,0.0514173,0,0.0514313,30215.5,-38418.7,0,48877.1,2989.4
step02_gravity_refstate-crust.xmf,927,-1.41e-07,3.58197e-06,0,-1.05386e-08,-1.00131e+09,-1.00105e+09,-1.0013e+09,-722.948,0.000272917,0.0567921,0,0.0567928,38009.8,-36458.6,0,52668.5,722.948
step02_gravity_refstate-crust.xmf,928,-1.75876e-07,3.80357e-06,0,-2.04879e-08,-1.05287e+09,-1.05259e+09,-1.05286e+09,-1405.47,0.000828688,0.0510097,0,0.0510164,32206.6,-38335.9,0,50069,1405.47
step02_gravity_refstate-crust.xmf,929,-1.32758e-07,3.75155e-06,0,-7.87892e-09,-1.04941e+09,-1.04915e+09,-1.0494e+09,-540.494,0.000537365,0.0509219,0,0.0509248,34349.9,-38210.2,0,51380.3,540.494
step02_gravity_refstate-crust.xmf,930,-1.04445e-07,3.71285e-06,0,-3.03822e-09,-1.046e+09,-1.04574e+09,-1.04599e+09,-208.422,0.000303596,0.0510088,0,0.0510097,36567,-38086,0,52798.6,208.422
step02_gravity_refstate-crust.xmf,931,-1.00096e-07,3.65946e-06,0,-4.36413e-10,-1.03194e+09,-1.03168e+09,-1.03193e+09,-29.9379,8.3724e-21,0.0526765,0,0.0526765,40000,-37574.1,0,54880,29.9379
step02_gravity_refstate-crust.xmf,932,-8.09698e-08,3.71545e-06,0,9.62323e-10,-1.05207e+09,-1.05181e+09,-1.05206e+09,66.0154,0.000126351,0.0500261,0,0.0500263,38325.9,-38307,0,54187.6,66.0154
