Block Name,Point ID,cauchy_strain_0,cauchy_strain_1,cauchy_strain_2,cauchy_strain_3,cauchy_stress_0,cauchy_stress_1,cauchy_stress_2,cauchy_stress_3,displacement_0,displacement_1,displacement_2,displacement_Magnitude,Points_0,Points_1,Points_2,Points_Magnitude,stress_xy
step02_gravity_refstate-mantle.xmf,0,-9.022e-07,1.24931e-06,0,1.3519e-09,-1.09881e+09,-1.09852e+09,-1.09869e+09,180.681,-1.58658e-19,0.0381471,-0,0.0381471,40000,-40000,0,56568.5,-180.681
step02_gravity_refstate-mantle.xmf,1,-8.94661e-07,1.23911e-06,0,4.88589e-08,-1.09881e+09,-1.09853e+09,-1.09869e+09,6529.99,0.0021293,0.0378063,0,0.0378663,37630.7,-40000,0,54918.8,-6529.99
step02_gravity_refstate-mantle.xmf,2,-1.02995e-06,1.35935e-06,0,2.92288e-08,-1.1522e+09,-1.15188e+09,-1.15206e+09,3906.43,0.00170167,0.0358367,0,0.0358771,38351.6,-41648.7,0,56616.7,-3906.43
step02_gravity_refstate-mantle.xmf,3,-1.09405e-06,1.41869e-06,0,1.24534e-09,-1.17662e+09,-1.17628e+09,-1.17647e+09,166.439,-2.15021e-19,0.0349429,-0,0.0349429,40000,-42402.6,0,58292.2,-166.439
step02_gravity_refstate-mantle.xmf,4,-8.71951e-07,1.2064e-06,0,9.73716e-08,-1.09881e+09,-1.09853e+09,-1.09869e+09,13013.7,0.00412218,0.0368388,0,0.0370687,35375.6,-40000,0,53398.8,-13013.7
step02_gravity_refstate-mantle.xmf,5,-1.04643e-06,1.36221e-06,0,6.59158e-08,-1.16433e+09,-1.16401e+09,-1.16419e+09,8809.65,0.00397353,0.034674,0,0.034901,36241.6,-42023.2,0,55492.3,-8809.65
step02_gravity_refstate-mantle.xmf,6,-1.18105e-06,1.49461e-06,0,3.08275e-08,-1.21525e+09,-1.2149e+09,-1.2151e+09,4120.1,0.00227471,0.033004,0,0.0330823,38076.2,-43595.7,0,57882.4,-4120.1
step02_gravity_refstate-mantle.xmf,7,-1.2751e-06,1.58828e-06,0,1.18261e-09,-1.25487e+09,-1.25449e+09,-1.2547e+09,158.055,-2.54757e-19,0.0313099,-0,0.0313099,40000,-44819.1,0,60072.9,-158.055
step02_gravity_refstate-mantle.xmf,8,-8.38218e-07,1.15764e-06,0,1.47207e-07,-1.09881e+09,-1.09854e+09,-1.09869e+09,19674.2,0.00595941,0.0353091,0,0.0358085,33229,-40000,0,52001.6,-19674.2
step02_gravity_refstate-mantle.xmf,9,-9.63498e-07,1.27213e-06,0,1.09984e-07,-1.14003e+09,-1.13973e+09,-1.1399e+09,14699.4,0.00561855,0.0346042,0,0.0350574,34324.9,-41272.7,0,53680.9,-14699.4
step02_gravity_refstate-mantle.xmf,10,-1.34883e-06,1.65645e-06,0,2.84144e-08,-1.29166e+09,-1.29126e+09,-1.29148e+09,3797.58,0.00267736,0.0292746,0,0.0293968,38017.1,-45955.1,0,59642,-3797.58
step02_gravity_refstate-mantle.xmf,11,-9.58648e-07,1.24331e-06,0,1.47958e-07,-1.14861e+09,-1.14832e+09,-1.14849e+09,19774.6,0.00746774,0.0328647,0,0.0337024,32548.1,-41538,0,52771.1,-19774.6
step02_gravity_refstate-mantle.xmf,12,-1.09487e-06,1.38468e-06,0,9.91381e-08,-1.19249e+09,-1.19215e+09,-1.19234e+09,13249.8,0.00638333,0.0324318,0,0.033054,34291.5,-42892.6,0,54915.3,-13249.8
step02_gravity_refstate-mantle.xmf,13,-1.24907e-06,1.54479e-06,0,6.30551e-08,-1.25184e+09,-1.25146e+09,-1.25167e+09,8427.32,0.00523461,0.0305806,0,0.0310254,35846.8,-44725.4,0,57318,-8427.32
step02_gravity_refstate-mantle.xmf,14,-1.43766e-06,1.75397e-06,0,1.67236e-09,-1.33378e+09,-1.33336e+09,-1.33359e+09,223.51,-3.14212e-19,0.0272378,-0,0.0272378,40000,-47256,0,61912.3,-223.51
step02_gravity_refstate-mantle.xmf,15,-7.99365e-07,1.09347e-06,0,2.03685e-07,-1.0988e+09,-1.09855e+09,-1.0987e+09,27222.6,0.00763108,0.0332633,0,0.0341275,31185.8,-40000,0,50720.4,-27222.6
step02_gravity_refstate-mantle.xmf,16,-1.39797e-06,1.69284e-06,0,5.13605e-08,-1.3203e+09,-1.31988e+09,-1.32011e+09,6864.33,0.00509382,0.0273625,0,0.0278326,36372.5,-46839.5,0,59303.4,-6864.33
step02_gravity_refstate-mantle.xmf,17,-1.50532e-06,1.82122e-06,0,3.02458e-08,-1.37359e+09,-1.37315e+09,-1.37339e+09,4042.35,0.00328756,0.0248377,0,0.0250543,37816,-48485.4,0,61488.9,-4042.35
step02_gravity_refstate-mantle.xmf,18,-7.53527e-07,1.01782e-06,0,2.65409e-07,-1.0988e+09,-1.09856e+09,-1.0987e+09,35471.9,0.0091359,0.0307348,0,0.0320639,29241,-40000,0,49548.3,-35471.9
step02_gravity_refstate-mantle.xmf,19,-9.26738e-07,1.1653e-06,0,2.12936e-07,-1.15164e+09,-1.15136e+09,-1.15151e+09,28458.9,0.00973041,0.030262,0,0.0317879,30213.4,-41631.4,0,51439.5,-28458.9
step02_gravity_refstate-mantle.xmf,20,-1.0983e-06,1.34635e-06,0,1.50824e-07,-1.20767e+09,-1.20735e+09,-1.20752e+09,20157.7,0.00915656,0.0299947,0,0.0313612,31988.2,-43361.6,0,53883.9,-20157.7
step02_gravity_refstate-mantle.xmf,21,-1.23786e-06,1.49797e-06,0,1.10399e-07,-1.25938e+09,-1.25901e+09,-1.25921e+09,14754.8,0.00833995,0.0288762,0,0.0300565,33420.9,-44958.3,0,56019.6,-14754.8
step02_gravity_refstate-mantle.xmf,22,-1.36888e-06,1.64384e-06,0,8.22641e-08,-1.31618e+09,-1.31578e+09,-1.316e+09,10994.6,0.00752803,0.0268213,0,0.0278578,34584.9,-46712.4,0,58122,-10994.6
step02_gravity_refstate-mantle.xmf,23,-1.57557e-06,1.91276e-06,0,1.73407e-09,-1.41359e+09,-1.41312e+09,-1.41337e+09,231.759,-3.11412e-19,0.0227195,-0,0.0227195,40000,-49720.5,0,63813.3,-231.759
step02_gravity_refstate-mantle.xmf,24,-6.49718e-07,8.41527e-07,0,4.10319e-07,-1.09879e+09,-1.09859e+09,-1.0987e+09,54839.1,0.0116694,0.0243155,0,0.0269707,25627.4,-40000,0,47505.4,-54839.1
step02_gravity_refstate-mantle.xmf,25,-8.29828e-07,9.77443e-07,0,3.60344e-07,-1.14899e+09,-1.14875e+09,-1.14888e+09,48159.9,0.0129424,0.0245685,0,0.027769,26460,-41549.8,0,49259.7,-48159.9
step02_gravity_refstate-mantle.xmf,26,-7.65576e-07,8.68031e-07,0,4.48568e-07,-1.14155e+09,-1.14133e+09,-1.14144e+09,59951.1,0.014016,0.0213004,0,0.0254982,24758.1,-41320,0,48169.6,-59951.1
step02_gravity_refstate-mantle.xmf,27,-7.04012e-07,9.32196e-07,0,3.35006e-07,-1.0988e+09,-1.09858e+09,-1.0987e+09,44773.5,0.0104789,0.0277465,0,0.0296593,27389.7,-40000,0,48478.8,-44773.5
step02_gravity_refstate-mantle.xmf,28,-8.92423e-07,1.08419e-06,0,2.84291e-07,-1.15576e+09,-1.1555e+09,-1.15564e+09,37995.5,0.01166,0.0273366,0,0.0297194,28208.9,-41758.9,0,50393.9,-37995.5
step02_gravity_refstate-mantle.xmf,29,-1.49101e-06,1.7877e-06,0,5.8329e-08,-1.37388e+09,-1.37345e+09,-1.37369e+09,7795.68,0.00616751,0.0243205,0,0.0250904,35890.2,-48494.4,0,60330.9,-7795.68
step02_gravity_refstate-mantle.xmf,30,-1.63109e-06,1.981e-06,0,2.54251e-08,-1.45615e+09,-1.45567e+09,-1.45594e+09,3398.06,0.00324512,0.0200212,0,0.0202825,38011.5,-51035.3,0,63635.5,-3398.06
step02_gravity_refstate-mantle.xmf,31,-6.02089e-07,7.43038e-07,0,4.9915e-07,-1.09879e+09,-1.09861e+09,-1.09871e+09,66711.3,0.0127208,0.0204541,0,0.0240871,23949.7,-40000,0,46621.8,-66711.3
step02_gravity_refstate-mantle.xmf,32,-8.86782e-07,9.68129e-07,0,4.09555e-07,-1.17691e+09,-1.17666e+09,-1.17679e+09,54737,0.0147647,0.0218824,0,0.0263977,25506.3,-42411.8,0,49490.8,-54737
step02_gravity_refstate-mantle.xmf,33,-9.92155e-07,1.18838e-06,0,2.42178e-07,-1.1851e+09,-1.18481e+09,-1.18497e+09,32367.1,0.0115261,0.0277852,0,0.030081,29233,-42664.7,0,51718.9,-32367.1
step02_gravity_refstate-mantle.xmf,34,-1.08647e-06,1.28698e-06,0,2.05343e-07,-1.21466e+09,-1.21434e+09,-1.21452e+09,27444.1,0.0112729,0.027839,0,0.0300348,30181.4,-43577.5,0,53008.6,-27444.1
step02_gravity_refstate-mantle.xmf,35,-1.22094e-06,1.43506e-06,0,1.63056e-07,-1.26724e+09,-1.26688e+09,-1.26707e+09,21792.4,0.0110638,0.0268115,0,0.0290046,31310.7,-45201,0,54986.3,-21792.4
step02_gravity_refstate-mantle.xmf,36,-1.34757e-06,1.58212e-06,0,1.27195e-07,-1.32085e+09,-1.32046e+09,-1.32067e+09,16999.6,0.010414,0.0253058,0,0.0273649,32503.1,-46856.6,0,57026.3,-16999.6
step02_gravity_refstate-mantle.xmf,37,-1.46366e-06,1.72844e-06,0,9.581e-08,-1.37677e+09,-1.37634e+09,-1.37657e+09,12805,0.00945734,0.0231928,0,0.0250469,33678.5,-48583.5,0,59115.1,-12805
step02_gravity_refstate-mantle.xmf,38,-1.5729e-06,1.89609e-06,0,4.454e-08,-1.42539e+09,-1.42493e+09,-1.42518e+09,5952.77,0.00566523,0.0215525,0,0.0222846,36424.7,-50085.2,0,61929.7,-5952.77
step02_gravity_refstate-mantle.xmf,39,-1.68513e-06,2.06469e-06,0,2.32149e-09,-1.49451e+09,-1.49401e+09,-1.49428e+09,310.267,-3.55989e-19,0.0177495,-0,0.0177495,40000,-52219.9,0,65779.3,-310.267
step02_gravity_refstate-mantle.xmf,40,-7.18273e-07,7.57009e-07,0,5.50272e-07,-1.13911e+09,-1.13892e+09,-1.13902e+09,73543.9,0.0151147,0.0174497,0,0.0230856,23134.6,-41244.9,0,47290,-73543.9
step02_gravity_refstate-mantle.xmf,41,-8.46165e-07,8.64184e-07,0,5.03714e-07,-1.17692e+09,-1.17669e+09,-1.17681e+09,67321.3,0.0161411,0.0184368,0,0.0245041,23916,-42412.1,0,48690.5,-67321.3
step02_gravity_refstate-mantle.xmf,42,-9.79914e-07,1.06865e-06,0,3.61311e-07,-1.20406e+09,-1.20378e+09,-1.20392e+09,48289.2,0.0148261,0.0228041,0,0.0272,26447,-43250,0,50695.2,-48289.2
step02_gravity_refstate-mantle.xmf,43,-1.0579e-06,1.20299e-06,0,2.73451e-07,-1.21834e+09,-1.21803e+09,-1.2182e+09,36546.7,0.0133428,0.0253077,0,0.0286097,28328.4,-43690.9,0,52071.1,-36546.7
step02_gravity_refstate-mantle.xmf,44,-1.56617e-06,1.86311e-06,0,7.33838e-08,-1.4333e+09,-1.43284e+09,-1.43309e+09,9807.74,0.00844967,0.0205253,0,0.0221965,34681.7,-50329.5,0,61121.8,-9807.74
step02_gravity_refstate-mantle.xmf,45,-1.65824e-06,2.0026e-06,0,5.2758e-08,-1.49448e+09,-1.49399e+09,-1.49426e+09,7051.11,0.007176,0.0172058,0,0.0186423,35708.3,-52219.1,0,63260.7,-7051.11
step02_gravity_refstate-mantle.xmf,46,-1.7213e-06,2.12119e-06,0,2.27599e-08,-1.53504e+09,-1.53453e+09,-1.53481e+09,3041.85,0.00369379,0.0150046,0,0.0154526,37855.3,-53471.9,0,65515.4,-3041.85
step02_gravity_refstate-mantle.xmf,47,-1.76461e-06,2.21005e-06,0,2.30681e-09,-1.57679e+09,-1.57626e+09,-1.57655e+09,308.306,-3.61297e-19,0.0123172,-0,0.0123172,40000,-54761.4,0,67814.5,-308.306
step02_gravity_refstate-mantle.xmf,48,-5.58796e-07,6.39406e-07,0,6.00472e-07,-1.09879e+09,-1.09863e+09,-1.09871e+09,80253.1,0.0136492,0.0161707,0,0.0211612,22352.7,-40000,0,45821.8,-80253.1
step02_gravity_refstate-mantle.xmf,49,-9.52346e-07,9.63256e-07,0,4.58429e-07,-1.20982e+09,-1.20956e+09,-1.20969e+09,61269,0.0166566,0.0193525,0,0.0255335,24748.8,-43427.9,0,49984.9,-61269
step02_gravity_refstate-mantle.xmf,50,-1.195e-06,1.34568e-06,0,2.30633e-07,-1.27168e+09,-1.27134e+09,-1.27152e+09,30824.1,0.0135289,0.0245362,0,0.0280189,29342.2,-45338.3,0,54004.9,-30824.1
step02_gravity_refstate-mantle.xmf,51,-1.31523e-06,1.49469e-06,0,1.8478e-07,-1.32519e+09,-1.32481e+09,-1.32501e+09,24695.8,0.0132107,0.023385,0,0.0268585,30455.3,-46990.6,0,55996.8,-24695.8
step02_gravity_refstate-mantle.xmf,52,-1.42905e-06,1.64275e-06,0,1.45044e-07,-1.38021e+09,-1.37979e+09,-1.38001e+09,19385.1,0.0125186,0.0216848,0,0.0250388,31590.9,-48689.7,0,58040.3,-19385.1
step02_gravity_refstate-mantle.xmf,53,-1.5282e-06,1.78517e-06,0,1.09843e-07,-1.43449e+09,-1.43405e+09,-1.43429e+09,14680.5,0.0115273,0.0195273,0,0.0226759,32697.4,-50366.2,0,60049,-14680.5
step02_gravity_refstate-mantle.xmf,54,-1.7849e-06,2.26285e-06,0,1.58122e-08,-1.61691e+09,-1.61636e+09,-1.61667e+09,2113.3,0.00373593,0.0094681,0,0.0101785,37907.9,-56000.6,0,67624.5,-2113.3
step02_gravity_refstate-mantle.xmf,55,-1.8118e-06,2.35032e-06,0,1.1915e-09,-1.66066e+09,-1.66011e+09,-1.66042e+09,159.243,-3.36043e-19,0.00640789,-0,0.00640789,40000,-57352.3,0,69923.4,-159.243
step02_gravity_refstate-mantle.xmf,56,-6.83438e-07,6.42443e-07,0,6.6962e-07,-1.13933e+09,-1.13915e+09,-1.13924e+09,89494.7,0.0162213,0.0130694,0,0.0208312,21569.7,-41251.4,0,46550.3,-89494.7
step02_gravity_refstate-mantle.xmf,57,-8.1414e-07,7.47687e-07,0,6.20663e-07,-1.17888e+09,-1.17868e+09,-1.17878e+09,82951.6,0.0175211,0.0144643,0,0.0227201,22355,-42472.8,0,47996.7,-82951.6
step02_gravity_refstate-mantle.xmf,58,-9.22911e-07,8.49492e-07,0,5.6893e-07,-1.21706e+09,-1.21682e+09,-1.21694e+09,76037.5,0.0184093,0.0155988,0,0.0241293,23165.9,-43651.5,0,49417.7,-76037.5
step02_gravity_refstate-mantle.xmf,59,-1.04604e-06,1.06081e-06,0,4.14561e-07,-1.24626e+09,-1.24598e+09,-1.24612e+09,55406.1,0.0171495,0.0196808,0,0.0261044,25492.5,-44553.3,0,51331,-55406.1
step02_gravity_refstate-mantle.xmf,60,-1.13678e-06,1.20858e-06,0,3.27145e-07,-1.27104e+09,-1.27072e+09,-1.27088e+09,43722.9,0.0161568,0.0214808,0,0.0268788,27068.7,-45318.3,0,52786.9,-43722.9
step02_gravity_refstate-mantle.xmf,61,-1.60469e-06,1.90534e-06,0,8.39802e-08,-1.48208e+09,-1.48161e+09,-1.48187e+09,11223.9,0.0104013,0.0172862,0,0.0201742,33682.4,-51836.2,0,61818.2,-11223.9
step02_gravity_refstate-mantle.xmf,62,-1.73547e-06,2.15093e-06,0,3.64204e-08,-1.5803e+09,-1.57978e+09,-1.58006e+09,4867.59,0.00729828,0.0117285,0,0.0138139,35837.7,-54869.7,0,65536.5,-4867.59
step02_gravity_refstate-mantle.xmf,63,-1.81104e-06,2.3777e-06,0,4.22992e-09,-1.68476e+09,-1.6842e+09,-1.68452e+09,565.328,0.00346347,0.00461625,0,0.00577108,38092.5,-58096.6,0,69471.2,-565.328
step02_gravity_refstate-mantle.xmf,64,-1.82995e-06,2.49633e-06,0,7.38615e-10,-1.74637e+09,-1.74579e+09,-1.74612e+09,98.7159,1.48163e-18,-4.51706e-19,0,1.54895e-18,40000,-60000,0,72111,-98.7159
step02_gravity_refstate-mantle.xmf,65,-4.65348e-07,-1.32692e-07,0,1.60176e-06,-1.09883e+09,-1.09879e+09,-1.09877e+09,214075,0.0175831,-0.0181086,0,0.0252406,14255.3,-40000,0,42464.3,-214075
step02_gravity_refstate-mantle.xmf,66,-4.71641e-07,-3.08469e-07,0,1.85585e-06,-1.09885e+09,-1.09883e+09,-1.09878e+09,248034,0.0180979,-0.0252164,0,0.0310387,13122.5,-40000,0,42097.5,-248034
step02_gravity_refstate-mantle.xmf,67,-5.59049e-07,-2.73183e-07,0,1.82697e-06,-1.12906e+09,-1.12902e+09,-1.12899e+09,244174,0.0203349,-0.0215437,0,0.029625,13656.1,-40932.8,0,43150.7,-244174
step02_gravity_refstate-mantle.xmf,68,-4.63461e-07,2.29601e-08,0,1.37788e-06,-1.09882e+09,-1.09875e+09,-1.09876e+09,184154,0.0170461,-0.011393,0,0.0205029,15444.9,-40000,0,42878.2,-184154
step02_gravity_refstate-mantle.xmf,69,-5.72755e-07,-7.94588e-08,0,1.56831e-06,-1.13086e+09,-1.13079e+09,-1.13078e+09,209605,0.0198097,-0.0145862,0,0.0246004,14851.5,-40988.8,0,43596.4,-209605
step02_gravity_refstate-mantle.xmf,70,-4.68083e-07,1.6339e-07,0,1.18054e-06,-1.09881e+09,-1.09872e+09,-1.09875e+09,157779,0.0164787,-0.0050736,0,0.0172421,16694.2,-40000,0,43343.9,-157779
step02_gravity_refstate-mantle.xmf,71,-5.86135e-07,9.14731e-08,0,1.34027e-06,-1.13236e+09,-1.13227e+09,-1.13229e+09,179127,0.0192232,-0.00820956,0,0.0209029,16075.5,-41035.6,0,44072,-179127
step02_gravity_refstate-mantle.xmf,72,-4.80557e-07,2.92266e-07,0,1.00755e-06,-1.0988e+09,-1.0987e+09,-1.09874e+09,134659,0.0158704,0.00084587,0,0.0158929,18006.4,-40000,0,43866,-134659
step02_gravity_refstate-mantle.xmf,73,-5.97462e-07,2.42457e-07,0,1.13876e-06,-1.13316e+09,-1.13304e+09,-1.13308e+09,152196,0.01853,-0.0022381,0,0.0186647,17359,-41060.3,0,44579,-152196
step02_gravity_refstate-mantle.xmf,74,-5.30682e-07,5.27595e-07,0,7.2181e-07,-1.09879e+09,-1.09865e+09,-1.09872e+09,96469.9,0.0144718,0.0114719,0,0.0184672,20832.2,-40000,0,45099.7,-96469.9
step02_gravity_refstate-mantle.xmf,75,-5.01718e-07,4.1299e-07,0,8.55432e-07,-1.09879e+09,-1.09867e+09,-1.09873e+09,114329,0.0152066,0.00636228,0,0.0164839,19384.6,-40000,0,44449.6,-114329
step02_gravity_refstate-mantle.xmf,76,-6.61302e-07,5.13307e-07,0,8.16594e-07,-1.1391e+09,-1.13894e+09,-1.13901e+09,109138,0.0172158,0.00822157,0,0.0190782,20060.5,-41244.1,0,45864,-109138
step02_gravity_refstate-mantle.xmf,77,-6.24956e-07,3.81057e-07,0,9.67343e-07,-1.13654e+09,-1.1364e+09,-1.13645e+09,129285,0.0179352,0.00325954,0,0.018229,18695.5,-41165,0,45211.5,-129285
step02_gravity_refstate-mantle.xmf,78,-1.02247e-06,9.54235e-07,0,5.13317e-07,-1.25436e+09,-1.25409e+09,-1.25422e+09,68604.8,0.0188949,0.0165802,0,0.025138,24057.7,-44803.2,0,50853.7,-68604.8
step02_gravity_refstate-mantle.xmf,79,-1.27367e-06,1.37445e-06,0,2.64735e-07,-1.32882e+09,-1.32847e+09,-1.32865e+09,35381.8,0.0159372,0.0210056,0,0.0263671,28400.9,-47102.8,0,55002.6,-35381.8
step02_gravity_refstate-mantle.xmf,80,-1.38182e-06,1.52971e-06,0,2.07947e-07,-1.38333e+09,-1.38294e+09,-1.38314e+09,27792.1,0.0154082,0.0198269,0,0.0251102,29568.4,-48786.2,0,57047.2,-27792.1
step02_gravity_refstate-mantle.xmf,81,-1.48242e-06,1.681e-06,0,1.59717e-07,-1.43912e+09,-1.4387e+09,-1.43893e+09,21346.2,0.0146147,0.0179973,0,0.0231839,30681.3,-50509.5,0,59097.8,-21346.2
step02_gravity_refstate-mantle.xmf,82,-1.5749e-06,1.83723e-06,0,1.13908e-07,-1.49537e+09,-1.49492e+09,-1.49516e+09,15223.9,0.0133815,0.0156839,0,0.0206168,31876.1,-52246.7,0,61203,-15223.9
step02_gravity_refstate-mantle.xmf,83,-1.66523e-06,2.01123e-06,0,6.92138e-08,-1.54935e+09,-1.54886e+09,-1.54913e+09,9250.42,0.0111604,0.0131493,0,0.017247,33486.5,-53914.1,0,63467.1,-9250.42
step02_gravity_refstate-mantle.xmf,84,-1.7819e-06,2.2993e-06,0,1.69008e-08,-1.6675e+09,-1.66696e+09,-1.66726e+09,2258.79,0.00733332,0.00574883,0,0.00931808,35929.2,-57563.6,0,67856.3,-2258.79
step02_gravity_refstate-mantle.xmf,85,-1.81513e-06,2.46513e-06,0,1.47043e-09,-1.74637e+09,-1.7458e+09,-1.74613e+09,196.523,0.00484939,-5.65231e-19,0,0.00484939,37337.5,-60000,0,70668.9,-196.523
step02_gravity_refstate-mantle.xmf,86,-4.77573e-07,-5.14556e-07,0,2.14128e-06,-1.09887e+09,-1.09887e+09,-1.0988e+09,286182,0.0185927,-0.032712,0,0.0376266,12043.8,-40000,0,41773.8,-286182
step02_gravity_refstate-mantle.xmf,87,-5.46574e-07,-5.03074e-07,0,2.12852e-06,-1.12737e+09,-1.12736e+09,-1.1273e+09,284477,0.0208333,-0.0291562,0,0.0358345,12483.2,-40880,0,42743.5,-284477
step02_gravity_refstate-mantle.xmf,88,-4.74867e-07,-7.59374e-07,0,2.46299e-06,-1.09889e+09,-1.09892e+09,-1.09882e+09,329179,0.0190694,-0.0405885,0,0.0448449,11016.2,-40000,0,41489.2,-329179
step02_gravity_refstate-mantle.xmf,89,-5.26333e-07,-7.65436e-07,0,2.46007e-06,-1.12476e+09,-1.12479e+09,-1.12469e+09,328788,0.0211938,-0.037121,0,0.0427451,11382.2,-40798.8,0,42356.8,-328788
step02_gravity_refstate-mantle.xmf,90,-7.82448e-07,6.10379e-07,0,7.67313e-07,-1.18097e+09,-1.18078e+09,-1.18086e+09,102551,0.018887,0.00980805,0,0.0212819,20765,-42537,0,47334.8,-102551
step02_gravity_refstate-mantle.xmf,91,-8.84645e-07,7.06356e-07,0,7.09641e-07,-1.21992e+09,-1.21971e+09,-1.2198e+09,94843.5,0.0199594,0.0114203,0,0.0229957,21578.6,-43739.7,0,48772.9,-94843.5
step02_gravity_refstate-mantle.xmf,92,-9.75977e-07,8.09151e-07,0,6.42351e-07,-1.25969e+09,-1.25946e+09,-1.25956e+09,85850.2,0.020682,0.012777,0,0.0243105,22451.9,-44968,0,50261.4,-85850.2
step02_gravity_refstate-mantle.xmf,93,-1.11672e-06,1.08144e-06,0,4.40576e-07,-1.29205e+09,-1.29176e+09,-1.2919e+09,58883,0.0189119,0.0175214,0,0.025781,25140.4,-45967.2,0,52393,-58883
step02_gravity_refstate-mantle.xmf,94,-1.21638e-06,1.23107e-06,0,3.60382e-07,-1.33509e+09,-1.33476e+09,-1.33492e+09,48165.1,0.0185834,0.0180381,0,0.0258982,26384.8,-47296.4,0,54158.1,-48165.1
step02_gravity_refstate-mantle.xmf,95,-1.72312e-06,2.14907e-06,0,4.11517e-08,-1.61868e+09,-1.61817e+09,-1.61845e+09,5499.93,0.0103324,0.00887089,0,0.0136181,34154.8,-56055.7,0,65641.4,-5499.93
step02_gravity_refstate-mantle.xmf,96,-4.66079e-07,-1.047e-06,0,2.81717e-06,-1.09891e+09,-1.09899e+09,-1.09885e+09,376515,0.0195184,-0.0488356,0,0.0525917,10037.4,-40000,0,41240.1,-376515
step02_gravity_refstate-mantle.xmf,97,-4.82814e-07,-1.0071e-06,0,2.73937e-06,-1.11929e+09,-1.11936e+09,-1.11922e+09,366116,0.0211669,-0.0441396,0,0.0489524,10512.1,-40629.5,0,41967.4,-366116
step02_gravity_refstate-mantle.xmf,98,-5.75919e-07,-4.96835e-07,0,2.08795e-06,-1.15704e+09,-1.15703e+09,-1.15696e+09,279055,0.0227341,-0.0255055,0,0.0341668,12967.9,-41796.4,0,43761.9,-279055
step02_gravity_refstate-mantle.xmf,99,-6.12802e-07,-2.42942e-07,0,1.77626e-06,-1.16077e+09,-1.16072e+09,-1.16069e+09,237398,0.0222391,-0.0178681,0,0.028528,14237,-41912,0,44264.1,-237398
step02_gravity_refstate-mantle.xmf,100,-6.68966e-07,1.5914e-07,0,1.27972e-06,-1.16478e+09,-1.16467e+09,-1.16469e+09,171034,0.02088,-0.00501044,0,0.0214728,16780.3,-42036.6,0,45262,-171034
step02_gravity_refstate-mantle.xmf,101,-6.46807e-07,-5.55063e-08,0,1.54624e-06,-1.16915e+09,-1.16907e+09,-1.16906e+09,206655,0.0220616,-0.011746,0,0.0249936,15373,-42171,0,44885.7,-206655
step02_gravity_refstate-mantle.xmf,102,-6.77745e-07,3.08656e-07,0,1.08889e-06,-1.16047e+09,-1.16034e+09,-1.16038e+09,145530,0.0198298,0.000114118,0,0.0198302,17969.7,-41903.9,0,45594.3,-145530
step02_gravity_refstate-mantle.xmf,103,-7.52822e-07,4.39034e-07,0,9.61524e-07,-1.18015e+09,-1.17999e+09,-1.18004e+09,128508,0.0201026,0.00428742,0,0.0205547,19116.2,-42511.3,0,46611.6,-128508
step02_gravity_refstate-mantle.xmf,104,-1.06673e-06,9.26265e-07,0,5.65527e-07,-1.30018e+09,-1.29992e+09,-1.30004e+09,75582.6,0.0209928,0.0139648,0,0.0252134,23449.3,-46218.5,0,51826.8,-75582.6
step02_gravity_refstate-mantle.xmf,105,-1.32259e-06,1.38279e-06,0,2.92467e-07,-1.38597e+09,-1.38561e+09,-1.3858e+09,39088.3,0.0181406,0.017586,0,0.0252656,27579.7,-48867.9,0,56113.4,-39088.3
step02_gravity_refstate-mantle.xmf,106,-1.41674e-06,1.53901e-06,0,2.25725e-07,-1.44162e+09,-1.44123e+09,-1.44143e+09,30168.1,0.0175665,0.0162249,0,0.0239129,28667.9,-50586.6,0,58145.1,-30168.1
step02_gravity_refstate-mantle.xmf,107,-1.50799e-06,1.70013e-06,0,1.6534e-07,-1.4984e+09,-1.49798e+09,-1.4982e+09,22097.7,0.0166241,0.0142828,0,0.0219171,29791.4,-52340.5,0,60225.1,-22097.7
step02_gravity_refstate-mantle.xmf,108,-1.59443e-06,1.87127e-06,0,1.0955e-07,-1.55649e+09,-1.55603e+09,-1.55628e+09,14641.3,0.0152475,0.0117647,0,0.0192586,31006.4,-54134.7,0,62385.6,-14641.3
step02_gravity_refstate-mantle.xmf,109,-1.6677e-06,2.04002e-06,0,6.30744e-08,-1.61771e+09,-1.61721e+09,-1.61749e+09,8429.9,0.0136915,0.00848601,0,0.0161081,32171.7,-56025.6,0,64605.6,-8429.9
step02_gravity_refstate-mantle.xmf,110,-1.7286e-06,2.20978e-06,0,2.59321e-08,-1.67978e+09,-1.67926e+09,-1.67955e+09,3465.82,0.0117613,0.00464666,0,0.0126459,33418.1,-57943.1,0,66889.3,-3465.82
step02_gravity_refstate-mantle.xmf,111,-1.7726e-06,2.38297e-06,0,6.7831e-10,-1.74637e+09,-1.74581e+09,-1.74613e+09,90.6562,0.00942599,-4.58614e-19,0,0.00942599,34785.7,-60000,0,69354.5,-90.6562
step02_gravity_refstate-mantle.xmf,112,-3.92525e-07,-1.82295e-06,0,3.65671e-06,-1.09896e+09,-1.09915e+09,-1.0989e+09,488719,0.0202846,-0.0663869,0,0.0694168,8215.82,-40000,0,40835,-488719
step02_gravity_refstate-mantle.xmf,113,-2.87235e-07,-2.34718e-06,0,4.1278e-06,-1.09898e+09,-1.09925e+09,-1.09894e+09,551681,0.0205597,-0.07565,0,0.078394,7368.31,-40000,0,40673,-551681
step02_gravity_refstate-mantle.xmf,114,-2.44529e-07,-2.36372e-06,0,4.05921e-06,-1.11976e+09,-1.12004e+09,-1.11973e+09,542513,0.0222928,-0.0707169,0,0.0741475,7678.96,-40642.2,0,41361.3,-542513
step02_gravity_refstate-mantle.xmf,115,-4.4643e-07,-1.39349e-06,0,3.21534e-06,-1.09893e+09,-1.09906e+09,-1.09887e+09,429731,0.0199292,-0.0574411,0,0.0608,9104.73,-40000,0,41023.1,-429731
step02_gravity_refstate-mantle.xmf,116,-3.31216e-07,-1.8764e-06,0,3.59409e-06,-1.12805e+09,-1.12826e+09,-1.12801e+09,480350,0.0226757,-0.0607287,0,0.0648241,8612.19,-40899,0,41795.9,-480350
step02_gravity_refstate-mantle.xmf,117,-4.43999e-07,-1.3486e-06,0,3.10264e-06,-1.12444e+09,-1.12456e+09,-1.12438e+09,414668,0.0219917,-0.0512826,0,0.0557991,9653.8,-40788.1,0,41915,-414668
step02_gravity_refstate-mantle.xmf,118,-5.24051e-07,-8.1601e-07,0,2.45307e-06,-1.15526e+09,-1.1553e+09,-1.15519e+09,327853,0.0232861,-0.0338743,0,0.0411061,11723.6,-41741,0,43356.1,-327853
step02_gravity_refstate-mantle.xmf,119,-4.60446e-07,-1.18134e-06,0,2.86413e-06,-1.14857e+09,-1.14866e+09,-1.14851e+09,382791,0.0234211,-0.0432625,0,0.0491955,10498.1,-41533.7,0,42839.9,-382791
step02_gravity_refstate-mantle.xmf,120,-7.3898e-07,2.56686e-07,0,1.17727e-06,-1.19441e+09,-1.19427e+09,-1.19431e+09,157342,0.0219101,-0.00136229,0,0.0219524,17678.5,-42951.4,0,46447.3,-157342
step02_gravity_refstate-mantle.xmf,121,-8.43822e-07,5.41446e-07,0,8.78372e-07,-1.22318e+09,-1.223e+09,-1.22307e+09,117394,0.0214334,0.0067617,0,0.0224747,20034.7,-43840.4,0,48201.4,-117394
step02_gravity_refstate-mantle.xmf,122,-9.22339e-07,6.35782e-07,0,8.00451e-07,-1.26321e+09,-1.26301e+09,-1.26309e+09,106980,0.0222965,0.00859028,0,0.0238941,20885.8,-45076.7,0,49680.2,-106980
step02_gravity_refstate-mantle.xmf,123,-9.96607e-07,7.42301e-07,0,7.11804e-07,-1.30488e+09,-1.30465e+09,-1.30475e+09,95132.6,0.0228414,0.0100929,0,0.0249719,21794.6,-46363.5,0,51230.7,-95132.6
step02_gravity_refstate-mantle.xmf,124,-1.15317e-06,1.0578e-06,0,4.8145e-07,-1.34238e+09,-1.34209e+09,-1.34223e+09,64345.8,0.0209866,0.0147192,0,0.0256338,24504.4,-47521.7,0,53467.6,-64345.8
step02_gravity_refstate-mantle.xmf,125,-1.2421e-06,1.20687e-06,0,3.92502e-07,-1.39025e+09,-1.38992e+09,-1.39008e+09,52457.9,0.0207404,0.0148353,0,0.0255,25614.8,-49000.1,0,55291.3,-52457.9
step02_gravity_refstate-mantle.xmf,126,-1.21487e-07,-2.98536e-06,0,4.62185e-06,-1.09899e+09,-1.09938e+09,-1.09898e+09,617710,0.0207206,-0.0851991,0,0.0876826,6559.91,-40000,0,40534.3,-617710
step02_gravity_refstate-mantle.xmf,127,-1.12297e-07,-2.84711e-06,0,4.44828e-06,-1.11498e+09,-1.11535e+09,-1.11497e+09,594512,0.0220361,-0.0788254,0,0.0818476,6976.96,-40494.3,0,41091,-594512
step02_gravity_refstate-mantle.xmf,128,-5.81108e-07,-4.92682e-07,0,2.02848e-06,-1.18646e+09,-1.18645e+09,-1.18638e+09,271106,0.0242635,-0.0221185,0,0.0328321,13449.1,-42705.1,0,44772.8,-271106
step02_gravity_refstate-mantle.xmf,129,-5.12867e-07,-7.96641e-07,0,2.35752e-06,-1.18331e+09,-1.18335e+09,-1.18324e+09,315083,0.024729,-0.0295413,0,0.0385255,12258.5,-42607.5,0,44335.9,-315083
step02_gravity_refstate-mantle.xmf,130,-6.21258e-07,-2.82729e-07,0,1.79076e-06,-1.18823e+09,-1.18818e+09,-1.18815e+09,239334,0.0237882,-0.0166728,0,0.0290493,14413,-42760.1,0,45123.8,-239334
step02_gravity_refstate-mantle.xmf,131,-7.02486e-07,4.45524e-08,0,1.41653e-06,-1.20146e+09,-1.20136e+09,-1.20136e+09,189319,0.0232464,-0.00718208,0,0.0243306,16324.2,-43168.9,0,46152.3,-189319
step02_gravity_refstate-mantle.xmf,132,-1.07171e-06,8.58453e-07,0,6.19941e-07,-1.34773e+09,-1.34748e+09,-1.34759e+09,82855.1,0.0230744,0.0111855,0,0.0256426,22747,-47687,0,52834.4,-82855.1
step02_gravity_refstate-mantle.xmf,133,-1.33325e-06,1.3573e-06,0,3.13697e-07,-1.44352e+09,-1.44316e+09,-1.44334e+09,41925.7,0.020317,0.0141124,0,0.0247375,26686.9,-50645.4,0,57246.4,-41925.7
step02_gravity_refstate-mantle.xmf,134,-1.41747e-06,1.52022e-06,0,2.32799e-07,-1.50011e+09,-1.49971e+09,-1.49992e+09,31113.6,0.0196593,0.0126351,0,0.0233695,27729.3,-52393.2,0,59278.7,-31113.6
step02_gravity_refstate-mantle.xmf,135,-1.50154e-06,1.69338e-06,0,1.5916e-07,-1.55875e+09,-1.55832e+09,-1.55855e+09,21271.8,0.0186475,0.010512,0,0.0214064,28821.1,-54204.6,0,61390.5,-21271.8
step02_gravity_refstate-mantle.xmf,136,-1.58039e-06,1.87623e-06,0,9.35651e-08,-1.61966e+09,-1.6192e+09,-1.61945e+09,12505,0.0173008,0.00768776,0,0.0189319,29954.9,-56086.1,0,63584.2,-12505
step02_gravity_refstate-mantle.xmf,137,-1.64926e-06,2.06335e-06,0,3.97445e-08,-1.68207e+09,-1.68157e+09,-1.68185e+09,5311.86,0.0156313,0.00418899,0,0.0161829,31129.5,-58013.9,0,65838.1,-5311.86
step02_gravity_refstate-mantle.xmf,138,-1.70244e-06,2.24948e-06,0,2.93264e-10,-1.74636e+09,-1.74583e+09,-1.74613e+09,39.1948,0.0136785,-4.15261e-19,0,0.0136785,32337.8,-60000,0,68159.6,-39.1948
step02_gravity_refstate-mantle.xmf,139,1.26875e-07,-3.54197e-06,0,4.88799e-06,-1.11899e+09,-1.11948e+09,-1.11901e+09,653279,0.0223221,-0.0864605,0,0.0892955,6289.1,-40617.9,0,41101.9,-653279
step02_gravity_refstate-mantle.xmf,140,9.05229e-08,-3.1284e-06,0,4.48825e-06,-1.13818e+09,-1.13861e+09,-1.13819e+09,599855,0.0235822,-0.0765518,0,0.0801018,6988.54,-41211.4,0,41799.7,-599855
step02_gravity_refstate-mantle.xmf,141,-1.0302e-07,-2.49957e-06,0,4.01489e-06,-1.14267e+09,-1.14299e+09,-1.14266e+09,536590,0.0238371,-0.0670674,0,0.0711775,7866.07,-41350.6,0,42092.1,-536590
step02_gravity_refstate-mantle.xmf,142,-3.11081e-07,-1.71965e-06,0,3.34081e-06,-1.1538e+09,-1.15399e+09,-1.15376e+09,446500,0.0241994,-0.0525602,0,0.0578635,9348.83,-41694.9,0,42730.1,-446500
step02_gravity_refstate-mantle.xmf,143,-4.17398e-07,-1.17858e-06,0,2.74905e-06,-1.17818e+09,-1.17828e+09,-1.17812e+09,367411,0.025011,-0.038198,0,0.0456578,11022.2,-42448.6,0,43856.3,-367411
step02_gravity_refstate-mantle.xmf,144,-6.50632e-07,-1.94827e-07,0,1.67138e-06,-1.20818e+09,-1.20812e+09,-1.20809e+09,223380,0.0244146,-0.0129776,0,0.0276495,15097.5,-43376.3,0,45928.6,-223380
step02_gravity_refstate-mantle.xmf,145,-5.77097e-07,-4.70779e-07,0,1.94362e-06,-1.21421e+09,-1.21419e+09,-1.21413e+09,259765,0.0254086,-0.018864,0,0.0316457,13952.1,-43562.3,0,45742,-259765
step02_gravity_refstate-mantle.xmf,146,-8.06294e-07,3.51965e-07,0,1.07727e-06,-1.2282e+09,-1.22805e+09,-1.22809e+09,143977,0.0228485,0.00177885,0,0.0229176,18583.5,-43995.2,0,47759,-143977
step02_gravity_refstate-mantle.xmf,147,-7.49183e-07,1.30755e-07,0,1.30232e-06,-1.23398e+09,-1.23386e+09,-1.23388e+09,174054,0.0241958,-0.00364478,0,0.0244688,17172.1,-44173.5,0,47393.9,-174054
step02_gravity_refstate-mantle.xmf,148,-8.5988e-07,4.38742e-07,0,9.82241e-07,-1.26634e+09,-1.26616e+09,-1.26622e+09,131277,0.0237417,0.00407226,0,0.0240884,19395,-45173.1,0,49160.7,-131277
step02_gravity_refstate-mantle.xmf,149,-9.16241e-07,5.30493e-07,0,8.83283e-07,-1.30777e+09,-1.30757e+09,-1.30764e+09,118051,0.0244286,0.00595306,0,0.0251435,20228.9,-46452.6,0,50666.1,-118051
step02_gravity_refstate-mantle.xmf,150,-9.71344e-07,6.31896e-07,0,7.77544e-07,-1.35085e+09,-1.35063e+09,-1.35072e+09,103919,0.0248615,0.00738073,0,0.0259339,21074.8,-47783.3,0,52224.4,-103919
step02_gravity_refstate-mantle.xmf,151,-1.14944e-06,9.96177e-07,0,5.1903e-07,-1.39276e+09,-1.39248e+09,-1.39261e+09,69368.4,0.0229901,0.0118468,0,0.0258629,23775,-49077.9,0,54533.3,-69368.4
step02_gravity_refstate-mantle.xmf,152,-1.22563e-06,1.14435e-06,0,4.15036e-07,-1.44593e+09,-1.44561e+09,-1.44577e+09,55469.6,0.0228186,0.0116155,0,0.0256048,24760.5,-50720.1,0,56441.2,-55469.6
step02_gravity_refstate-mantle.xmf,153,2.36717e-06,-9.1726e-06,0,7.21756e-06,-1.09897e+09,-1.10051e+09,-1.09928e+09,964627,0.0180232,-0.135164,0,0.13636,3021.01,-40000,0,40113.9,-964627
step02_gravity_refstate-mantle.xmf,154,3.63431e-06,-1.14737e-05,0,7.35538e-06,-1.09888e+09,-1.1009e+09,-1.09937e+09,983046,0.0161616,-0.144776,0,0.145676,2394.25,-40000,0,40071.6,-983046
step02_gravity_refstate-mantle.xmf,155,3.43534e-06,-1.03856e-05,0,6.80179e-06,-1.11567e+09,-1.11752e+09,-1.11613e+09,909059,0.0174508,-0.13419,0,0.13532,2736.82,-40520,0,40612.3,-909059
step02_gravity_refstate-mantle.xmf,156,2.34969e-06,-8.48234e-06,0,6.71248e-06,-1.11597e+09,-1.11742e+09,-1.11629e+09,897123,0.019258,-0.125426,0,0.126896,3366.33,-40526.9,0,40666.5,-897123
step02_gravity_refstate-mantle.xmf,157,1.50568e-06,-7.37385e-06,0,6.79812e-06,-1.09901e+09,-1.10019e+09,-1.09921e+09,908569,0.0192783,-0.125182,0,0.126658,3670.37,-40000,0,40168,-908569
step02_gravity_refstate-mantle.xmf,158,9.57586e-08,-3.77358e-06,0,5.16494e-06,-1.09901e+09,-1.09953e+09,-1.09902e+09,690294,0.0207308,-0.0949915,0,0.0972273,5788.3,-40000,0,40416.6,-690294
step02_gravity_refstate-mantle.xmf,159,-1.25352e-07,-2.27746e-06,0,3.77169e-06,-1.15686e+09,-1.15715e+09,-1.15684e+09,504087,0.0245795,-0.0607691,0,0.0655517,8412.05,-41789.3,0,42627.6,-504087
step02_gravity_refstate-mantle.xmf,160,-2.77704e-07,-1.62339e-06,0,3.13638e-06,-1.17877e+09,-1.17895e+09,-1.17873e+09,419177,0.0254026,-0.0461379,0,0.0526688,9969.35,-42466.6,0,43621.1,-419177
step02_gravity_refstate-mantle.xmf,161,-4.88297e-07,-7.83403e-07,0,2.25216e-06,-1.21295e+09,-1.21299e+09,-1.21289e+09,301002,0.0259677,-0.0255652,0,0.0364404,12779.2,-43523.4,0,45360.7,-301002
step02_gravity_refstate-mantle.xmf,162,-3.7271e-07,-1.15634e-06,0,2.60007e-06,-1.2096e+09,-1.2097e+09,-1.20955e+09,347500,0.0263139,-0.0330232,0,0.0422251,11605.9,-43419.5,0,44943.9,-347500
step02_gravity_refstate-mantle.xmf,163,-6.75913e-07,-1.19619e-07,0,1.547e-06,-1.23864e+09,-1.23857e+09,-1.23855e+09,206757,0.025328,-0.00922309,0,0.026955,15860.7,-44317.3,0,47070,-206757
step02_gravity_refstate-mantle.xmf,164,-1.03392e-06,7.52081e-07,0,6.64459e-07,-1.39599e+09,-1.39575e+09,-1.39585e+09,88804.9,0.0249963,0.00845287,0,0.0263869,21997.2,-49177.7,0,53873.2,-88804.9
step02_gravity_refstate-mantle.xmf,165,-1.30421e-06,1.29872e-06,0,3.18952e-07,-1.50214e+09,-1.50179e+09,-1.50196e+09,42628,0.0223913,0.0106769,0,0.0248066,25739.5,-52456.2,0,58430.9,-42628
step02_gravity_refstate-mantle.xmf,166,-1.38329e-06,1.47386e-06,0,2.21341e-07,-1.56006e+09,-1.55968e+09,-1.55988e+09,29582.3,0.0216637,0.0090825,0,0.0234906,26737.7,-54245.4,0,60477,-29582.3
step02_gravity_refstate-mantle.xmf,167,-1.46361e-06,1.66384e-06,0,1.33084e-07,-1.6211e+09,-1.62068e+09,-1.62091e+09,17786.7,0.0206049,0.00674822,0,0.0216818,27789,-56130.8,0,62633,-17786.7
step02_gravity_refstate-mantle.xmf,168,-1.53897e-06,1.86351e-06,0,5.83433e-08,-1.68307e+09,-1.68261e+09,-1.68286e+09,7797.59,0.0192246,0.00372792,0,0.0195827,28876.9,-58045,0,64831.3,-7797.59
step02_gravity_refstate-mantle.xmf,169,-1.60272e-06,2.06567e-06,0,-1.27328e-10,-1.74636e+09,-1.74587e+09,-1.74614e+09,-17.0174,0.017563,-3.71778e-19,0,0.017563,29987.4,-60000,0,67076.4,-17.0174
step02_gravity_refstate-mantle.xmf,170,5.23973e-06,-1.41963e-05,0,6.96213e-06,-1.09876e+09,-1.10136e+09,-1.09946e+09,930489,0.0134996,-0.153623,0,0.154215,1785.26,-40000,0,40039.8,-930489
step02_gravity_refstate-mantle.xmf,171,4.8098e-06,-1.26472e-05,0,6.47961e-06,-1.11561e+09,-1.11794e+09,-1.11625e+09,865999,0.0148528,-0.142538,0,0.14331,2099.13,-40521.4,0,40575.8,-865999
step02_gravity_refstate-mantle.xmf,172,3.18932e-06,-9.38618e-06,0,6.31122e-06,-1.13253e+09,-1.13421e+09,-1.13296e+09,843495,0.01862,-0.124163,0,0.125551,3112,-41041.8,0,41159.6,-843495
step02_gravity_refstate-mantle.xmf,173,1.59413e-06,-6.96169e-06,0,6.36821e-06,-1.11804e+09,-1.11918e+09,-1.11825e+09,851111,0.0205912,-0.115905,0,0.11772,4019.51,-40589.5,0,40788.1,-851111
step02_gravity_refstate-mantle.xmf,174,8.734e-07,-5.91865e-06,0,6.27623e-06,-1.09902e+09,-1.09993e+09,-1.09914e+09,838819,0.0200811,-0.115069,0,0.116808,4346.07,-40000,0,40235.4,-838819
step02_gravity_refstate-mantle.xmf,175,4.18398e-07,-4.73499e-06,0,5.71938e-06,-1.09902e+09,-1.09971e+09,-1.09908e+09,764396,0.0205371,-0.104972,0,0.106963,5051.17,-40000,0,40317.7,-764396
step02_gravity_refstate-mantle.xmf,176,4.95738e-07,-4.46545e-06,0,5.38602e-06,-1.12066e+09,-1.12132e+09,-1.12072e+09,719842,0.0221873,-0.0957174,0,0.0982552,5517.15,-40669.5,0,41042,-719842
step02_gravity_refstate-mantle.xmf,177,9.88699e-07,-5.6168e-06,0,5.89549e-06,-1.12045e+09,-1.12134e+09,-1.12059e+09,787932,0.0216131,-0.10567,0,0.107858,4746.45,-40663.6,0,40939.7,-787932
step02_gravity_refstate-mantle.xmf,178,5.48274e-07,-4.20017e-06,0,5.03592e-06,-1.14299e+09,-1.14362e+09,-1.14306e+09,673051,0.0235106,-0.0867281,0,0.0898583,6019.62,-41360.4,0,41796.2,-673051
step02_gravity_refstate-mantle.xmf,179,1.74357e-07,-2.99596e-06,0,4.21192e-06,-1.1622e+09,-1.16262e+09,-1.16222e+09,562923,0.0248192,-0.0690553,0,0.0733801,7496.73,-41954.4,0,42618.9,-562923
step02_gravity_refstate-mantle.xmf,180,-6.43561e-08,-2.1813e-06,0,3.54138e-06,-1.18173e+09,-1.18201e+09,-1.18172e+09,473305,0.0257134,-0.0541788,0,0.059971,8962.67,-42558.2,0,43491.7,-473305
step02_gravity_refstate-mantle.xmf,181,-2.22502e-07,-1.58311e-06,0,2.96284e-06,-1.20575e+09,-1.20593e+09,-1.20572e+09,395984,0.0264775,-0.040821,0,0.048656,10497,-43300.6,0,44554.8,-395984
step02_gravity_refstate-mantle.xmf,182,-5.78555e-07,-4.13383e-07,0,1.81559e-06,-1.2434e+09,-1.24338e+09,-1.24333e+09,242653,0.0263111,-0.0150897,0,0.0303311,14604.1,-44464.3,0,46801.2,-242653
step02_gravity_refstate-mantle.xmf,183,-4.5223e-07,-7.58009e-07,0,2.11225e-06,-1.246e+09,-1.24604e+09,-1.24594e+09,282302,0.0270463,-0.0214157,0,0.0344983,13369.8,-44544.6,0,46507.8,-282302
step02_gravity_refstate-mantle.xmf,184,-7.89202e-07,2.07634e-07,0,1.19428e-06,-1.27041e+09,-1.27028e+09,-1.2703e+09,159616,0.0250717,-0.000817407,0,0.025085,17963,-45298.7,0,48730.3,-159616
step02_gravity_refstate-mantle.xmf,185,-6.97247e-07,-4.97263e-08,0,1.42265e-06,-1.27314e+09,-1.27305e+09,-1.27304e+09,190138,0.0261717,-0.00595448,0,0.0268405,16609.9,-45383,0,48327,-190138
step02_gravity_refstate-mantle.xmf,186,-8.23872e-07,2.95433e-07,0,1.07618e-06,-1.30843e+09,-1.30828e+09,-1.30832e+09,143832,0.0257349,0.00154889,0,0.0257814,18749.6,-46473.1,0,50112.8,-143832
step02_gravity_refstate-mantle.xmf,187,-8.54081e-07,3.69437e-07,0,9.61823e-07,-1.35288e+09,-1.35272e+09,-1.35277e+09,128548,0.0263744,0.00324088,0,0.0265728,19473.8,-47846.2,0,51657.4,-128548
step02_gravity_refstate-mantle.xmf,188,-8.96513e-07,4.76059e-07,0,8.28697e-07,-1.39773e+09,-1.39755e+09,-1.39761e+09,110755,0.0266705,0.00475217,0,0.0270906,20299.3,-49231.6,0,53252.4,-110755
step02_gravity_refstate-mantle.xmf,189,-1.09843e-06,8.88981e-07,0,5.42882e-07,-1.44749e+09,-1.44723e+09,-1.44735e+09,72556.2,0.0249792,0.00882863,0,0.0264935,22922.6,-50768.5,0,55703.6,-72556.2
step02_gravity_refstate-mantle.xmf,190,-1.16433e-06,1.04184e-06,0,4.17595e-07,-1.50313e+09,-1.50284e+09,-1.50298e+09,55811.6,0.0247731,0.00845878,0,0.0261774,23819.5,-52487.2,0,57639.2,-55811.6
step02_gravity_refstate-mantle.xmf,191,7.00341e-06,-1.72445e-05,0,5.78617e-06,-1.09863e+09,-1.10187e+09,-1.09957e+09,773321,0.00986367,-0.161034,0,0.161336,1187.64,-40000,0,40017.6,-773321
step02_gravity_refstate-mantle.xmf,192,6.31387e-06,-1.4995e-05,0,5.50624e-06,-1.11532e+09,-1.11817e+09,-1.11617e+09,735909,0.0114615,-0.149659,0,0.150097,1484.58,-40516.7,0,40543.9,-735909
step02_gravity_refstate-mantle.xmf,193,4.31558e-06,-1.1315e-05,0,6.14083e-06,-1.13284e+09,-1.13492e+09,-1.13341e+09,820722,0.0162027,-0.131802,0,0.132794,2466.16,-41053.7,0,41127.7,-820722
step02_gravity_refstate-mantle.xmf,194,2.34361e-06,-7.97278e-06,0,6.27413e-06,-1.13163e+09,-1.13301e+09,-1.13195e+09,838537,0.0201611,-0.117332,0,0.119052,3673.39,-41012,0,41176.2,-838537
step02_gravity_refstate-mantle.xmf,195,5.55095e-07,-3.8406e-06,0,4.65091e-06,-1.16354e+09,-1.16413e+09,-1.16361e+09,621594,0.024547,-0.0780252,0,0.0817954,6588.93,-41996.2,0,42509.9,-621594
step02_gravity_refstate-mantle.xmf,196,2.22113e-07,-2.83557e-06,0,3.93567e-06,-1.18479e+09,-1.1852e+09,-1.18482e+09,526002,0.0257602,-0.0621149,0,0.0672447,8021.41,-42652.9,0,43400.6,-526002
step02_gravity_refstate-mantle.xmf,197,-1.91602e-08,-2.07398e-06,0,3.30998e-06,-1.20606e+09,-1.20634e+09,-1.20606e+09,442379,0.026608,-0.0480977,0,0.054967,9517.79,-43310.4,0,44343.9,-442379
step02_gravity_refstate-mantle.xmf,198,-2.68406e-07,-1.21081e-06,0,2.46601e-06,-1.24718e+09,-1.2473e+09,-1.24714e+09,329583,0.0275709,-0.0289487,0,0.0399772,12036.2,-44580.9,0,46177.1,-329583
step02_gravity_refstate-mantle.xmf,199,-1.3643e-07,-1.61383e-06,0,2.82912e-06,-1.23482e+09,-1.23502e+09,-1.2348e+09,378112,0.0274225,-0.0368241,0,0.045913,10867.2,-44199,0,45515.4,-378112
step02_gravity_refstate-mantle.xmf,200,-5.85263e-07,-3.40209e-07,0,1.66898e-06,-1.2751e+09,-1.27506e+09,-1.27502e+09,223059,0.0270619,-0.0113608,0,0.0293499,15322.5,-45443.5,0,47957.2,-223059
step02_gravity_refstate-mantle.xmf,201,-9.47809e-07,6.00536e-07,0,6.92315e-07,-1.44448e+09,-1.44427e+09,-1.44435e+09,92528,0.0267301,0.00580194,0,0.0273525,21162,-50675.6,0,54916.7,-92528
step02_gravity_refstate-mantle.xmf,202,-1.2327e-06,1.20203e-06,0,3.02384e-07,-1.56006e+09,-1.55974e+09,-1.5599e+09,40413.6,0.0243266,0.00743569,0,0.0254377,24702.9,-54245.6,0,59605.5,-40413.6
step02_gravity_refstate-mantle.xmf,203,-1.31409e-06,1.40118e-06,0,1.826e-07,-1.62209e+09,-1.62173e+09,-1.62192e+09,24404.5,0.0235377,0.0056533,0,0.0242071,25681.4,-56161.8,0,61755,-24404.5
step02_gravity_refstate-mantle.xmf,204,-1.39472e-06,1.61068e-06,0,8.17379e-08,-1.68425e+09,-1.68385e+09,-1.68407e+09,10924.3,0.0224484,0.00316783,0,0.0226708,26681.3,-58081.9,0,63917.1,-10924.3
step02_gravity_refstate-mantle.xmf,205,-1.47078e-06,1.83073e-06,0,-5.68435e-10,-1.74635e+09,-1.74591e+09,-1.74615e+09,-75.9713,0.0210356,-3.18695e-19,0,0.0210356,27728.1,-60000,0,66097.3,-75.9713
step02_gravity_refstate-mantle.xmf,206,7.71914e-06,-1.71735e-05,0,3.72382e-06,-1.11548e+09,-1.11881e+09,-1.11651e+09,497689,0.00710292,-0.154854,0,0.155017,863.087,-40525.5,0,40534.7,-497689
step02_gravity_refstate-mantle.xmf,207,5.6615e-06,-1.32612e-05,0,5.30982e-06,-1.13281e+09,-1.13534e+09,-1.13357e+09,709658,0.012942,-0.138776,0,0.139378,1811.49,-41057,0,41097,-709658
step02_gravity_refstate-mantle.xmf,208,3.91312e-06,-1.00299e-05,0,5.69299e-06,-1.15022e+09,-1.15208e+09,-1.15074e+09,760868,0.017485,-0.121644,0,0.122895,2867.46,-41591.3,0,41690.1,-760868
step02_gravity_refstate-mantle.xmf,209,2.87727e-06,-8.39894e-06,0,5.88737e-06,-1.149e+09,-1.15051e+09,-1.14939e+09,786847,0.0198284,-0.114325,0,0.116031,3557.54,-41550.9,0,41703,-786847
step02_gravity_refstate-mantle.xmf,210,1.85645e-06,-6.77229e-06,0,5.86411e-06,-1.14261e+09,-1.14376e+09,-1.14286e+09,783738,0.0215811,-0.106912,0,0.109068,4311.56,-41350.8,0,41574.9,-783738
step02_gravity_refstate-mantle.xmf,211,1.07843e-06,-5.27583e-06,0,5.46553e-06,-1.14332e+09,-1.14417e+09,-1.14346e+09,730468,0.0228658,-0.096153,0,0.0988344,5200.55,-41371.4,0,41696.9,-730468
step02_gravity_refstate-mantle.xmf,212,5.051e-06,-1.18419e-05,0,5.18046e-06,-1.15043e+09,-1.15269e+09,-1.1511e+09,692368,0.014408,-0.128469,0,0.129275,2180.29,-41600.7,0,41657.8,-692368
step02_gravity_refstate-mantle.xmf,213,1.06774e-06,-4.89911e-06,0,5.05799e-06,-1.16609e+09,-1.16689e+09,-1.16623e+09,676000,0.0239028,-0.0868619,0,0.0900907,5711.43,-42075.7,0,42461.5,-676000
step02_gravity_refstate-mantle.xmf,214,6.02586e-07,-3.61695e-06,0,4.31389e-06,-1.18714e+09,-1.1877e+09,-1.18722e+09,576552,0.0254568,-0.0702605,0,0.0747301,7103.38,-42726,0,43312.5,-576552
step02_gravity_refstate-mantle.xmf,215,2.66092e-07,-2.68054e-06,0,3.65538e-06,-1.20914e+09,-1.20953e+09,-1.20917e+09,488541,0.026588,-0.0553798,0,0.0614316,8568.62,-43405.8,0,44243.4,-488541
step02_gravity_refstate-mantle.xmf,216,9.57804e-09,-1.98543e-06,0,3.11538e-06,-1.22798e+09,-1.22825e+09,-1.22798e+09,416370,0.0272752,-0.0430913,0,0.050998,10008.4,-43987.9,0,45112.1,-416370
step02_gravity_refstate-mantle.xmf,217,-4.42736e-07,-6.82661e-07,0,1.93965e-06,-1.27742e+09,-1.27745e+09,-1.27736e+09,259235,0.0277843,-0.0171734,0,0.0326633,14060.5,-45515.3,0,47637.6,-259235
step02_gravity_refstate-mantle.xmf,218,-2.61185e-07,-1.08488e-06,0,2.22739e-06,-1.27993e+09,-1.28004e+09,-1.27989e+09,297691,0.0282888,-0.0233202,0,0.0366618,12832.3,-45593,0,47364.5,-297691
step02_gravity_refstate-mantle.xmf,219,-7.09131e-07,3.40554e-09,0,1.30582e-06,-1.31236e+09,-1.31226e+09,-1.31226e+09,174522,0.0269848,-0.00343684,0,0.0272027,17268.1,-46594.5,0,49691.4,-174522
step02_gravity_refstate-mantle.xmf,220,-5.87855e-07,-2.78346e-07,0,1.52541e-06,-1.31072e+09,-1.31068e+09,-1.31065e+09,203872,0.0277502,-0.00815415,0,0.0289234,16008.3,-46544.1,0,49220.1,-203872
step02_gravity_refstate-mantle.xmf,221,-7.10636e-07,6.20709e-08,0,1.1708e-06,-1.35578e+09,-1.35568e+09,-1.35568e+09,156478,0.0276665,-0.00133207,0,0.0276986,17912.5,-47935.9,0,51173.3,-156478
step02_gravity_refstate-mantle.xmf,222,-7.32712e-07,1.5341e-07,0,1.01741e-06,-1.40001e+09,-1.39989e+09,-1.39991e+09,135977,0.0280508,0.000673682,0,0.0280589,18660.5,-49302.4,0,52715.6,-135977
step02_gravity_refstate-mantle.xmf,223,-7.78111e-07,2.85827e-07,0,8.53786e-07,-1.44289e+09,-1.44275e+09,-1.44278e+09,114109,0.028135,0.00242973,0,0.0282397,19505.2,-50626.9,0,54254.3,-114109
step02_gravity_refstate-mantle.xmf,224,-1.00185e-06,7.43983e-07,0,5.37303e-07,-1.50346e+09,-1.50323e+09,-1.50333e+09,71810.5,0.0267287,0.00602,0,0.0273982,22017,-52497.7,0,56927.6,-71810.5
step02_gravity_refstate-mantle.xmf,225,-1.05859e-06,8.99468e-07,0,3.92102e-07,-1.55919e+09,-1.55893e+09,-1.55905e+09,52404.4,0.0265068,0.00559477,0,0.0270908,22794.1,-54219.1,0,58815.7,-52404.4
step02_gravity_refstate-mantle.xmf,226,8.54437e-06,-1.9482e-05,0,3.26284e-06,-1.09848e+09,-1.10223e+09,-1.09963e+09,436079,0.00524624,-0.166095,0,0.166178,593.771,-40000,0,40004.4,-436079
step02_gravity_refstate-mantle.xmf,227,6.91466e-06,-1.51143e-05,0,3.89733e-06,-1.1328e+09,-1.13574e+09,-1.13372e+09,520878,0.00884895,-0.144243,0,0.144514,1160.73,-41060.2,0,41076.6,-520878
step02_gravity_refstate-mantle.xmf,228,4.51566e-06,-1.04906e-05,0,4.93777e-06,-1.16808e+09,-1.17009e+09,-1.16869e+09,659933,0.0158563,-0.118659,0,0.119714,2591.2,-42146,0,42225.6,-659933
step02_gravity_refstate-mantle.xmf,229,1.09902e-06,-4.54624e-06,0,4.64577e-06,-1.18901e+09,-1.18976e+09,-1.18915e+09,620907,0.0247397,-0.0785177,0,0.082323,6206.83,-42784.7,0,43232.5,-620907
step02_gravity_refstate-mantle.xmf,230,6.36841e-07,-3.40543e-06,0,3.98965e-06,-1.21137e+09,-1.21191e+09,-1.21146e+09,533216,0.026217,-0.0630136,0,0.0682499,7622.64,-43475.4,0,44138.6,-533216
step02_gravity_refstate-mantle.xmf,231,2.84752e-07,-2.50653e-06,0,3.3752e-06,-1.23341e+09,-1.23378e+09,-1.23345e+09,451096,0.0272806,-0.048932,0,0.0560229,9150.2,-44156.1,0,45094.2,-451096
step02_gravity_refstate-mantle.xmf,232,-1.66432e-08,-1.69227e-06,0,2.71286e-06,-1.26284e+09,-1.26307e+09,-1.26284e+09,362574,0.028133,-0.0340521,0,0.0441703,11076.9,-45065.3,0,46406.7,-362574
step02_gravity_refstate-mantle.xmf,233,2.12606e-07,-2.19291e-06,0,3.0461e-06,-1.25701e+09,-1.25734e+09,-1.25704e+09,407112,0.0279154,-0.0413908,0,0.0499246,9982.57,-44885.5,0,45982.2,-407112
step02_gravity_refstate-mantle.xmf,234,-3.50713e-08,-1.53792e-06,0,2.49938e-06,-1.28456e+09,-1.28476e+09,-1.28455e+09,334042,0.0285631,-0.0292528,0,0.040885,11708.8,-45736.3,0,47211.3,-334042
step02_gravity_refstate-mantle.xmf,235,-4.37886e-07,-6.05672e-07,0,1.77006e-06,-1.30922e+09,-1.30924e+09,-1.30916e+09,236568,0.0283661,-0.0134758,0,0.0314044,14726.6,-46497.8,0,48774.2,-236568
step02_gravity_refstate-mantle.xmf,236,-8.2804e-07,4.24138e-07,0,6.9029e-07,-1.4912e+09,-1.49103e+09,-1.49109e+09,92257.3,0.0281145,0.00355534,0,0.0283384,20341.1,-52119.2,0,55947.9,-92257.3
step02_gravity_refstate-mantle.xmf,237,-1.13167e-06,1.0883e-06,0,2.49221e-07,-1.61932e+09,-1.61902e+09,-1.61916e+09,33308.3,0.0259616,0.00453758,0,0.0263551,23688.4,-56076.4,0,60874.5,-33308.3
step02_gravity_refstate-mantle.xmf,238,-1.20671e-06,1.30093e-06,0,1.02393e-07,-1.68861e+09,-1.68828e+09,-1.68845e+09,13684.9,0.0252914,0.00238283,0,0.0254034,24506.1,-58217,0,63164.6,-13684.9
step02_gravity_refstate-mantle.xmf,239,-1.30356e-06,1.54374e-06,0,-8.72213e-10,-1.74633e+09,-1.74595e+09,-1.74616e+09,-116.571,0.0240523,-2.43378e-19,0,0.0240523,25553.8,-60000,0,65215,-116.571
step02_gravity_refstate-mantle.xmf,240,8.54422e-06,-1.83806e-05,0,1.12483e-06,-1.11503e+09,-1.11863e+09,-1.11617e+09,150333,0.00211892,-0.157781,0,0.157796,248.679,-40513.9,0,40514.6,-150333
step02_gravity_refstate-mantle.xmf,241,9.0661e-06,-2.02105e-05,0,-7.46791e-09,-1.09843e+09,-1.10234e+09,-1.09964e+09,-998.086,4.28996e-06,-0.167902,0,0.167902,0,-40000,0,40000,-998.086
step02_gravity_refstate-mantle.xmf,242,7.85065e-06,-1.64766e-05,0,1.86657e-06,-1.13277e+09,-1.13602e+09,-1.13382e+09,249466,0.00399119,-0.14763,0,0.147684,503.128,-41062,0,41065.1,-249466
step02_gravity_refstate-mantle.xmf,243,6.18785e-06,-1.34254e-05,0,4.04981e-06,-1.15041e+09,-1.15303e+09,-1.15123e+09,541256,0.0106157,-0.134058,0,0.134477,1505.79,-41603.6,0,41630.8,-541256
step02_gravity_refstate-mantle.xmf,244,5.55403e-06,-1.20678e-05,0,4.14759e-06,-1.16807e+09,-1.17042e+09,-1.16881e+09,554325,0.0122549,-0.124479,0,0.125081,1874.81,-42148.4,0,42190,-554325
step02_gravity_refstate-mantle.xmf,245,3.48248e-06,-8.90001e-06,0,5.34356e-06,-1.16868e+09,-1.17034e+09,-1.16915e+09,714167,0.0187769,-0.111494,0,0.113064,3328.07,-42161.6,0,42292.8,-714167
step02_gravity_refstate-mantle.xmf,246,2.61242e-06,-7.47927e-06,0,5.42096e-06,-1.1695e+09,-1.17084e+09,-1.16985e+09,724512,0.0209955,-0.103727,0,0.10583,4066.36,-42184.6,0,42380.1,-724512
step02_gravity_refstate-mantle.xmf,247,1.75982e-06,-6.08042e-06,0,5.32267e-06,-1.16733e+09,-1.16838e+09,-1.16757e+09,711375,0.0227486,-0.0955638,0,0.0982341,4877.18,-42115.7,0,42397.1,-711375
step02_gravity_refstate-mantle.xmf,248,1.70356e-06,-5.66593e-06,0,4.91553e-06,-1.19076e+09,-1.19174e+09,-1.19099e+09,656961,0.0235253,-0.0867149,0,0.0898494,5329.14,-42839.9,0,43170.1,-656961
step02_gravity_refstate-mantle.xmf,249,1.10735e-06,-4.25906e-06,0,4.28181e-06,-1.21288e+09,-1.2136e+09,-1.21303e+09,572265,0.0254342,-0.0708461,0,0.0752733,6690.23,-43522.8,0,44034,-572265
step02_gravity_refstate-mantle.xmf,250,6.50204e-07,-3.18588e-06,0,3.66943e-06,-1.23664e+09,-1.23715e+09,-1.23673e+09,490420,0.0268839,-0.0559843,0,0.0621046,8175.49,-44256.5,0,45005.3,-490420
step02_gravity_refstate-mantle.xmf,251,2.39823e-07,-2.07679e-06,0,2.78691e-06,-1.28725e+09,-1.28756e+09,-1.28728e+09,372471,0.0284931,-0.0357057,0,0.045681,10568.6,-45819.9,0,47023,-372471
step02_gravity_refstate-mantle.xmf,252,-2.4675e-07,-9.99548e-07,0,2.03125e-06,-1.31118e+09,-1.31128e+09,-1.31115e+09,271477,0.0288428,-0.0191104,0,0.0345993,13472.9,-46558.8,0,48468.9,-271477
step02_gravity_refstate-mantle.xmf,253,-2.07814e-08,-1.435e-06,0,2.28245e-06,-1.31407e+09,-1.31425e+09,-1.31406e+09,305049,0.0290538,-0.0246831,0,0.0381232,12311,-46648.2,0,48245.4,-305049
step02_gravity_refstate-mantle.xmf,254,-4.4328e-07,-5.19666e-07,0,1.60899e-06,-1.33822e+09,-1.33823e+09,-1.33816e+09,215041,0.0287552,-0.0103543,0,0.0305626,15361.2,-47393.7,0,49821,-215041
step02_gravity_refstate-mantle.xmf,255,-5.31749e-07,-3.16219e-07,0,1.4208e-06,-1.35736e+09,-1.35733e+09,-1.35728e+09,189890,0.028694,-0.00660613,0,0.0294447,16308.4,-47984.9,0,50680.5,-189890
step02_gravity_refstate-mantle.xmf,256,-5.43197e-07,-2.07142e-07,0,1.22195e-06,-1.40156e+09,-1.40151e+09,-1.40148e+09,163314,0.0290687,-0.0036663,0,0.029299,17107.6,-49350.4,0,52231.5,-163314
step02_gravity_refstate-mantle.xmf,257,-5.80216e-07,-7.25778e-08,0,1.03178e-06,-1.44306e+09,-1.44299e+09,-1.44298e+09,137898,0.0292171,-0.00128568,0,0.0292454,17915.6,-50632.6,0,53708.7,-137898
step02_gravity_refstate-mantle.xmf,258,-6.29858e-07,7.64211e-08,0,8.49834e-07,-1.48461e+09,-1.48452e+09,-1.48453e+09,113580,0.0292213,0.000535958,0,0.0292262,18720.9,-51916.2,0,55188.5,-113580
step02_gravity_refstate-mantle.xmf,259,-8.32679e-07,5.01568e-07,0,5.296e-07,-1.55199e+09,-1.55181e+09,-1.55188e+09,70781.1,0.0283799,0.00331676,0,0.028573,20747.8,-53997.2,0,57846.1,-70781.1
step02_gravity_refstate-mantle.xmf,260,-9.24334e-07,7.35048e-07,0,3.34556e-07,-1.61226e+09,-1.61204e+09,-1.61214e+09,44713.4,0.0278878,0.00328521,0,0.0280806,21779.5,-55859.1,0,59954.8,-44713.4
step02_gravity_refstate-mantle.xmf,261,8.49247e-06,-1.93299e-05,0,-3.19652e-06,-1.09848e+09,-1.1022e+09,-1.09962e+09,-427216,-0.00524597,-0.16609,-0,0.166173,-593.771,-40000,-0,40004.4,-427216
step02_gravity_refstate-mantle.xmf,262,8.59248e-06,-1.85449e-05,0,-1.47601e-06,-1.11125e+09,-1.11487e+09,-1.1124e+09,-197269,-0.00250026,-0.15984,-0,0.159859,-290.495,-40397,-0,40398,-197269
step02_gravity_refstate-mantle.xmf,263,7.09803e-06,-1.47221e-05,0,2.39128e-06,-1.15067e+09,-1.15359e+09,-1.15162e+09,319595,0.00598354,-0.137903,0,0.138033,811.727,-41614.6,0,41622.6,-319595
step02_gravity_refstate-mantle.xmf,264,4.99556e-06,-1.08361e-05,0,4.13744e-06,-1.18369e+09,-1.1858e+09,-1.18435e+09,552969,0.0138256,-0.116157,0,0.116977,2262.83,-42630.3,0,42690.3,-552969
step02_gravity_refstate-mantle.xmf,265,4.1059e-06,-9.57749e-06,0,4.79736e-06,-1.18177e+09,-1.1836e+09,-1.18232e+09,641167,0.0170052,-0.111269,0,0.112561,2948.96,-42568.4,0,42670.4,-641167
step02_gravity_refstate-mantle.xmf,266,1.69339e-06,-5.24003e-06,0,4.47611e-06,-1.21505e+09,-1.21597e+09,-1.21527e+09,598232,0.0241875,-0.0784039,0,0.08205,5788.5,-43591.2,0,43973.9,-598232
step02_gravity_refstate-mantle.xmf,267,1.09299e-06,-3.96281e-06,0,3.92215e-06,-1.23841e+09,-1.23908e+09,-1.23855e+09,524195,0.0260749,-0.0632165,0,0.068383,7219.99,-44312,0,44896.4,-524195
step02_gravity_refstate-mantle.xmf,268,6.54459e-07,-2.97453e-06,0,3.35604e-06,-1.26349e+09,-1.26397e+09,-1.26358e+09,448534,0.0274743,-0.0492398,0,0.0563861,8750.46,-45086.4,0,45927.8,-448534
step02_gravity_refstate-mantle.xmf,269,2.42212e-07,-1.91792e-06,0,2.52845e-06,-1.31539e+09,-1.31568e+09,-1.31543e+09,337928,0.0289512,-0.0304486,0,0.0420153,11190.9,-46689.7,0,48012.2,-337928
step02_gravity_refstate-mantle.xmf,270,-2.40542e-07,-9.12678e-07,0,1.84746e-06,-1.34116e+09,-1.34125e+09,-1.34112e+09,246913,0.0292573,-0.0155371,0,0.0331269,14072.3,-47484.9,0,49526.2,-246913
step02_gravity_refstate-mantle.xmf,271,-6.70758e-07,1.99241e-07,0,6.98052e-07,-1.52329e+09,-1.52318e+09,-1.52321e+09,93294.7,0.0291764,0.00156556,0,0.0292183,19363.8,-53111.1,0,56530.9,-93294.7
step02_gravity_refstate-mantle.xmf,272,-1.01301e-06,9.55377e-07,0,1.78948e-07,-1.66843e+09,-1.66817e+09,-1.66829e+09,23916.4,0.0272539,0.00241347,0,0.0273606,22687.8,-57593.9,0,61901.5,-23916.4
step02_gravity_refstate-mantle.xmf,273,-1.09922e-06,1.21021e-06,0,-3.76864e-09,-1.74632e+09,-1.74601e+09,-1.74617e+09,-503.678,0.0265683,-1.17259e-19,0,0.0265683,23458.4,-60000,0,64422.8,-503.678
step02_gravity_refstate-mantle.xmf,274,7.05366e-06,-1.70748e-05,0,-5.62581e-06,-1.09861e+09,-1.10183e+09,-1.09955e+09,-751890,-0.0098621,-0.161036,-0,0.161338,-1187.64,-40000,-0,40017.6,-751890
step02_gravity_refstate-mantle.xmf,275,7.79507e-06,-1.71693e-05,0,-3.56685e-06,-1.11465e+09,-1.11799e+09,-1.11569e+09,-476710,-0.00696526,-0.155425,-0,0.155581,-842.54,-40500.3,-0,40509.1,-476710
step02_gravity_refstate-mantle.xmf,276,5.18563e-06,-1.40883e-05,0,-7.04714e-06,-1.09876e+09,-1.10134e+09,-1.09946e+09,-941850,-0.0134998,-0.153623,-0,0.154215,-1785.26,-40000,-0,40039.8,-941850
step02_gravity_refstate-mantle.xmf,277,6.43008e-06,-1.50952e-05,0,-5.39906e-06,-1.11563e+09,-1.11851e+09,-1.11649e+09,-721584,-0.0112511,-0.149837,-0,0.150258,-1452.53,-40526.7,-0,40552.8,-721584
step02_gravity_refstate-mantle.xmf,278,8.0992e-06,-1.67995e-05,0,-1.08682e-06,-1.12979e+09,-1.13311e+09,-1.13087e+09,-145254,-0.00213828,-0.149753,-0,0.149768,-264.845,-40970.8,-0,40971.6,-145254
step02_gravity_refstate-mantle.xmf,279,7.57764e-06,-1.53516e-05,0,3.32453e-07,-1.15007e+09,-1.15314e+09,-1.15109e+09,44432.3,0.000882798,-0.139862,0,0.139865,117.385,-41597.7,0,41597.8,-44432.3
step02_gravity_refstate-mantle.xmf,280,6.46315e-06,-1.32989e-05,0,2.7526e-06,-1.16828e+09,-1.17092e+09,-1.16914e+09,367885,0.00779658,-0.128856,0,0.129092,1135.27,-42157.8,0,42173.1,-367885
step02_gravity_refstate-mantle.xmf,281,5.90203e-06,-1.21212e-05,0,3.05374e-06,-1.18501e+09,-1.18742e+09,-1.1858e+09,408132,0.00958846,-0.120531,0,0.120912,1492.56,-42673.8,0,42699.9,-408132
step02_gravity_refstate-mantle.xmf,282,3.50902e-06,-8.45012e-06,0,4.7875e-06,-1.19264e+09,-1.19424e+09,-1.19311e+09,639849,0.0189007,-0.103207,0,0.104924,3525.89,-42903.1,0,43047.8,-639849
step02_gravity_refstate-mantle.xmf,283,2.50578e-06,-6.88739e-06,0,4.96432e-06,-1.19229e+09,-1.19355e+09,-1.19263e+09,663481,0.0217143,-0.0946539,0,0.0971127,4469.31,-42889.6,0,43121.8,-663481
step02_gravity_refstate-mantle.xmf,284,4.48714e-06,-9.78449e-06,0,4.12596e-06,-1.19966e+09,-1.20156e+09,-1.20026e+09,551435,0.0153789,-0.107948,0,0.109038,2692.53,-43122.9,0,43206.9,-551435
step02_gravity_refstate-mantle.xmf,285,2.38426e-06,-6.40703e-06,0,4.57254e-06,-1.21657e+09,-1.21774e+09,-1.21688e+09,611121,0.0223248,-0.0860067,0,0.0888569,4878.46,-43639.8,0,43911.6,-611121
step02_gravity_refstate-mantle.xmf,286,1.63458e-06,-4.85686e-06,0,4.09961e-06,-1.23988e+09,-1.24075e+09,-1.2401e+09,547913,0.0247966,-0.0704867,0,0.0747211,6274.51,-44358.9,0,44800.4,-547913
step02_gravity_refstate-mantle.xmf,287,1.06321e-06,-3.67533e-06,0,3.57961e-06,-1.26493e+09,-1.26556e+09,-1.26507e+09,478415,0.0266538,-0.0559251,0,0.0619519,7776.43,-45132,0,45797,-478415
step02_gravity_refstate-mantle.xmf,288,5.91603e-07,-2.68509e-06,0,3.04232e-06,-1.2891e+09,-1.28954e+09,-1.28918e+09,406606,0.0280514,-0.0423724,0,0.0508163,9454.29,-45877.9,0,46841.9,-406606
step02_gravity_refstate-mantle.xmf,289,5.59447e-07,-2.48807e-06,0,2.76897e-06,-1.31694e+09,-1.31735e+09,-1.31702e+09,370073,0.0285144,-0.0365094,0,0.0463251,10068.4,-46738.3,0,47810.4,-370073
step02_gravity_refstate-mantle.xmf,290,5.74687e-09,-1.36064e-06,0,2.08034e-06,-1.3453e+09,-1.34548e+09,-1.3453e+09,278038,0.0294682,-0.0208219,0,0.0360822,12834.8,-47613.4,0,49312.9,-278038
step02_gravity_refstate-mantle.xmf,291,2.77817e-07,-1.84608e-06,0,2.31198e-06,-1.34613e+09,-1.34641e+09,-1.34616e+09,308996,0.0293115,-0.0263376,0,0.039406,11646.9,-47639.5,0,49042.6,-308996
step02_gravity_refstate-mantle.xmf,292,-2.73064e-07,-7.67815e-07,0,1.64347e-06,-1.37037e+09,-1.37044e+09,-1.37034e+09,219649,0.029525,-0.0117881,0,0.0317913,14820,-48387.6,0,50606.3,-219649
step02_gravity_refstate-mantle.xmf,293,-3.1629e-07,-6.18338e-07,0,1.43319e-06,-1.40464e+09,-1.40468e+09,-1.40459e+09,191545,0.0297547,-0.00828028,0,0.0308853,15610.4,-49446,0,51851.7,-191545
step02_gravity_refstate-mantle.xmf,294,-3.46594e-07,-4.78403e-07,0,1.21844e-06,-1.44448e+09,-1.4445e+09,-1.44443e+09,162844,0.0299487,-0.00531269,0,0.0304163,16372.3,-50677,0,53256.1,-162844
step02_gravity_refstate-mantle.xmf,295,-3.98318e-07,-3.14753e-07,0,1.00758e-06,-1.4849e+09,-1.48489e+09,-1.48484e+09,134663,0.0300203,-0.00280422,0,0.030151,17172.1,-51925.5,0,54691.3,-134663
step02_gravity_refstate-mantle.xmf,296,-4.671e-07,-1.34254e-07,0,8.08463e-07,-1.52493e+09,-1.52488e+09,-1.52486e+09,108051,0.0299704,-0.000843789,0,0.0299823,17990.5,-53162,0,56123.6,-108051
step02_gravity_refstate-mantle.xmf,297,-5.82407e-07,1.11089e-07,0,6.13076e-07,-1.56374e+09,-1.56365e+09,-1.56367e+09,81937.6,0.0296847,0.000839157,0,0.0296965,19018.4,-54360.9,0,57591.7,-81937.6
step02_gravity_refstate-mantle.xmf,298,-6.79462e-07,3.33658e-07,0,4.27839e-07,-1.60901e+09,-1.60887e+09,-1.60892e+09,57180.7,0.0293551,0.00163131,0,0.0294004,19929.1,-55759,0,59213.5,-57180.7
step02_gravity_refstate-mantle.xmf,299,-7.87266e-07,5.77348e-07,0,2.51522e-07,-1.6583e+09,-1.65811e+09,-1.65819e+09,33615.9,0.0288591,0.00169599,0,0.0289089,20872.7,-57281.5,0,60965.9,-33615.9
step02_gravity_refstate-mantle.xmf,300,4.82302e-06,-1.26566e-05,0,-6.49788e-06,-1.11607e+09,-1.11841e+09,-1.11672e+09,-868442,-0.0147241,-0.142669,-0,0.143427,-2073.9,-40535.9,-0,40589,-868442
step02_gravity_refstate-mantle.xmf,301,7.009e-06,-1.40682e-05,0,1.05369e-06,-1.16798e+09,-1.1708e+09,-1.16891e+09,140825,0.00291944,-0.131377,0,0.131409,413.544,-42150.2,0,42152.3,-140825
step02_gravity_refstate-mantle.xmf,302,5.32515e-06,-1.09423e-05,0,3.23669e-06,-1.2017e+09,-1.20388e+09,-1.20241e+09,432584,0.0114378,-0.112393,0,0.112974,1902.64,-43188.7,0,43230.6,-432584
step02_gravity_refstate-mantle.xmf,303,2.26399e-06,-5.84581e-06,0,4.15394e-06,-1.24119e+09,-1.24228e+09,-1.2415e+09,555174,0.0229982,-0.077508,0,0.0808481,5351.87,-44401.2,0,44722.6,-555174
step02_gravity_refstate-mantle.xmf,304,1.55882e-06,-4.4825e-06,0,3.74324e-06,-1.26582e+09,-1.26663e+09,-1.26603e+09,500285,0.0253831,-0.062792,0,0.0677284,6799.29,-45160.6,0,45669.6,-500285
step02_gravity_refstate-mantle.xmf,305,1.01062e-06,-3.38452e-06,0,3.25527e-06,-1.29176e+09,-1.29235e+09,-1.2919e+09,435067,0.0272008,-0.0489721,0,0.0560192,8373.02,-45961.2,0,46717.6,-435067
step02_gravity_refstate-mantle.xmf,306,5.27053e-07,-2.29246e-06,0,2.51364e-06,-1.34341e+09,-1.34379e+09,-1.34348e+09,335948,0.0289045,-0.0313776,0,0.0426618,10663.3,-47556.1,0,48737,-335948
step02_gravity_refstate-mantle.xmf,307,9.43458e-09,-1.25375e-06,0,1.86318e-06,-1.37784e+09,-1.37801e+09,-1.37784e+09,249014,0.0298071,-0.0169773,0,0.034303,13426.4,-48618.8,0,50438.6,-249014
step02_gravity_refstate-mantle.xmf,308,-8.85475e-07,8.02239e-07,0,1.09859e-07,-1.70481e+09,-1.70459e+09,-1.70469e+09,14682.6,0.0282745,0.001066,0,0.0282946,21705.5,-58718.3,0,62601.6,-14682.6
step02_gravity_refstate-mantle.xmf,309,3.64199e-06,-1.14776e-05,0,-7.35744e-06,-1.09888e+09,-1.1009e+09,-1.09937e+09,-983322,-0.0161608,-0.144777,-0,0.145677,-2394.25,-40000,-0,40071.6,-983322
step02_gravity_refstate-mantle.xmf,310,5.997e-06,-1.36595e-05,0,-4.93723e-06,-1.13479e+09,-1.13742e+09,-1.13559e+09,-659861,-0.0119696,-0.139418,-0,0.139931,-1653.65,-41119.4,-0,41152.6,-659861
step02_gravity_refstate-mantle.xmf,311,7.15553e-06,-1.53916e-05,0,-3.42551e-06,-1.13363e+09,-1.13665e+09,-1.13459e+09,-457819,-0.00775865,-0.144835,-0,0.145043,-1008.32,-41086.9,-0,41099.2,-457819
step02_gravity_refstate-mantle.xmf,312,7.33727e-06,-1.49395e-05,0,-1.76002e-06,-1.15089e+09,-1.15387e+09,-1.15187e+09,-235226,-0.00420954,-0.13867,-0,0.138734,-566.15,-41622.5,-0,41626.3,-235226
step02_gravity_refstate-mantle.xmf,313,7.14942e-06,-1.4285e-05,0,-5.08563e-07,-1.16579e+09,-1.16866e+09,-1.16675e+09,-67969.5,-0.00128854,-0.13264,-0,0.132647,-181.029,-42083.1,-0,42083.5,-67969.5
step02_gravity_refstate-mantle.xmf,314,6.49736e-06,-1.29122e-05,0,1.52293e-06,-1.18596e+09,-1.18855e+09,-1.18683e+09,203539,0.00466312,-0.123258,0,0.123347,703.781,-42705.2,0,42711,-203539
step02_gravity_refstate-mantle.xmf,315,6.03088e-06,-1.19191e-05,0,2.04797e-06,-1.20146e+09,-1.20385e+09,-1.20226e+09,273711,0.0068932,-0.116123,0,0.116327,1101.88,-43183.3,0,43197.4,-273711
step02_gravity_refstate-mantle.xmf,316,3.19279e-06,-7.5655e-06,0,4.39893e-06,-1.21757e+09,-1.219e+09,-1.21799e+09,587917,0.0199003,-0.0929597,0,0.0950659,4013.71,-43673.2,0,43857.2,-587917
step02_gravity_refstate-mantle.xmf,317,4.02991e-06,-8.78124e-06,0,3.99524e-06,-1.21906e+09,-1.22077e+09,-1.2196e+09,533964,0.0167992,-0.0990243,0,0.100439,3162.3,-43721.8,0,43836,-533964
step02_gravity_refstate-mantle.xmf,318,4.81807e-06,-9.89869e-06,0,3.31697e-06,-1.21996e+09,-1.22193e+09,-1.2206e+09,443313,0.0131298,-0.104064,0,0.104889,2337.65,-43752,0,43814.4,-443313
step02_gravity_refstate-mantle.xmf,319,2.95307e-06,-6.9359e-06,0,4.0725e-06,-1.24252e+09,-1.24384e+09,-1.24291e+09,544290,0.0206255,-0.0840548,0,0.0865483,4449.69,-44443.9,0,44666.1,-544290
step02_gravity_refstate-mantle.xmf,320,2.15015e-06,-5.39645e-06,0,3.8013e-06,-1.26676e+09,-1.26777e+09,-1.26705e+09,508043,0.0235764,-0.0696088,0,0.0734931,5820.79,-45191.4,0,45564.7,-508043
step02_gravity_refstate-mantle.xmf,321,1.48298e-06,-4.13675e-06,0,3.39951e-06,-1.29355e+09,-1.2943e+09,-1.29375e+09,454344,0.0259186,-0.0553956,0,0.0611592,7343.71,-46017.6,0,46599.9,-454344
step02_gravity_refstate-mantle.xmf,322,9.41953e-07,-3.0927e-06,0,2.94237e-06,-1.31956e+09,-1.3201e+09,-1.31969e+09,393248,0.0277292,-0.0422754,0,0.0505581,9016.68,-46820.2,0,47680.5,-393248
step02_gravity_refstate-mantle.xmf,323,8.5345e-07,-2.8182e-06,0,2.65788e-06,-1.34776e+09,-1.34825e+09,-1.34787e+09,355226,0.0282312,-0.0360053,0,0.0457535,9693.97,-47691.2,0,48666.5,-355226
step02_gravity_refstate-mantle.xmf,324,3.33602e-07,-1.79456e-06,0,2.08191e-06,-1.38118e+09,-1.38147e+09,-1.38123e+09,278247,0.0296042,-0.0224857,0,0.0371755,12060.1,-48722.9,0,50193.3,-278247
step02_gravity_refstate-mantle.xmf,325,6.83512e-07,-2.38889e-06,0,2.32874e-06,-1.37537e+09,-1.37579e+09,-1.37547e+09,311236,0.0289144,-0.0289426,0,0.0409111,10688,-48544.3,0,49707,-311236
step02_gravity_refstate-mantle.xmf,326,-3.49426e-08,-1.08451e-06,0,1.637e-06,-1.40901e+09,-1.40915e+09,-1.40901e+09,218785,0.0300573,-0.0130785,0,0.0327794,14161.9,-49582,0,51564.8,-218785
step02_gravity_refstate-mantle.xmf,327,-8.01693e-08,-9.24369e-07,0,1.40521e-06,-1.44593e+09,-1.44604e+09,-1.44592e+09,187807,0.0302745,-0.00952448,0,0.0317374,14899.6,-50722.3,0,52865.4,-187807
step02_gravity_refstate-mantle.xmf,328,-1.24196e-07,-7.60983e-07,0,1.17195e-06,-1.48588e+09,-1.48597e+09,-1.48586e+09,156631,0.0304304,-0.00647653,0,0.031112,15628.4,-51956.6,0,54256.2,-156631
step02_gravity_refstate-mantle.xmf,329,-1.92613e-07,-5.69998e-07,0,9.43515e-07,-1.52648e+09,-1.52653e+09,-1.52646e+09,126101,0.0305002,-0.00387115,0,0.0307449,16411.4,-53210.9,0,55684.2,-126101
step02_gravity_refstate-mantle.xmf,330,-2.88463e-07,-3.45652e-07,0,7.23461e-07,-1.56742e+09,-1.56742e+09,-1.56738e+09,96690.6,0.0304623,-0.00174786,0,0.0305124,17273.5,-54475.2,0,57148.2,-96690.6
step02_gravity_refstate-mantle.xmf,331,-3.98926e-07,-1.0346e-07,0,5.14967e-07,-1.60996e+09,-1.60992e+09,-1.60991e+09,68825.3,0.0303077,-0.000247134,0,0.0303087,18169.3,-55789.3,0,58673.4,-68825.3
step02_gravity_refstate-mantle.xmf,332,-5.26727e-07,1.66198e-07,0,3.14716e-07,-1.65579e+09,-1.6557e+09,-1.65572e+09,42061.7,0.0299966,0.000588851,0,0.0300024,19131.2,-57204.8,0,60319.1,-42061.7
step02_gravity_refstate-mantle.xmf,333,-6.71231e-07,4.59835e-07,0,1.39505e-07,-1.70202e+09,-1.70187e+09,-1.70193e+09,18644.9,0.0294718,0.000667751,0,0.0294794,20162.2,-58632.5,0,62002.3,-18644.9
step02_gravity_refstate-mantle.xmf,334,-8.52247e-07,8.11696e-07,0,-2.41703e-09,-1.7463e+09,-1.74607e+09,-1.74618e+09,-323.035,0.0285373,-7.8384e-20,0,0.0285373,21436.1,-60000,0,63714.3,-323.035
step02_gravity_refstate-mantle.xmf,335,2.37487e-06,-9.18055e-06,0,-7.22285e-06,-1.09897e+09,-1.10051e+09,-1.09928e+09,-965334,-0.0180225,-0.135165,-0,0.136361,-3021.01,-40000,-0,40113.9,-965334
step02_gravity_refstate-mantle.xmf,336,3.55067e-06,-1.05167e-05,0,-6.76253e-06,-1.11678e+09,-1.11866e+09,-1.11725e+09,-903813,-0.0173221,-0.134325,-0,0.135438,-2700.11,-40554.6,-0,40644.4,-903813
step02_gravity_refstate-mantle.xmf,337,4.56298e-06,-1.14821e-05,0,-5.92328e-06,-1.1353e+09,-1.13744e+09,-1.13591e+09,-791647,-0.0156492,-0.132185,-0,0.133108,-2353.97,-41131.1,-0,41198.4,-791647
step02_gravity_refstate-mantle.xmf,338,6.71644e-06,-1.32459e-05,0,-1.29366e-07,-1.18449e+09,-1.18715e+09,-1.18538e+09,-17289.7,-0.000382912,-0.124765,-0,0.124766,-57.0591,-42660.3,-0,42660.4,-17289.7
step02_gravity_refstate-mantle.xmf,339,5.47492e-06,-1.08108e-05,0,2.34755e-06,-1.2209e+09,-1.22308e+09,-1.22163e+09,313750,0.00888466,-0.107761,0,0.108126,1519.2,-43783.1,0,43809.5,-313750
step02_gravity_refstate-mantle.xmf,340,2.74771e-06,-6.30804e-06,0,3.72807e-06,-1.26708e+09,-1.26829e+09,-1.26745e+09,498257,0.0213355,-0.0758581,0,0.0788014,4904.42,-45202.9,0,45468.2,-498257
step02_gravity_refstate-mantle.xmf,341,2.04891e-06,-4.99596e-06,0,3.44205e-06,-1.29573e+09,-1.29667e+09,-1.296e+09,460030,0.0240309,-0.0618663,0,0.0663696,6284.57,-46086.4,0,46513,-460030
step02_gravity_refstate-mantle.xmf,342,1.38588e-06,-3.79116e-06,0,3.08e-06,-1.32136e+09,-1.32206e+09,-1.32155e+09,411642,0.0264748,-0.0483343,0,0.0551101,7939.62,-46877,0,47544.7,-411642
step02_gravity_refstate-mantle.xmf,343,2.79711e-07,-1.59676e-06,0,1.8309e-06,-1.41248e+09,-1.41273e+09,-1.41252e+09,244700,0.0299153,-0.0179856,0,0.0349057,12773.7,-49689.9,0,51305.5,-244700
step02_gravity_refstate-mantle.xmf,344,2.39868e-06,-8.53946e-06,0,-6.6973e-06,-1.11711e+09,-1.11857e+09,-1.11743e+09,-895094,-0.0192384,-0.125344,-0,0.126811,-3350.59,-40562.2,-0,40700.4,-895094
step02_gravity_refstate-mantle.xmf,345,5.40462e-06,-1.21473e-05,0,-4.70819e-06,-1.15458e+09,-1.15692e+09,-1.1553e+09,-629249,-0.0132831,-0.128627,-0,0.129311,-1988.53,-41730.5,-0,41777.9,-629249
step02_gravity_refstate-mantle.xmf,346,6.51411e-06,-1.37709e-05,0,-3.42454e-06,-1.15373e+09,-1.15644e+09,-1.1546e+09,-457689,-0.00901515,-0.134224,-0,0.134527,-1267.63,-41707.7,-0,41726.9,-457689
step02_gravity_refstate-mantle.xmf,347,6.68775e-06,-1.33387e-05,0,-1.91102e-06,-1.17519e+09,-1.17786e+09,-1.17608e+09,-255408,-0.0053685,-0.127385,-0,0.127498,-786.153,-42372.6,-0,42379.9,-255408
step02_gravity_refstate-mantle.xmf,348,6.33382e-06,-1.23358e-05,0,5.78096e-07,-1.20256e+09,-1.20506e+09,-1.20341e+09,77262.5,0.00191991,-0.117493,0,0.117509,302.081,-43218.4,0,43219.5,-77262.5
step02_gravity_refstate-mantle.xmf,349,5.93508e-06,-1.14107e-05,0,1.15727e-06,-1.22108e+09,-1.2234e+09,-1.22188e+09,154669,0.00426389,-0.110108,0,0.11019,711.142,-43790.3,0,43796,-154669
step02_gravity_refstate-mantle.xmf,350,3.69943e-06,-7.96673e-06,0,3.73582e-06,-1.24272e+09,-1.24428e+09,-1.24321e+09,499292,0.0177214,-0.0900854,0,0.091812,3576.72,-44452.4,0,44596.1,-499292
step02_gravity_refstate-mantle.xmf,351,4.41552e-06,-8.99337e-06,0,3.20966e-06,-1.24223e+09,-1.24402e+09,-1.24282e+09,428971,0.0142774,-0.0954086,0,0.096471,2722.42,-44439.6,0,44522.9,-428971
step02_gravity_refstate-mantle.xmf,352,5.01759e-06,-9.84943e-06,0,2.47197e-06,-1.24176e+09,-1.24374e+09,-1.24243e+09,330379,0.0104635,-0.0995119,0,0.100061,1911.32,-44426.7,0,44467.8,-330379
step02_gravity_refstate-mantle.xmf,353,3.43364e-06,-7.27755e-06,0,3.44379e-06,-1.26978e+09,-1.27121e+09,-1.27024e+09,460263,0.018399,-0.081215,0,0.083273,3974.98,-45288.3,0,45462.4,-460263
step02_gravity_refstate-mantle.xmf,354,2.75602e-06,-6.04781e-06,0,3.31773e-06,-1.29972e+09,-1.3009e+09,-1.30009e+09,443415,0.0211335,-0.0683581,0,0.0715504,5108.36,-46212,0,46493.4,-443415
step02_gravity_refstate-mantle.xmf,355,1.89476e-06,-4.55866e-06,0,3.13099e-06,-1.32337e+09,-1.32424e+09,-1.32363e+09,418457,0.0246984,-0.0542902,0,0.0596443,6865.8,-46940.6,0,47440,-418457
step02_gravity_refstate-mantle.xmf,356,1.28418e-06,-3.45788e-06,0,2.76836e-06,-1.35083e+09,-1.35147e+09,-1.35101e+09,369992,0.0270236,-0.0415096,0,0.049531,8578.77,-47787.5,0,48551.5,-369992
step02_gravity_refstate-mantle.xmf,357,1.17423e-06,-3.1521e-06,0,2.47521e-06,-1.38203e+09,-1.3826e+09,-1.38218e+09,330812,0.0275498,-0.0350333,0,0.0445682,9248.6,-48751.1,0,49620.6,-330812
step02_gravity_refstate-mantle.xmf,358,6.32207e-07,-2.15779e-06,0,2.01565e-06,-1.41313e+09,-1.4135e+09,-1.41321e+09,269392,0.029307,-0.023184,0,0.0373684,11415.4,-49710.8,0,51004.7,-269392
step02_gravity_refstate-mantle.xmf,359,2.31372e-07,-1.41492e-06,0,1.58323e-06,-1.44694e+09,-1.44716e+09,-1.44697e+09,211599,0.0301756,-0.0139512,0,0.0332446,13470,-50754.5,0,52511.6,-211599
step02_gravity_refstate-mantle.xmf,360,1.86369e-07,-1.25071e-06,0,1.33209e-06,-1.48667e+09,-1.48686e+09,-1.4867e+09,178034,0.030387,-0.0103519,0,0.0321019,14131.3,-51981.8,0,53868.4,-178034
step02_gravity_refstate-mantle.xmf,361,1.22917e-07,-1.05778e-06,0,1.08053e-06,-1.52743e+09,-1.52759e+09,-1.52745e+09,144413,0.0305579,-0.00715343,0,0.0313841,14843.9,-53241,0,55271.6,-144413
step02_gravity_refstate-mantle.xmf,362,3.17154e-08,-8.32641e-07,0,8.34471e-07,-1.56905e+09,-1.56917e+09,-1.56906e+09,111527,0.030678,-0.00441024,0,0.0309934,15627.8,-54526.6,0,56722,-111527
step02_gravity_refstate-mantle.xmf,363,-7.62742e-08,-5.89374e-07,0,5.98466e-07,-1.61205e+09,-1.61212e+09,-1.61204e+09,79984.9,0.0307235,-0.00226893,0,0.0308072,16442,-55854.7,0,58224.5,-79984.9
step02_gravity_refstate-mantle.xmf,364,-2.18581e-07,-3.01954e-07,0,3.7758e-07,-1.65538e+09,-1.65539e+09,-1.65535e+09,50463.5,0.0306507,-0.000727719,0,0.0306594,17374.5,-57192.9,0,59773.7,-50463.5
step02_gravity_refstate-mantle.xmf,365,-3.75162e-07,5.93452e-09,0,1.75399e-07,-1.70045e+09,-1.7004e+09,-1.7004e+09,23442.1,0.0304172,4.88709e-05,0,0.0304173,18353,-58584.9,0,61392.4,-23442.1
step02_gravity_refstate-mantle.xmf,366,-5.61044e-07,3.60629e-07,0,-2.56499e-09,-1.74627e+09,-1.74615e+09,-1.7462e+09,-342.811,0.0299169,-1.92769e-20,0,0.0299169,19481,-60000,0,63083.3,-342.811
step02_gravity_refstate-mantle.xmf,367,1.51976e-06,-7.39001e-06,0,-6.79202e-06,-1.099e+09,-1.10019e+09,-1.09921e+09,-907754,-0.0192786,-0.125183,-0,0.126659,-3670.37,-40000,-0,40168,-907754
step02_gravity_refstate-mantle.xmf,368,3.41477e-06,-9.64113e-06,0,-6.20929e-06,-1.13563e+09,-1.13737e+09,-1.13609e+09,-829872,-0.018298,-0.124341,-0,0.12568,-3022.51,-41138.3,-0,41249.2,-829872
step02_gravity_refstate-mantle.xmf,369,4.23422e-06,-1.0389e-05,0,-5.47224e-06,-1.1546e+09,-1.15655e+09,-1.15516e+09,-731365,-0.01664,-0.122138,-0,0.123267,-2685.62,-41727.7,-0,41814.1,-731365
step02_gravity_refstate-mantle.xmf,370,6.33579e-06,-1.23978e-05,0,-9.92751e-07,-1.19947e+09,-1.20197e+09,-1.20031e+09,-132681,-0.00326964,-0.118398,-0,0.118443,-510.901,-43122.7,-0,43125.7,-132681
step02_gravity_refstate-mantle.xmf,371,5.45011e-06,-1.04511e-05,0,1.56691e-06,-1.24202e+09,-1.24415e+09,-1.24275e+09,209418,0.00641164,-0.102069,0,0.102271,1140.08,-44436.2,0,44450.8,-209418
step02_gravity_refstate-mantle.xmf,372,3.09822e-06,-6.65798e-06,0,3.37854e-06,-1.28426e+09,-1.28556e+09,-1.28467e+09,451542,0.0197258,-0.0749809,0,0.0775322,4497.27,-45735,0,45955.6,-451542
step02_gravity_refstate-mantle.xmf,373,2.47221e-06,-5.4003e-06,0,3.05928e-06,-1.32538e+09,-1.32643e+09,-1.32571e+09,408872,0.022262,-0.0601563,0,0.0641434,5762.54,-47004.1,0,47356,-408872
step02_gravity_refstate-mantle.xmf,374,1.74965e-06,-4.15696e-06,0,2.82994e-06,-1.35241e+09,-1.3532e+09,-1.35264e+09,378221,0.0253383,-0.0470751,0,0.0534611,7473.64,-47837.4,0,48417.7,-378221
step02_gravity_refstate-mantle.xmf,375,1.0358e-06,-2.77834e-06,0,2.16279e-06,-1.41385e+09,-1.41436e+09,-1.41399e+09,289057,0.0281967,-0.0285223,0,0.0401071,10075.2,-49734.2,0,50744.5,-289057
step02_gravity_refstate-mantle.xmf,376,5.67886e-07,-1.93954e-06,0,1.74373e-06,-1.44774e+09,-1.44807e+09,-1.44781e+09,233049,0.0296418,-0.0184392,0,0.0349091,12109,-50779.9,0,52203.7,-233049
step02_gravity_refstate-mantle.xmf,377,8.77785e-07,-5.9215e-06,0,-6.27423e-06,-1.09902e+09,-1.09993e+09,-1.09914e+09,-838550,-0.0200802,-0.11507,-0,0.116809,-4346.07,-40000,-0,40235.4,-838550
step02_gravity_refstate-mantle.xmf,378,1.59408e-06,-6.95571e-06,0,-6.36899e-06,-1.11728e+09,-1.11842e+09,-1.11749e+09,-851216,-0.0205663,-0.116086,-0,0.117894,-4018.23,-40566,-0,40764.6,-851216
step02_gravity_refstate-mantle.xmf,379,2.38974e-06,-7.93788e-06,0,-6.19354e-06,-1.13596e+09,-1.13734e+09,-1.13628e+09,-827767,-0.0202343,-0.115989,-0,0.117741,-3695.32,-41146,-0,41311.6,-827767
step02_gravity_refstate-mantle.xmf,380,4.87073e-06,-1.08657e-05,0,-4.51593e-06,-1.17434e+09,-1.17644e+09,-1.17499e+09,-603554,-0.0145893,-0.118546,-0,0.11944,-2360.69,-42340.6,-0,42406.3,-603554
step02_gravity_refstate-mantle.xmf,381,5.80088e-06,-1.21793e-05,0,-3.49797e-06,-1.17562e+09,-1.17803e+09,-1.1764e+09,-467504,-0.0106849,-0.123229,-0,0.123691,-1637.07,-42383.2,-0,42414.8,-467504
step02_gravity_refstate-mantle.xmf,382,5.92717e-06,-1.17676e-05,0,-2.43858e-06,-1.19865e+09,-1.20102e+09,-1.19944e+09,-325916,-0.00803929,-0.116459,-0,0.116736,-1284.91,-43096.4,-0,43115.6,-325916
step02_gravity_refstate-mantle.xmf,383,6.02786e-06,-1.15679e-05,0,-1.52517e-07,-1.22142e+09,-1.22378e+09,-1.22223e+09,-20383.9,-0.000566969,-0.110671,-0,0.110672,-93.8587,-43801.1,-0,43801.2,-20383.9
step02_gravity_refstate-mantle.xmf,384,5.69582e-06,-1.07314e-05,0,4.77807e-07,-1.2431e+09,-1.24529e+09,-1.24386e+09,63858.9,0.00196882,-0.103081,0,0.1031,346.107,-44470.5,0,44471.8,-63858.9
step02_gravity_refstate-mantle.xmf,385,4.10762e-06,-8.27681e-06,0,3.03798e-06,-1.26534e+09,-1.267e+09,-1.26589e+09,406026,0.0150418,-0.0874888,0,0.0887724,3050.61,-45153.3,0,45256.2,-406026
step02_gravity_refstate-mantle.xmf,386,4.67998e-06,-9.0843e-06,0,2.41879e-06,-1.26391e+09,-1.26575e+09,-1.26454e+09,323272,0.0113782,-0.0918149,0,0.0925173,2207.39,-45110.8,0,45164.8,-323272
step02_gravity_refstate-mantle.xmf,387,5.09042e-06,-9.70273e-06,0,1.83566e-06,-1.25941e+09,-1.26139e+09,-1.26009e+09,245336,0.00813082,-0.0955749,0,0.0959201,1523.04,-44972.9,0,44998.7,-245336
step02_gravity_refstate-mantle.xmf,388,3.45001e-06,-7.0218e-06,0,2.99551e-06,-1.30046e+09,-1.30186e+09,-1.30092e+09,400350,0.017691,-0.0743038,0,0.0763808,4001.3,-46236.9,0,46409.7,-400350
step02_gravity_refstate-mantle.xmf,389,3.10001e-06,-6.31125e-06,0,2.82871e-06,-1.32786e+09,-1.32912e+09,-1.32828e+09,378057,0.0189985,-0.0656575,0,0.0683509,4609.67,-47082.8,0,47307.9,-378057
step02_gravity_refstate-mantle.xmf,390,2.2651e-06,-4.9061e-06,0,2.79154e-06,-1.35414e+09,-1.3551e+09,-1.35444e+09,373089,0.0230797,-0.0524869,0,0.0573372,6358.95,-47892.5,0,48312.8,-373089
step02_gravity_refstate-mantle.xmf,391,1.60827e-06,-3.77882e-06,0,2.53425e-06,-1.38315e+09,-1.38387e+09,-1.38336e+09,338703,0.0259727,-0.0401422,0,0.0478118,8121.02,-48787.1,0,49458.4,-338703
step02_gravity_refstate-mantle.xmf,392,1.4642e-06,-3.4351e-06,0,2.25518e-06,-1.41545e+09,-1.4161e+09,-1.41564e+09,301405,0.0265926,-0.0335952,0,0.0428463,8799.66,-49784.7,0,50556.4,-301405
step02_gravity_refstate-mantle.xmf,393,9.39985e-07,-2.50359e-06,0,1.87523e-06,-1.44831e+09,-1.44877e+09,-1.44844e+09,250625,0.0286502,-0.023016,0,0.0367501,10783.1,-50798.7,0,51930.6,-250625
step02_gravity_refstate-mantle.xmf,394,5.16439e-07,-1.74755e-06,0,1.47407e-06,-1.48594e+09,-1.48624e+09,-1.486e+09,197010,0.0299081,-0.0142362,0,0.0331234,12753.3,-51960,0,53502.2,-197010
step02_gravity_refstate-mantle.xmf,395,4.67992e-07,-1.57842e-06,0,1.20779e-06,-1.52769e+09,-1.52797e+09,-1.52776e+09,161421,0.030113,-0.0105704,0,0.0319143,13335.8,-53250.1,0,54894.6,-161421
step02_gravity_refstate-mantle.xmf,396,3.84741e-07,-1.35836e-06,0,9.42319e-07,-1.56948e+09,-1.56971e+09,-1.56953e+09,125941,0.030345,-0.00723442,0,0.0311955,14026.3,-54540.7,0,56315.5,-125941
step02_gravity_refstate-mantle.xmf,397,2.70378e-07,-1.10182e-06,0,6.82739e-07,-1.61227e+09,-1.61246e+09,-1.61231e+09,91248,0.030565,-0.00437804,0,0.0308769,14802.4,-55862.6,0,57790.5,-91248
step02_gravity_refstate-mantle.xmf,398,1.2851e-07,-8.13278e-07,0,4.35499e-07,-1.65597e+09,-1.65609e+09,-1.65598e+09,58204.5,0.0307291,-0.00214859,0,0.0308041,15653,-57212.1,0,59314.7,-58204.5
step02_gravity_refstate-mantle.xmf,399,-4.08272e-08,-4.89202e-07,0,2.04988e-07,-1.70084e+09,-1.7009e+09,-1.70083e+09,27396.7,0.0307843,-0.000646869,0,0.0307911,16590.1,-58597.9,0,60901.1,-27396.7
step02_gravity_refstate-mantle.xmf,400,-2.28488e-07,-1.3918e-07,0,-2.3575e-09,-1.74624e+09,-1.74623e+09,-1.74621e+09,-315.08,0.0306636,4.81484e-20,0,0.0306636,17587.3,-60000,0,62524.5,-315.08
step02_gravity_refstate-mantle.xmf,401,4.24408e-07,-4.73308e-06,0,-5.72383e-06,-1.09902e+09,-1.09971e+09,-1.09908e+09,-764990,-0.0205371,-0.104972,-0,0.106962,-5051.17,-40000,-0,40317.7,-764990
step02_gravity_refstate-mantle.xmf,402,9.7222e-07,-5.64594e-06,0,-5.94191e-06,-1.11749e+09,-1.11837e+09,-1.11762e+09,-794136,-0.0214345,-0.106824,-0,0.108953,-4698.43,-40571.8,-0,40843,-794136
step02_gravity_refstate-mantle.xmf,403,3.24194e-06,-8.83691e-06,0,-5.72609e-06,-1.15464e+09,-1.15626e+09,-1.15508e+09,-765291,-0.019176,-0.114951,-0,0.11654,-3366.89,-41726.5,-0,41862.1,-765291
step02_gravity_refstate-mantle.xmf,404,3.92317e-06,-9.45734e-06,0,-5.08506e-06,-1.17384e+09,-1.17563e+09,-1.17436e+09,-679619,-0.0175629,-0.112851,-0,0.114209,-3033.99,-42322.4,-0,42431,-679619
step02_gravity_refstate-mantle.xmf,405,5.82711e-06,-1.1289e-05,0,-1.44427e-06,-1.22136e+09,-1.22365e+09,-1.22214e+09,-193027,-0.005363,-0.1096,-0,0.109731,-898.969,-43798.5,-0,43807.7,-193027
step02_gravity_refstate-mantle.xmf,406,5.29506e-06,-9.94656e-06,0,1.01826e-06,-1.26392e+09,-1.26595e+09,-1.26463e+09,136090,0.0045162,-0.0958162,0,0.0959226,840.567,-45112.9,0,45120.7,-136090
step02_gravity_refstate-mantle.xmf,407,3.84884e-06,-7.72555e-06,0,2.91771e-06,-1.28623e+09,-1.28778e+09,-1.28675e+09,389952,0.0157348,-0.0807464,0,0.0822652,3363.51,-45798.3,0,45921.6,-389952
step02_gravity_refstate-mantle.xmf,408,2.8115e-06,-5.68065e-06,0,2.62532e-06,-1.35564e+09,-1.35677e+09,-1.35601e+09,350874,0.0201887,-0.057618,0,0.0610526,5229.98,-47940.4,0,48224.8,-350874
step02_gravity_refstate-mantle.xmf,409,2.08163e-06,-4.46487e-06,0,2.52269e-06,-1.3845e+09,-1.38538e+09,-1.38478e+09,337158,0.0238435,-0.0452005,0,0.0511038,6973.74,-48830.3,0,49325.8,-337158
step02_gravity_refstate-mantle.xmf,410,1.34916e-06,-3.10704e-06,0,1.96166e-06,-1.44906e+09,-1.44965e+09,-1.44924e+09,262176,0.0271579,-0.0276133,0,0.0387304,9475.68,-50823,0,51698.8,-262176
step02_gravity_refstate-mantle.xmf,411,8.80058e-07,-2.29141e-06,0,1.59523e-06,-1.48577e+09,-1.4862e+09,-1.48589e+09,213202,0.0289619,-0.018284,0,0.0342505,11381.9,-51956.1,0,53188.2,-213202
step02_gravity_refstate-mantle.xmf,412,4.89079e-07,-4.52251e-06,0,-5.4467e-06,-1.11763e+09,-1.1183e+09,-1.1177e+09,-727951,-0.0219736,-0.0971926,-0,0.0996456,-5433.94,-40575.9,-0,40938.1,-727951
step02_gravity_refstate-mantle.xmf,413,1.64507e-06,-6.54509e-06,0,-5.94017e-06,-1.13626e+09,-1.13736e+09,-1.13648e+09,-793904,-0.0216081,-0.107397,-0,0.109549,-4378.88,-41154,-0,41386.3,-793904
step02_gravity_refstate-mantle.xmf,414,2.35685e-06,-7.40022e-06,0,-5.73277e-06,-1.15513e+09,-1.15643e+09,-1.15544e+09,-766185,-0.021051,-0.107308,-0,0.109353,-4042.11,-41739.3,-0,41934.6,-766185
step02_gravity_refstate-mantle.xmf,415,4.3915e-06,-9.82987e-06,0,-4.44008e-06,-1.18968e+09,-1.19158e+09,-1.19027e+09,-593417,-0.0159408,-0.110519,-0,0.111663,-2752.79,-42814,-0,42902.4,-593417
step02_gravity_refstate-mantle.xmf,416,5.04619e-06,-1.05752e-05,0,-3.66199e-06,-1.19865e+09,-1.20074e+09,-1.19933e+09,-489425,-0.0129,-0.111837,-0,0.112579,-2167.42,-43093.5,-0,43148,-489425
step02_gravity_refstate-mantle.xmf,417,5.34151e-06,-1.05526e-05,0,-2.61146e-06,-1.22172e+09,-1.22384e+09,-1.22243e+09,-349022,-0.00988964,-0.106695,-0,0.107153,-1708.94,-43808.1,-0,43841.4,-349022
step02_gravity_refstate-mantle.xmf,418,5.63215e-06,-1.06731e-05,0,-6.72165e-07,-1.244e+09,-1.24618e+09,-1.24476e+09,-89834.9,-0.00274412,-0.10265,-0,0.102687,-484.007,-44498.2,-0,44500.8,-89834.9
step02_gravity_refstate-mantle.xmf,419,5.40563e-06,-1.00208e-05,0,-4.23014e-08,-1.26629e+09,-1.26836e+09,-1.26702e+09,-5653.58,-0.000115363,-0.0957855,-0,0.0957855,-21.44,-45186.9,-0,45186.9,-5653.58
step02_gravity_refstate-mantle.xmf,420,4.88562e-06,-9.18129e-06,0,1.55745e-06,-1.28175e+09,-1.28363e+09,-1.2824e+09,208153,0.00764508,-0.0891244,0,0.0894517,1502.3,-45662.8,0,45687.5,-208153
step02_gravity_refstate-mantle.xmf,421,4.38954e-06,-8.44564e-06,0,2.30696e-06,-1.28692e+09,-1.28863e+09,-1.2875e+09,308326,0.0119492,-0.0846235,0,0.085463,2450.09,-45821.1,0,45886.6,-308326
step02_gravity_refstate-mantle.xmf,422,4.03408e-06,-7.77839e-06,0,2.40604e-06,-1.30667e+09,-1.30825e+09,-1.30721e+09,321568,0.0136759,-0.0776352,0,0.0788305,2968.43,-46430.7,0,46525.5,-321568
step02_gravity_refstate-mantle.xmf,423,3.67952e-06,-7.09437e-06,0,2.40415e-06,-1.32977e+09,-1.33121e+09,-1.33026e+09,321315,0.0152561,-0.0701304,0,0.0717706,3518.75,-47143.6,0,47274.8,-321315
step02_gravity_refstate-mantle.xmf,424,3.34773e-06,-6.43761e-06,0,2.32435e-06,-1.357e+09,-1.3583e+09,-1.35744e+09,310650,0.0166988,-0.0621311,0,0.064336,4105.97,-47984.1,0,48159.4,-310650
step02_gravity_refstate-mantle.xmf,425,2.57303e-06,-5.16423e-06,0,2.41484e-06,-1.38504e+09,-1.38607e+09,-1.38538e+09,322744,0.0211853,-0.0500699,0,0.0543674,5833.22,-48848.3,0,49195.4,-322744
step02_gravity_refstate-mantle.xmf,426,1.91522e-06,-4.06582e-06,0,2.25398e-06,-1.41644e+09,-1.41724e+09,-1.4167e+09,301245,0.0245662,-0.038317,0,0.0455158,7606.55,-49816.9,0,50394.3,-301245
step02_gravity_refstate-mantle.xmf,427,1.75445e-06,-3.71241e-06,0,2.00072e-06,-1.44934e+09,-1.45007e+09,-1.44958e+09,267397,0.0252647,-0.0319329,0,0.0407187,8255.16,-50832.9,0,51498.9,-267397
step02_gravity_refstate-mantle.xmf,428,1.25636e-06,-2.84416e-06,0,1.68357e-06,-1.48485e+09,-1.4854e+09,-1.48502e+09,225010,0.0275913,-0.0223059,0,0.03548,10083,-51928.7,0,52898.6,-225010
step02_gravity_refstate-mantle.xmf,429,8.38328e-07,-2.11285e-06,0,1.31311e-06,-1.52681e+09,-1.5272e+09,-1.52692e+09,175497,0.0291849,-0.0140725,0,0.0324005,11901.6,-53223.9,0,54538.3,-175497
step02_gravity_refstate-mantle.xmf,430,7.63831e-07,-1.91119e-06,0,1.03616e-06,-1.56931e+09,-1.56967e+09,-1.56941e+09,138482,0.0294569,-0.0101662,0,0.0311619,12477.8,-54536.8,0,55946,-138482
step02_gravity_refstate-mantle.xmf,431,6.4617e-07,-1.64697e-06,0,7.61672e-07,-1.61158e+09,-1.61189e+09,-1.61167e+09,101797,0.0298319,-0.00663331,0,0.0305605,13199.3,-55842.3,0,57381,-101797
step02_gravity_refstate-mantle.xmf,432,5.01276e-07,-1.3512e-06,0,4.90867e-07,-1.65574e+09,-1.65598e+09,-1.6558e+09,65604.3,0.0302081,-0.00364877,0,0.0304277,13996.6,-57206.1,0,58893.5,-65604.3
step02_gravity_refstate-mantle.xmf,433,3.38543e-07,-1.03785e-06,0,2.35165e-07,-1.70079e+09,-1.70097e+09,-1.70083e+09,31429.8,0.030522,-0.0014154,0,0.0305548,14823.3,-58597.4,0,60443.2,-31429.8
step02_gravity_refstate-mantle.xmf,434,1.4306e-07,-6.82374e-07,0,-2.19921e-09,-1.74621e+09,-1.74632e+09,-1.74622e+09,-293.925,0.0307422,1.22347e-19,0,0.0307422,15749.5,-60000,0,62032.6,-293.925
step02_gravity_refstate-mantle.xmf,435,1.01605e-07,-3.773e-06,0,-5.16847e-06,-1.09901e+09,-1.09953e+09,-1.09902e+09,-690766,-0.0207299,-0.094991,-0,0.0972266,-5788.3,-40000,-0,40416.6,-690766
step02_gravity_refstate-mantle.xmf,436,1.03168e-06,-5.33478e-06,0,-5.57996e-06,-1.13631e+09,-1.13716e+09,-1.13645e+09,-745762,-0.0225458,-0.0986336,-0,0.101178,-5089.65,-41154.5,-0,41468,-745762
step02_gravity_refstate-mantle.xmf,437,3.13116e-06,-8.20614e-06,0,-5.26921e-06,-1.17488e+09,-1.17639e+09,-1.1753e+09,-704229,-0.0198114,-0.106352,-0,0.108182,-3680.24,-42352.4,-0,42512,-704229
step02_gravity_refstate-mantle.xmf,438,3.7608e-06,-8.82338e-06,0,-4.68317e-06,-1.19397e+09,-1.19565e+09,-1.19447e+09,-625906,-0.0180189,-0.104858,-0,0.106395,-3292.9,-42944.9,-0,43070.9,-625906
step02_gravity_refstate-mantle.xmf,439,5.35195e-06,-1.02799e-05,0,-1.72818e-06,-1.24448e+09,-1.24657e+09,-1.24519e+09,-230971,-0.00718541,-0.100867,-0,0.101123,-1290.96,-44511.9,-0,44530.6,-230971
step02_gravity_refstate-mantle.xmf,440,5.10921e-06,-9.44376e-06,0,5.55405e-07,-1.28586e+09,-1.28781e+09,-1.28655e+09,74229.8,0.00268964,-0.0896599,0,0.0897002,523.776,-45790.8,0,45793.8,-74229.8
step02_gravity_refstate-mantle.xmf,441,3.05797e-06,-5.83836e-06,0,2.18336e-06,-1.38602e+09,-1.38721e+09,-1.38643e+09,291806,0.0179857,-0.0543698,0,0.0572675,4703.38,-48880.3,0,49106,-291806
step02_gravity_refstate-mantle.xmf,442,2.37074e-06,-4.70953e-06,0,2.1796e-06,-1.41725e+09,-1.4182e+09,-1.41757e+09,291303,0.0220486,-0.0427699,0,0.0481187,6435.17,-49843.3,0,50257,-291303
step02_gravity_refstate-mantle.xmf,443,1.6652e-06,-3.43625e-06,0,1.73011e-06,-1.48335e+09,-1.48403e+09,-1.48357e+09,231229,0.0256861,-0.0265133,0,0.0369151,8761.85,-51883.4,0,52618.1,-231229
step02_gravity_refstate-mantle.xmf,444,1.22971e-06,-2.67982e-06,0,1.39613e-06,-1.5254e+09,-1.52593e+09,-1.52557e+09,186592,0.0277389,-0.0177233,0,0.0329176,10483.8,-53181.6,0,54205.1,-186592
step02_gravity_refstate-mantle.xmf,445,1.57981e-07,-3.6332e-06,0,-4.94653e-06,-1.11785e+09,-1.11836e+09,-1.11787e+09,-661104,-0.0222287,-0.0878668,-0,0.0906349,-6182.49,-40582.6,-0,41050.9,-661104
step02_gravity_refstate-mantle.xmf,446,5.43813e-07,-4.29568e-06,0,-5.15118e-06,-1.13599e+09,-1.13663e+09,-1.13606e+09,-688455,-0.0231163,-0.0897439,-0,0.0926732,-5837.77,-41143.8,-0,41555.9,-688455
step02_gravity_refstate-mantle.xmf,447,1.66927e-06,-6.15287e-06,0,-5.52796e-06,-1.1557e+09,-1.15675e+09,-1.15592e+09,-738811,-0.0224691,-0.099168,-0,0.101682,-4750.23,-41755.5,-0,42024.8,-738811
step02_gravity_refstate-mantle.xmf,448,2.34974e-06,-6.94948e-06,0,-5.28166e-06,-1.17641e+09,-1.17765e+09,-1.17672e+09,-705894,-0.0216868,-0.098986,-0,0.101334,-4375.67,-42397.7,-0,42622.9,-705894
step02_gravity_refstate-mantle.xmf,449,4.29107e-06,-9.36868e-06,0,-4.10077e-06,-1.20676e+09,-1.20859e+09,-1.20734e+09,-548068,-0.0159759,-0.104509,-0,0.105723,-2876.77,-43342.1,-0,43437.5,-548068
step02_gravity_refstate-mantle.xmf,450,4.88215e-06,-9.59443e-06,0,-2.6352e-06,-1.24445e+09,-1.24638e+09,-1.2451e+09,-352194,-0.0112584,-0.0979526,-0,0.0985975,-2085.15,-44509.6,-0,44558.4,-352194
step02_gravity_refstate-mantle.xmf,451,4.62141e-06,-9.53384e-06,0,-3.43941e-06,-1.22401e+09,-1.2259e+09,-1.22463e+09,-459677,-0.0138966,-0.10176,-0,0.102705,-2524.41,-43876.8,-0,43949.3,-459677
step02_gravity_refstate-mantle.xmf,452,5.17404e-06,-9.669e-06,0,-1.1525e-06,-1.27064e+09,-1.27263e+09,-1.27133e+09,-154031,-0.0051903,-0.0935238,-0,0.0936677,-983.529,-45320.5,-0,45331.2,-154031
step02_gravity_refstate-mantle.xmf,453,5.1037e-06,-9.36645e-06,0,-4.17623e-07,-1.28891e+09,-1.29085e+09,-1.28959e+09,-55815.3,-0.00197797,-0.0888808,-0,0.0889028,-387.754,-45885.2,-0,45886.8,-55815.3
step02_gravity_refstate-mantle.xmf,454,4.81575e-06,-8.83583e-06,0,9.01789e-07,-1.30642e+09,-1.30825e+09,-1.30707e+09,120524,0.00482445,-0.0833044,0,0.083444,987.101,-46425.5,0,46436,-120524
step02_gravity_refstate-mantle.xmf,455,4.4983e-06,-8.41375e-06,0,1.73381e-06,-1.30582e+09,-1.30754e+09,-1.30642e+09,231723,0.00948917,-0.0812714,0,0.0818235,1984.14,-46405.7,0,46448.1,-231723
step02_gravity_refstate-mantle.xmf,456,4.95835e-06,-9.03675e-06,0,1.38874e-07,-1.3036e+09,-1.30547e+09,-1.30426e+09,18560.5,0.000759463,-0.0848122,0,0.0848156,153.171,-46338.7,0,46339,-18560.5
step02_gravity_refstate-mantle.xmf,457,4.1499e-06,-7.72298e-06,0,1.84453e-06,-1.33085e+09,-1.33244e+09,-1.3314e+09,246521,0.0112177,-0.0735363,0,0.074387,2492.78,-47178.4,0,47244.2,-246521
step02_gravity_refstate-mantle.xmf,458,3.81001e-06,-7.0553e-06,0,1.87142e-06,-1.35813e+09,-1.35958e+09,-1.35864e+09,250115,0.0128389,-0.0656659,0,0.0669093,3034.04,-48020.7,0,48116.4,-250115
step02_gravity_refstate-mantle.xmf,459,3.49825e-06,-6.44373e-06,0,1.84414e-06,-1.38709e+09,-1.38842e+09,-1.38756e+09,246469,0.0143695,-0.0578847,0,0.0596416,3606.94,-48914.8,0,49047.6,-246469
step02_gravity_refstate-mantle.xmf,460,2.81369e-06,-5.32775e-06,0,2.01727e-06,-1.41722e+09,-1.4183e+09,-1.41759e+09,269608,0.0190935,-0.0468946,0,0.0506327,5293.69,-49843.5,0,50123.8,-269608
step02_gravity_refstate-mantle.xmf,461,2.19203e-06,-4.30853e-06,0,1.94359e-06,-1.45017e+09,-1.45104e+09,-1.45046e+09,259760,0.0228565,-0.0360331,0,0.0426709,7039.79,-50859.8,0,51344.7,-259760
step02_gravity_refstate-mantle.xmf,462,2.04437e-06,-3.98548e-06,0,1.71923e-06,-1.48317e+09,-1.48398e+09,-1.48345e+09,229775,0.0235172,-0.0300731,0,0.0381765,7589.81,-51879.2,0,52431.4,-229775
step02_gravity_refstate-mantle.xmf,463,1.62218e-06,-3.24829e-06,0,1.45648e-06,-1.52113e+09,-1.52178e+09,-1.52134e+09,194659,0.0258547,-0.0215813,0,0.0336782,9127.85,-53050.7,0,53830.2,-194659
step02_gravity_refstate-mantle.xmf,464,1.17344e-06,-2.48419e-06,0,1.10234e-06,-1.56842e+09,-1.56891e+09,-1.56858e+09,147327,0.0279899,-0.013229,0,0.0309587,10953.3,-54510.6,0,55600.2,-147327
step02_gravity_refstate-mantle.xmf,465,1.03775e-06,-2.20323e-06,0,8.21362e-07,-1.61104e+09,-1.61147e+09,-1.61118e+09,109775,0.0285382,-0.0089166,0,0.0298987,11659.9,-55826.8,0,57031.5,-109775
step02_gravity_refstate-mantle.xmf,466,8.94024e-07,-1.90997e-06,0,5.44148e-07,-1.6541e+09,-1.65448e+09,-1.65422e+09,72725.4,0.0290898,-0.00528222,0,0.0295655,12388.4,-57156.8,0,58484,-72725.4
step02_gravity_refstate-mantle.xmf,467,7.36395e-07,-1.60327e-06,0,2.66908e-07,-1.69961e+09,-1.69992e+09,-1.6997e+09,35672.3,0.0296167,-0.00226034,0,0.0297029,13136.4,-58562.2,0,60017.4,-35672.3
step02_gravity_refstate-mantle.xmf,468,5.47391e-07,-1.25935e-06,0,-1.82865e-09,-1.74617e+09,-1.74641e+09,-1.74624e+09,-244.399,0.0301257,2.0427e-19,0,0.0301257,13961.9,-60000,0,61603,-244.399
step02_gravity_refstate-mantle.xmf,469,-1.25938e-07,-2.98985e-06,0,-4.63451e-06,-1.099e+09,-1.09938e+09,-1.09898e+09,-619402,-0.0207213,-0.0851988,-0,0.0876825,-6559.91,-40000,-0,40534.3,-619402
step02_gravity_refstate-mantle.xmf,470,1.06826e-06,-5.02473e-06,0,-5.21878e-06,-1.15558e+09,-1.1564e+09,-1.15573e+09,-697490,-0.023478,-0.0907606,-0,0.093748,-5500.76,-41750.8,-0,42111.6,-697490
step02_gravity_refstate-mantle.xmf,471,3.09385e-06,-7.72419e-06,0,-4.81144e-06,-1.19732e+09,-1.19877e+09,-1.19774e+09,-643049,-0.0201734,-0.0983054,-0,0.100354,-3948.09,-43046.7,-0,43227.4,-643049
step02_gravity_refstate-mantle.xmf,472,4.97135e-06,-9.50053e-06,0,-1.9632e-06,-1.26256e+09,-1.26449e+09,-1.26322e+09,-262382,-0.00898211,-0.0940678,-0,0.0944956,-1704.29,-45069.8,-0,45102,-262382
step02_gravity_refstate-mantle.xmf,473,3.83647e-06,-8.47771e-06,0,-4.08364e-06,-1.22007e+09,-1.22171e+09,-1.22058e+09,-545778,-0.017567,-0.0972993,-0,0.0988724,-3365.58,-43752.3,-0,43881.6,-545778
step02_gravity_refstate-mantle.xmf,474,4.86542e-06,-8.85826e-06,0,-4.35649e-07,-1.30983e+09,-1.31166e+09,-1.31048e+09,-58224.5,-0.00237507,-0.0829269,-0,0.0829609,-486.417,-46531,-0,46533.6,-58224.5
step02_gravity_refstate-mantle.xmf,475,3.2229e-06,-5.89069e-06,0,1.75658e-06,-1.41725e+09,-1.41847e+09,-1.41768e+09,234767,0.0157384,-0.0504302,0,0.052829,4182.53,-49845.9,0,50021,-234767
step02_gravity_refstate-mantle.xmf,476,2.61255e-06,-4.89068e-06,0,1.81947e-06,-1.45061e+09,-1.45161e+09,-1.45096e+09,243172,0.0200103,-0.0398007,0,0.0445478,5856.2,-50874.7,0,51210.7,-243172
step02_gravity_refstate-mantle.xmf,477,1.93765e-06,-3.72456e-06,0,1.51109e-06,-1.51253e+09,-1.51329e+09,-1.51279e+09,201957,0.0240198,-0.0253291,0,0.0349072,8039.57,-52786.1,0,53394.8,-201957
step02_gravity_refstate-mantle.xmf,478,1.58893e-06,-3.07359e-06,0,1.1507e-06,-1.56543e+09,-1.56606e+09,-1.56565e+09,153792,0.025952,-0.0165024,0,0.0307545,9455.44,-54419.6,0,55234.9,-153792
step02_gravity_refstate-mantle.xmf,479,-5.57225e-08,-2.93754e-06,0,-4.46865e-06,-1.12112e+09,-1.12151e+09,-1.12112e+09,-597236,-0.0224965,-0.0784223,-0,0.0815852,-6964.11,-40684.2,-0,41275.9,-597236
step02_gravity_refstate-mantle.xmf,480,2.24438e-07,-3.52273e-06,0,-4.74499e-06,-1.1344e+09,-1.1349e+09,-1.13443e+09,-634168,-0.0233,-0.0820591,-0,0.0853029,-6523.48,-41094.5,-0,41609.1,-634168
step02_gravity_refstate-mantle.xmf,481,5.57475e-07,-4.01389e-06,0,-4.83731e-06,-1.15411e+09,-1.15472e+09,-1.15418e+09,-646506,-0.0240772,-0.0822569,-0,0.0857083,-6296.29,-41704.3,-0,42176.9,-646506
step02_gravity_refstate-mantle.xmf,482,1.68577e-06,-5.79079e-06,0,-5.1248e-06,-1.17666e+09,-1.17766e+09,-1.17688e+09,-684930,-0.023201,-0.0911858,-0,0.0940911,-5130.95,-42403.9,-0,42713.2,-684930
step02_gravity_refstate-mantle.xmf,483,2.33693e-06,-6.54618e-06,0,-4.85823e-06,-1.19874e+09,-1.19993e+09,-1.19905e+09,-649303,-0.0221851,-0.0911387,-0,0.0938,-4702.39,-43088.4,-0,43344.3,-649303
step02_gravity_refstate-mantle.xmf,484,4.54617e-06,-8.85943e-06,0,-2.55234e-06,-1.26684e+09,-1.26863e+09,-1.26745e+09,-341121,-0.0121087,-0.0902754,-0,0.0910838,-2381.27,-45200.9,-0,45263.6,-341121
step02_gravity_refstate-mantle.xmf,485,4.24911e-06,-8.69551e-06,0,-3.29889e-06,-1.2461e+09,-1.24783e+09,-1.24667e+09,-440897,-0.0149451,-0.0933472,-0,0.094536,-2901.68,-44558.8,-0,44653.2,-440897
step02_gravity_refstate-mantle.xmf,486,4.73915e-06,-8.93143e-06,0,-1.79122e-06,-1.28513e+09,-1.28696e+09,-1.28576e+09,-239397,-0.00897401,-0.0873722,-0,0.0878319,-1790.55,-45767.1,-0,45802.1,-239397
step02_gravity_refstate-mantle.xmf,487,4.80245e-06,-8.80934e-06,0,-1.11857e-06,-1.30351e+09,-1.30533e+09,-1.30416e+09,-149497,-0.00582431,-0.0837616,-0,0.0839638,-1188.95,-46335.6,-0,46350.9,-149497
step02_gravity_refstate-mantle.xmf,488,4.69693e-06,-8.48213e-06,0,2.41069e-07,-1.32866e+09,-1.33042e+09,-1.32929e+09,32218.8,0.00136037,-0.0779983,0,0.0780102,289.086,-47112.6,0,47113.5,-32218.8
step02_gravity_refstate-mantle.xmf,489,4.48951e-06,-8.18627e-06,0,1.13846e-06,-1.33058e+09,-1.33228e+09,-1.33118e+09,152155,0.00675131,-0.0761623,0,0.0764609,1459.86,-47171.3,0,47193.9,-152155
step02_gravity_refstate-mantle.xmf,490,4.16537e-06,-7.5208e-06,0,1.3046e-06,-1.35911e+09,-1.36067e+09,-1.35967e+09,174359,0.00868079,-0.0681781,0,0.0687285,1995.36,-48052,0,48093.4,-174359
step02_gravity_refstate-mantle.xmf,491,3.85694e-06,-6.91604e-06,0,1.38662e-06,-1.38787e+09,-1.38931e+09,-1.38839e+09,185322,0.0104256,-0.0605835,0,0.061474,2538.17,-48939.9,0,49005.7,-185322
step02_gravity_refstate-mantle.xmf,492,3.57474e-06,-6.36594e-06,0,1.4084e-06,-1.41771e+09,-1.41904e+09,-1.41818e+09,188233,0.012052,-0.0531888,0,0.0545372,3100.65,-49861.1,0,49957.4,-188233
step02_gravity_refstate-mantle.xmf,493,2.99772e-06,-5.42593e-06,0,1.64176e-06,-1.44767e+09,-1.44879e+09,-1.44807e+09,219421,0.016942,-0.0435308,0,0.0467115,4742.5,-50785.1,0,51006.1,-219421
step02_gravity_refstate-mantle.xmf,494,2.43123e-06,-4.50119e-06,0,1.61386e-06,-1.48481e+09,-1.48574e+09,-1.48514e+09,215692,0.0208826,-0.033192,0,0.0392147,6423.22,-51931.1,0,52326.8,-215692
step02_gravity_refstate-mantle.xmf,495,2.2633e-06,-4.15633e-06,0,1.41853e-06,-1.51887e+09,-1.51973e+09,-1.51917e+09,189587,0.0217765,-0.0271374,0,0.0347945,7010.47,-52982.9,0,53444.7,-189587
step02_gravity_refstate-mantle.xmf,496,2.01515e-06,-3.70069e-06,0,1.20615e-06,-1.55535e+09,-1.55611e+09,-1.55562e+09,161203,0.0233165,-0.0206652,0,0.0311562,7935.28,-54109.2,0,54688,-161203
step02_gravity_refstate-mantle.xmf,497,1.44367e-06,-2.76086e-06,0,8.57271e-07,-1.60936e+09,-1.60992e+09,-1.60956e+09,114574,0.0266871,-0.0113049,0,0.0289828,10157.6,-55776.3,0,56693.7,-114574
step02_gravity_refstate-mantle.xmf,498,1.2998e-06,-2.47384e-06,0,5.7317e-07,-1.65385e+09,-1.65435e+09,-1.65402e+09,76604.1,0.0273734,-0.00687246,0,0.0282229,10822.4,-57150.3,0,58166,-76604.1
step02_gravity_refstate-mantle.xmf,499,1.15104e-06,-2.1791e-06,0,2.8417e-07,-1.69966e+09,-1.70011e+09,-1.69982e+09,37979.3,0.0280647,-0.00307741,0,0.0282329,11491.4,-58565.2,0,59681.9,-37979.3
step02_gravity_refstate-mantle.xmf,500,9.74644e-07,-1.85609e-06,0,-1.15021e-09,-1.74612e+09,-1.7465e+09,-1.74625e+09,-153.726,0.0287998,2.84359e-19,0,0.0287998,12218.8,-60000,0,61231.5,-153.726
step02_gravity_refstate-mantle.xmf,501,-2.76196e-07,-2.35175e-06,0,-4.12549e-06,-1.09897e+09,-1.09925e+09,-1.09894e+09,-551371,-0.0205588,-0.0756508,-0,0.0783945,-7368.31,-40000,-0,40673,-551371
step02_gravity_refstate-mantle.xmf,502,1.10147e-06,-4.73959e-06,0,-4.86156e-06,-1.17632e+09,-1.1771e+09,-1.17647e+09,-649747,-0.0242858,-0.0831382,-0,0.0866127,-5923.39,-42392.3,-0,42804.2,-649747
step02_gravity_refstate-mantle.xmf,503,3.0342e-06,-7.26157e-06,0,-4.36828e-06,-1.22184e+09,-1.22322e+09,-1.22225e+09,-583820,-0.0204346,-0.0903369,-0,0.0926192,-4219.35,-43805,-0,44007.7,-583820
step02_gravity_refstate-mantle.xmf,504,4.32598e-06,-8.34506e-06,0,-2.37272e-06,-1.28809e+09,-1.28978e+09,-1.28867e+09,-317114,-0.0124169,-0.0838737,-0,0.0847879,-2563.55,-45857.1,-0,45928.7,-317114
step02_gravity_refstate-mantle.xmf,505,4.61726e-06,-8.34108e-06,0,-5.89857e-07,-1.33239e+09,-1.33412e+09,-1.33301e+09,-78834.4,-0.00349146,-0.0767148,-0,0.0767942,-749.489,-47227.6,-0,47233.6,-78834.4
step02_gravity_refstate-mantle.xmf,506,3.32482e-06,-5.86601e-06,0,1.36314e-06,-1.44841e+09,-1.44964e+09,-1.44886e+09,182184,0.0134644,-0.0461498,0,0.0480739,3646.55,-50809.2,0,50939.9,-182184
step02_gravity_refstate-mantle.xmf,507,2.8244e-06,-5.03499e-06,0,1.4406e-06,-1.48549e+09,-1.48654e+09,-1.48587e+09,192536,0.0175566,-0.0363448,0,0.040363,5162.06,-51953.4,0,52209.2,-192536
step02_gravity_refstate-mantle.xmf,508,1.84229e-06,-3.31834e-06,0,8.77369e-07,-1.60588e+09,-1.60657e+09,-1.60613e+09,117260,0.0242866,-0.013873,0,0.0279696,8679.22,-55670.1,0,56342.6,-117260
step02_gravity_refstate-mantle.xmf,509,1.01706e-07,-3.04066e-06,0,-4.36248e-06,-1.14688e+09,-1.1473e+09,-1.1469e+09,-583045,-0.0240704,-0.0733073,-0,0.0771579,-7216.75,-41480.6,-0,42103.8,-583045
step02_gravity_refstate-mantle.xmf,510,-2.29173e-07,-2.32249e-06,0,-3.99446e-06,-1.12291e+09,-1.12319e+09,-1.12288e+09,-533859,-0.022508,-0.0691927,-0,0.0727615,-7802.08,-40739.7,-0,41480,-533859
step02_gravity_refstate-mantle.xmf,511,5.76021e-07,-3.74751e-06,0,-4.49846e-06,-1.17477e+09,-1.17535e+09,-1.17485e+09,-601219,-0.0249906,-0.0744607,-0,0.0785425,-6812.06,-42343.5,-0,42887.9,-601219
step02_gravity_refstate-mantle.xmf,512,1.7102e-06,-5.47911e-06,0,-4.73282e-06,-1.19936e+09,-1.20032e+09,-1.19959e+09,-632542,-0.0237915,-0.0835809,-0,0.0869011,-5503.13,-43106.3,-0,43456.1,-632542
step02_gravity_refstate-mantle.xmf,513,2.30105e-06,-6.13925e-06,0,-4.44571e-06,-1.22303e+09,-1.22416e+09,-1.22334e+09,-594169,-0.0226361,-0.0832489,-0,0.0862715,-5056.96,-43839.7,-0,44130.4,-594169
step02_gravity_refstate-mantle.xmf,514,3.56693e-06,-7.72859e-06,0,-3.74195e-06,-1.24638e+09,-1.24789e+09,-1.24686e+09,-500112,-0.0182425,-0.0880629,-0,0.0899325,-3748.56,-44565.4,-0,44722.8,-500112
step02_gravity_refstate-mantle.xmf,515,3.96029e-06,-7.95204e-06,0,-3.01962e-06,-1.2745e+09,-1.27609e+09,-1.27503e+09,-403572,-0.0155177,-0.0842651,-0,0.085682,-3229.33,-45436,-0,45550.6,-403572
step02_gravity_refstate-mantle.xmf,516,4.41699e-06,-8.29575e-06,0,-1.85822e-06,-1.30652e+09,-1.30822e+09,-1.30711e+09,-248351,-0.0102566,-0.0805664,-0,0.0812166,-2159.04,-46427.2,-0,46477.3,-248351
step02_gravity_refstate-mantle.xmf,517,4.42313e-06,-8.04716e-06,0,-1.312e-06,-1.33246e+09,-1.33413e+09,-1.33305e+09,-175349,-0.00777953,-0.0752154,-0,0.0756166,-1696.42,-47229.2,-0,47259.7,-175349
step02_gravity_refstate-mantle.xmf,518,4.38131e-06,-7.81874e-06,0,6.16935e-07,-1.35948e+09,-1.36111e+09,-1.36007e+09,82453.3,0.00403343,-0.0698069,0,0.0699234,911.113,-48064.2,0,48072.8,-82453.3
step02_gravity_refstate-mantle.xmf,519,4.43778e-06,-7.88912e-06,0,-1.07011e-07,-1.36008e+09,-1.36173e+09,-1.36067e+09,-14302,-0.000711057,-0.0701071,-0,0.0701107,-160.157,-48082.9,-0,48083.2,-14302
step02_gravity_refstate-mantle.xmf,520,4.10905e-06,-7.2401e-06,0,8.38852e-07,-1.38884e+09,-1.39036e+09,-1.38939e+09,112113,0.00618651,-0.0623113,0,0.0626177,1476.88,-48970.9,0,48993.1,-112113
step02_gravity_refstate-mantle.xmf,521,3.83857e-06,-6.70546e-06,0,9.69307e-07,-1.41881e+09,-1.42022e+09,-1.41932e+09,129548,0.00810005,-0.0550378,0,0.0556307,2038.53,-49896.1,0,49937.7,-129548
step02_gravity_refstate-mantle.xmf,522,3.59775e-06,-6.2355e-06,0,1.03775e-06,-1.44746e+09,-1.44877e+09,-1.44794e+09,138696,0.00985023,-0.0484006,0,0.0493927,2599.53,-50780.5,0,50847,-138696
step02_gravity_refstate-mantle.xmf,523,3.21988e-06,-5.56181e-06,0,1.14838e-06,-1.48745e+09,-1.48863e+09,-1.48788e+09,153481,0.0132392,-0.0390693,0,0.0412515,3743.34,-52015.3,0,52149.8,-153481
step02_gravity_refstate-mantle.xmf,524,2.6286e-06,-4.63948e-06,0,1.27886e-06,-1.52082e+09,-1.5218e+09,-1.52118e+09,170920,0.0187085,-0.0296965,0,0.0350983,5767.48,-53044.5,0,53357.1,-170920
step02_gravity_refstate-mantle.xmf,525,2.43279e-06,-4.26138e-06,0,1.11091e-06,-1.55695e+09,-1.55784e+09,-1.55727e+09,148473,0.0200173,-0.0233607,0,0.0307638,6459.27,-54160,0,54543.8,-148473
step02_gravity_refstate-mantle.xmf,526,2.23041e-06,-3.84219e-06,0,8.39294e-07,-1.60548e+09,-1.60629e+09,-1.60578e+09,112172,0.0213524,-0.0160312,0,0.0267006,7236.13,-55658.9,0,56127.3,-112172
step02_gravity_refstate-mantle.xmf,527,1.69719e-06,-3.01145e-06,0,5.83063e-07,-1.65248e+09,-1.65311e+09,-1.6527e+09,77926.4,0.0251489,-0.00849846,0,0.026546,9332.08,-57109.1,0,57866.6,-77926.4
step02_gravity_refstate-mantle.xmf,528,1.57284e-06,-2.75818e-06,0,3.00025e-07,-1.69821e+09,-1.69879e+09,-1.69842e+09,40098.4,0.0258573,-0.00401771,0,0.0261675,9867.87,-58521.8,0,59347.9,-40098.4
step02_gravity_refstate-mantle.xmf,529,1.41168e-06,-2.45514e-06,0,-5.19453e-10,-1.74608e+09,-1.74659e+09,-1.74627e+09,-69.4249,0.0267668,3.76229e-19,0,0.0267668,10514.7,-60000,0,60914.4,-69.4249
step02_gravity_refstate-mantle.xmf,530,-3.73766e-07,-1.82875e-06,0,-3.6522e-06,-1.09895e+09,-1.09915e+09,-1.0989e+09,-488117,-0.0202848,-0.0663874,-0,0.0694173,-8215.82,-40000,-0,40835,-488117
step02_gravity_refstate-mantle.xmf,531,1.13106e-06,-4.46914e-06,0,-4.50073e-06,-1.19935e+09,-1.2001e+09,-1.1995e+09,-601523,-0.0250025,-0.075555,-0,0.0795844,-6368.39,-43104.5,-0,43572.4,-601523
step02_gravity_refstate-mantle.xmf,532,2.87728e-06,-6.71054e-06,0,-3.98919e-06,-1.24712e+09,-1.24841e+09,-1.24751e+09,-533155,-0.0209511,-0.0819963,-0,0.0846306,-4599.47,-44586.3,-0,44822.9,-533155
step02_gravity_refstate-mantle.xmf,533,3.97629e-06,-7.69699e-06,0,-2.49413e-06,-1.30412e+09,-1.30568e+09,-1.30465e+09,-333341,-0.0141511,-0.0778175,-0,0.0790937,-3072.24,-46351.7,-0,46453.4,-333341
step02_gravity_refstate-mantle.xmf,534,4.32315e-06,-7.72811e-06,0,-8.01877e-07,-1.36094e+09,-1.36255e+09,-1.36152e+09,-107171,-0.00530305,-0.0691138,-0,0.069317,-1205.14,-48109.2,-0,48124.3,-107171
step02_gravity_refstate-mantle.xmf,535,3.41892e-06,-5.9122e-06,0,1.09144e-06,-1.46687e+09,-1.46812e+09,-1.46733e+09,145872,0.0113557,-0.0438952,0,0.0453402,3096.27,-51380,0,51473.2,-145872
step02_gravity_refstate-mantle.xmf,536,2.98034e-06,-5.11059e-06,0,1.07767e-06,-1.52173e+09,-1.52281e+09,-1.52213e+09,144030,0.0149714,-0.032161,0,0.0354749,4441.06,-53073.6,0,53259.1,-144030
step02_gravity_refstate-mantle.xmf,537,1.9967e-06,-3.43947e-06,0,6.32842e-07,-1.64265e+09,-1.64338e+09,-1.64292e+09,84579.4,0.0230508,-0.010695,0,0.025411,8166.01,-56806.5,0,57390.4,-84579.4
step02_gravity_refstate-mantle.xmf,538,-3.58047e-07,-1.78076e-06,0,-3.52153e-06,-1.124e+09,-1.12419e+09,-1.12395e+09,-470653,-0.022321,-0.0598177,-0,0.0638465,-8730.65,-40773.9,-0,41698.1,-470653
step02_gravity_refstate-mantle.xmf,539,-1.70331e-07,-2.24895e-06,0,-3.8013e-06,-1.14748e+09,-1.14776e+09,-1.14746e+09,-508043,-0.0240634,-0.0623214,-0,0.0668058,-8316.85,-41499.4,-0,42324.6,-508043
step02_gravity_refstate-mantle.xmf,540,1.79512e-07,-2.89323e-06,0,-4.06343e-06,-1.17314e+09,-1.17355e+09,-1.17316e+09,-543078,-0.0253041,-0.0653426,-0,0.070071,-7780.98,-42292.5,-0,43002.3,-543078
step02_gravity_refstate-mantle.xmf,541,6.31027e-07,-3.5541e-06,0,-4.17477e-06,-1.19898e+09,-1.19954e+09,-1.19906e+09,-557958,-0.0258126,-0.0671192,-0,0.0719116,-7303.67,-43092.1,-0,43706.7,-557958
step02_gravity_refstate-mantle.xmf,542,1.70137e-06,-5.14743e-06,0,-4.34594e-06,-1.22385e+09,-1.22476e+09,-1.22407e+09,-580834,-0.0243392,-0.0758888,-0,0.0796963,-5916.75,-43863.4,-0,44260.6,-580834
step02_gravity_refstate-mantle.xmf,543,2.21942e-06,-5.70875e-06,0,-4.06403e-06,-1.24832e+09,-1.24938e+09,-1.24862e+09,-543157,-0.0231329,-0.075347,-0,0.0788182,-5467.86,-44621.4,-0,44955.1,-543157
step02_gravity_refstate-mantle.xmf,544,3.29667e-06,-7.04093e-06,0,-3.43664e-06,-1.27368e+09,-1.27506e+09,-1.27412e+09,-459307,-0.0189629,-0.079158,-0,0.0813977,-4173.37,-45408.4,-0,45599.8,-459307
step02_gravity_refstate-mantle.xmf,545,4.07102e-06,-7.61116e-06,0,-1.92545e-06,-1.33112e+09,-1.33268e+09,-1.33166e+09,-257337,-0.011851,-0.0729853,-0,0.0739412,-2648.37,-47186.5,-0,47260.8,-257337
step02_gravity_refstate-mantle.xmf,546,3.56948e-06,-7.17486e-06,0,-2.9242e-06,-1.29888e+09,-1.30032e+09,-1.29936e+09,-390819,-0.0169658,-0.075753,-0,0.0776296,-3783.38,-46188.4,-0,46343.1,-390819
step02_gravity_refstate-mantle.xmf,547,4.07638e-06,-7.37025e-06,0,-1.44678e-06,-1.36075e+09,-1.36228e+09,-1.36129e+09,-193362,-0.00969746,-0.0672313,-0,0.0679271,-2248.46,-48102.5,-0,48155,-193362
step02_gravity_refstate-mantle.xmf,548,4.21537e-06,-7.39259e-06,0,2.3475e-07,-1.38963e+09,-1.39118e+09,-1.39019e+09,31374.3,0.00171453,-0.0630756,0,0.0630989,405.649,-48995.5,0,48997.1,-31374.3
step02_gravity_refstate-mantle.xmf,549,4.19302e-06,-7.358e-06,0,-3.84292e-07,-1.39032e+09,-1.39186e+09,-1.39088e+09,-51360.7,-0.00282262,-0.0627864,-0,0.0628498,-669.58,-49016.6,-0,49021.2,-51360.7
step02_gravity_refstate-mantle.xmf,550,4.00083e-06,-6.90916e-06,0,4.66324e-07,-1.4201e+09,-1.42155e+09,-1.42063e+09,62324.2,0.00386715,-0.0560316,0,0.0561649,961.289,-49936.3,0,49945.6,-62324.2
step02_gravity_refstate-mantle.xmf,551,3.76821e-06,-6.43696e-06,0,6.33118e-07,-1.452e+09,-1.45336e+09,-1.4525e+09,84616.2,0.00598347,-0.0489227,0,0.0492872,1561.63,-50921.4,0,50945.4,-84616.2
step02_gravity_refstate-mantle.xmf,552,3.5176e-06,-5.96278e-06,0,7.95592e-07,-1.48417e+09,-1.48544e+09,-1.48464e+09,106331,0.00873999,-0.0417964,0,0.0427005,2395.66,-51914.8,0,51970,-106331
step02_gravity_refstate-mantle.xmf,553,3.2831e-06,-5.5105e-06,0,8.09988e-07,-1.5216e+09,-1.52277e+09,-1.52204e+09,108255,0.0107267,-0.0342797,0,0.0359188,3086.55,-53070.5,0,53160.2,-108255
step02_gravity_refstate-mantle.xmf,554,2.77651e-06,-4.71646e-06,0,9.64886e-07,-1.55753e+09,-1.55853e+09,-1.5579e+09,128957,0.0165242,-0.0255885,0,0.0304602,5121.56,-54179.1,0,54420.6,-128957
step02_gravity_refstate-mantle.xmf,555,2.58796e-06,-4.36077e-06,0,8.21287e-07,-1.59453e+09,-1.59546e+09,-1.59488e+09,109765,0.0180512,-0.0193745,0,0.0264805,5825.94,-55321.8,0,55627.7,-109765
step02_gravity_refstate-mantle.xmf,556,2.28336e-06,-3.79454e-06,0,5.27296e-07,-1.65528e+09,-1.65609e+09,-1.65559e+09,70473.1,0.0205894,-0.0103717,0,0.0230542,7048.8,-57197.7,0,57630.4,-70473.1
step02_gravity_refstate-mantle.xmf,557,2.00543e-06,-3.34991e-06,0,3.30769e-07,-1.69157e+09,-1.69229e+09,-1.69184e+09,44207.3,0.0228787,-0.00554816,0,0.0235418,8191.01,-58318,0,58890.4,-44207.3
step02_gravity_refstate-mantle.xmf,558,1.84196e-06,-3.03518e-06,0,3.50751e-10,-1.74603e+09,-1.74668e+09,-1.74628e+09,46.8778,0.024048,5.23429e-19,0,0.024048,8844,-60000,0,60648.3,-46.8778
step02_gravity_refstate-mantle.xmf,559,-4.29908e-07,-1.40206e-06,0,-3.21535e-06,-1.09893e+09,-1.09906e+09,-1.09887e+09,-429732,-0.0199297,-0.0574412,-0,0.0608004,-9104.73,-40000,-0,41023.1,-429732
step02_gravity_refstate-mantle.xmf,560,1.15847e-06,-4.22388e-06,0,-4.14784e-06,-1.22423e+09,-1.22495e+09,-1.22438e+09,-554358,-0.0256113,-0.0682624,-0,0.0729088,-6818.55,-43873.9,-0,44400.5,-554358
step02_gravity_refstate-mantle.xmf,561,2.69257e-06,-6.15202e-06,0,-3.64046e-06,-1.27417e+09,-1.27535e+09,-1.27453e+09,-486548,-0.0215687,-0.0735279,-0,0.0766262,-5050,-45421.8,-0,45701.7,-486548
step02_gravity_refstate-mantle.xmf,562,3.76392e-06,-7.21522e-06,0,-2.36534e-06,-1.32634e+09,-1.3278e+09,-1.32684e+09,-316127,-0.0147352,-0.0715325,-0,0.0730344,-3357.83,-47037.8,-0,47157.5,-316127
step02_gravity_refstate-mantle.xmf,563,4.03261e-06,-7.14018e-06,0,-9.69033e-07,-1.39071e+09,-1.3922e+09,-1.39125e+09,-129511,-0.00724025,-0.0615086,-0,0.0619333,-1740.69,-49028.2,-0,49059.1,-129511
step02_gravity_refstate-mantle.xmf,564,3.07464e-06,-5.1143e-06,0,7.68685e-07,-1.55749e+09,-1.55859e+09,-1.55791e+09,102735,0.0125496,-0.0275278,0,0.0302535,3765.4,-54179,0,54309.7,-102735
step02_gravity_refstate-mantle.xmf,565,2.48911e-06,-4.13382e-06,0,6.44835e-07,-1.62912e+09,-1.63e+09,-1.62945e+09,86182.1,0.0186967,-0.0144095,0,0.023605,6187.47,-56390,0,56728.4,-86182.1
step02_gravity_refstate-mantle.xmf,566,-4.36818e-07,-1.3585e-06,0,-3.11083e-06,-1.12243e+09,-1.12255e+09,-1.12237e+09,-415762,-0.0218431,-0.0517088,-0,0.056133,-9615.19,-40726,-0,41845.7,-415762
step02_gravity_refstate-mantle.xmf,567,-3.2254e-07,-1.73834e-06,0,-3.38759e-06,-1.14668e+09,-1.14687e+09,-1.14664e+09,-452751,-0.0237966,-0.0542437,-0,0.0592339,-9200.35,-41475,-0,42483.2,-452751
step02_gravity_refstate-mantle.xmf,568,-9.24711e-08,-2.21465e-06,0,-3.62498e-06,-1.17216e+09,-1.17244e+09,-1.17215e+09,-484478,-0.0253056,-0.0565504,-0,0.0619541,-8762.46,-42262.2,-0,43161.1,-484478
step02_gravity_refstate-mantle.xmf,569,2.57835e-07,-2.78722e-06,0,-3.79897e-06,-1.19851e+09,-1.19892e+09,-1.19855e+09,-507733,-0.0262325,-0.058722,-0,0.0643149,-8274.07,-43077.2,-0,43864.7,-507733
step02_gravity_refstate-mantle.xmf,570,6.92806e-07,-3.4002e-06,0,-3.86981e-06,-1.22445e+09,-1.225e+09,-1.22455e+09,-517200,-0.0264796,-0.0604654,-0,0.0660094,-7763.99,-43879.9,-0,44561.4,-517200
step02_gravity_refstate-mantle.xmf,571,1.66117e-06,-4.80714e-06,0,-3.97911e-06,-1.24931e+09,-1.25018e+09,-1.24954e+09,-531808,-0.02486,-0.0683479,-0,0.0727287,-6368.19,-44650.6,-0,45102.5,-531808
step02_gravity_refstate-mantle.xmf,572,2.10953e-06,-5.27527e-06,0,-3.71157e-06,-1.27429e+09,-1.27527e+09,-1.27457e+09,-496051,-0.023666,-0.0676354,-0,0.0716563,-5925.82,-45423.9,-0,45808.8,-496051
step02_gravity_refstate-mantle.xmf,573,3.0587e-06,-6.43734e-06,0,-3.16584e-06,-1.30101e+09,-1.30228e+09,-1.30142e+09,-423115,-0.0197131,-0.0708354,-0,0.0735273,-4629.46,-46252.6,-0,46483.7,-423115
step02_gravity_refstate-mantle.xmf,574,3.67103e-06,-6.8553e-06,0,-2.0647e-06,-1.35525e+09,-1.35665e+09,-1.35574e+09,-275948,-0.0141887,-0.0651582,-0,0.0666851,-3379.79,-47931.1,-0,48050.1,-275948
step02_gravity_refstate-mantle.xmf,575,3.3578e-06,-6.62518e-06,0,-2.66024e-06,-1.32893e+09,-1.33027e+09,-1.32938e+09,-355542,-0.017404,-0.0677196,-0,0.0699203,-4123.73,-47116.8,-0,47296.9,-355542
step02_gravity_refstate-mantle.xmf,576,3.7595e-06,-6.74668e-06,0,-1.50568e-06,-1.39036e+09,-1.39176e+09,-1.39086e+09,-201234,-0.0114685,-0.059385,-0,0.0604823,-2822.86,-49016.5,-0,49097.7,-201234
step02_gravity_refstate-mantle.xmf,577,4.03035e-06,-6.96285e-06,0,-6.70832e-08,-1.42074e+09,-1.42221e+09,-1.42128e+09,-8965.67,-0.000553193,-0.0562518,-0,0.0562545,-137.103,-49956.4,-0,49956.6,-8965.67
step02_gravity_refstate-mantle.xmf,578,3.95458e-06,-6.86099e-06,0,-5.87743e-07,-1.42074e+09,-1.42219e+09,-1.42127e+09,-78551.9,-0.00488116,-0.0556752,-0,0.0558888,-1217.47,-49956.1,-0,49971,-78551.9
step02_gravity_refstate-mantle.xmf,579,3.86445e-06,-6.55784e-06,0,1.71577e-07,-1.45311e+09,-1.4545e+09,-1.45362e+09,22931.2,0.00164138,-0.0494456,0,0.0494729,425.228,-50956,0,50957.8,-22931.2
step02_gravity_refstate-mantle.xmf,580,3.67768e-06,-6.16145e-06,0,3.60643e-07,-1.48658e+09,-1.4879e+09,-1.48707e+09,48199.9,0.00394027,-0.0425937,0,0.0427756,1065.95,-51989.9,0,52000.8,-48199.9
step02_gravity_refstate-mantle.xmf,581,3.48732e-06,-5.77481e-06,0,4.80417e-07,-1.52146e+09,-1.5227e+09,-1.52192e+09,64207.7,0.00621027,-0.0357032,0,0.0362393,1751.95,-53066.9,0,53095.8,-64207.7
step02_gravity_refstate-mantle.xmf,582,3.30612e-06,-5.41344e-06,0,5.24434e-07,-1.55743e+09,-1.55859e+09,-1.55787e+09,70090.6,0.00826352,-0.0289511,0,0.0301073,2423.33,-54177.7,0,54231.9,-70090.6
step02_gravity_refstate-mantle.xmf,583,2.90306e-06,-4.77687e-06,0,6.81817e-07,-1.59325e+09,-1.59428e+09,-1.59364e+09,91124.9,0.014149,-0.0213177,0,0.0255859,4401.73,-55283.3,0,55458.2,-91124.9
step02_gravity_refstate-mantle.xmf,584,2.76546e-06,-4.50213e-06,0,5.60596e-07,-1.62886e+09,-1.62983e+09,-1.62923e+09,74923.6,0.0154524,-0.0156651,0,0.0220039,4951.97,-56383,0,56600,-74923.6
step02_gravity_refstate-mantle.xmf,585,2.60579e-06,-4.20609e-06,0,4.22899e-07,-1.66369e+09,-1.6646e+09,-1.66404e+09,56520.4,0.0171143,-0.0104344,0,0.0200444,5644.14,-57458.5,0,57735,-56520.4
step02_gravity_refstate-mantle.xmf,586,2.42855e-06,-3.89486e-06,0,2.50785e-07,-1.70012e+09,-1.70096e+09,-1.70044e+09,33517.4,0.0189388,-0.00545002,0,0.0197074,6424.48,-58583.4,0,58934.6,-33517.4
step02_gravity_refstate-mantle.xmf,587,2.2473e-06,-3.57455e-06,0,1.20952e-09,-1.74599e+09,-1.74677e+09,-1.74629e+09,161.653,0.0206884,5.16744e-19,0,0.0206884,7201.04,-60000,0,60430.6,-161.653
step02_gravity_refstate-mantle.xmf,588,-4.55939e-07,-1.05253e-06,0,-2.81851e-06,-1.09891e+09,-1.09899e+09,-1.09884e+09,-376694,-0.0195184,-0.0488355,-0,0.0525916,-10037.4,-40000,-0,41240.1,-376694
step02_gravity_refstate-mantle.xmf,589,1.16339e-06,-3.98287e-06,0,-3.81802e-06,-1.24931e+09,-1.25e+09,-1.24947e+09,-510278,-0.0261329,-0.0614237,-0,0.0667518,-7278.5,-44649.3,-0,45238.7,-510278
step02_gravity_refstate-mantle.xmf,590,2.49373e-06,-5.60185e-06,0,-3.31289e-06,-1.30316e+09,-1.30424e+09,-1.3035e+09,-442768,-0.0222815,-0.0649869,-0,0.0687006,-5576.74,-46317.6,-0,46652.1,-442768
step02_gravity_refstate-mantle.xmf,591,3.77154e-06,-6.61952e-06,0,-1.06779e-06,-1.41991e+09,-1.4213e+09,-1.42041e+09,-142711,-0.00902428,-0.0544032,-0,0.0551465,-2285.05,-49929.7,-0,49982,-142711
step02_gravity_refstate-mantle.xmf,592,3.14079e-06,-5.09592e-06,0,5.11866e-07,-1.59175e+09,-1.59285e+09,-1.59217e+09,68410.8,0.010112,-0.0228492,0,0.0249867,3064.58,-55237.7,0,55322.6,-68410.8
step02_gravity_refstate-mantle.xmf,593,-4.80441e-07,-1.03605e-06,0,-2.75849e-06,-1.12478e+09,-1.12485e+09,-1.12471e+09,-368673,-0.0216216,-0.0438806,-0,0.0489183,-10522.6,-40799.1,-0,42134.2,-368673
step02_gravity_refstate-mantle.xmf,594,-4.12264e-07,-1.37141e-06,0,-3.05197e-06,-1.14464e+09,-1.14477e+09,-1.14459e+09,-407896,-0.0233793,-0.047755,-0,0.0531707,-9965.18,-41412.2,-0,42594.3,-407896
step02_gravity_refstate-mantle.xmf,595,-2.86773e-07,-1.6666e-06,0,-3.21532e-06,-1.16975e+09,-1.16994e+09,-1.16971e+09,-429728,-0.0250015,-0.0485056,-0,0.0545698,-9731.48,-42188,-0,43295.8,-429728
step02_gravity_refstate-mantle.xmf,596,-1.88461e-08,-2.1616e-06,0,-3.42218e-06,-1.19755e+09,-1.19783e+09,-1.19755e+09,-457374,-0.0263169,-0.0508312,-0,0.0572398,-9240.62,-43047.1,-0,44027.8,-457374
step02_gravity_refstate-mantle.xmf,597,3.392e-07,-2.70991e-06,0,-3.55161e-06,-1.22458e+09,-1.22499e+09,-1.22462e+09,-474672,-0.0269745,-0.0528869,-0,0.0593688,-8720.71,-43883.1,-0,44741.2,-474672
step02_gravity_refstate-mantle.xmf,598,7.50388e-07,-3.27565e-06,0,-3.59185e-06,-1.24971e+09,-1.25024e+09,-1.24981e+09,-480050,-0.0269904,-0.0546393,-0,0.0609421,-8180.51,-44660.6,-0,45403.6,-480050
step02_gravity_refstate-mantle.xmf,599,1.60188e-06,-4.47993e-06,0,-3.63522e-06,-1.27542e+09,-1.27623e+09,-1.27563e+09,-485848,-0.0253545,-0.0611296,-0,0.0661792,-6846.34,-45457.4,-0,45970.1,-485848
step02_gravity_refstate-mantle.xmf,600,1.89349e-06,-4.69069e-06,0,-3.34401e-06,-1.30496e+09,-1.30584e+09,-1.30521e+09,-446927,-0.0245877,-0.0582297,-0,0.063208,-6646.7,-46371.3,-0,46845.2,-446927
step02_gravity_refstate-mantle.xmf,601,2.84437e-06,-5.89306e-06,0,-2.88733e-06,-1.33093e+09,-1.33209e+09,-1.33131e+09,-385892,-0.0203824,-0.0626551,-0,0.0658871,-5100.38,-47176.8,-0,47451.7,-385892
step02_gravity_refstate-mantle.xmf,602,3.14565e-06,-6.10732e-06,0,-2.42487e-06,-1.35973e+09,-1.36097e+09,-1.36015e+09,-324084,-0.017996,-0.0599236,-0,0.0625675,-4524.29,-48068,-0,48280.5,-324084
step02_gravity_refstate-mantle.xmf,603,3.36795e-06,-6.22145e-06,0,-1.93433e-06,-1.38985e+09,-1.39113e+09,-1.3903e+09,-258523,-0.0154173,-0.0563379,-0,0.0584094,-3928.23,-48999.6,-0,49156.8,-258523
step02_gravity_refstate-mantle.xmf,604,3.4875e-06,-6.21562e-06,0,-1.49079e-06,-1.42015e+09,-1.42145e+09,-1.42062e+09,-199244,-0.0129435,-0.0520871,-0,0.0536713,-3364.42,-49936.4,-0,50049.6,-199244
step02_gravity_refstate-mantle.xmf,605,3.8364e-06,-6.53965e-06,0,-2.93558e-07,-1.45288e+09,-1.45427e+09,-1.45339e+09,-39234,-0.00274564,-0.0493831,-0,0.0494594,-712.028,-50949,-0,50953.9,-39234
step02_gravity_refstate-mantle.xmf,606,3.73981e-06,-6.42379e-06,0,-7.23447e-07,-1.44961e+09,-1.45097e+09,-1.45011e+09,-96688.8,-0.00672076,-0.0491886,-0,0.0496457,-1753.28,-50847.4,-0,50877.7,-96688.8
step02_gravity_refstate-mantle.xmf,607,3.71751e-06,-6.2115e-06,0,-6.52568e-08,-1.48691e+09,-1.48824e+09,-1.48741e+09,-8721.57,-0.000657565,-0.042834,-0,0.0428391,-177.29,-52000.2,-0,52000.5,-8721.57
step02_gravity_refstate-mantle.xmf,608,3.57982e-06,-5.89168e-06,0,1.19027e-07,-1.52187e+09,-1.52313e+09,-1.52235e+09,15907.9,0.00156753,-0.0362705,0,0.0363043,438.491,-53079.9,0,53081.7,-15907.9
step02_gravity_refstate-mantle.xmf,609,3.43978e-06,-5.58453e-06,0,2.4298e-07,-1.55734e+09,-1.55854e+09,-1.5578e+09,32474.3,0.00379429,-0.0297909,0,0.0300315,1098.27,-54175.3,0,54186.5,-32474.3
step02_gravity_refstate-mantle.xmf,610,3.30472e-06,-5.30251e-06,0,3.08897e-07,-1.59142e+09,-1.59257e+09,-1.59186e+09,41284.1,0.00598146,-0.0237547,0,0.0244962,1783.79,-55228,0,55256.8,-41284.1
step02_gravity_refstate-mantle.xmf,611,3.01914e-06,-4.8387e-06,0,4.37848e-07,-1.62648e+09,-1.62753e+09,-1.62688e+09,58518.4,0.0114441,-0.0171425,0,0.0206115,3561.92,-56310.2,0,56422.8,-58518.4
step02_gravity_refstate-mantle.xmf,612,2.90356e-06,-4.59552e-06,0,3.25693e-07,-1.6661e+09,-1.66711e+09,-1.66649e+09,43528.8,0.0128248,-0.0110513,0,0.0169295,4090.62,-57534.1,0,57679.3,-43528.8
step02_gravity_refstate-mantle.xmf,613,2.75823e-06,-4.32113e-06,0,1.87706e-07,-1.70441e+09,-1.70535e+09,-1.70478e+09,25086.9,0.0147708,-0.0054822,0,0.0157553,4821.08,-58717,0,58914.6,-25086.9
step02_gravity_refstate-mantle.xmf,614,2.60571e-06,-4.04673e-06,0,2.0578e-09,-1.74595e+09,-1.74684e+09,-1.7463e+09,275.025,0.0167556,5.23118e-19,0,0.0167556,5580.2,-60000,0,60258.9,-275.025
step02_gravity_refstate-mantle.xmf,615,-4.6492e-07,-7.62944e-07,0,-2.46077e-06,-1.09888e+09,-1.09892e+09,-1.09882e+09,-328882,-0.0190691,-0.0405883,-0,0.0448446,-11016.2,-40000,-0,41489.2,-328882
step02_gravity_refstate-mantle.xmf,616,1.14225e-06,-3.77083e-06,0,-3.5432e-06,-1.27155e+09,-1.27221e+09,-1.2717e+09,-473548,-0.0265511,-0.0556916,-0,0.0616969,-7701.03,-45336.7,-0,45986.1,-473548
step02_gravity_refstate-mantle.xmf,617,2.29881e-06,-5.09773e-06,0,-3.01598e-06,-1.33215e+09,-1.33314e+09,-1.33246e+09,-403086,-0.0230212,-0.0570117,-0,0.0614842,-6140.83,-47213.1,-0,47610.8,-403086
step02_gravity_refstate-mantle.xmf,618,3.55514e-06,-6.19196e-06,0,-1.14331e-06,-1.44438e+09,-1.44568e+09,-1.44486e+09,-152804,-0.0106899,-0.0485937,-0,0.0497557,-2824.05,-50685.4,-0,50764,-152804
step02_gravity_refstate-mantle.xmf,619,3.18812e-06,-5.0734e-06,0,3.29549e-07,-1.61891e+09,-1.62001e+09,-1.61934e+09,44044.3,0.00792486,-0.0190208,0,0.0206057,2417.31,-56077,0,56129.1,-44044.3
step02_gravity_refstate-mantle.xmf,620,-4.42273e-07,-1.16517e-06,0,-2.79764e-06,-1.15955e+09,-1.15965e+09,-1.15949e+09,-373904,-0.0240287,-0.0408537,-0,0.0473962,-10756.3,-41873.1,-0,43232.5,-373904
step02_gravity_refstate-mantle.xmf,621,-5.13499e-07,-7.52467e-07,0,-2.42229e-06,-1.12841e+09,-1.12844e+09,-1.12834e+09,-323739,-0.021419,-0.0359975,-0,0.0418878,-11520.5,-40911.7,-0,42502.8,-323739
step02_gravity_refstate-mantle.xmf,622,-2.3678e-07,-1.62004e-06,0,-3.04207e-06,-1.19501e+09,-1.19519e+09,-1.19498e+09,-406572,-0.0260868,-0.0431449,-0,0.0504183,-10252.9,-42968.6,-0,44174.9,-406572
step02_gravity_refstate-mantle.xmf,623,6.533e-08,-2.12619e-06,0,-3.216e-06,-1.22525e+09,-1.22554e+09,-1.22526e+09,-429818,-0.0271877,-0.0454683,-0,0.0529768,-9702.14,-43903.5,-0,44962.8,-429818
step02_gravity_refstate-mantle.xmf,624,4.17445e-07,-2.64368e-06,0,-3.31011e-06,-1.25129e+09,-1.25169e+09,-1.25134e+09,-442397,-0.0275658,-0.0475566,-0,0.0549682,-9143.34,-44708.8,-0,45634.1,-442397
step02_gravity_refstate-mantle.xmf,625,8.3171e-07,-3.21818e-06,0,-3.3543e-06,-1.27499e+09,-1.27553e+09,-1.2751e+09,-448302,-0.0273212,-0.0499447,-0,0.0569291,-8485.93,-45442.3,-0,46227.8,-448302
step02_gravity_refstate-mantle.xmf,626,1.3254e-06,-3.85673e-06,0,-3.30602e-06,-1.29924e+09,-1.29993e+09,-1.29941e+09,-441850,-0.0263988,-0.0522586,-0,0.0585479,-7725.04,-46193,-0,46834.5,-441850
step02_gravity_refstate-mantle.xmf,627,1.75265e-06,-4.29223e-06,0,-3.04638e-06,-1.33151e+09,-1.33232e+09,-1.33175e+09,-407148,-0.0252213,-0.0511497,-0,0.0570299,-7224.05,-47191.6,-0,47741.4,-407148
step02_gravity_refstate-mantle.xmf,628,2.64066e-06,-5.39926e-06,0,-2.63064e-06,-1.36119e+09,-1.36226e+09,-1.36154e+09,-351585,-0.0210922,-0.0549532,-0,0.058862,-5606.37,-48111.4,-0,48436.9,-351585
step02_gravity_refstate-mantle.xmf,629,2.91588e-06,-5.59768e-06,0,-2.22362e-06,-1.39116e+09,-1.39229e+09,-1.39155e+09,-297187,-0.0188654,-0.0522296,-0,0.0555323,-5033.53,-49038.5,-0,49296.2,-297187
step02_gravity_refstate-mantle.xmf,630,3.12206e-06,-5.71342e-06,0,-1.80181e-06,-1.42188e+09,-1.42306e+09,-1.4223e+09,-240812,-0.0165009,-0.048808,-0,0.0515218,-4449.66,-49988.7,-0,50186.4,-240812
step02_gravity_refstate-mantle.xmf,631,3.25942e-06,-5.75552e-06,0,-1.41699e-06,-1.45152e+09,-1.45273e+09,-1.45196e+09,-189380,-0.014108,-0.0451127,-0,0.0472672,-3856.07,-50905.2,-0,51051,-189380
step02_gravity_refstate-mantle.xmf,632,3.63162e-06,-6.11934e-06,0,-4.80205e-07,-1.48619e+09,-1.4875e+09,-1.48668e+09,-64179.4,-0.00520737,-0.0424332,-0,0.0427515,-1412.25,-51977.6,-0,51996.8,-64179.4
step02_gravity_refstate-mantle.xmf,633,3.43227e-06,-5.87722e-06,0,-9.39533e-07,-1.48035e+09,-1.4816e+09,-1.48081e+09,-125569,-0.0103062,-0.0418731,-0,0.0431227,-2835.87,-51796.5,-0,51874.1,-125569
step02_gravity_refstate-mantle.xmf,634,3.5608e-06,-5.86376e-06,0,-2.44831e-07,-1.52207e+09,-1.52333e+09,-1.52255e+09,-32721.7,-0.00305097,-0.0361129,-0,0.0362415,-855.013,-53086.1,-0,53093,-32721.7
step02_gravity_refstate-mantle.xmf,635,3.47098e-06,-5.62074e-06,0,-5.91854e-08,-1.55797e+09,-1.55918e+09,-1.55843e+09,-7910.13,-0.000839829,-0.0298875,-0,0.0298993,-242.368,-54194.9,-0,54195.5,-7910.13
step02_gravity_refstate-mantle.xmf,636,3.37962e-06,-5.39248e-06,0,7.92638e-08,-1.59305e+09,-1.59422e+09,-1.5935e+09,10593.6,0.00159348,-0.0238999,0,0.023953,472.1,-55278.6,0,55280.6,-10593.6
step02_gravity_refstate-mantle.xmf,637,3.28113e-06,-5.17091e-06,0,1.65596e-07,-1.6263e+09,-1.62743e+09,-1.62674e+09,22131.8,0.00420742,-0.018307,0,0.0187843,1275.12,-56305.5,0,56320,-22131.8
step02_gravity_refstate-mantle.xmf,638,3.14905e-06,-4.92032e-06,0,2.18585e-07,-1.65861e+09,-1.65969e+09,-1.65904e+09,29213.9,0.00773872,-0.0129051,0,0.0150475,2401.14,-57303.6,0,57353.9,-29213.9
step02_gravity_refstate-mantle.xmf,639,3.01694e-06,-4.65794e-06,0,1.31666e-07,-1.70449e+09,-1.70552e+09,-1.70489e+09,17597.1,0.0100834,-0.00589538,0,0.0116803,3198.25,-58720.5,0,58807.5,-17597.1
step02_gravity_refstate-mantle.xmf,640,2.89656e-06,-4.42669e-06,0,3.34612e-09,-1.74592e+09,-1.7469e+09,-1.74631e+09,447.209,0.0123414,5.65497e-19,0,0.0123414,3975.83,-60000,0,60131.6,-447.209
step02_gravity_refstate-mantle.xmf,641,-4.64921e-07,-5.20341e-07,0,-2.14025e-06,-1.09886e+09,-1.09887e+09,-1.0988e+09,-286045,-0.0185938,-0.0327122,-0,0.0376274,-12043.8,-40000,-0,41773.8,-286045
step02_gravity_refstate-mantle.xmf,642,2.13154e-06,-4.66544e-06,0,-2.73547e-06,-1.36154e+09,-1.36245e+09,-1.36182e+09,-365596,-0.023686,-0.0497186,-0,0.0550723,-6699.91,-48120.7,-0,48584.9,-365596
step02_gravity_refstate-mantle.xmf,643,-5.35265e-07,-4.98598e-07,0,-2.10942e-06,-1.1293e+09,-1.1293e+09,-1.12923e+09,-281924,-0.0209428,-0.0285678,-0,0.035422,-12565.4,-40939.9,-0,42824.8,-281924
step02_gravity_refstate-mantle.xmf,644,-5.21649e-07,-7.75846e-07,0,-2.38831e-06,-1.16066e+09,-1.16069e+09,-1.16059e+09,-319198,-0.023513,-0.0319988,-0,0.0397087,-11973.6,-41907.7,-0,43584.7,-319198
step02_gravity_refstate-mantle.xmf,645,-3.94903e-07,-1.15985e-06,0,-2.66361e-06,-1.19289e+09,-1.193e+09,-1.19284e+09,-355991,-0.025647,-0.0354364,-0,0.0437437,-11336.9,-42903.4,-0,44376,-355991
step02_gravity_refstate-mantle.xmf,646,-1.61964e-07,-1.60676e-06,0,-2.87117e-06,-1.22483e+09,-1.22502e+09,-1.2248e+09,-383732,-0.0271247,-0.0381609,-0,0.0468188,-10742.3,-43890.2,-0,45185.7,-383732
step02_gravity_refstate-mantle.xmf,647,1.93889e-07,-2.13818e-06,0,-2.99545e-06,-1.25896e+09,-1.25927e+09,-1.25898e+09,-400342,-0.0279767,-0.0403551,-0,0.0491043,-10119.9,-44945.6,-0,46070.8,-400342
step02_gravity_refstate-mantle.xmf,648,5.57185e-07,-2.71171e-06,0,-3.15022e-06,-1.27616e+09,-1.2766e+09,-1.27624e+09,-421028,-0.0278854,-0.0444699,-0,0.0524897,-9294.96,-45478,-0,46418.2,-421028
step02_gravity_refstate-mantle.xmf,649,8.64242e-07,-3.09208e-06,0,-3.10218e-06,-1.30059e+09,-1.30112e+09,-1.30071e+09,-414606,-0.0276457,-0.0449733,-0,0.052791,-8869,-46233.7,-0,47076.7,-414606
step02_gravity_refstate-mantle.xmf,650,1.25947e-06,-3.5464e-06,0,-2.96919e-06,-1.32992e+09,-1.33056e+09,-1.33008e+09,-396832,-0.0269045,-0.0451394,-0,0.0525492,-8327.91,-47141,-0,47870.9,-396832
step02_gravity_refstate-mantle.xmf,651,1.63e-06,-3.93057e-06,0,-2.74523e-06,-1.36109e+09,-1.36183e+09,-1.36131e+09,-366899,-0.0257926,-0.0442322,-0,0.051203,-7818.5,-48105.4,-0,48736.7,-366899
step02_gravity_refstate-mantle.xmf,652,2.45412e-06,-4.95812e-06,0,-2.38741e-06,-1.39179e+09,-1.39278e+09,-1.39211e+09,-319078,-0.0218048,-0.0477643,-0,0.052506,-6133.66,-49056.5,-0,49438.5,-319078
step02_gravity_refstate-mantle.xmf,653,2.70852e-06,-5.14501e-06,0,-2.02862e-06,-1.42255e+09,-1.4236e+09,-1.42291e+09,-271125,-0.0197367,-0.0451059,-0,0.049235,-5563.4,-50008.1,-0,50316.6,-271125
step02_gravity_refstate-mantle.xmf,654,2.90473e-06,-5.26426e-06,0,-1.65803e-06,-1.4541e+09,-1.4552e+09,-1.45449e+09,-221595,-0.0175523,-0.0417946,-0,0.0453307,-4986.53,-50983.8,-0,51227,-221595
step02_gravity_refstate-mantle.xmf,655,3.08034e-06,-5.35685e-06,0,-1.26992e-06,-1.48736e+09,-1.48849e+09,-1.48777e+09,-169724,-0.0148892,-0.0380499,-0,0.0408593,-4267.61,-52012,-0,52186.7,-169724
step02_gravity_refstate-mantle.xmf,656,3.42131e-06,-5.7009e-06,0,-5.92928e-07,-1.52142e+09,-1.52264e+09,-1.52188e+09,-79244.9,-0.00769919,-0.0353367,-0,0.0361657,-2183.17,-53065.6,-0,53110.4,-79244.9
step02_gravity_refstate-mantle.xmf,657,3.40182e-06,-5.52754e-06,0,-3.50384e-07,-1.55823e+09,-1.55942e+09,-1.55868e+09,-46828.8,-0.00536101,-0.0294202,-0,0.0299047,-1558.07,-54202.8,-0,54225.2,-46828.8
step02_gravity_refstate-mantle.xmf,658,3.3616e-06,-5.36417e-06,0,-1.60035e-07,-1.59444e+09,-1.5956e+09,-1.59489e+09,-21388.7,-0.00300846,-0.0235887,-0,0.0237798,-893.33,-55321.5,-0,55328.7,-21388.7
step02_gravity_refstate-mantle.xmf,659,3.31579e-06,-5.2092e-06,0,-2.29992e-08,-1.62936e+09,-1.6305e+09,-1.62981e+09,-3073.84,-0.000480577,-0.0179836,-0,0.01799,-145.269,-56400.4,-0,56400.6,-3073.84
step02_gravity_refstate-mantle.xmf,660,3.25693e-06,-5.04648e-06,0,5.94643e-08,-1.66509e+09,-1.6662e+09,-1.66553e+09,7947.41,0.00232024,-0.0122877,0,0.0125048,712.789,-57504.1,0,57508.5,-7947.41
step02_gravity_refstate-mantle.xmf,661,3.18215e-06,-4.87054e-06,0,6.77519e-08,-1.70343e+09,-1.7045e+09,-1.70385e+09,9055.04,0.00510178,-0.0063195,0,0.00812183,1590.12,-58688.1,0,58709.7,-9055.04
step02_gravity_refstate-mantle.xmf,662,3.10257e-06,-4.69437e-06,0,3.92887e-09,-1.7459e+09,-1.74694e+09,-1.74631e+09,525.093,0.00756106,6.09293e-19,0,0.00756106,2382.28,-60000,0,60047.3,-525.093
step02_gravity_refstate-mantle.xmf,663,-4.58326e-07,-3.1556e-07,0,-1.85399e-06,-1.09885e+09,-1.09883e+09,-1.09878e+09,-247785,-0.0180977,-0.0252169,-0,0.0310389,-13122.5,-40000,-0,42097.5,-247785
step02_gravity_refstate-mantle.xmf,664,1.98332e-06,-4.28208e-06,0,-2.46068e-06,-1.3923e+09,-1.39314e+09,-1.39256e+09,-328870,-0.0242946,-0.0428673,-0,0.0492731,-7263.05,-49070.9,-0,49605.5,-328870
step02_gravity_refstate-mantle.xmf,665,3.18065e-06,-5.37834e-06,0,-9.06451e-07,-1.522e+09,-1.52314e+09,-1.52242e+09,-121147,-0.0122342,-0.0335601,-0,0.0357205,-3554.65,-53082.5,-0,53201.4,-121147
step02_gravity_refstate-mantle.xmf,666,-5.46616e-07,-2.78277e-07,0,-1.82312e-06,-1.12917e+09,-1.12913e+09,-1.1291e+09,-243660,-0.0203386,-0.0214893,-0,0.0295879,-13664.8,-40936.2,-0,43156.7,-243660
step02_gravity_refstate-mantle.xmf,667,-5.69217e-07,-4.89416e-07,0,-2.06528e-06,-1.16025e+09,-1.16024e+09,-1.16017e+09,-276024,-0.022886,-0.0247846,-0,0.0337349,-13074.7,-41895.5,-0,43888.2,-276024
step02_gravity_refstate-mantle.xmf,668,-5.0278e-07,-7.82743e-07,0,-2.30811e-06,-1.1923e+09,-1.19234e+09,-1.19223e+09,-308479,-0.0251071,-0.0279454,-0,0.0375674,-12473.2,-42885.3,-0,44662.4,-308479
step02_gravity_refstate-mantle.xmf,669,-3.39542e-07,-1.15483e-06,0,-2.52423e-06,-1.22439e+09,-1.22449e+09,-1.22434e+09,-337363,-0.0268303,-0.0308978,-0,0.0409211,-11854.1,-43876.6,-0,45449.7,-337363
step02_gravity_refstate-mantle.xmf,670,-9.90145e-08,-1.56325e-06,0,-2.66948e-06,-1.25606e+09,-1.25626e+09,-1.25605e+09,-356776,-0.027962,-0.0331273,-0,0.0433508,-11282.9,-44855.6,-0,46252.8,-356776
step02_gravity_refstate-mantle.xmf,671,5.02542e-07,-2.49076e-06,0,-2.91854e-06,-1.29499e+09,-1.29539e+09,-1.29506e+09,-390063,-0.0283021,-0.0394316,-0,0.0485372,-9856.67,-46059.7,-0,47102.6,-390063
step02_gravity_refstate-mantle.xmf,672,8.24867e-07,-2.85949e-06,0,-2.81544e-06,-1.32787e+09,-1.32836e+09,-1.32798e+09,-376284,-0.0280901,-0.0390363,-0,0.0480925,-9454.2,-47076.6,-0,48016.5,-376284
step02_gravity_refstate-mantle.xmf,673,1.17595e-06,-3.24808e-06,0,-2.66519e-06,-1.35969e+09,-1.36028e+09,-1.35985e+09,-356202,-0.0274015,-0.0386696,-0,0.0473939,-8953.41,-48061,-0,48887.8,-356202
step02_gravity_refstate-mantle.xmf,674,1.5193e-06,-3.60544e-06,0,-2.45295e-06,-1.3921e+09,-1.39278e+09,-1.3923e+09,-327837,-0.0263183,-0.0377646,-0,0.0460306,-8419.09,-49063.3,-0,49780.4,-327837
step02_gravity_refstate-mantle.xmf,675,2.26686e-06,-4.5387e-06,0,-2.1554e-06,-1.42291e+09,-1.42382e+09,-1.42322e+09,-288070,-0.0226048,-0.040894,-0,0.0467258,-6719.28,-50017.9,-0,50467.2,-288070
step02_gravity_refstate-mantle.xmf,676,2.49637e-06,-4.70706e-06,0,-1.84125e-06,-1.45419e+09,-1.45516e+09,-1.45453e+09,-246083,-0.0207752,-0.0382634,-0,0.0435396,-6179.9,-50985.2,-0,51358.4,-246083
step02_gravity_refstate-mantle.xmf,677,2.6935e-06,-4.83702e-06,0,-1.50224e-06,-1.48768e+09,-1.48868e+09,-1.48804e+09,-200775,-0.0187127,-0.0349554,-0,0.039649,-5593.06,-52020.4,-0,52320.2,-200775
step02_gravity_refstate-mantle.xmf,678,2.85987e-06,-4.9319e-06,0,-1.16502e-06,-1.52216e+09,-1.5232e+09,-1.52254e+09,-155705,-0.0163944,-0.0311938,-0,0.0352396,-4930.37,-53086.4,-0,53314.9,-155705
step02_gravity_refstate-mantle.xmf,679,3.22523e-06,-5.3128e-06,0,-6.12743e-07,-1.55836e+09,-1.5595e+09,-1.55879e+09,-81893.1,-0.00980447,-0.0283626,-0,0.0300094,-2897.4,-54206.1,-0,54283.5,-81893.1
step02_gravity_refstate-mantle.xmf,680,3.24959e-06,-5.21515e-06,0,-3.80995e-07,-1.59581e+09,-1.59694e+09,-1.59624e+09,-50920,-0.00748253,-0.0227858,-0,0.0239829,-2248.29,-55363.3,-0,55409,-50920
step02_gravity_refstate-mantle.xmf,681,3.25428e-06,-5.12739e-06,0,-2.0495e-07,-1.63061e+09,-1.63173e+09,-1.63105e+09,-27391.6,-0.00518479,-0.0175315,-0,0.0182821,-1577.77,-56438.7,-0,56460.8,-27391.6
step02_gravity_refstate-mantle.xmf,682,3.24988e-06,-5.03441e-06,0,-7.49911e-08,-1.66708e+09,-1.66819e+09,-1.66751e+09,-10022.6,-0.002681,-0.0119671,-0,0.0122637,-824.529,-57565.4,-0,57571.3,-10022.6
step02_gravity_refstate-mantle.xmf,683,3.23445e-06,-4.93556e-06,0,-4.74173e-09,-1.70527e+09,-1.70637e+09,-1.70571e+09,-633.733,-6.63696e-05,-0.00612828,-0,0.00612864,-20.6075,-58745.4,-0,58745.4,-633.733
step02_gravity_refstate-mantle.xmf,684,3.2101e-06,-4.83399e-06,0,3.76507e-09,-1.74589e+09,-1.74696e+09,-1.74631e+09,503.202,0.00254823,5.9401e-19,0,0.00254823,793.86,-60000,0,60005.2,-503.202
step02_gravity_refstate-mantle.xmf,685,-4.53403e-07,-1.38438e-07,0,-1.60084e-06,-1.09883e+09,-1.09879e+09,-1.09877e+09,-213952,-0.0175832,-0.0181088,-0,0.0252408,-14255.3,-40000,-0,42464.3,-213952
step02_gravity_refstate-mantle.xmf,686,1.77428e-07,-1.94308e-06,0,-2.71751e-06,-1.28643e+09,-1.28671e+09,-1.28645e+09,-363195,-0.0285365,-0.0342213,-0,0.0445582,-10827.8,-45794.6,-0,47057.3,-363195
step02_gravity_refstate-mantle.xmf,687,1.83274e-06,-3.92267e-06,0,-2.20941e-06,-1.42223e+09,-1.423e+09,-1.42248e+09,-295288,-0.0249533,-0.0365919,-0,0.0442903,-7861.65,-49995.5,-0,50609.8,-295288
step02_gravity_refstate-mantle.xmf,688,2.97386e-06,-4.9806e-06,0,-8.44924e-07,-1.55782e+09,-1.55888e+09,-1.55822e+09,-112924,-0.0140189,-0.0268373,-0,0.0302782,-4252.05,-54188.7,-0,54355.3,-112924
step02_gravity_refstate-mantle.xmf,689,-5.56676e-07,-8.56844e-08,0,-1.56537e-06,-1.12974e+09,-1.12968e+09,-1.12967e+09,-209212,-0.0197358,-0.0146706,-0,0.0245912,-14836.7,-40954.3,-0,43559,-209212
step02_gravity_refstate-mantle.xmf,690,-6.0323e-07,-2.46341e-07,0,-1.77434e-06,-1.16054e+09,-1.16049e+09,-1.16046e+09,-237140,-0.0222258,-0.0178857,-0,0.0285287,-14234.1,-41904.9,-0,44256.5,-237140
step02_gravity_refstate-mantle.xmf,691,-5.78459e-07,-4.76912e-07,0,-1.99385e-06,-1.19189e+09,-1.19188e+09,-1.19181e+09,-266477,-0.0244686,-0.0210786,-0,0.0322958,-13614.1,-42872.9,-0,44982.6,-266477
step02_gravity_refstate-mantle.xmf,692,-4.72321e-07,-7.77584e-07,0,-2.19979e-06,-1.2241e+09,-1.22414e+09,-1.22404e+09,-294002,-0.0263563,-0.0240382,-0,0.035672,-12993.5,-43867.9,-0,45751.7,-294002
step02_gravity_refstate-mantle.xmf,693,-2.8845e-07,-1.13178e-06,0,-2.36387e-06,-1.2561e+09,-1.25621e+09,-1.25606e+09,-315932,-0.0277492,-0.0265824,-0,0.0384272,-12386.9,-44856.7,-0,46535.5,-315932
step02_gravity_refstate-mantle.xmf,694,-5.58627e-08,-1.49733e-06,0,-2.46267e-06,-1.28618e+09,-1.28637e+09,-1.28617e+09,-329136,-0.0285894,-0.0284723,-0,0.0403488,-11834.9,-45786.4,-0,47291.2,-329136
step02_gravity_refstate-mantle.xmf,695,4.62514e-07,-2.27723e-06,0,-2.64882e-06,-1.32101e+09,-1.32137e+09,-1.32107e+09,-354015,-0.0287526,-0.0338018,-0,0.0443765,-10503.5,-46863.7,-0,48026.4,-354015
step02_gravity_refstate-mantle.xmf,696,7.61105e-07,-2.60618e-06,0,-2.52712e-06,-1.35686e+09,-1.35731e+09,-1.35696e+09,-337749,-0.0285454,-0.0330971,-0,0.0437065,-10117.7,-47972.4,-0,49027.7,-337749
step02_gravity_refstate-mantle.xmf,697,1.09821e-06,-2.97504e-06,0,-2.36506e-06,-1.3918e+09,-1.39234e+09,-1.39195e+09,-316090,-0.0278545,-0.0325529,-0,0.0428434,-9590.66,-49052.9,-0,49981.7,-316090
step02_gravity_refstate-mantle.xmf,698,1.42857e-06,-3.33589e-06,0,-2.18427e-06,-1.42267e+09,-1.42331e+09,-1.42287e+09,-291928,-0.0267543,-0.0321455,-0,0.0418226,-8971.52,-50008,-0,50806.3,-291928
step02_gravity_refstate-mantle.xmf,699,2.06497e-06,-4.1246e-06,0,-1.94477e-06,-1.45265e+09,-1.45348e+09,-1.45293e+09,-259918,-0.0235782,-0.0345008,-0,0.041788,-7397.73,-50936.1,-0,51470.5,-259918
step02_gravity_refstate-mantle.xmf,700,2.2707e-06,-4.26656e-06,0,-1.6541e-06,-1.48642e+09,-1.4873e+09,-1.48672e+09,-221070,-0.0220057,-0.0316191,-0,0.0385229,-6911.25,-51980.3,-0,52437.8,-221070
step02_gravity_refstate-mantle.xmf,701,2.48143e-06,-4.42546e-06,0,-1.33667e-06,-1.52183e+09,-1.52275e+09,-1.52216e+09,-178646,-0.0200114,-0.0284311,-0,0.0347676,-6282.71,-53075,-0,53445.5,-178646
step02_gravity_refstate-mantle.xmf,702,2.65328e-06,-4.54005e-06,0,-1.0308e-06,-1.55753e+09,-1.5585e+09,-1.55789e+09,-137766,-0.0178957,-0.0247574,-0,0.030548,-5627.03,-54178.9,-0,54470.3,-137766
step02_gravity_refstate-mantle.xmf,703,3.04422e-06,-4.96438e-06,0,-5.83655e-07,-1.59411e+09,-1.59518e+09,-1.59451e+09,-78005.5,-0.0118468,-0.0219822,-0,0.0249712,-3630.29,-55310.1,-0,55429.1,-78005.5
step02_gravity_refstate-mantle.xmf,704,3.10181e-06,-4.93236e-06,0,-3.75016e-07,-1.62978e+09,-1.63085e+09,-1.63019e+09,-50120.9,-0.00974478,-0.0170034,-0,0.0195978,-3011.57,-56412.4,-0,56492.8,-50120.9
step02_gravity_refstate-mantle.xmf,705,3.14243e-06,-4.89592e-06,0,-1.99043e-07,-1.66726e+09,-1.66833e+09,-1.66768e+09,-26602.1,-0.00751516,-0.0116176,-0,0.0138364,-2336.96,-57570.6,-0,57618,-26602.1
step02_gravity_refstate-mantle.xmf,706,3.17954e-06,-4.86459e-06,0,-7.18896e-08,-1.70558e+09,-1.70665e+09,-1.706e+09,-9608.04,-0.00507327,-0.00599665,-0,0.0078548,-1581.87,-58754.6,-0,58775.9,-9608.04
step02_gravity_refstate-mantle.xmf,707,3.20954e-06,-4.83372e-06,0,3.59122e-09,-1.74589e+09,-1.74696e+09,-1.74631e+09,479.967,-0.0025479,5.8422e-19,-0,0.0025479,-793.86,-60000,-0,60005.2,-479.967
step02_gravity_refstate-mantle.xmf,708,-4.52647e-07,1.77875e-08,0,-1.37716e-06,-1.09882e+09,-1.09875e+09,-1.09876e+09,-184058,-0.0170461,-0.0113931,-0,0.0205029,-15444.9,-40000,-0,42878.2,-184058
step02_gravity_refstate-mantle.xmf,709,1.82056e-07,-1.82715e-06,0,-2.49757e-06,-1.31241e+09,-1.31268e+09,-1.31244e+09,-333800,-0.028959,-0.0296583,-0,0.0414516,-11370.6,-46597.5,-0,47964.8,-333800
step02_gravity_refstate-mantle.xmf,710,1.70166e-06,-3.63437e-06,0,-2.01353e-06,-1.44674e+09,-1.44745e+09,-1.44696e+09,-269108,-0.0255392,-0.031736,-0,0.040736,-8393.45,-50752.2,-0,51441.6,-269108
step02_gravity_refstate-mantle.xmf,711,2.7812e-06,-4.61986e-06,0,-7.52516e-07,-1.59233e+09,-1.59332e+09,-1.5927e+09,-100574,-0.0157982,-0.0207738,-0,0.0260986,-4979.44,-55254.4,-0,55478.3,-100574
step02_gravity_refstate-mantle.xmf,712,-5.67446e-07,8.47564e-08,0,-1.3359e-06,-1.13024e+09,-1.13015e+09,-1.13016e+09,-178543,-0.0190778,-0.00822325,-0,0.0207746,-16071.6,-40970.1,-0,44009.6,-178543
step02_gravity_refstate-mantle.xmf,713,-6.2878e-07,-3.97878e-08,0,-1.5185e-06,-1.16037e+09,-1.16029e+09,-1.16029e+09,-202948,-0.0214845,-0.0115155,-0,0.024376,-15421,-41900.2,-0,44647.8,-202948
step02_gravity_refstate-mantle.xmf,714,-6.35927e-07,-2.14888e-07,0,-1.7076e-06,-1.1918e+09,-1.19174e+09,-1.19171e+09,-228221,-0.0237368,-0.0145364,-0,0.0278342,-14811.3,-42870.3,-0,45356.8,-228221
step02_gravity_refstate-mantle.xmf,715,-5.74134e-07,-4.56527e-07,0,-1.89871e-06,-1.22408e+09,-1.22407e+09,-1.224e+09,-253763,-0.0257359,-0.0175207,-0,0.0311337,-14177.4,-43867.4,-0,46101.5,-253763
step02_gravity_refstate-mantle.xmf,716,-4.3946e-07,-7.57342e-07,0,-2.06617e-06,-1.25702e+09,-1.25706e+09,-1.25696e+09,-276144,-0.0273568,-0.0202236,-0,0.0340204,-13545.4,-44884.9,-0,46884.3,-276144
step02_gravity_refstate-mantle.xmf,717,-2.42614e-07,-1.09797e-06,0,-2.19153e-06,-1.28873e+09,-1.28884e+09,-1.2887e+09,-292898,-0.0284817,-0.0225568,-0,0.0363321,-12921.9,-45864.9,-0,47650.5,-292898
step02_gravity_refstate-mantle.xmf,718,5.03289e-09,-1.47151e-06,0,-2.27285e-06,-1.31883e+09,-1.31903e+09,-1.31883e+09,-303767,-0.0291239,-0.0246124,-0,0.038131,-12282.4,-46795.5,-0,48380.5,-303767
step02_gravity_refstate-mantle.xmf,719,3.52917e-07,-1.96601e-06,0,-2.34051e-06,-1.34962e+09,-1.34993e+09,-1.34966e+09,-312809,-0.0292538,-0.0273021,-0,0.0400149,-11404.3,-47747.5,-0,49090.5,-312809
step02_gravity_refstate-mantle.xmf,720,7.1692e-07,-2.38371e-06,0,-2.21993e-06,-1.3918e+09,-1.39222e+09,-1.3919e+09,-296693,-0.0289443,-0.0272625,-0,0.039762,-10792.5,-49052.1,-0,50225.3,-296693
step02_gravity_refstate-mantle.xmf,721,1.05891e-06,-2.77783e-06,0,-2.08666e-06,-1.42531e+09,-1.42582e+09,-1.42545e+09,-278882,-0.0281443,-0.0274003,-0,0.0392795,-10109.7,-50088.3,-0,51098.4,-278882
step02_gravity_refstate-mantle.xmf,722,1.39202e-06,-3.15583e-06,0,-1.93052e-06,-1.45465e+09,-1.45526e+09,-1.45484e+09,-258014,-0.0269511,-0.0274501,-0,0.0384691,-9368.86,-50995.9,-0,51849.4,-258014
step02_gravity_refstate-mantle.xmf,723,1.78101e-06,-3.60848e-06,0,-1.74984e-06,-1.48147e+09,-1.48219e+09,-1.48171e+09,-233866,-0.0250304,-0.0279272,-0,0.0375027,-8367.47,-51825.8,-0,52496.9,-233866
step02_gravity_refstate-mantle.xmf,724,2.05968e-06,-3.85482e-06,0,-1.43832e-06,-1.52096e+09,-1.52175e+09,-1.52124e+09,-192231,-0.0231923,-0.0252566,-0,0.0342896,-7678.31,-53046.9,-0,53599.7,-192231
step02_gravity_refstate-mantle.xmf,725,2.27954e-06,-4.03903e-06,0,-1.14536e-06,-1.55763e+09,-1.55847e+09,-1.55793e+09,-153077,-0.0213001,-0.0222391,-0,0.030794,-7007.41,-54180.6,-0,54631.9,-153077
step02_gravity_refstate-mantle.xmf,726,2.47289e-06,-4.19829e-06,0,-8.69617e-07,-1.59274e+09,-1.59363e+09,-1.59307e+09,-116224,-0.0192379,-0.0189655,-0,0.0270146,-6288.96,-55266,-0,55622.7,-116224
step02_gravity_refstate-mantle.xmf,727,2.8609e-06,-4.63324e-06,0,-5.2796e-07,-1.62686e+09,-1.62786e+09,-1.62724e+09,-70561.9,-0.0140538,-0.0163905,-0,0.0215907,-4450.17,-56321.4,-0,56496.9,-70561.9
step02_gravity_refstate-mantle.xmf,728,2.93868e-06,-4.63646e-06,0,-3.1757e-07,-1.66521e+09,-1.66622e+09,-1.6656e+09,-42443.3,-0.0122112,-0.0112883,-0,0.0166295,-3878.94,-57506.5,-0,57637.2,-42443.3
step02_gravity_refstate-mantle.xmf,729,3.02328e-06,-4.66289e-06,0,-1.3416e-07,-1.7053e+09,-1.70633e+09,-1.70571e+09,-17930.5,-0.00992848,-0.00578915,-0,0.011493,-3147.08,-58745.6,-0,58829.9,-17930.5
step02_gravity_refstate-mantle.xmf,730,3.10225e-06,-4.69495e-06,0,3.02864e-09,-1.7459e+09,-1.74694e+09,-1.74631e+09,404.778,-0.00756135,5.6679e-19,-0,0.00756135,-2382.28,-60000,-0,60047.3,-404.778
step02_gravity_refstate-mantle.xmf,731,-4.58316e-07,1.58696e-07,0,-1.18016e-06,-1.09881e+09,-1.09872e+09,-1.09874e+09,-157728,-0.0164788,-0.0050737,-0,0.0172422,-16694.2,-40000,-0,43343.9,-157728
step02_gravity_refstate-mantle.xmf,732,2.62476e-06,-4.33265e-06,0,-6.619e-07,-1.61977e+09,-1.6207e+09,-1.62012e+09,-88462.9,-0.0172996,-0.0162465,-0,0.0237324,-5615.05,-56101.6,-0,56381.9,-88462.9
step02_gravity_refstate-mantle.xmf,733,-5.92165e-07,2.36585e-07,0,-1.14101e-06,-1.13371e+09,-1.1336e+09,-1.13363e+09,-152496,-0.0185731,-0.00229108,-0,0.0187139,-17347.9,-41077.6,-0,44590.6,-152496
step02_gravity_refstate-mantle.xmf,734,-6.51201e-07,1.47188e-07,0,-1.28423e-06,-1.15997e+09,-1.15987e+09,-1.15989e+09,-171638,-0.0206393,-0.00533732,-0,0.0213182,-16703,-41888.1,-0,45095.5,-171638
step02_gravity_refstate-mantle.xmf,735,-6.79751e-07,1.38021e-08,0,-1.44908e-06,-1.18989e+09,-1.18979e+09,-1.1898e+09,-193670,-0.0228135,-0.00840705,-0,0.0243132,-16055.4,-42811.6,-0,45723.2,-193670
step02_gravity_refstate-mantle.xmf,736,-6.54869e-07,-1.78558e-07,0,-1.62195e-06,-1.22415e+09,-1.22409e+09,-1.22407e+09,-216774,-0.0249769,-0.0113311,-0,0.027427,-15417.7,-43869.8,-0,46500.2,-216774
step02_gravity_refstate-mantle.xmf,737,-5.6312e-07,-4.27907e-07,0,-1.78299e-06,-1.2581e+09,-1.25808e+09,-1.25802e+09,-238296,-0.0267823,-0.0141104,-0,0.030272,-14766.9,-44918.3,-0,47283.3,-238296
step02_gravity_refstate-mantle.xmf,738,-4.10156e-07,-7.23371e-07,0,-1.91713e-06,-1.29063e+09,-1.29067e+09,-1.29058e+09,-256224,-0.0281429,-0.0166605,-0,0.0327047,-14107.6,-45923.5,-0,48041.6,-256224
step02_gravity_refstate-mantle.xmf,739,-2.02453e-07,-1.05661e-06,0,-2.01242e-06,-1.32268e+09,-1.32279e+09,-1.32265e+09,-268960,-0.0290711,-0.0188729,-0,0.03466,-13445.4,-46914,-0,48802.7,-268960
step02_gravity_refstate-mantle.xmf,740,6.52951e-08,-1.44122e-06,0,-2.06801e-06,-1.35527e+09,-1.35548e+09,-1.35528e+09,-276390,-0.0295698,-0.0209074,-0,0.0362145,-12719.4,-47921.7,-0,49580.9,-276390
step02_gravity_refstate-mantle.xmf,741,3.62393e-07,-1.80978e-06,0,-2.02101e-06,-1.39306e+09,-1.39335e+09,-1.39311e+09,-270108,-0.0296524,-0.0216369,-0,0.0367072,-12104.5,-49089.9,-0,50560.2,-270108
step02_gravity_refstate-mantle.xmf,742,7.1338e-07,-2.2124e-06,0,-1.89584e-06,-1.4343e+09,-1.4347e+09,-1.4344e+09,-253379,-0.0292352,-0.0217881,-0,0.0364612,-11406.5,-50365.3,-0,51640.8,-253379
step02_gravity_refstate-mantle.xmf,743,1.05355e-06,-2.64714e-06,0,-1.84599e-06,-1.4568e+09,-1.4573e+09,-1.45694e+09,-246717,-0.0282965,-0.0233733,-0,0.0367015,-10486.9,-51061.4,-0,52127.2,-246717
step02_gravity_refstate-mantle.xmf,744,1.33162e-06,-2.94096e-06,0,-1.66385e-06,-1.48977e+09,-1.49035e+09,-1.48995e+09,-222373,-0.0272391,-0.0225849,-0,0.0353842,-9846.08,-52081,-0,53003.6,-222373
step02_gravity_refstate-mantle.xmf,745,1.62098e-06,-3.24705e-06,0,-1.45604e-06,-1.5218e+09,-1.52246e+09,-1.52202e+09,-194600,-0.0258214,-0.0215546,-0,0.0336355,-9111.62,-53071.6,-0,53848.1,-194600
step02_gravity_refstate-mantle.xmf,746,1.8794e-06,-3.49444e-06,0,-1.19675e-06,-1.55823e+09,-1.55895e+09,-1.55848e+09,-159946,-0.0241977,-0.0193825,-0,0.0310034,-8403.54,-54197.9,-0,54845.6,-159946
step02_gravity_refstate-mantle.xmf,747,2.1179e-06,-3.71638e-06,0,-9.27007e-07,-1.59508e+09,-1.59586e+09,-1.59536e+09,-123894,-0.0223211,-0.0166452,-0,0.0278441,-7641.01,-55337.2,-0,55862.3,-123894
step02_gravity_refstate-mantle.xmf,748,2.34849e-06,-3.93999e-06,0,-6.79799e-07,-1.62863e+09,-1.62947e+09,-1.62895e+09,-90855.1,-0.0201126,-0.0138337,-0,0.0244108,-6771.36,-56374.6,-0,56779.8,-90855.1
step02_gravity_refstate-mantle.xmf,749,2.61872e-06,-4.22657e-06,0,-4.53159e-07,-1.65828e+09,-1.6592e+09,-1.65863e+09,-60564.7,-0.0169871,-0.0111803,-0,0.0203362,-5585.33,-57291.5,-0,57563.1,-60564.7
step02_gravity_refstate-mantle.xmf,750,2.76867e-06,-4.33262e-06,0,-1.94025e-07,-1.70381e+09,-1.70476e+09,-1.70418e+09,-25931.4,-0.0146102,-0.0055807,-0,0.0156398,-4762.31,-58698.5,-0,58891.4,-25931.4
step02_gravity_refstate-mantle.xmf,751,2.8963e-06,-4.42753e-06,0,2.37249e-09,-1.74592e+09,-1.7469e+09,-1.74631e+09,317.083,-0.0123418,5.49351e-19,-0,0.0123418,-3975.83,-60000,-0,60131.6,-317.083
step02_gravity_refstate-mantle.xmf,752,-4.71757e-07,2.88371e-07,0,-1.00663e-06,-1.0988e+09,-1.0987e+09,-1.09874e+09,-134536,-0.0158703,0.000845899,-0,0.0158928,-18006.4,-40000,-0,43866,-134536
step02_gravity_refstate-mantle.xmf,753,-6.16657e-07,3.76438e-07,0,-9.67646e-07,-1.13567e+09,-1.13553e+09,-1.13558e+09,-129326,-0.0179015,0.00315002,-0,0.0181765,-18664.8,-41138.1,-0,45174.3,-129326
step02_gravity_refstate-mantle.xmf,754,-6.76944e-07,3.11437e-07,0,-1.08533e-06,-1.15946e+09,-1.15933e+09,-1.15937e+09,-145055,-0.0197559,0.000210824,-0,0.0197571,-17991.1,-41872.6,-0,45574,-145055
step02_gravity_refstate-mantle.xmf,755,-7.13056e-07,2.16905e-07,0,-1.21392e-06,-1.18665e+09,-1.18653e+09,-1.18656e+09,-162241,-0.0217133,-0.00252832,-0,0.02186,-17381.1,-42712.1,-0,46113.2,-162241
step02_gravity_refstate-mantle.xmf,756,-7.20671e-07,6.37168e-08,0,-1.37207e-06,-1.22398e+09,-1.22388e+09,-1.22388e+09,-183377,-0.0240793,-0.0055243,-0,0.0247049,-16711.1,-43864.6,-0,46940,-183377
step02_gravity_refstate-mantle.xmf,757,-6.63661e-07,-1.42742e-07,0,-1.52369e-06,-1.2598e+09,-1.25973e+09,-1.25971e+09,-203641,-0.0260693,-0.00838268,-0,0.0273839,-16032.9,-44971,-0,47743.5,-203641
step02_gravity_refstate-mantle.xmf,758,-5.5169e-07,-3.89694e-07,0,-1.65526e-06,-1.29214e+09,-1.29212e+09,-1.29207e+09,-221226,-0.0275877,-0.011044,-0,0.0297162,-15351,-45970.1,-0,48465.5,-221226
step02_gravity_refstate-mantle.xmf,759,-3.96925e-07,-6.59954e-07,0,-1.75375e-06,-1.3234e+09,-1.32344e+09,-1.32335e+09,-234389,-0.028707,-0.0132739,-0,0.0316273,-14708.8,-46936.1,-0,49186.9,-234389
step02_gravity_refstate-mantle.xmf,760,-1.90537e-07,-9.68302e-07,0,-1.80855e-06,-1.35726e+09,-1.35737e+09,-1.35724e+09,-241713,-0.029509,-0.0150866,-0,0.0331419,-14067.8,-47982.7,-0,50002.4,-241713
step02_gravity_refstate-mantle.xmf,761,6.05036e-08,-1.30483e-06,0,-1.81119e-06,-1.39298e+09,-1.39316e+09,-1.39299e+09,-242066,-0.0299282,-0.0164375,-0,0.0341451,-13411.1,-49086.8,-0,50885.9,-242066
step02_gravity_refstate-mantle.xmf,762,3.40991e-07,-1.65119e-06,0,-1.75746e-06,-1.4294e+09,-1.42966e+09,-1.42944e+09,-234884,-0.0299361,-0.0172724,-0,0.0345617,-12735.9,-50212.6,-0,51802.6,-234884
step02_gravity_refstate-mantle.xmf,763,8.79958e-07,-2.31099e-06,0,-1.62173e-06,-1.48231e+09,-1.48273e+09,-1.48242e+09,-216744,-0.0289246,-0.0187282,-0,0.0344583,-11316.6,-51848.9,-0,53069.6,-216744
step02_gravity_refstate-mantle.xmf,764,1.1938e-06,-2.64443e-06,0,-1.41822e-06,-1.52183e+09,-1.52234e+09,-1.52199e+09,-189546,-0.0278542,-0.0178336,-0,0.0330741,-10555.9,-53071,-0,54110.6,-189546
step02_gravity_refstate-mantle.xmf,765,1.47085e-06,-2.93079e-06,0,-1.19669e-06,-1.55857e+09,-1.55915e+09,-1.55876e+09,-159937,-0.0265655,-0.0163898,-0,0.0312146,-9818.45,-54206.9,-0,55088.9,-159937
step02_gravity_refstate-mantle.xmf,766,1.72851e-06,-3.186e-06,0,-9.48488e-07,-1.59629e+09,-1.59695e+09,-1.59652e+09,-126765,-0.0250408,-0.0142388,-0,0.028806,-9060.08,-55373.3,-0,56109.6,-126765
step02_gravity_refstate-mantle.xmf,767,1.98125e-06,-3.44004e-06,0,-7.01026e-07,-1.63252e+09,-1.63325e+09,-1.63279e+09,-93692.1,-0.0231999,-0.0117224,-0,0.0259932,-8209.19,-56493.6,-0,57086.9,-93692.1
step02_gravity_refstate-mantle.xmf,768,2.22698e-06,-3.68737e-06,0,-4.52956e-07,-1.66906e+09,-1.66985e+09,-1.66935e+09,-60537.6,-0.0210333,-0.00859439,-0,0.0227214,-7276.42,-57623.1,-0,58080.7,-60537.6
step02_gravity_refstate-mantle.xmf,769,2.43233e-06,-3.88972e-06,0,-2.28934e-07,-1.70447e+09,-1.70531e+09,-1.70479e+09,-30597.1,-0.0188717,-0.00493623,-0,0.0195066,-6401.66,-58717.9,-0,59065.8,-30597.1
step02_gravity_refstate-mantle.xmf,770,2.60559e-06,-4.04823e-06,0,1.0542e-09,-1.74595e+09,-1.74684e+09,-1.7463e+09,140.894,-0.0167555,4.89029e-19,-0,0.0167555,-5580.2,-60000,-0,60258.9,-140.894
step02_gravity_refstate-mantle.xmf,771,-4.93565e-07,4.09648e-07,0,-8.54665e-07,-1.09879e+09,-1.09867e+09,-1.09873e+09,-114226,-0.0152066,0.0063623,-0,0.0164839,-19384.6,-40000,-0,44449.6,-114226
step02_gravity_refstate-mantle.xmf,772,5.58079e-07,-1.89175e-06,0,-1.65041e-06,-1.46116e+09,-1.46149e+09,-1.46124e+09,-220578,-0.0297128,-0.0170442,-0,0.0342542,-12289.7,-51194.7,-0,52649.1,-220578
step02_gravity_refstate-mantle.xmf,773,-6.50984e-07,5.1057e-07,0,-8.11843e-07,-1.13888e+09,-1.13873e+09,-1.13879e+09,-108503,-0.0171993,0.00824977,-0,0.0190755,-20067.7,-41237.5,-0,45861.2,-108503
step02_gravity_refstate-mantle.xmf,774,-7.35796e-07,3.97646e-07,0,-9.99722e-07,-1.18027e+09,-1.18012e+09,-1.18018e+09,-133613,-0.0203376,0.00315613,-0,0.0205811,-18807.6,-42515.3,-0,46489.5,-133613
step02_gravity_refstate-mantle.xmf,775,-7.76201e-07,2.76518e-07,0,-1.14892e-06,-1.22342e+09,-1.22328e+09,-1.22332e+09,-153553,-0.0230444,-0.000108323,-0,0.0230447,-18059.7,-43847.6,-0,47421.1,-153553
step02_gravity_refstate-mantle.xmf,776,-7.4842e-07,1.05167e-07,0,-1.29065e-06,-1.26211e+09,-1.262e+09,-1.26201e+09,-172496,-0.0252385,-0.00310799,-0,0.0254291,-17334.5,-45042.4,-0,48262.8,-172496
step02_gravity_refstate-mantle.xmf,777,-6.63121e-07,-1.08602e-07,0,-1.41475e-06,-1.29856e+09,-1.29849e+09,-1.29847e+09,-189081,-0.0270063,-0.00581372,-0,0.027625,-16629.8,-46168.3,-0,49072.1,-189081
step02_gravity_refstate-mantle.xmf,778,-5.43294e-07,-3.43862e-07,0,-1.53685e-06,-1.32218e+09,-1.32216e+09,-1.32211e+09,-205400,-0.0281347,-0.00861288,-0,0.0294235,-15863,-46898.2,-0,49508.4,-205400
step02_gravity_refstate-mantle.xmf,779,-4.11394e-07,-5.51091e-07,0,-1.57013e-06,-1.35551e+09,-1.35553e+09,-1.35545e+09,-209848,-0.0290733,-0.00984832,-0,0.030696,-15418.3,-47928,-0,50347,-209848
step02_gravity_refstate-mantle.xmf,780,-2.02386e-07,-8.46216e-07,0,-1.58856e-06,-1.39351e+09,-1.3936e+09,-1.39349e+09,-212311,-0.0298359,-0.0113714,-0,0.0319294,-14775.6,-49102.6,-0,51277.6,-212311
step02_gravity_refstate-mantle.xmf,781,4.41623e-08,-1.16711e-06,0,-1.56816e-06,-1.43085e+09,-1.43101e+09,-1.43086e+09,-209585,-0.0301988,-0.0126136,-0,0.0327272,-14075.1,-50256.9,-0,52190.6,-209585
step02_gravity_refstate-mantle.xmf,782,3.13939e-07,-1.4945e-06,0,-1.49568e-06,-1.46854e+09,-1.46878e+09,-1.46858e+09,-199898,-0.0301748,-0.013305,-0,0.0329779,-13365.5,-51422.1,-0,53130.6,-199898
step02_gravity_refstate-mantle.xmf,783,5.61068e-07,-1.80432e-06,0,-1.45756e-06,-1.49125e+09,-1.49157e+09,-1.49133e+09,-194803,-0.029827,-0.0143142,-0,0.0330839,-12623.8,-52124.4,-0,53631.3,-194803
step02_gravity_refstate-mantle.xmf,784,1.06959e-06,-2.36889e-06,0,-1.15619e-06,-1.55837e+09,-1.55883e+09,-1.55852e+09,-154524,-0.0283846,-0.0133756,-0,0.0313782,-11249.2,-54199.8,-0,55354.9,-154524
step02_gravity_refstate-mantle.xmf,785,7.91035e-07,-2.06691e-06,0,-1.34194e-06,-1.52095e+09,-1.52133e+09,-1.52106e+09,-179350,-0.0292921,-0.0142113,-0,0.0325574,-11997.9,-53042.7,-0,54382.7,-179350
step02_gravity_refstate-mantle.xmf,786,1.34203e-06,-2.65558e-06,0,-9.38937e-07,-1.59635e+09,-1.59688e+09,-1.59652e+09,-125489,-0.0271883,-0.0119154,-0,0.0296847,-10458.9,-55373.8,-0,56352.9,-125489
step02_gravity_refstate-mantle.xmf,787,1.58901e-06,-2.90834e-06,0,-7.09459e-07,-1.63309e+09,-1.63369e+09,-1.6333e+09,-94819.2,-0.0258218,-0.00988232,-0,0.0276482,-9679.59,-56509.7,-0,57332.7,-94819.2
step02_gravity_refstate-mantle.xmf,788,1.82314e-06,-3.14561e-06,0,-4.71703e-07,-1.67015e+09,-1.67082e+09,-1.6704e+09,-63043.1,-0.0242536,-0.00723595,-0,0.02531,-8868.8,-57655.6,-0,58333.8,-63043.1
step02_gravity_refstate-mantle.xmf,789,2.0443e-06,-3.37869e-06,0,-2.60043e-07,-1.70307e+09,-1.7038e+09,-1.70335e+09,-34754.8,-0.0225195,-0.00443377,-0,0.0229518,-8029.48,-58673.4,-0,59220.3,-34754.8
step02_gravity_refstate-mantle.xmf,790,2.2472e-06,-3.57619e-06,0,1.20393e-10,-1.74599e+09,-1.74677e+09,-1.74629e+09,16.0906,-0.0206885,4.42145e-19,-0,0.0206885,-7201.04,-60000,-0,60430.6,-16.0906
step02_gravity_refstate-mantle.xmf,791,-5.23554e-07,5.24507e-07,0,-7.21461e-07,-1.09879e+09,-1.09865e+09,-1.09872e+09,-96423.3,-0.0144719,0.011472,-0,0.0184674,-20832.2,-40000,-0,45099.7,-96423.3
step02_gravity_refstate-mantle.xmf,792,-7.07024e-07,6.52349e-07,0,-6.66123e-07,-1.14456e+09,-1.14438e+09,-1.14446e+09,-89027.3,-0.0164179,0.0132573,-0,0.0211022,-21667.5,-41412.9,-0,46738.7,-89027.3
step02_gravity_refstate-mantle.xmf,793,-5.66571e-07,6.36995e-07,0,-6.04055e-07,-1.09879e+09,-1.09863e+09,-1.09871e+09,-80731.9,-0.0136489,0.0161708,-0,0.021161,-22352.7,-40000,-0,45821.8,-80731.9
step02_gravity_refstate-mantle.xmf,794,-7.78984e-07,5.6814e-07,0,-8.11631e-07,-1.18336e+09,-1.18318e+09,-1.18326e+09,-108475,-0.0192804,0.00864314,-0,0.0211291,-20410.1,-42610.9,-0,47246.8,-108475
step02_gravity_refstate-mantle.xmf,795,-6.03744e-07,7.38083e-07,0,-5.02187e-07,-1.09879e+09,-1.09861e+09,-1.09871e+09,-67117.3,-0.0127209,0.0204541,-0,0.0240872,-23949.7,-40000,-0,46621.8,-67117.3
step02_gravity_refstate-mantle.xmf,796,-6.97166e-07,7.42258e-07,0,-5.50976e-07,-1.13205e+09,-1.13186e+09,-1.13196e+09,-73638,-0.0147776,0.0176515,-0,0.0230208,-23149.6,-41026.7,-0,47107.3,-73638
step02_gravity_refstate-mantle.xmf,797,-8.26528e-07,4.68251e-07,0,-9.48442e-07,-1.22356e+09,-1.22338e+09,-1.22345e+09,-126759,-0.0218975,0.00500778,-0,0.0224628,-19498.3,-43851.9,-0,47991.4,-126759
step02_gravity_refstate-mantle.xmf,798,-8.2424e-07,3.29586e-07,0,-1.07893e-06,-1.2641e+09,-1.26394e+09,-1.26399e+09,-144199,-0.0242368,0.00182665,-0,0.0243055,-18705.1,-45103.8,-0,48828.6,-144199
step02_gravity_refstate-mantle.xmf,799,-7.62396e-07,1.37586e-07,0,-1.2027e-06,-1.30394e+09,-1.30382e+09,-1.30384e+09,-160741,-0.026265,-0.00120684,-0,0.0262927,-17902.8,-46334.5,-0,49672.9,-160741
step02_gravity_refstate-mantle.xmf,800,-6.20878e-07,-1.49425e-07,0,-1.33849e-06,-1.34379e+09,-1.34373e+09,-1.34371e+09,-178889,-0.02806,-0.00466586,-0,0.0284453,-16896.4,-47565.7,-0,50477.6,-178889
step02_gravity_refstate-mantle.xmf,801,-4.34312e-07,-4.29123e-07,0,-1.36864e-06,-1.39272e+09,-1.39272e+09,-1.39266e+09,-182919,-0.0293707,-0.00655659,-0,0.0300937,-16201.1,-49077.5,-0,51682.5,-182919
step02_gravity_refstate-mantle.xmf,802,-2.18802e-07,-7.23624e-07,0,-1.37064e-06,-1.43239e+09,-1.43246e+09,-1.43236e+09,-183186,-0.0300881,-0.00816457,-0,0.0311762,-15463.8,-50303.7,-0,52626.9,-183186
step02_gravity_refstate-mantle.xmf,803,1.7606e-08,-1.02651e-06,0,-1.33469e-06,-1.46929e+09,-1.46943e+09,-1.46929e+09,-178382,-0.0304,-0.00933161,-0,0.0318,-14723.4,-51444.3,-0,53509.8,-178382
step02_gravity_refstate-mantle.xmf,804,3.90203e-07,-1.49528e-06,0,-1.26071e-06,-1.51346e+09,-1.51371e+09,-1.51351e+09,-168494,-0.0302122,-0.0108101,-0,0.0320879,-13516.6,-52810,-0,54512.4,-168494
step02_gravity_refstate-mantle.xmf,805,9.72098e-07,-2.13223e-06,0,-8.79812e-07,-1.59965e+09,-1.60007e+09,-1.59978e+09,-117587,-0.0287845,-0.00937738,-0,0.0302734,-11854.3,-55474.8,-0,56727.2,-117587
step02_gravity_refstate-mantle.xmf,806,6.75653e-07,-1.80711e-06,0,-1.08304e-06,-1.55757e+09,-1.5579e+09,-1.55766e+09,-144748,-0.0296892,-0.0103174,-0,0.0314308,-12740.1,-54173.8,-0,55651.7,-144748
step02_gravity_refstate-mantle.xmf,807,1.24964e-06,-2.45066e-06,0,-7.18075e-07,-1.62987e+09,-1.63037e+09,-1.63004e+09,-95970.7,-0.0276276,-0.00855955,-0,0.0289232,-10940.4,-56409.4,-0,57460.5,-95970.7
step02_gravity_refstate-mantle.xmf,808,1.39134e-06,-2.56297e-06,0,-4.8108e-07,-1.66869e+09,-1.66922e+09,-1.66888e+09,-64296.3,-0.0268984,-0.00600789,-0,0.0275611,-10510.4,-57609.1,-0,58560,-64296.3
step02_gravity_refstate-mantle.xmf,809,1.6189e-06,-2.80856e-06,0,-2.68612e-07,-1.70288e+09,-1.70348e+09,-1.7031e+09,-35900,-0.0255663,-0.00370257,-0,0.025833,-9692.25,-58666.2,-0,59461.5,-35900
step02_gravity_refstate-mantle.xmf,810,1.84229e-06,-3.03706e-06,0,-8.75469e-10,-1.74603e+09,-1.74668e+09,-1.74628e+09,-117.006,-0.0240483,3.72318e-19,-0,0.0240483,-8844,-60000,-0,60648.3,-117.006
step02_gravity_refstate-mantle.xmf,811,-7.62859e-07,8.49769e-07,0,-4.63021e-07,-1.14225e+09,-1.14203e+09,-1.14215e+09,-61882.7,-0.0142244,0.0207526,-0,0.0251596,-24522.8,-41341.6,-0,48067.7,-61882.7
step02_gravity_refstate-mantle.xmf,812,-6.51294e-07,8.37506e-07,0,-4.12054e-07,-1.09879e+09,-1.09859e+09,-1.0987e+09,-55071,-0.0116694,0.0243157,-0,0.0269709,-25627.4,-40000,-0,47505.4,-55071
step02_gravity_refstate-mantle.xmf,813,-8.2894e-07,6.99664e-07,0,-6.82985e-07,-1.19095e+09,-1.19074e+09,-1.19084e+09,-91280.9,-0.0185505,0.0125519,-0,0.022398,-21758.8,-42845.2,-0,48053.6,-91280.9
step02_gravity_refstate-mantle.xmf,814,-8.39308e-07,8.12505e-07,0,-5.56939e-07,-1.17789e+09,-1.17767e+09,-1.17778e+09,-74434.9,-0.0167537,0.0167677,-0,0.0237033,-23234.3,-42442.1,-0,48385.6,-74434.9
step02_gravity_refstate-mantle.xmf,815,-8.76073e-07,6.39485e-07,0,-7.75349e-07,-1.22541e+09,-1.2252e+09,-1.22529e+09,-103625,-0.0207034,0.00964391,-0,0.0228394,-20994.2,-43909.1,-0,48670,-103625
step02_gravity_refstate-mantle.xmf,816,-8.62107e-07,9.8979e-07,0,-3.6798e-07,-1.15982e+09,-1.15957e+09,-1.15971e+09,-49180.5,-0.0134569,0.0239461,-0,0.0274683,-26303.3,-41884.2,-0,49458.5,-49180.5
step02_gravity_refstate-mantle.xmf,817,-8.93659e-07,5.35813e-07,0,-8.87297e-07,-1.2656e+09,-1.2654e+09,-1.26548e+09,-118587,-0.0230394,0.0064596,-0,0.0239278,-20164.8,-45150.2,-0,49448.5,-118587
step02_gravity_refstate-mantle.xmf,818,-8.6286e-07,3.88708e-07,0,-9.94346e-07,-1.30665e+09,-1.30649e+09,-1.30654e+09,-132894,-0.0251637,0.00345745,-0,0.0254001,-19362.2,-46418.3,-0,50294.6,-132894
step02_gravity_refstate-mantle.xmf,819,-7.72704e-07,1.81605e-07,0,-1.09602e-06,-1.34841e+09,-1.34828e+09,-1.34831e+09,-146483,-0.0270618,0.000452833,-0,0.0270656,-18489,-47708.2,-0,51165.6,-146483
step02_gravity_refstate-mantle.xmf,820,-6.31829e-07,-5.92535e-08,0,-1.1594e-06,-1.39135e+09,-1.39127e+09,-1.39126e+09,-154954,-0.0285635,-0.00205191,-0,0.0286371,-17672.3,-49034.8,-0,52122.2,-154954
step02_gravity_refstate-mantle.xmf,821,-4.5003e-07,-3.21582e-07,0,-1.17623e-06,-1.4339e+09,-1.43388e+09,-1.43384e+09,-157203,-0.0296246,-0.00400143,-0,0.0298936,-16896.8,-50349.8,-0,53109.4,-157203
step02_gravity_refstate-mantle.xmf,822,-2.35461e-07,-6.06549e-07,0,-1.15786e-06,-1.47388e+09,-1.47393e+09,-1.47385e+09,-154748,-0.0302757,-0.00555397,-0,0.0307809,-16094.7,-51585.6,-0,54038.1,-154748
step02_gravity_refstate-mantle.xmf,823,2.61139e-08,-9.3581e-07,0,-1.09866e-06,-1.51517e+09,-1.5153e+09,-1.51517e+09,-146836,-0.0305611,-0.00677551,-0,0.0313032,-15181.9,-52861.8,-0,54998.8,-146836
step02_gravity_refstate-mantle.xmf,824,3.03802e-07,-1.26257e-06,0,-9.78581e-07,-1.55775e+09,-1.55796e+09,-1.5578e+09,-130787,-0.030446,-0.00722054,-0,0.0312905,-14285.2,-54178.4,-0,56030,-130787
step02_gravity_refstate-mantle.xmf,825,9.38574e-07,-1.97386e-06,0,-5.59244e-07,-1.6516e+09,-1.65199e+09,-1.65172e+09,-74743,-0.0289225,-0.00562393,-0,0.0294642,-12198.7,-57079.6,-0,58368.5,-74743
step02_gravity_refstate-mantle.xmf,826,5.86687e-07,-1.57925e-06,0,-8.0027e-07,-1.60235e+09,-1.60264e+09,-1.60243e+09,-106956,-0.0299723,-0.00681239,-0,0.0307368,-13389.4,-55557,-0,57147.7,-106956
step02_gravity_refstate-mantle.xmf,827,1.18167e-06,-2.2138e-06,0,-2.65603e-07,-1.70228e+09,-1.70274e+09,-1.70244e+09,-35497.8,-0.0279248,-0.00295629,-0,0.0280808,-11375.7,-58646.3,-0,59739.4,-35497.8
step02_gravity_refstate-mantle.xmf,828,1.41148e-06,-2.45574e-06,0,-1.69693e-09,-1.74608e+09,-1.74659e+09,-1.74627e+09,-226.794,-0.0267667,3.00488e-19,-0,0.0267667,-10514.7,-60000,-0,60914.4,-226.794
step02_gravity_refstate-mantle.xmf,829,-7.01009e-07,9.30955e-07,0,-3.33465e-07,-1.09879e+09,-1.09858e+09,-1.0987e+09,-44567.5,-0.0104788,0.0277467,-0,0.0296595,-27389.7,-40000,-0,48478.8,-44567.5
step02_gravity_refstate-mantle.xmf,830,-8.95704e-07,9.38742e-07,0,-4.48183e-07,-1.18576e+09,-1.18551e+09,-1.18564e+09,-59899.7,-0.0156721,0.0202786,-0,0.0256288,-24853.9,-42684.9,-0,49393.5,-59899.7
step02_gravity_refstate-mantle.xmf,831,-8.9403e-07,1.08353e-06,0,-2.84591e-07,-1.15741e+09,-1.15715e+09,-1.15729e+09,-38035.6,-0.0117313,0.0272445,-0,0.0296629,-28185.3,-41809.9,-0,50423,-38035.6
step02_gravity_refstate-mantle.xmf,832,-7.99817e-07,1.0936e-06,0,-2.03858e-07,-1.0988e+09,-1.09855e+09,-1.0987e+09,-27245.6,-0.00763098,0.0332636,-0,0.0341277,-31185.8,-40000,-0,50720.4,-27245.6
step02_gravity_refstate-mantle.xmf,833,-8.40121e-07,1.15735e-06,0,-1.48431e-07,-1.09881e+09,-1.09854e+09,-1.09869e+09,-19837.8,-0.00595924,0.0353092,-0,0.0358086,-33229,-40000,-0,52001.6,-19837.8
step02_gravity_refstate-mantle.xmf,834,-9.76047e-07,1.24706e-06,0,-1.58243e-07,-1.15646e+09,-1.15617e+09,-1.15633e+09,-21149.2,-0.00799852,0.0321971,-0,0.0331757,-32153.4,-41780.4,-0,52720.4,-21149.2
step02_gravity_refstate-mantle.xmf,835,-7.53717e-07,1.01778e-06,0,-2.65463e-07,-1.0988e+09,-1.09856e+09,-1.0987e+09,-35479.1,-0.00913587,0.0307348,-0,0.0320639,-29241,-40000,-0,49548.3,-35479.1
step02_gravity_refstate-mantle.xmf,836,-9.46061e-07,1.17762e-06,0,-2.16752e-07,-1.1592e+09,-1.15892e+09,-1.15907e+09,-28968.9,-0.01001,0.0298665,-0,0.0314993,-30114.4,-41864.9,-0,51570.8,-28968.9
step02_gravity_refstate-mantle.xmf,837,-8.72663e-07,1.20683e-06,0,-9.73146e-08,-1.09881e+09,-1.09853e+09,-1.09869e+09,-13006.1,-0.00412224,0.0368387,-0,0.0370686,-35375.6,-40000,-0,53398.8,-13006.1
step02_gravity_refstate-mantle.xmf,838,-1.00389e-06,1.30301e-06,0,-1.09499e-07,-1.1553e+09,-1.15499e+09,-1.15516e+09,-14634.6,-0.00595146,0.0339171,-0,0.0344353,-34207.2,-41744.3,-0,53969.6,-14634.6
step02_gravity_refstate-mantle.xmf,839,-8.94329e-07,1.23889e-06,0,-4.87562e-08,-1.09881e+09,-1.09853e+09,-1.09869e+09,-6516.27,-0.00212929,0.0378063,-0,0.0378662,-37630.7,-40000,-0,54918.8,-6516.27
step02_gravity_refstate-mantle.xmf,840,-1.0294e-06,1.34804e-06,0,-6.41642e-08,-1.15588e+09,-1.15556e+09,-1.15574e+09,-8575.55,-0.00371486,0.0351016,-0,0.0352976,-36417.9,-41762.1,-0,55410.6,-8575.55
step02_gravity_refstate-mantle.xmf,841,-9.02196e-07,1.24934e-06,0,-1.37896e-09,-1.09881e+09,-1.09852e+09,-1.09869e+09,-184.298,3.60338e-20,0.0381471,0,0.0381471,-40000,-40000,-0,56568.5,-184.298
step02_gravity_refstate-mantle.xmf,842,-1.03185e-06,1.36032e-06,0,-2.83884e-08,-1.15247e+09,-1.15215e+09,-1.15233e+09,-3794.11,-0.00171801,0.0358228,-0,0.0358639,-38336.8,-41656.9,-0,56612.8,-3794.11
step02_gravity_refstate-mantle.xmf,843,-9.21148e-07,7.91444e-07,0,-6.28566e-07,-1.22506e+09,-1.22483e+09,-1.22493e+09,-84007.8,-0.0193149,0.0138102,-0,0.0237442,-22523.5,-43898.4,-0,49339.4,-84007.8
step02_gravity_refstate-mantle.xmf,844,-9.56709e-07,7.22112e-07,0,-7.18816e-07,-1.26627e+09,-1.26604e+09,-1.26614e+09,-96069.8,-0.0216467,0.0107169,-0,0.0241544,-21696.4,-45171,-0,50111.4,-96069.8
step02_gravity_refstate-mantle.xmf,845,-9.69128e-07,9.32834e-07,0,-5.02891e-07,-1.22429e+09,-1.22404e+09,-1.22416e+09,-67211.4,-0.0177691,0.0176161,-0,0.0250214,-24132.8,-43874.9,-0,50073.9,-67211.4
step02_gravity_refstate-mantle.xmf,846,-9.98995e-07,1.05006e-06,0,-3.9462e-07,-1.21908e+09,-1.21881e+09,-1.21895e+09,-52740.9,-0.0159468,0.0211541,-0,0.0264914,-25808.7,-43713.9,-0,50764.1,-52740.9
step02_gravity_refstate-mantle.xmf,847,-9.51175e-07,6.13071e-07,0,-8.11144e-07,-1.30791e+09,-1.3077e+09,-1.30778e+09,-108409,-0.0238332,0.00769353,-0,0.0250442,-20872.3,-46457,-0,50930.4,-108409
step02_gravity_refstate-mantle.xmf,848,-8.98886e-07,4.6152e-07,0,-8.94364e-07,-1.35025e+09,-1.35007e+09,-1.35013e+09,-119532,-0.0258049,0.00481476,-0,0.0262502,-20048.1,-47764.9,-0,51801.7,-119532
step02_gravity_refstate-mantle.xmf,849,-7.9522e-07,2.63499e-07,0,-9.6035e-07,-1.39335e+09,-1.39321e+09,-1.39324e+09,-128351,-0.0275174,0.00209881,-0,0.0275973,-19191.8,-49096.4,-0,52714.2,-128351
step02_gravity_refstate-mantle.xmf,850,-6.53167e-07,4.41327e-08,0,-9.87858e-07,-1.436e+09,-1.43591e+09,-1.43591e+09,-132027,-0.028825,-0.000105024,-0,0.0288251,-18396.5,-50414.3,-0,53665.9,-132027
step02_gravity_refstate-mantle.xmf,851,-4.77089e-07,-2.00076e-07,0,-9.83997e-07,-1.47651e+09,-1.47648e+09,-1.47645e+09,-131511,-0.0297663,-0.00193036,-0,0.0298288,-17585.1,-51666.3,-0,54576.9,-131511
step02_gravity_refstate-mantle.xmf,852,-2.71383e-07,-4.64029e-07,0,-9.42651e-07,-1.51691e+09,-1.51693e+09,-1.51687e+09,-125985,-0.0303752,-0.00332383,-0,0.0305565,-16754.6,-52914.7,-0,55503.9,-125985
step02_gravity_refstate-mantle.xmf,853,-3.92579e-08,-7.45812e-07,0,-8.56838e-07,-1.55828e+09,-1.55837e+09,-1.55827e+09,-114516,-0.0306593,-0.00421178,-0,0.0309472,-15892.2,-54193.6,-0,56475.7,-114516
step02_gravity_refstate-mantle.xmf,854,2.09713e-07,-1.03055e-06,0,-7.13058e-07,-1.60284e+09,-1.603e+09,-1.60287e+09,-95300.2,-0.0306209,-0.00438976,-0,0.030934,-15019,-55570.9,-0,57564.7,-95300.2
step02_gravity_refstate-mantle.xmf,855,4.77623e-07,-1.32675e-06,0,-5.13227e-07,-1.65033e+09,-1.65057e+09,-1.65039e+09,-68592.8,-0.0302526,-0.00379962,-0,0.0304902,-14072.5,-57039,-0,58749.3,-68592.8
step02_gravity_refstate-mantle.xmf,856,7.42178e-07,-1.61153e-06,0,-2.66901e-07,-1.6989e+09,-1.69921e+09,-1.699e+09,-35671.4,-0.0295969,-0.00230898,-0,0.0296868,-13108.8,-58540.3,-0,59990.1,-35671.4
step02_gravity_refstate-mantle.xmf,857,9.74193e-07,-1.85619e-06,0,-2.45753e-09,-1.74612e+09,-1.7465e+09,-1.74625e+09,-328.449,-0.0287996,2.38685e-19,-0,0.0287996,-12218.8,-60000,-0,61231.5,-328.449
step02_gravity_refstate-mantle.xmf,858,-9.9206e-07,1.11414e-06,0,-3.19909e-07,-1.20262e+09,-1.20234e+09,-1.20249e+09,-42755.9,-0.0140015,0.0242021,-0,0.0279604,-27239.6,-43205.8,-0,51075.7,-42755.9
step02_gravity_refstate-mantle.xmf,859,-1.09412e-06,1.41878e-06,0,-1.39674e-09,-1.17662e+09,-1.17628e+09,-1.17647e+09,-186.674,4.32266e-20,0.034943,0,0.034943,-40000,-42402.6,-0,58292.2,-186.674
step02_gravity_refstate-mantle.xmf,860,-1.13805e-06,1.39842e-06,0,-1.25207e-07,-1.21592e+09,-1.21558e+09,-1.21576e+09,-16733.9,-0.00808957,0.0305631,-0,0.0316156,-33073.8,-43616.1,-0,54737.9,-16733.9
step02_gravity_refstate-mantle.xmf,861,-1.08506e-06,1.2413e-06,0,-2.53003e-07,-1.22525e+09,-1.22494e+09,-1.2251e+09,-33813.9,-0.0129983,0.0257332,-0,0.0288297,-28824,-43904.3,-0,52520.6,-33813.9
step02_gravity_refstate-mantle.xmf,862,-1.11142e-06,1.3297e-06,0,-1.79245e-07,-1.21852e+09,-1.2182e+09,-1.21837e+09,-23956.1,-0.0104449,0.0285966,-0,0.0304444,-31015.4,-43696.6,-0,53585,-23956.1
step02_gravity_refstate-mantle.xmf,863,-1.18343e-06,1.49489e-06,0,-3.38385e-08,-1.21575e+09,-1.21539e+09,-1.21559e+09,-4522.51,-0.0024692,0.0329465,-0,0.0330389,-37913.3,-43610.8,-0,57786.9,-4522.51
step02_gravity_refstate-mantle.xmf,864,-1.15845e-06,1.4476e-06,0,-8.28706e-08,-1.21412e+09,-1.21377e+09,-1.21396e+09,-11075.7,-0.00580944,0.0319327,-0,0.0324569,-35043.9,-43560.6,-0,55907.1,-11075.7
step02_gravity_refstate-mantle.xmf,865,-1.0134e-06,8.87992e-07,0,-5.7393e-07,-1.26625e+09,-1.266e+09,-1.26612e+09,-76705.8,-0.0200812,0.0145578,-0,0.024803,-23285,-45170.6,-0,50819,-76705.8
step02_gravity_refstate-mantle.xmf,866,-1.02875e-06,8.14862e-07,0,-6.50852e-07,-1.30736e+09,-1.30711e+09,-1.30722e+09,-86986.4,-0.022247,0.0115964,-0,0.025088,-22457.3,-46439.9,-0,51584.9,-86986.4
step02_gravity_refstate-mantle.xmf,867,-1.09139e-06,1.1649e-06,0,-3.38105e-07,-1.24991e+09,-1.24961e+09,-1.24977e+09,-45187.8,-0.0157733,0.0219658,-0,0.0270424,-26885.8,-44666,-0,52133.4,-45187.8
step02_gravity_refstate-mantle.xmf,868,-1.07885e-06,1.05486e-06,0,-4.42207e-07,-1.27073e+09,-1.27044e+09,-1.27059e+09,-59100.9,-0.018339,0.0181284,-0,0.0257868,-25088.8,-45308.8,-0,51791.3,-59100.9
step02_gravity_refstate-mantle.xmf,869,-1.00706e-06,7.07042e-07,0,-7.2033e-07,-1.3506e+09,-1.35037e+09,-1.35046e+09,-96272.1,-0.0242908,0.00872114,-0,0.025809,-21646,-47775.6,-0,52450.5,-96272.1
step02_gravity_refstate-mantle.xmf,870,-9.38648e-07,5.54153e-07,0,-7.80543e-07,-1.39478e+09,-1.39458e+09,-1.39465e+09,-104320,-0.0261665,0.00590109,-0,0.0268237,-20783,-49140.3,-0,53354.5,-104320
step02_gravity_refstate-mantle.xmf,871,-8.28627e-07,3.7144e-07,0,-8.10663e-07,-1.44023e+09,-1.44007e+09,-1.44012e+09,-108345,-0.0277343,0.00342764,-0,0.0279453,-19953.7,-50544.6,-0,54340.7,-108345
step02_gravity_refstate-mantle.xmf,872,-6.85866e-07,1.64367e-07,0,-8.16168e-07,-1.48107e+09,-1.48096e+09,-1.48098e+09,-109081,-0.0289236,0.00134729,-0,0.0289549,-19115.8,-51806.6,-0,55220.8,-109081
step02_gravity_refstate-mantle.xmf,873,-5.2072e-07,-5.77629e-08,0,-8.00052e-07,-1.51838e+09,-1.51832e+09,-1.51831e+09,-106927,-0.0297816,-0.000333526,-0,0.0297834,-18278.2,-52959.7,-0,56025.2,-106927
step02_gravity_refstate-mantle.xmf,874,-3.38946e-07,-2.80031e-07,0,-7.31066e-07,-1.55957e+09,-1.55956e+09,-1.55952e+09,-97707,-0.0303589,-0.0014594,-0,0.0303939,-17503.6,-54232.5,-0,56987.2,-97707
step02_gravity_refstate-mantle.xmf,875,-1.32362e-07,-5.20592e-07,0,-6.1829e-07,-1.60326e+09,-1.60331e+09,-1.60324e+09,-82634.4,-0.0306856,-0.00212432,-0,0.0307591,-16675.1,-55583,-0,58030.4,-82634.4
step02_gravity_refstate-mantle.xmf,876,9.00094e-08,-7.66533e-07,0,-4.52408e-07,-1.65027e+09,-1.65038e+09,-1.65028e+09,-60464.3,-0.0307459,-0.00214813,-0,0.0308209,-15809.7,-57035.9,-0,59186.5,-60464.3
step02_gravity_refstate-mantle.xmf,877,3.20629e-07,-1.01696e-06,0,-2.44245e-07,-1.69795e+09,-1.69813e+09,-1.698e+09,-32643.4,-0.0305466,-0.00147229,-0,0.0305821,-14894.2,-58509.8,-0,60375.8,-32643.4
step02_gravity_refstate-mantle.xmf,878,5.46677e-07,-1.25903e-06,0,-2.63248e-09,-1.74617e+09,-1.74641e+09,-1.74624e+09,-351.831,-0.0301256,1.57389e-19,-0,0.0301256,-13961.9,-60000,-0,61603,-351.831
step02_gravity_refstate-mantle.xmf,879,-1.27531e-06,1.5883e-06,0,-1.0119e-09,-1.25487e+09,-1.25449e+09,-1.2547e+09,-135.24,4.09728e-20,0.0313097,0,0.0313097,-40000,-44819.1,-0,60072.9,-135.24
step02_gravity_refstate-mantle.xmf,880,-1.28272e-06,1.54606e-06,0,-9.82624e-08,-1.27494e+09,-1.27456e+09,-1.27477e+09,-13132.8,-0.00777616,0.0285438,-0,0.0295841,-34035.8,-45438.8,-0,56772.5,-13132.8
step02_gravity_refstate-mantle.xmf,881,-1.25547e-06,1.47779e-06,0,-1.46734e-07,-1.27614e+09,-1.27578e+09,-1.27598e+09,-19611,-0.0103862,0.0270111,-0,0.0289391,-31987,-45476,-0,55598.8,-19611
step02_gravity_refstate-mantle.xmf,882,-1.19379e-06,1.29074e-06,0,-2.85734e-07,-1.28757e+09,-1.28724e+09,-1.28741e+09,-38188.4,-0.0155007,0.0221823,-0,0.0270616,-27997.1,-45828.9,-0,53704.1,-38188.4
step02_gravity_refstate-mantle.xmf,883,-1.22273e-06,1.38928e-06,0,-2.09452e-07,-1.27903e+09,-1.27868e+09,-1.27886e+09,-27993.3,-0.0129776,0.0249008,-0,0.0280797,-29932.6,-45565,-0,54517.3,-27993.3
step02_gravity_refstate-mantle.xmf,884,-1.30747e-06,1.59994e-06,0,-5.81362e-08,-1.27639e+09,-1.276e+09,-1.27621e+09,-7769.9,-0.00500529,0.0295293,-0,0.0299505,-36192.1,-45483.4,-0,58125.8,-7769.9
step02_gravity_refstate-mantle.xmf,885,-1.35736e-06,1.66593e-06,0,-2.57051e-08,-1.29533e+09,-1.29492e+09,-1.29515e+09,-3435.49,-0.00242844,0.0291214,-0,0.0292225,-38211.8,-46068.4,-0,59853.4,-3435.49
step02_gravity_refstate-mantle.xmf,886,-1.0902e-06,9.78934e-07,0,-5.2486e-07,-1.30544e+09,-1.30517e+09,-1.3053e+09,-70147.5,-0.0206081,0.014838,-0,0.0253941,-23951.7,-46380.9,-0,52200.3,-70147.5
step02_gravity_refstate-mantle.xmf,887,-1.09795e-06,9.21812e-07,0,-5.72006e-07,-1.34765e+09,-1.34738e+09,-1.34751e+09,-76448.7,-0.0224817,0.0122906,-0,0.025622,-23292.4,-47684.6,-0,53069.3,-76448.7
step02_gravity_refstate-mantle.xmf,888,-1.16277e-06,1.18852e-06,0,-3.6551e-07,-1.29519e+09,-1.29487e+09,-1.29503e+09,-48850.5,-0.0175504,0.0195719,-0,0.0262883,-26415.2,-46064.1,-0,53100.5,-48850.5
step02_gravity_refstate-mantle.xmf,889,-1.06394e-06,8.14403e-07,0,-6.21857e-07,-1.39525e+09,-1.395e+09,-1.39511e+09,-83111.1,-0.0245074,0.00936108,-0,0.0262344,-22449.4,-49154.8,-0,54038.6,-83111.1
step02_gravity_refstate-mantle.xmf,890,-9.84049e-07,6.66733e-07,0,-6.52869e-07,-1.44467e+09,-1.44445e+09,-1.44454e+09,-87255.9,-0.0263466,0.00654898,-0,0.0271484,-21563,-50681.5,-0,55077.9,-87255.9
step02_gravity_refstate-mantle.xmf,891,-8.62544e-07,4.94029e-07,0,-6.39006e-07,-1.49988e+09,-1.4997e+09,-1.49977e+09,-85403.2,-0.027909,0.00405081,-0,0.0282014,-20704.6,-52387.4,-0,56330.4,-85403.2
step02_gravity_refstate-mantle.xmf,892,-7.07661e-07,2.56923e-07,0,-6.90468e-07,-1.51754e+09,-1.51741e+09,-1.51745e+09,-92281.1,-0.0289587,0.00200928,-0,0.0290283,-19604.5,-52933.3,-0,56447.1,-92281.1
step02_gravity_refstate-mantle.xmf,893,-5.99363e-07,1.33539e-07,0,-6.19324e-07,-1.55868e+09,-1.55858e+09,-1.5586e+09,-82772.7,-0.0296025,0.000982711,-0,0.0296188,-19105.7,-54204.5,-0,57473.1,-82772.7
step02_gravity_refstate-mantle.xmf,894,-4.34914e-07,-5.73088e-08,0,-5.23536e-07,-1.60362e+09,-1.60357e+09,-1.60356e+09,-69970.6,-0.0302125,-5.88832e-05,-0,0.0302125,-18347.6,-55593.3,-0,58542.7,-69970.6
step02_gravity_refstate-mantle.xmf,895,-2.52821e-07,-2.58938e-07,0,-3.89293e-07,-1.64991e+09,-1.64992e+09,-1.64988e+09,-52029,-0.0306053,-0.000644246,-0,0.0306121,-17535.7,-57024,-0,59659.3,-52029
step02_gravity_refstate-mantle.xmf,896,-5.70472e-08,-4.70974e-07,0,-2.14959e-07,-1.69731e+09,-1.69737e+09,-1.6973e+09,-28729.3,-0.0307799,-0.000668533,-0,0.0307872,-16661.5,-58488.8,-0,60815.7,-28729.3
step02_gravity_refstate-mantle.xmf,897,1.42671e-07,-6.82427e-07,0,-2.51893e-09,-1.74621e+09,-1.74632e+09,-1.74622e+09,-336.654,-0.0307423,7.8179e-20,-0,0.0307423,-15749.5,-60000,-0,62032.6,-336.654
step02_gravity_refstate-mantle.xmf,898,-1.43722e-06,1.75376e-06,0,-1.37616e-09,-1.33378e+09,-1.33336e+09,-1.33359e+09,-183.924,4.62109e-20,0.0272377,0,0.0272377,-40000,-47256,-0,61912.3,-183.924
step02_gravity_refstate-mantle.xmf,899,-1.17377e-06,1.11597e-06,0,-4.41413e-07,-1.3342e+09,-1.33389e+09,-1.33404e+09,-58994.9,-0.0200484,0.0160886,-0,0.0257057,-25136.8,-47268.9,-0,53537,-58994.9
step02_gravity_refstate-mantle.xmf,900,-1.24851e-06,1.28822e-06,0,-3.27377e-07,-1.33934e+09,-1.339e+09,-1.33918e+09,-43753.9,-0.0178502,0.0188406,-0,0.0259538,-27060.8,-47427.8,-0,54604.8,-43753.9
step02_gravity_refstate-mantle.xmf,901,-1.40916e-06,1.68653e-06,0,-7.59501e-08,-1.33314e+09,-1.33273e+09,-1.33295e+09,-10150.7,-0.00715529,0.02614,-0,0.0271016,-34976,-47236.1,-0,58775.6,-10150.7
step02_gravity_refstate-mantle.xmf,902,-1.3834e-06,1.62279e-06,0,-1.17943e-07,-1.33433e+09,-1.33393e+09,-1.33414e+09,-15763.1,-0.00998108,0.0249537,-0,0.0268758,-32956.7,-47272.8,-0,57626.9,-15763.1
step02_gravity_refstate-mantle.xmf,903,-1.3463e-06,1.53206e-06,0,-1.73459e-07,-1.33551e+09,-1.33512e+09,-1.33533e+09,-23182.8,-0.0128131,0.0233025,-0,0.0265929,-30888.9,-47309.3,-0,56500.4,-23182.8
step02_gravity_refstate-mantle.xmf,904,-1.3007e-06,1.41945e-06,0,-2.43133e-07,-1.33694e+09,-1.33658e+09,-1.33677e+09,-32494.7,-0.0154441,0.0212561,-0,0.0262744,-28914.9,-47353.5,-0,55483.6,-32494.7
step02_gravity_refstate-mantle.xmf,905,-1.41938e-06,1.71997e-06,0,-4.48415e-08,-1.33032e+09,-1.3299e+09,-1.33013e+09,-5993.06,-0.0046065,0.0269575,-0,0.0273482,-36766.3,-47149,-0,59789.5,-5993.06
step02_gravity_refstate-mantle.xmf,906,-1.49751e-06,1.8165e-06,0,-2.5853e-08,-1.37014e+09,-1.3697e+09,-1.36994e+09,-3455.26,-0.00292809,0.0250709,-0,0.0252413,-38047.6,-48378.8,-0,61547.8,-3455.26
step02_gravity_refstate-mantle.xmf,907,-1.17052e-06,1.04232e-06,0,-4.86497e-07,-1.39268e+09,-1.39238e+09,-1.39252e+09,-65020.3,-0.0225119,0.012543,-0,0.0257704,-24186.8,-49075.3,-0,54711.8,-65020.3
step02_gravity_refstate-mantle.xmf,908,-1.12154e-06,9.31904e-07,0,-5.18235e-07,-1.4449e+09,-1.44462e+09,-1.44475e+09,-69262.1,-0.0245799,0.00941574,-0,0.0263216,-23244.1,-50688.3,-0,55763.7,-69262.1
step02_gravity_refstate-mantle.xmf,909,-1.02201e-06,7.7239e-07,0,-5.29409e-07,-1.49751e+09,-1.49727e+09,-1.49737e+09,-70755.5,-0.0264672,0.00643313,-0,0.0272378,-22204.1,-52313.6,-0,56830.7,-70755.5
step02_gravity_refstate-mantle.xmf,910,-8.52686e-07,5.29968e-07,0,-5.25891e-07,-1.5476e+09,-1.54742e+09,-1.54749e+09,-70285.4,-0.0282222,0.00357797,-0,0.0284481,-20892.9,-53861.7,-0,57771.9,-70285.4
step02_gravity_refstate-mantle.xmf,911,-7.07829e-07,3.68929e-07,0,-4.36471e-07,-1.60177e+09,-1.60163e+09,-1.60168e+09,-58334.3,-0.0292065,0.00187736,-0,0.0292668,-20093.6,-55535.4,-0,59058.8,-58334.3
step02_gravity_refstate-mantle.xmf,912,-5.57082e-07,2.03426e-07,0,-3.2744e-07,-1.64914e+09,-1.64904e+09,-1.64906e+09,-43762.4,-0.0298931,0.000742821,-0,0.0299023,-19291.8,-56999.2,-0,60175.4,-43762.4
step02_gravity_refstate-mantle.xmf,913,-4.01112e-07,4.13767e-08,0,-1.79683e-07,-1.69759e+09,-1.69753e+09,-1.69754e+09,-24014.6,-0.0303608,0.000104638,-0,0.0303609,-18492.4,-58496.6,-0,61350,-24014.6
step02_gravity_refstate-mantle.xmf,914,-2.2829e-07,-1.39988e-07,0,-2.23332e-09,-1.74624e+09,-1.74623e+09,-1.74621e+09,-298.483,-0.0306639,1.59911e-21,-0,0.0306639,-17587.3,-60000,-0,62524.5,-298.483
step02_gravity_refstate-mantle.xmf,915,-1.57549e-06,1.91303e-06,0,-2.36113e-09,-1.41359e+09,-1.41312e+09,-1.41337e+09,-315.565,6.09327e-20,0.0227199,0,0.0227199,-40000,-49720.5,-0,63813.3,-315.565
step02_gravity_refstate-mantle.xmf,916,-1.26391e-06,1.24507e-06,0,-3.72515e-07,-1.39109e+09,-1.39075e+09,-1.39092e+09,-49786.6,-0.0202515,0.0153755,-0,0.025427,-26019.6,-49026,-0,55502.8,-49786.6
step02_gravity_refstate-mantle.xmf,917,-1.34004e-06,1.41396e-06,0,-2.77157e-07,-1.39148e+09,-1.39111e+09,-1.3913e+09,-37042,-0.01783,0.0177084,-0,0.0251296,-27889.8,-49037.9,-0,56414.2,-37042
step02_gravity_refstate-mantle.xmf,918,-1.51927e-06,1.82154e-06,0,-5.42092e-08,-1.39e+09,-1.38955e+09,-1.3898e+09,-7245.05,-0.00614107,0.0234536,-0,0.0242442,-35981,-48992.1,-0,60785.3,-7245.05
step02_gravity_refstate-mantle.xmf,919,-1.49681e-06,1.76599e-06,0,-9.07778e-08,-1.39299e+09,-1.39255e+09,-1.39279e+09,-12132.5,-0.0092195,0.0224595,-0,0.0242782,-33950.8,-49084.4,-0,59682,-12132.5
step02_gravity_refstate-mantle.xmf,920,-1.45746e-06,1.67734e-06,0,-1.37483e-07,-1.39238e+09,-1.39196e+09,-1.39218e+09,-18374.6,-0.0122117,0.021293,-0,0.0245463,-31915.7,-49065.6,-0,58532.4,-18374.6
step02_gravity_refstate-mantle.xmf,921,-1.405e-06,1.55909e-06,0,-1.99168e-07,-1.39204e+09,-1.39164e+09,-1.39185e+09,-26618.8,-0.0151357,0.0196867,-0,0.0248326,-29864.5,-49055.1,-0,57430.8,-26618.8
step02_gravity_refstate-mantle.xmf,922,-1.62548e-06,1.96945e-06,0,-3.0644e-08,-1.4529e+09,-1.45242e+09,-1.45268e+09,-4095.57,-0.00397126,0.020152,-0,0.0205395,-37558.6,-50934.8,-0,63285.1,-4095.57
step02_gravity_refstate-mantle.xmf,923,-1.2411e-06,1.16958e-06,0,-4.00304e-07,-1.44476e+09,-1.44444e+09,-1.4446e+09,-53500.7,-0.0224676,0.0120212,-0,0.0254814,-25029.9,-50683.9,-0,56527.5,-53500.7
step02_gravity_refstate-mantle.xmf,924,-1.17797e-06,1.0575e-06,0,-4.1367e-07,-1.49767e+09,-1.49737e+09,-1.49752e+09,-55287,-0.0245019,0.00885032,-0,0.0260513,-23992.3,-52318.5,-0,57557.4,-55287
step02_gravity_refstate-mantle.xmf,925,-1.0643e-06,8.94003e-07,0,-4.04287e-07,-1.55128e+09,-1.55101e+09,-1.55113e+09,-54033,-0.0264119,0.00583803,-0,0.0270494,-22817,-53974.6,-0,58599.3,-54033
step02_gravity_refstate-mantle.xmf,926,-9.45631e-07,7.49126e-07,0,-3.57023e-07,-1.59887e+09,-1.59864e+09,-1.59874e+09,-47716.1,-0.0276967,0.00369802,-0,0.0279425,-21900.8,-55445.2,-0,59613.9,-47716.1
step02_gravity_refstate-mantle.xmf,927,-8.34186e-07,6.36789e-07,0,-2.6942e-07,-1.64687e+09,-1.64668e+09,-1.64676e+09,-36007.9,-0.0285727,0.00210212,-0,0.0286499,-21179,-56928.5,-0,60740.5,-36007.9
step02_gravity_refstate-mantle.xmf,928,-7.08933e-07,5.1105e-07,0,-1.48993e-07,-1.69667e+09,-1.69651e+09,-1.69658e+09,-19912.9,-0.0293023,0.000826658,-0,0.029314,-20397.3,-58467.3,-0,61923.2,-19912.9
step02_gravity_refstate-mantle.xmf,929,-5.60193e-07,3.5861e-07,0,-2.05803e-09,-1.74627e+09,-1.74615e+09,-1.7462e+09,-275.055,-0.0299171,-6.9764e-20,-0,0.0299171,-19481,-60000,-0,63083.3,-275.055
step02_gravity_refstate-mantle.xmf,930,-1.68494e-06,2.06421e-06,0,-1.76246e-09,-1.49451e+09,-1.49401e+09,-1.49428e+09,-235.552,5.218e-20,0.0177488,0,0.0177488,-40000,-52219.9,-0,65779.3,-235.552
step02_gravity_refstate-mantle.xmf,931,-1.34425e-06,1.37854e-06,0,-3.03575e-07,-1.44498e+09,-1.44462e+09,-1.4448e+09,-40572.8,-0.0200702,0.0142769,-0,0.0246301,-26888.9,-50690.5,-0,57380.7,-40572.8
step02_gravity_refstate-mantle.xmf,932,-1.43014e-06,1.55608e-06,0,-2.20891e-07,-1.44698e+09,-1.44658e+09,-1.44679e+09,-29522,-0.0174135,0.0161144,-0,0.0237256,-28828.7,-50752.2,-0,58368.5,-29522
step02_gravity_refstate-mantle.xmf,933,-1.5994e-06,1.91335e-06,0,-6.22289e-08,-1.45295e+09,-1.45248e+09,-1.45273e+09,-8316.9,-0.00785764,0.0195483,-0,0.0210684,-35143.8,-50936.3,-0,61883.7,-8316.9
step02_gravity_refstate-mantle.xmf,934,-1.55764e-06,1.82391e-06,0,-1.03058e-07,-1.45017e+09,-1.44972e+09,-1.44997e+09,-13773.6,-0.0112486,0.018802,-0,0.02191,-32977.1,-50850.6,-0,60607.6,-13773.6
step02_gravity_refstate-mantle.xmf,935,-1.5014e-06,1.70532e-06,0,-1.54716e-07,-1.44923e+09,-1.4488e+09,-1.44903e+09,-20677.7,-0.0144761,0.0175931,-0,0.0227833,-30856,-50821.5,-0,59455.2,-20677.7
step02_gravity_refstate-mantle.xmf,936,-1.72096e-06,2.12499e-06,0,-1.96755e-08,-1.53665e+09,-1.53614e+09,-1.53642e+09,-2629.63,-0.00348205,0.014912,-0,0.0153131,-37980.7,-53521.7,-0,65628.5,-2629.63
step02_gravity_refstate-mantle.xmf,937,-1.30959e-06,1.30612e-06,0,-3.14051e-07,-1.49859e+09,-1.49824e+09,-1.49841e+09,-41973,-0.0222002,0.0109363,-0,0.0247478,-25852,-52346.5,-0,58382.2,-41973
step02_gravity_refstate-mantle.xmf,938,-1.1429e-06,1.08158e-06,0,-2.74795e-07,-1.60158e+09,-1.60128e+09,-1.60142e+09,-36726.3,-0.0257884,0.00517253,-0,0.0263021,-23744.7,-55528.3,-0,60392.1,-36726.3
step02_gravity_refstate-mantle.xmf,939,-1.24027e-06,1.20397e-06,0,-3.07413e-07,-1.55135e+09,-1.55102e+09,-1.55118e+09,-41085.7,-0.0241493,0.00783032,-0,0.0253871,-24781.2,-53976.5,-0,59393.4,-41085.7
step02_gravity_refstate-mantle.xmf,940,-1.03416e-06,9.49643e-07,0,-2.31443e-07,-1.64073e+09,-1.64046e+09,-1.64059e+09,-30932.4,-0.027032,0.00328987,-0,0.0272314,-22801.5,-56738.1,-0,61148.3,-30932.4
step02_gravity_refstate-mantle.xmf,941,-1.00447e-06,9.69373e-07,0,-1.2185e-07,-1.69307e+09,-1.6928e+09,-1.69293e+09,-16285.2,-0.0273904,0.00165321,-0,0.0274403,-22618,-58355.2,-0,62585.1,-16285.2
step02_gravity_refstate-mantle.xmf,942,-8.50824e-07,8.08852e-07,0,-1.86086e-09,-1.7463e+09,-1.74608e+09,-1.74618e+09,-248.705,-0.0285381,-1.49398e-19,-0,0.0285381,-21436.1,-60000,-0,63714.3,-248.705
step02_gravity_refstate-mantle.xmf,943,-1.67158e-06,2.03425e-06,0,-4.21134e-08,-1.50498e+09,-1.50449e+09,-1.50476e+09,-5628.45,-0.0063606,0.0166741,-0,0.0178461,-36227.6,-52543.4,-0,63822,-5628.45
step02_gravity_refstate-mantle.xmf,944,-1.7647e-06,2.21041e-06,0,-2.93715e-09,-1.57679e+09,-1.57626e+09,-1.57655e+09,-392.55,6.20088e-20,0.0123179,0,0.0123179,-40000,-54761.4,-0,67814.5,-392.55
step02_gravity_refstate-mantle.xmf,945,-1.4218e-06,1.52386e-06,0,-2.32944e-07,-1.50124e+09,-1.50084e+09,-1.50105e+09,-31132.9,-0.0195979,0.0126264,-0,0.0233132,-27781.9,-52428.2,-0,59334.2,-31132.9
step02_gravity_refstate-mantle.xmf,946,-1.51463e-06,1.70732e-06,0,-1.64689e-07,-1.50414e+09,-1.50371e+09,-1.50394e+09,-22010.7,-0.0166559,0.0139937,-0,0.0217542,-29809.5,-52517.6,-0,60387.9,-22010.7
step02_gravity_refstate-mantle.xmf,947,-1.65944e-06,1.99691e-06,0,-6.68973e-08,-1.52122e+09,-1.52073e+09,-1.52099e+09,-8940.83,-0.0096696,0.0151453,-0,0.0179689,-34288.2,-53044.9,-0,63162,-8940.83
step02_gravity_refstate-mantle.xmf,948,-1.59033e-06,1.85965e-06,0,-1.10826e-07,-1.50806e+09,-1.5076e+09,-1.50785e+09,-14811.9,-0.0133912,0.014992,-0,0.0201018,-31938.6,-52638.7,-0,61570.4,-14811.9
step02_gravity_refstate-mantle.xmf,949,-1.72415e-06,2.12633e-06,0,-3.55032e-08,-1.55817e+09,-1.55765e+09,-1.55794e+09,-4745,-0.00667545,0.0132446,-0,0.0148318,-36157.7,-54186.2,-0,65142.4,-4745
step02_gravity_refstate-mantle.xmf,950,-1.7791e-06,2.25862e-06,0,-1.43739e-08,-1.61497e+09,-1.61443e+09,-1.61473e+09,-1921.07,-0.00433333,0.00957895,-0,0.0105135,-37570.7,-55940.7,-0,67386.3,-1921.07
step02_gravity_refstate-mantle.xmf,951,-1.81175e-06,2.34993e-06,0,-6.71506e-10,-1.66066e+09,-1.66011e+09,-1.66042e+09,-89.7467,4.81111e-20,0.00640739,0,0.00640739,-40000,-57352.3,-0,69923.4,-89.7467
step02_gravity_refstate-mantle.xmf,952,-1.38096e-06,1.46232e-06,0,-2.2628e-07,-1.55497e+09,-1.55459e+09,-1.55479e+09,-30242.3,-0.0216277,0.00930807,-0,0.0235457,-26730.8,-54088,-0,60332.8,-30242.3
step02_gravity_refstate-mantle.xmf,953,-1.22141e-06,1.29047e-06,0,-1.45807e-07,-1.66126e+09,-1.66092e+09,-1.66109e+09,-19487.1,-0.0250632,0.0035152,-0,0.0253085,-24623.1,-57371.9,-0,62432.6,-19487.1
step02_gravity_refstate-mantle.xmf,954,-1.31206e-06,1.37815e-06,0,-2.03277e-07,-1.6063e+09,-1.60594e+09,-1.60612e+09,-27168,-0.0234637,0.00632007,-0,0.0243,-25664.3,-55673.8,-0,61304.4,-27168
step02_gravity_refstate-mantle.xmf,955,-1.09901e-06,1.20696e-06,0,-7.69637e-10,-1.74632e+09,-1.74601e+09,-1.74617e+09,-102.862,-0.0265692,-1.35893e-19,-0,0.0265692,-23458.4,-60000,-0,64422.8,-102.862
step02_gravity_refstate-mantle.xmf,956,-1.8107e-06,2.37719e-06,0,-5.08853e-09,-1.68479e+09,-1.68423e+09,-1.68455e+09,-680.082,-0.00346182,0.00461383,-0,0.00576815,-38093.5,-58097.7,-0,69472.7,-680.082
step02_gravity_refstate-mantle.xmf,957,-1.82999e-06,2.49636e-06,0,-6.96495e-10,-1.74637e+09,-1.74579e+09,-1.74612e+09,-93.0865,-2.91162e-19,-5.46157e-20,-0,2.9624e-19,-40000,-60000,-0,72111,-93.0865
step02_gravity_refstate-mantle.xmf,958,-1.49651e-06,1.68105e-06,0,-1.63853e-07,-1.55909e+09,-1.55867e+09,-1.55889e+09,-21899,-0.018821,0.0104269,-0,0.0215163,-28707,-54215.2,-0,61346.4,-21899
step02_gravity_refstate-mantle.xmf,959,-1.59385e-06,1.86808e-06,0,-1.11115e-07,-1.56198e+09,-1.56152e+09,-1.56177e+09,-14850.5,-0.015492,0.0113902,-0,0.0192286,-30877,-54304.2,-0,62468.6,-14850.5
step02_gravity_refstate-mantle.xmf,960,-1.21135e-06,1.34164e-06,0,-6.29598e-08,-1.71162e+09,-1.71128e+09,-1.71146e+09,-8414.58,-0.0252577,0.00146052,-0,0.0252999,-24572.4,-58927.9,-0,63846,-8414.58
step02_gravity_refstate-mantle.xmf,961,-1.65676e-06,1.99243e-06,0,-7.49606e-08,-1.56164e+09,-1.56115e+09,-1.56142e+09,-10018.5,-0.0123295,0.012172,-0,0.0173255,-32823.6,-54293.7,-0,63444.4,-10018.5
step02_gravity_refstate-mantle.xmf,962,-1.732e-06,2.15709e-06,0,-3.9641e-08,-1.60698e+09,-1.60646e+09,-1.60675e+09,-5298.02,-0.0093472,0.00975171,-0,0.013508,-34703.4,-55694.1,-0,65621.3,-5298.02
step02_gravity_refstate-mantle.xmf,963,-1.78661e-06,2.32042e-06,0,-1.36548e-08,-1.67768e+09,-1.67714e+09,-1.67745e+09,-1824.96,-0.00713041,0.00503228,-0,0.00872734,-36050.5,-57878.2,-0,68187.4,-1824.96
step02_gravity_refstate-mantle.xmf,964,-1.8146e-06,2.46448e-06,0,-1.01491e-09,-1.74637e+09,-1.7458e+09,-1.74613e+09,-135.643,-0.00484964,-5.72154e-20,-0,0.00484964,-37337.5,-60000,-0,70668.9,-135.643
step02_gravity_refstate-mantle.xmf,965,-1.45187e-06,1.63226e-06,0,-1.4367e-07,-1.61264e+09,-1.61222e+09,-1.61244e+09,-19201.5,-0.0207682,0.00711126,-0,0.021952,-27643.2,-55869.3,-0,62334,-19201.5
step02_gravity_refstate-mantle.xmf,966,-1.38224e-06,1.55166e-06,0,-1.19128e-07,-1.65373e+09,-1.65334e+09,-1.65355e+09,-15921.4,-0.0225213,0.00461698,-0,0.0229896,-26553.1,-57139,-0,63007.4,-15921.4
step02_gravity_refstate-mantle.xmf,967,-1.3721e-06,1.60335e-06,0,-5.81958e-08,-1.70459e+09,-1.7042e+09,-1.70441e+09,-7777.87,-0.0228978,0.00209808,-0,0.0229938,-26389.5,-58710.3,-0,64368.5,-7777.87
step02_gravity_refstate-mantle.xmf,968,-1.30259e-06,1.54369e-06,0,-7.65382e-10,-1.74633e+09,-1.74595e+09,-1.74616e+09,-102.293,-0.024052,-1.98975e-19,-0,0.024052,-25553.8,-60000,-0,65215,-102.293
step02_gravity_refstate-mantle.xmf,969,-1.57256e-06,1.8596e-06,0,-9.73918e-08,-1.62e+09,-1.61954e+09,-1.61979e+09,-13016.4,-0.0176015,0.00760084,-0,0.0191725,-29764.8,-56096.5,-0,63504,-13016.4
step02_gravity_refstate-mantle.xmf,970,-1.66819e-06,2.03841e-06,0,-6.33603e-08,-1.6189e+09,-1.61841e+09,-1.61868e+09,-8468.11,-0.0137807,0.0083974,-0,0.0161376,-32121.1,-56062.5,-0,64612.4,-8468.11
step02_gravity_refstate-mantle.xmf,971,-1.7333e-06,2.2182e-06,0,-2.54075e-08,-1.67951e+09,-1.67899e+09,-1.67928e+09,-3395.71,-0.0115103,0.00468169,-0,0.012426,-33563,-57934.8,-0,66954.5,-3395.71
step02_gravity_refstate-mantle.xmf,972,-1.77214e-06,2.38199e-06,0,-6.18792e-10,-1.74637e+09,-1.74581e+09,-1.74613e+09,-82.7015,-0.00942613,-5.0622e-20,-0,0.00942613,-34785.7,-60000,-0,69354.5,-82.7015
step02_gravity_refstate-mantle.xmf,973,-1.51478e-06,1.81798e-06,0,-6.29313e-08,-1.68171e+09,-1.68127e+09,-1.68151e+09,-8410.77,-0.0198875,0.00371365,-0,0.0202312,-28439.3,-58003.1,-0,64600,-8410.77
step02_gravity_refstate-mantle.xmf,974,-1.46924e-06,1.82912e-06,0,-6.8647e-10,-1.74635e+09,-1.74591e+09,-1.74615e+09,-91.7467,-0.0210346,-3.56175e-19,-0,0.0210346,-27728.1,-60000,-0,66097.3,-91.7467
step02_gravity_refstate-mantle.xmf,975,-1.6492e-06,2.06128e-06,0,-4.05796e-08,-1.68204e+09,-1.68155e+09,-1.68182e+09,-5423.46,-0.0156779,0.00418654,-0,0.0162272,-31101.1,-58013,-0,65823.9,-5423.46
step02_gravity_refstate-mantle.xmf,976,-1.70249e-06,2.2494e-06,0,-2.19048e-10,-1.74636e+09,-1.74583e+09,-1.74613e+09,-29.2758,-0.0136787,-4.15683e-20,-0,0.0136787,-32337.8,-60000,-0,68159.6,-29.2758
step02_gravity_refstate-mantle.xmf,977,-1.60242e-06,2.06554e-06,0,1.57109e-10,-1.74636e+09,-1.74587e+09,-1.74614e+09,20.9976,-0.0175626,-4.02451e-19,-0,0.0175626,-29987.4,-60000,-0,67076.4,-20.9976
step02_gravity_refstate-intrusion.xmf,0,-1.35407e-05,2.99959e-05,0,1.47777e-05,-8.24378e+08,-8.19557e+08,-8.22879e+08,1.63654e+06,-0.0162405,-0.274943,-0,0.275422,1000,-30000,0,30016.7,-1.63654e+06
step02_gravity_refstate-intrusion.xmf,1,-1.71646e-05,3.00598e-05,0,5.9267e-06,-8.25031e+08,-8.19801e+08,-8.2313e+08,656346,-0.00886801,-0.290486,-0,0.290622,499.828,-30000,0,30004.2,-656346
step02_gravity_refstate-intrusion.xmf,2,-1.09171e-05,2.33214e-05,0,1.71714e-05,-8.3812e+08,-8.34328e+08,-8.36911e+08,1.90163e+06,-0.0116997,-0.288361,-0,0.288599,1000,-30500.4,0,30516.8,-1.90163e+06
step02_gravity_refstate-intrusion.xmf,3,-4.84613e-06,1.01537e-05,0,1.94447e-05,-8.79172e+08,-8.77511e+08,-8.78635e+08,2.15338e+06,-0.00515124,-0.312943,-0,0.312985,1000,-32001.2,0,32016.9,-2.15338e+06
step02_gravity_refstate-intrusion.xmf,4,-3.16525e-06,6.42197e-06,0,1.97991e-05,-8.92854e+08,-8.91792e+08,-8.92503e+08,2.19262e+06,-0.00339216,-0.317053,-0,0.317071,1000,-32500.8,0,32516.2,-2.19262e+06
step02_gravity_refstate-intrusion.xmf,5,-8.66277e-06,1.85896e-05,0,1.81958e-05,-8.51779e+08,-8.48761e+08,-8.5082e+08,2.01507e+06,-0.0090993,-0.298794,-0,0.298933,1000,-31000.5,0,31016.6,-2.01507e+06
step02_gravity_refstate-intrusion.xmf,6,-6.64075e-06,1.41428e-05,0,1.89079e-05,-8.65476e+08,-8.63174e+08,-8.64741e+08,2.09393e+06,-0.00701842,-0.306914,-0,0.306994,1000,-31501,0,31516.9,-2.09393e+06
step02_gravity_refstate-intrusion.xmf,7,-1.55666e-06,2.76737e-06,0,2.00684e-05,-9.06534e+08,-9.06055e+08,-9.06361e+08,2.22245e+06,-0.0016984,-0.319332,-0,0.319337,1000,-33000.1,0,33015.2,-2.22245e+06
step02_gravity_refstate-intrusion.xmf,8,2.15777e-08,-7.31859e-07,0,2.01938e-05,-9.20223e+08,-9.20307e+08,-9.20226e+08,2.23634e+06,-4.69488e-05,-0.319839,-0,0.319839,1000,-33499.9,0,33514.8,-2.23634e+06
step02_gravity_refstate-intrusion.xmf,9,-1.75836e-05,3.09293e-05,0,1.88327e-09,-8.25046e+08,-8.19673e+08,-8.23098e+08,208.561,1.85571e-06,-0.295201,0,0.295201,-1.02887e-10,-30000,-0,30000,-208.561
step02_gravity_refstate-intrusion.xmf,10,1.56835e-06,-4.23374e-06,0,2.02361e-05,-9.33936e+08,-9.34578e+08,-9.34109e+08,2.24103e+06,0.00157777,-0.318594,0,0.318598,1000,-34000.3,0,34015,-2.24103e+06
step02_gravity_refstate-intrusion.xmf,11,3.10105e-06,-7.73176e-06,0,2.01868e-05,-9.4765e+08,-9.4885e+08,-9.47994e+08,2.23557e+06,0.00318628,-0.315607,0,0.315623,1000,-34500.8,0,34515.3,-2.23557e+06
step02_gravity_refstate-intrusion.xmf,12,4.62884e-06,-1.12549e-05,0,2.00445e-05,-9.61351e+08,-9.6311e+08,-9.61863e+08,2.2198e+06,0.00478795,-0.310878,0,0.310915,1000,-35000.6,0,35014.9,-2.2198e+06
step02_gravity_refstate-intrusion.xmf,13,6.16876e-06,-1.48471e-05,0,1.9811e-05,-9.75039e+08,-9.77366e+08,-9.75722e+08,2.19394e+06,0.00639404,-0.304388,0,0.304455,1000,-35499.8,0,35513.9,-2.19394e+06
step02_gravity_refstate-intrusion.xmf,14,7.73595e-06,-1.84904e-05,0,1.94583e-05,-9.88735e+08,-9.91639e+08,-9.89592e+08,2.15489e+06,0.00802173,-0.296078,0,0.296187,1000,-35999.4,0,36013.3,-2.15489e+06
step02_gravity_refstate-intrusion.xmf,15,-1.73522e-05,2.91478e-05,0,-4.6648e-06,-8.25129e+08,-8.1998e+08,-8.23208e+08,-516598,0.00886928,-0.290493,0,0.290629,-499.828,-30000,-0,30004.2,-516598
step02_gravity_refstate-intrusion.xmf,16,9.39505e-06,-2.24228e-05,0,1.90068e-05,-1.00245e+09,-1.00598e+09,-1.00349e+09,2.10489e+06,0.00970438,-0.285852,0,0.286016,1000,-36499.7,0,36513.4,-2.10489e+06
step02_gravity_refstate-intrusion.xmf,17,-1.349e-05,2.98659e-05,0,-1.46913e-05,-8.24378e+08,-8.19577e+08,-8.22884e+08,-1.62697e+06,0.0162424,-0.274984,0,0.275463,-1000,-30000,-0,30016.7,-1.62697e+06
step02_gravity_refstate-intrusion.xmf,18,-1.09242e-05,2.33342e-05,0,-1.71917e-05,-8.3812e+08,-8.34326e+08,-8.3691e+08,-1.90388e+06,0.0117002,-0.288358,0,0.288595,-1000,-30500.4,-0,30516.8,-1.90388e+06
step02_gravity_refstate-intrusion.xmf,19,1.11671e-05,-2.67574e-05,0,1.84302e-05,-1.01619e+09,-1.02039e+09,-1.01742e+09,2.04104e+06,0.011541,-0.273555,0,0.273798,1000,-37000.2,0,37013.7,-2.04104e+06
step02_gravity_refstate-intrusion.xmf,20,-8.68087e-06,1.83762e-05,0,-1.82743e-05,-8.51798e+08,-8.48801e+08,-8.50836e+08,-2.02377e+06,0.00909807,-0.298795,0,0.298933,-1000,-31000.5,-0,31016.6,-2.02377e+06
step02_gravity_refstate-intrusion.xmf,21,-6.66895e-06,1.40361e-05,0,-1.89701e-05,-8.65489e+08,-8.63196e+08,-8.6475e+08,-2.10083e+06,0.00701962,-0.306911,0,0.306991,-1000,-31501,-0,31516.9,-2.10083e+06
step02_gravity_refstate-intrusion.xmf,22,1.29585e-05,-3.19435e-05,0,1.8025e-05,-1.02996e+09,-1.03493e+09,-1.0314e+09,1.99616e+06,0.013864,-0.258949,0,0.259319,1000,-37500.2,0,37513.6,-1.99616e+06
step02_gravity_refstate-intrusion.xmf,23,-4.85636e-06,1.00816e-05,0,-1.94653e-05,-8.79179e+08,-8.77525e+08,-8.78641e+08,-2.15566e+06,0.00515182,-0.312944,0,0.312987,-1000,-32001.2,-0,32016.9,-2.15566e+06
step02_gravity_refstate-intrusion.xmf,24,-3.16886e-06,6.35521e-06,0,-1.98245e-05,-8.92859e+08,-8.91804e+08,-8.92508e+08,-2.19544e+06,0.00339195,-0.317053,0,0.317071,-1000,-32500.8,-0,32516.2,-2.19544e+06
step02_gravity_refstate-intrusion.xmf,25,-1.55827e-06,2.7699e-06,0,-2.00678e-05,-9.06534e+08,-9.06054e+08,-9.06361e+08,-2.22238e+06,0.00169852,-0.319332,0,0.319337,-1000,-33000.1,-0,33015.2,-2.22238e+06
step02_gravity_refstate-intrusion.xmf,26,1.39955e-05,-3.54355e-05,0,1.6013e-05,-1.04375e+09,-1.04922e+09,-1.0453e+09,1.77334e+06,0.0182801,-0.241392,0,0.242083,1000,-38000,0,38013.2,-1.77334e+06
step02_gravity_refstate-intrusion.xmf,27,9.94941e-09,-7.44339e-07,0,-2.02053e-05,-9.20226e+08,-9.2031e+08,-9.20227e+08,-2.23762e+06,4.71453e-05,-0.319839,0,0.319839,-1000,-33499.9,-0,33514.8,-2.23762e+06
step02_gravity_refstate-intrusion.xmf,28,4.62871e-06,-1.12139e-05,0,-2.00617e-05,-9.61348e+08,-9.63102e+08,-9.6186e+08,-2.22171e+06,-0.00478811,-0.310878,-0,0.310915,-1000,-35000.6,-0,35014.9,-2.22171e+06
step02_gravity_refstate-intrusion.xmf,29,6.15606e-06,-1.47866e-05,0,-1.98011e-05,-9.75037e+08,-9.77356e+08,-9.75719e+08,-2.19285e+06,-0.00639417,-0.304388,-0,0.304455,-1000,-35499.8,-0,35513.9,-2.19285e+06
step02_gravity_refstate-intrusion.xmf,30,1.55861e-06,-4.23406e-06,0,-2.02487e-05,-9.33938e+08,-9.34579e+08,-9.3411e+08,-2.24242e+06,-0.00157732,-0.318594,-0,0.318598,-1000,-34000.3,-0,34015,-2.24242e+06
step02_gravity_refstate-intrusion.xmf,31,3.08993e-06,-7.71266e-06,0,-2.01976e-05,-9.47651e+08,-9.48847e+08,-9.47993e+08,-2.23676e+06,-0.00318643,-0.315607,-0,0.315624,-1000,-34500.8,-0,34515.3,-2.23676e+06
step02_gravity_refstate-intrusion.xmf,32,7.73203e-06,-1.84842e-05,0,-1.94514e-05,-9.88735e+08,-9.91638e+08,-9.89591e+08,-2.15412e+06,-0.0080219,-0.296077,-0,0.296186,-1000,-35999.4,-0,36013.3,-2.15412e+06
step02_gravity_refstate-intrusion.xmf,33,9.35876e-06,-2.24049e-05,0,-1.90162e-05,-1.00246e+09,-1.00597e+09,-1.00349e+09,-2.10593e+06,-0.00970442,-0.285848,-0,0.286012,-1000,-36499.7,-0,36513.4,-2.10593e+06
step02_gravity_refstate-intrusion.xmf,34,2.04652e-05,-3.87796e-05,0,2.39663e-07,-1.04281e+09,-1.04937e+09,-1.04508e+09,26541.2,8.08191e-06,-0.262106,0,0.262106,0,-38000,0,38000,-26541.2
step02_gravity_refstate-intrusion.xmf,35,1.94963e-05,-3.66729e-05,0,4.49613e-06,-1.04284e+09,-1.04906e+09,-1.045e+09,497919,0.00990714,-0.257375,0,0.257566,500,-38000,0,38003.3,-497919
step02_gravity_refstate-intrusion.xmf,36,1.11652e-05,-2.67791e-05,0,-1.8405e-05,-1.01619e+09,-1.02039e+09,-1.01742e+09,-2.03824e+06,-0.0115404,-0.273559,-0,0.273802,-1000,-37000.2,-0,37013.7,-2.03824e+06
step02_gravity_refstate-intrusion.xmf,37,1.29563e-05,-3.19377e-05,0,-1.80205e-05,-1.02996e+09,-1.03493e+09,-1.0314e+09,-1.99566e+06,-0.0138638,-0.258948,-0,0.259319,-1000,-37500.2,-0,37513.6,-1.99566e+06
step02_gravity_refstate-intrusion.xmf,38,1.3966e-05,-3.54188e-05,0,-1.6019e-05,-1.04375e+09,-1.04922e+09,-1.0453e+09,-1.774e+06,-0.0182797,-0.241385,-0,0.242076,-1000,-38000,-0,38013.2,-1.774e+06
step02_gravity_refstate-intrusion.xmf,39,1.95003e-05,-3.67107e-05,0,-4.41794e-06,-1.04284e+09,-1.04906e+09,-1.045e+09,-489260,-0.00991309,-0.257371,-0,0.257562,-500,-38000,-0,38003.3,-489260
step02_gravity_refstate-intrusion.xmf,40,-1.22097e-05,2.45858e-05,0,1.03699e-05,-8.34509e+08,-8.30434e+08,-8.33157e+08,1.1484e+06,-0.00833793,-0.297231,-0,0.297348,636.359,-30363.7,0,30370.4,-1.1484e+06
step02_gravity_refstate-intrusion.xmf,41,-1.3135e-05,2.47904e-05,0,4.09926e-06,-8.35816e+08,-8.31616e+08,-8.34361e+08,453968,-0.00326205,-0.305246,-0,0.305264,248.265,-30405.7,0,30406.7,-453968
step02_gravity_refstate-intrusion.xmf,42,-1.03128e-05,2.10419e-05,0,1.08827e-05,-8.45038e+08,-8.41566e+08,-8.43896e+08,1.20519e+06,-0.00628426,-0.306987,-0,0.307052,599.393,-30750.4,0,30756.3,-1.20519e+06
step02_gravity_refstate-intrusion.xmf,43,-5.98572e-06,1.23605e-05,0,1.33858e-05,-8.72507e+08,-8.70476e+08,-8.71845e+08,1.48239e+06,-0.00427032,-0.321085,-0,0.321113,696.88,-31756.7,0,31764.4,-1.48239e+06
step02_gravity_refstate-intrusion.xmf,44,-4.45109e-06,8.96797e-06,0,1.02469e-05,-8.84931e+08,-8.83445e+08,-8.84438e+08,1.13479e+06,-0.00235765,-0.330399,-0,0.330407,523.602,-32210.4,0,32214.7,-1.13479e+06
step02_gravity_refstate-intrusion.xmf,45,-2.51246e-06,4.78091e-06,0,1.14647e-05,-8.99947e+08,-8.9914e+08,-8.99669e+08,1.26965e+06,-0.00148456,-0.332878,-0,0.332882,577.107,-32759.2,0,32764.3,-1.26965e+06
step02_gravity_refstate-intrusion.xmf,46,-7.78847e-06,1.61109e-05,0,9.74715e-06,-8.60582e+08,-8.57935e+08,-8.59719e+08,1.07944e+06,-0.00407423,-0.319442,-0,0.319468,518.079,-31320.3,0,31324.6,-1.07944e+06
step02_gravity_refstate-intrusion.xmf,47,-1.26453e-05,2.47907e-05,0,-3.87135e-06,-8.3576e+08,-8.31614e+08,-8.34359e+08,-428728,0.00316763,-0.305344,0,0.305361,-241.269,-30406.9,-0,30407.8,-428728
step02_gravity_refstate-intrusion.xmf,48,-8.3501e-07,1.06853e-06,0,1.21593e-05,-9.13653e+08,-9.13442e+08,-9.13561e+08,1.34657e+06,-0.00052745,-0.333599,-0,0.333599,605.739,-33259.7,0,33265.2,-1.34657e+06
step02_gravity_refstate-intrusion.xmf,49,7.67057e-07,-2.45854e-06,0,1.14198e-05,-9.27083e+08,-9.2744e+08,-9.27168e+08,1.26467e+06,0.000429952,-0.334249,0,0.334249,566.971,-33750.1,0,33754.9,-1.26467e+06
step02_gravity_refstate-intrusion.xmf,50,-9.6814e-06,1.96308e-05,0,-5.92664e-08,-8.49493e+08,-8.46247e+08,-8.48421e+08,-6563.39,4.63302e-05,-0.317767,0,0.317767,-4.72083,-30913.2,-0,30913.2,-6563.39
step02_gravity_refstate-intrusion.xmf,51,-1.18107e-05,2.44981e-05,0,-1.06517e-05,-8.34438e+08,-8.30417e+08,-8.3313e+08,-1.17961e+06,0.00834078,-0.297221,0,0.297338,-636.534,-30363.5,-0,30370.2,-1.17961e+06
step02_gravity_refstate-intrusion.xmf,52,-6.10589e-06,1.24592e-05,0,6.16124e-06,-8.73061e+08,-8.71005e+08,-8.72384e+08,682320,-0.00195818,-0.329419,-0,0.329425,319.98,-31776.3,0,31778,-682320
step02_gravity_refstate-intrusion.xmf,53,2.34633e-06,-5.96722e-06,0,1.11793e-05,-9.40422e+08,-9.41342e+08,-9.40681e+08,1.23804e+06,0.00130844,-0.332491,0,0.332493,555.112,-34237.1,0,34241.6,-1.23804e+06
step02_gravity_refstate-intrusion.xmf,54,5.5994e-06,-1.33147e-05,0,1.12841e-05,-9.68177e+08,-9.70272e+08,-9.68797e+08,1.24964e+06,0.00321043,-0.322451,0,0.322467,567.625,-35250.2,0,35254.8,-1.24964e+06
step02_gravity_refstate-intrusion.xmf,55,4.03495e-06,-9.7593e-06,0,1.10881e-05,-9.54787e+08,-9.56314e+08,-9.55234e+08,1.22793e+06,0.00224988,-0.328424,0,0.328432,553.232,-34761.5,0,34765.9,-1.22793e+06
step02_gravity_refstate-intrusion.xmf,56,7.20721e-06,-1.69857e-05,0,1.17119e-05,-9.81865e+08,-9.84544e+08,-9.82663e+08,1.29702e+06,0.0043513,-0.314149,0,0.314179,597.413,-35749.7,0,35754.7,-1.29702e+06
step02_gravity_refstate-intrusion.xmf,57,-3.18647e-06,6.14977e-06,0,2.47888e-06,-8.95356e+08,-8.94322e+08,-8.95003e+08,274521,-0.00039787,-0.338804,-0,0.338804,125.082,-32591.1,0,32591.3,-274521
step02_gravity_refstate-intrusion.xmf,58,-1.53112e-06,2.56226e-06,0,4.20802e-06,-9.08436e+08,-9.07982e+08,-9.08266e+08,466013,-0.000323291,-0.340255,-0,0.340255,210.733,-33069,0,33069.7,-466013
step02_gravity_refstate-intrusion.xmf,59,-1.02233e-05,2.10732e-05,0,-1.02116e-05,-8.4502e+08,-8.41554e+08,-8.43888e+08,-1.13087e+06,0.00595342,-0.307771,0,0.307828,-566.968,-30750.4,-0,30755.7,-1.13087e+06
step02_gravity_refstate-intrusion.xmf,60,-5.00746e-06,1.009e-05,0,-1.43482e-06,-8.81472e+08,-8.798e+08,-8.80917e+08,-158897,0.000365556,-0.334926,0,0.334926,-73.2794,-32083.7,-0,32083.8,-158897
step02_gravity_refstate-intrusion.xmf,61,-7.14598e-06,1.4655e-05,0,-1.25482e-06,-8.65792e+08,-8.63378e+08,-8.65001e+08,-138964,0.000466073,-0.327898,0,0.327898,-65.3811,-31510.5,-0,31510.6,-138964
step02_gravity_refstate-intrusion.xmf,62,8.8198e-06,-2.07107e-05,0,1.08851e-05,-9.95072e+08,-9.98342e+08,-9.96049e+08,1.20546e+06,0.00500001,-0.305913,0,0.305954,562.968,-36231.6,0,36236,-1.20546e+06
step02_gravity_refstate-intrusion.xmf,63,-1.02055e-07,-5.6123e-07,0,5.5911e-06,-9.20008e+08,-9.20059e+08,-9.19997e+08,619181,-2.96186e-05,-0.339954,-0,0.339954,278.44,-33491.7,0,33492.9,-619181
step02_gravity_refstate-intrusion.xmf,64,1.31465e-06,-3.68066e-06,0,1.74444e-06,-9.31718e+08,-9.32271e+08,-9.31864e+08,193186,0.000113897,-0.340572,0,0.340572,86.5352,-33919.4,0,33919.5,-193186
step02_gravity_refstate-intrusion.xmf,65,-8.08682e-06,1.66767e-05,0,-9.9094e-06,-8.58547e+08,-8.55805e+08,-8.57652e+08,-1.09741e+06,0.00431985,-0.317988,0,0.318018,-528.694,-31245.7,-0,31250.2,-1.09741e+06
step02_gravity_refstate-intrusion.xmf,66,-3.44478e-06,6.715e-06,0,-5.40364e-06,-8.93275e+08,-8.9215e+08,-8.92894e+08,-598420,0.000943985,-0.337038,0,0.337039,-274.09,-32515.1,-0,32516.2,-598420
step02_gravity_refstate-intrusion.xmf,67,3.23239e-06,-7.90367e-06,0,2.29572e-06,-9.47632e+08,-9.48866e+08,-9.4799e+08,254238,0.000370233,-0.337084,0,0.337084,114.685,-34500.5,0,34500.7,-254238
step02_gravity_refstate-intrusion.xmf,68,6.52497e-06,-1.53515e-05,0,5.34556e-06,-9.75349e+08,-9.77772e+08,-9.76072e+08,591988,0.00177031,-0.324038,0,0.324043,270.874,-35512.2,0,35513.2,-591988
step02_gravity_refstate-intrusion.xmf,69,5.14448e-06,-1.2166e-05,0,1.62515e-06,-9.63501e+08,-9.65418e+08,-9.64071e+08,179975,0.000420272,-0.331413,0,0.331413,81.9725,-35079.9,0,35080,-179975
step02_gravity_refstate-intrusion.xmf,70,7.88447e-06,-1.84484e-05,0,3.67991e-06,-9.86554e+08,-9.89471e+08,-9.87428e+08,407528,0.00148591,-0.317933,0,0.317936,188.514,-35921.2,0,35921.6,-407528
step02_gravity_refstate-intrusion.xmf,71,-2.01922e-06,3.6175e-06,0,-4.09435e-06,-9.04561e+08,-9.03937e+08,-9.04337e+08,-453424,0.000415645,-0.339865,0,0.339865,-205.771,-32927.4,-0,32928.1,-453424
step02_gravity_refstate-intrusion.xmf,72,-3.73596e-07,2.25349e-08,0,-2.38513e-06,-9.17863e+08,-9.17819e+08,-9.17822e+08,-264139,4.45702e-05,-0.341353,0,0.341353,-119.039,-33413.3,-0,33413.5,-264139
step02_gravity_refstate-intrusion.xmf,73,-6.06493e-06,1.25086e-05,0,-1.03811e-05,-8.72745e+08,-8.70688e+08,-8.72074e+08,-1.14965e+06,0.00330555,-0.325297,0,0.325314,-539.487,-31765.3,-0,31769.8,-1.14965e+06
step02_gravity_refstate-intrusion.xmf,74,-4.28355e-06,8.64679e-06,0,-1.11143e-05,-8.86038e+08,-8.84606e+08,-8.85564e+08,-1.23084e+06,0.00246934,-0.329731,0,0.32974,-567.527,-32251,-0,32256,-1.23084e+06
step02_gravity_refstate-intrusion.xmf,75,6.81023e-06,-1.59893e-05,0,-2.66024e-06,-9.7748e+08,-9.80005e+08,-9.78234e+08,-294605,-0.000916789,-0.323999,-0,0.324001,-134.91,-35590,-0,35590.3,-294605
step02_gravity_refstate-intrusion.xmf,76,9.54529e-06,-2.24101e-05,0,9.08386e-07,-1.00063e+09,-1.00417e+09,-1.00169e+09,100598,0.000454159,-0.308144,0,0.308144,47.2935,-36434.5,0,36434.6,-100598
step02_gravity_refstate-intrusion.xmf,77,1.05127e-05,-2.47431e-05,0,1.06979e-05,-1.00891e+09,-1.01282e+09,-1.01008e+09,1.18472e+06,0.00595918,-0.294492,0,0.294552,560.705,-36736.3,0,36740.6,-1.18472e+06
step02_gravity_refstate-intrusion.xmf,78,2.35724e-06,-5.97258e-06,0,-5.36356e-06,-9.40406e+08,-9.41329e+08,-9.40667e+08,-593982,-0.000630034,-0.337654,-0,0.337655,-266.742,-34236.6,-0,34237.7,-593982
step02_gravity_refstate-intrusion.xmf,79,-2.55282e-06,4.86936e-06,0,-1.19917e-05,-8.99595e+08,-8.98773e+08,-8.99312e+08,-1.32801e+06,0.00157774,-0.332138,0,0.332142,-603.706,-32746.3,-0,32751.9,-1.32801e+06
step02_gravity_refstate-intrusion.xmf,80,3.78972e-06,-9.16021e-06,0,-6.68471e-06,-9.5242e+08,-9.53855e+08,-9.5284e+08,-740291,-0.00126633,-0.333465,-0,0.333467,-333.393,-34675.3,-0,34676.9,-740291
step02_gravity_refstate-intrusion.xmf,81,8.18373e-06,-1.91649e-05,0,-4.21445e-06,-9.89018e+08,-9.92047e+08,-9.89924e+08,-466724,-0.00176888,-0.316006,-0,0.316011,-216.337,-36011,-0,36011.6,-466724
step02_gravity_refstate-intrusion.xmf,82,1.25922e-05,-2.89434e-05,0,1.10763e-05,-1.02256e+09,-1.02716e+09,-1.02396e+09,1.22664e+06,0.00754385,-0.28023,0,0.280332,594.986,-37236.2,0,37241,-1.22664e+06
step02_gravity_refstate-intrusion.xmf,83,-9.02493e-07,1.23292e-06,0,-1.15206e-05,-9.13154e+08,-9.12918e+08,-9.13054e+08,-1.27584e+06,0.000536663,-0.334372,0,0.334373,-574.791,-33241.5,-0,33246.5,-1.27584e+06
step02_gravity_refstate-intrusion.xmf,84,9.32266e-07,-2.81271e-06,0,-1.02723e-05,-9.28473e+08,-9.28888e+08,-9.28577e+08,-1.1376e+06,-0.000472184,-0.335441,-0,0.335441,-510.512,-33800.9,-0,33804.8,-1.1376e+06
step02_gravity_refstate-intrusion.xmf,85,2.53281e-06,-6.38166e-06,0,-1.35207e-05,-9.42122e+08,-9.43109e+08,-9.42402e+08,-1.49734e+06,-0.00171418,-0.329019,-0,0.329024,-670.749,-34299.2,-0,34305.8,-1.49734e+06
step02_gravity_refstate-intrusion.xmf,86,5.44147e-06,-1.29556e-05,0,-1.04854e-05,-9.66657e+08,-9.68695e+08,-9.6726e+08,-1.16119e+06,-0.00288882,-0.32413,-0,0.324143,-527.222,-35194.8,-0,35198.7,-1.16119e+06
step02_gravity_refstate-intrusion.xmf,87,7.29154e-06,-1.72232e-05,0,-1.12665e-05,-9.82401e+08,-9.85116e+08,-9.83209e+08,-1.2477e+06,-0.00422089,-0.314393,-0,0.314421,-574.269,-35769.2,-0,35773.8,-1.2477e+06
step02_gravity_refstate-intrusion.xmf,88,9.19075e-06,-2.14661e-05,0,-1.04268e-05,-9.9769e+08,-1.00109e+09,-9.98708e+08,-1.1547e+06,-0.00495539,-0.304462,-0,0.304502,-538.219,-36327.4,-0,36331.4,-1.1547e+06
step02_gravity_refstate-intrusion.xmf,89,1.15256e-05,-2.68949e-05,0,3.04784e-06,-1.01605e+09,-1.02031e+09,-1.01733e+09,337529,0.00187064,-0.293773,0,0.293779,160.012,-36997.4,0,36997.7,-337529
step02_gravity_refstate-intrusion.xmf,90,3.96124e-06,-9.61095e-06,0,-1.44797e-05,-9.54491e+08,-9.55994e+08,-9.5493e+08,-1.60354e+06,-0.00289581,-0.323892,-0,0.323905,-720.99,-34750.7,-0,34758.2,-1.60354e+06
step02_gravity_refstate-intrusion.xmf,91,1.09335e-05,-2.55669e-05,0,-5.75244e-06,-1.01154e+09,-1.01558e+09,-1.01275e+09,-637047,-0.00331469,-0.296738,-0,0.296757,-301.044,-36832.7,-0,36833.9,-637047
step02_gravity_refstate-intrusion.xmf,92,1.493e-05,-3.19866e-05,0,3.29754e-06,-1.03088e+09,-1.03608e+09,-1.03254e+09,365182,0.00316553,-0.277188,0,0.277206,212.705,-37546.7,0,37547.3,-365182
step02_gravity_refstate-intrusion.xmf,93,1.32146e-05,-3.18922e-05,0,1.0352e-05,-1.03366e+09,-1.03865e+09,-1.03512e+09,1.14642e+06,0.0096662,-0.26688,0,0.267055,636.493,-37636.6,0,37641.9,-1.14642e+06
step02_gravity_refstate-intrusion.xmf,94,1.06331e-05,-2.5024e-05,0,-1.33541e-05,-1.00963e+09,-1.01358e+09,-1.01081e+09,-1.47889e+06,-0.00755387,-0.290023,-0,0.290121,-705.85,-36762.4,-0,36769.2,-1.47889e+06
step02_gravity_refstate-intrusion.xmf,95,1.28227e-05,-2.90305e-05,0,-3.09378e-06,-1.02272e+09,-1.02735e+09,-1.02414e+09,-342617,-0.00211979,-0.286857,-0,0.286865,-164.496,-37243,-0,37243.4,-342617
step02_gravity_refstate-intrusion.xmf,96,1.20838e-05,-2.89709e-05,0,-1.11687e-05,-1.02269e+09,-1.02724e+09,-1.02403e+09,-1.23687e+06,-0.00758932,-0.28011,-0,0.280213,-598.574,-37237.4,-0,37242.2,-1.23687e+06
step02_gravity_refstate-intrusion.xmf,97,1.5274e-05,-3.27387e-05,0,-4.59742e-06,-1.03263e+09,-1.03795e+09,-1.03432e+09,-509137,-0.0043341,-0.274414,-0,0.274448,-281.159,-37610.6,-0,37611.7,-509137
step02_gravity_refstate-intrusion.xmf,98,1.32549e-05,-3.18807e-05,0,-1.03969e-05,-1.03365e+09,-1.03865e+09,-1.03512e+09,-1.15139e+06,-0.00966928,-0.266876,-0,0.267051,-636.59,-37636.7,-0,37642,-1.15139e+06
step02_gravity_refstate-crust.xmf,0,-9.03269e-07,2.11252e-06,0,1.09899e-09,-1.09873e+09,-1.09852e+09,-1.09867e+09,75.391,7.07598e-20,0.0381471,0,0.0381471,40000,-40000,0,56568.5,-75.391
step02_gravity_refstate-crust.xmf,1,-8.94871e-07,2.09052e-06,0,9.56926e-08,-1.09873e+09,-1.09853e+09,-1.09867e+09,6564.51,0.0021293,0.0378063,0,0.0378663,37630.7,-40000,0,54918.8,-6564.51
step02_gravity_refstate-crust.xmf,2,-8.72217e-07,2.03456e-06,0,1.9054e-07,-1.09873e+09,-1.09853e+09,-1.09867e+09,13071.1,0.00412218,0.0368388,0,0.0370687,35375.6,-40000,0,53398.8,-13071.1
step02_gravity_refstate-crust.xmf,3,-8.38218e-07,1.94899e-06,0,2.90372e-07,-1.09873e+09,-1.09854e+09,-1.09867e+09,19919.5,0.00595941,0.0353091,0,0.0358085,33229,-40000,0,52001.6,-19919.5
step02_gravity_refstate-crust.xmf,4,-7.96786e-07,1.83883e-06,0,3.98794e-07,-1.09873e+09,-1.09855e+09,-1.09868e+09,27357.3,0.00763108,0.0332633,0,0.0341275,31185.8,-40000,0,50720.4,-27357.3
step02_gravity_refstate-crust.xmf,5,-7.49616e-07,1.70746e-06,0,5.1913e-07,-1.09873e+09,-1.09856e+09,-1.09868e+09,35612.3,0.0091359,0.0307348,0,0.0320639,29241,-40000,0,49548.3,-35612.3
step02_gravity_refstate-crust.xmf,6,-6.49718e-07,1.39514e-06,0,8.07598e-07,-1.09873e+09,-1.09859e+09,-1.09869e+09,55401.2,0.0116694,0.0243155,0,0.0269707,25627.4,-40000,0,47505.4,-55401.2
step02_gravity_refstate-crust.xmf,7,-6.99663e-07,1.55867e-06,0,6.5423e-07,-1.09873e+09,-1.09858e+09,-1.09868e+09,44880.1,0.0104789,0.0277465,0,0.0296593,27389.7,-40000,0,48478.8,-44880.1
step02_gravity_refstate-crust.xmf,8,-6.02089e-07,1.21889e-06,0,9.81692e-07,-1.09874e+09,-1.09861e+09,-1.09869e+09,67344.1,0.0127208,0.0204541,0,0.0240871,23949.7,-40000,0,46621.8,-67344.1
step02_gravity_refstate-crust.xmf,9,-5.58796e-07,1.03091e-06,0,1.18071e-06,-1.09874e+09,-1.09863e+09,-1.0987e+09,80996.4,0.0136492,0.0161707,0,0.0211612,22352.7,-40000,0,45821.8,-80996.4
step02_gravity_refstate-crust.xmf,10,-4.52916e-07,-4.10922e-07,0,3.10709e-06,-1.09879e+09,-1.09878e+09,-1.09876e+09,213146,0.0175831,-0.0181086,0,0.0252406,14255.3,-40000,0,42464.3,-213146
step02_gravity_refstate-crust.xmf,11,-4.5673e-07,-7.80657e-07,0,3.61384e-06,-1.0988e+09,-1.09883e+09,-1.09877e+09,247909,0.0180979,-0.0252164,0,0.0310387,13122.5,-40000,0,42097.5,-247909
step02_gravity_refstate-crust.xmf,12,-4.52369e-07,-1.09692e-07,0,2.67302e-06,-1.09877e+09,-1.09875e+09,-1.09874e+09,183369,0.0170461,-0.011393,0,0.0205029,15444.9,-40000,0,42878.2,-183369
step02_gravity_refstate-crust.xmf,13,-4.57985e-07,1.59312e-07,0,2.291e-06,-1.09876e+09,-1.09872e+09,-1.09873e+09,157162,0.0164787,-0.0050736,0,0.0172421,16694.2,-40000,0,43343.9,-157162
step02_gravity_refstate-crust.xmf,14,-4.7193e-07,4.05673e-07,0,1.95411e-06,-1.09876e+09,-1.09869e+09,-1.09872e+09,134052,0.0158704,0.00084587,0,0.0158929,18006.4,-40000,0,43866,-134052
step02_gravity_refstate-crust.xmf,15,-5.21569e-07,8.31285e-07,0,1.40857e-06,-1.09874e+09,-1.09865e+09,-1.09871e+09,96628,0.0144718,0.0114719,0,0.0184672,20832.2,-40000,0,45099.7,-96628
step02_gravity_refstate-crust.xmf,16,-4.91341e-07,6.18491e-07,0,1.66852e-06,-1.09875e+09,-1.09867e+09,-1.09871e+09,114460,0.0152066,0.00636228,0,0.0164839,19384.6,-40000,0,44449.6,-114460
step02_gravity_refstate-crust.xmf,17,-4.61839e-07,-1.1804e-06,0,4.17689e-06,-1.09882e+09,-1.09887e+09,-1.09879e+09,286535,0.0185927,-0.032712,0,0.0376266,12043.8,-40000,0,41773.8,-286535
step02_gravity_refstate-crust.xmf,18,-4.60185e-07,-1.65421e-06,0,4.79765e-06,-1.09884e+09,-1.09892e+09,-1.09881e+09,329119,0.0190694,-0.0405885,0,0.0448449,11016.2,-40000,0,41489.2,-329119
step02_gravity_refstate-crust.xmf,19,-4.52603e-07,-2.21381e-06,0,5.49525e-06,-1.09886e+09,-1.09899e+09,-1.09883e+09,376974,0.0195184,-0.0488356,0,0.0525917,10037.4,-40000,0,41240.1,-376974
step02_gravity_refstate-crust.xmf,20,-3.71049e-07,-3.66094e-06,0,7.08685e-06,-1.09892e+09,-1.09914e+09,-1.09889e+09,486158,0.0202846,-0.0663869,0,0.0694168,8215.82,-40000,0,40835,-486158
step02_gravity_refstate-crust.xmf,21,-2.7363e-07,-4.67463e-06,0,8.0371e-06,-1.09895e+09,-1.09925e+09,-1.09893e+09,551345,0.0205597,-0.07565,0,0.078394,7368.31,-40000,0,40673,-551345
step02_gravity_refstate-crust.xmf,22,-4.28206e-07,-2.85417e-06,0,6.24271e-06,-1.09889e+09,-1.09906e+09,-1.09886e+09,428250,0.0199292,-0.0574411,0,0.0608,9104.73,-40000,0,41023.1,-428250
step02_gravity_refstate-crust.xmf,23,-1.21487e-07,-5.86329e-06,0,9.03684e-06,-1.09898e+09,-1.09938e+09,-1.09897e+09,619928,0.0207206,-0.0851991,0,0.0876826,6559.91,-40000,0,40534.3,-619928
step02_gravity_refstate-crust.xmf,24,2.36717e-06,-1.70529e-05,0,1.4007e-05,-1.09918e+09,-1.10051e+09,-1.09934e+09,960880,0.0180232,-0.135164,0,0.13636,3021.01,-40000,0,40113.9,-960880
step02_gravity_refstate-crust.xmf,25,3.55513e-06,-2.08903e-05,0,1.43973e-05,-1.09921e+09,-1.10089e+09,-1.09946e+09,987657,0.0161616,-0.144776,0,0.145676,2394.25,-40000,0,40071.6,-987657
step02_gravity_refstate-crust.xmf,26,1.50568e-06,-1.38239e-05,0,1.32012e-05,-1.09914e+09,-1.10019e+09,-1.09924e+09,905603,0.0192783,-0.125182,0,0.126658,3670.37,-40000,0,40168,-905603
step02_gravity_refstate-crust.xmf,27,1.03311e-07,-7.30043e-06,0,1.00811e-05,-1.09902e+09,-1.09953e+09,-1.09903e+09,691565,0.0207308,-0.0949915,0,0.0972273,5788.3,-40000,0,40416.6,-691565
step02_gravity_refstate-crust.xmf,28,5.16148e-06,-2.55184e-05,0,1.36835e-05,-1.09923e+09,-1.10134e+09,-1.09959e+09,938687,0.0134996,-0.153623,0,0.154215,1785.26,-40000,0,40039.8,-938687
step02_gravity_refstate-crust.xmf,29,8.76472e-07,-1.12044e-05,0,1.21856e-05,-1.0991e+09,-1.09993e+09,-1.09916e+09,835932,0.0200811,-0.115069,0,0.116808,4346.07,-40000,0,40235.4,-835932
step02_gravity_refstate-crust.xmf,30,4.17067e-07,-9.03094e-06,0,1.11747e-05,-1.09906e+09,-1.09971e+09,-1.09909e+09,766582,0.0205371,-0.104972,0,0.106963,5051.17,-40000,0,40317.7,-766582
step02_gravity_refstate-crust.xmf,31,7.00341e-06,-3.04843e-05,0,1.10945e-05,-1.09924e+09,-1.10181e+09,-1.09972e+09,761081,0.00986367,-0.161034,0,0.161336,1187.64,-40000,0,40017.6,-761081
step02_gravity_refstate-crust.xmf,32,8.54437e-06,-3.45616e-05,0,6.27707e-06,-1.09924e+09,-1.1022e+09,-1.09983e+09,430607,0.00524624,-0.166095,0,0.166178,593.771,-40000,0,40004.4,-430607
step02_gravity_refstate-crust.xmf,33,9.17249e-06,-3.65131e-05,0,-1.3331e-07,-1.09925e+09,-1.10239e+09,-1.09988e+09,-9145.07,4.28996e-06,-0.167902,0,0.167902,0,-40000,0,40000,-9145.07
step02_gravity_refstate-crust.xmf,34,8.54869e-06,-3.49154e-05,0,-6.42097e-06,-1.09925e+09,-1.10224e+09,-1.09984e+09,-440479,-0.00524597,-0.16609,-0,0.166173,-593.771,-40000,-0,40004.4,-440479
step02_gravity_refstate-crust.xmf,35,7.02399e-06,-3.10475e-05,0,-1.12143e-05,-1.09926e+09,-1.10187e+09,-1.09974e+09,-769300,-0.0098621,-0.161036,-0,0.161338,-1187.64,-40000,-0,40017.6,-769300
step02_gravity_refstate-crust.xmf,36,5.18563e-06,-2.59745e-05,0,-1.36966e-05,-1.09925e+09,-1.10139e+09,-1.0996e+09,-939587,-0.0134998,-0.153623,-0,0.154215,-1785.26,-40000,-0,40039.8,-939587
step02_gravity_refstate-crust.xmf,37,3.5798e-06,-2.11183e-05,0,-1.43569e-05,-1.09922e+09,-1.10091e+09,-1.09947e+09,-984883,-0.0161608,-0.144777,-0,0.145677,-2394.25,-40000,-0,40071.6,-984883
step02_gravity_refstate-crust.xmf,38,2.37487e-06,-1.70813e-05,0,-1.40099e-05,-1.09918e+09,-1.10052e+09,-1.09935e+09,-961078,-0.0180225,-0.135165,-0,0.136361,-3021.01,-40000,-0,40113.9,-961078
step02_gravity_refstate-crust.xmf,39,1.50409e-06,-1.38258e-05,0,-1.31957e-05,-1.09914e+09,-1.10019e+09,-1.09924e+09,-905223,-0.0192786,-0.125183,-0,0.126659,-3670.37,-40000,-0,40168,-905223
step02_gravity_refstate-crust.xmf,40,8.77031e-07,-1.11928e-05,0,-1.21888e-05,-1.0991e+09,-1.09993e+09,-1.09916e+09,-836152,-0.0200802,-0.11507,-0,0.116809,-4346.07,-40000,-0,40235.4,-836152
step02_gravity_refstate-crust.xmf,41,4.24408e-07,-9.048e-06,0,-1.11166e-05,-1.09906e+09,-1.09971e+09,-1.09909e+09,-762596,-0.0205371,-0.104972,-0,0.106962,-5051.17,-40000,-0,40317.7,-762596
step02_gravity_refstate-crust.xmf,42,1.01605e-07,-7.28991e-06,0,-1.00411e-05,-1.09902e+09,-1.09953e+09,-1.09903e+09,-688818,-0.0207299,-0.094991,-0,0.0972266,-5788.3,-40000,-0,40416.6,-688818
step02_gravity_refstate-crust.xmf,43,-1.25938e-07,-5.8366e-06,0,-8.99254e-06,-1.09898e+09,-1.09937e+09,-1.09897e+09,-616888,-0.0207213,-0.0851988,-0,0.0876825,-6559.91,-40000,-0,40534.3,-616888
step02_gravity_refstate-crust.xmf,44,-2.76196e-07,-4.64094e-06,0,-8.00844e-06,-1.09895e+09,-1.09925e+09,-1.09893e+09,-549379,-0.0205588,-0.0756508,-0,0.0783945,-7368.31,-40000,-0,40673,-549379
step02_gravity_refstate-crust.xmf,45,-3.73766e-07,-3.66047e-06,0,-7.08694e-06,-1.09892e+09,-1.09914e+09,-1.09889e+09,-486164,-0.0202848,-0.0663874,-0,0.0694173,-8215.82,-40000,-0,40835,-486164
step02_gravity_refstate-crust.xmf,46,-4.29908e-07,-2.85149e-06,0,-6.24084e-06,-1.09889e+09,-1.09906e+09,-1.09886e+09,-428122,-0.0199297,-0.0574412,-0,0.0608004,-9104.73,-40000,-0,41023.1,-428122
step02_gravity_refstate-crust.xmf,47,-4.55939e-07,-2.18469e-06,0,-5.47276e-06,-1.09886e+09,-1.09898e+09,-1.09883e+09,-375431,-0.0195184,-0.0488355,-0,0.0525916,-10037.4,-40000,-0,41240.1,-375431
step02_gravity_refstate-crust.xmf,48,-4.6492e-07,-1.62511e-06,0,-4.77563e-06,-1.09884e+09,-1.09892e+09,-1.09881e+09,-327608,-0.0190691,-0.0405883,-0,0.0448446,-11016.2,-40000,-0,41489.2,-327608
step02_gravity_refstate-crust.xmf,49,-4.64921e-07,-1.15328e-06,0,-4.15179e-06,-1.09882e+09,-1.09887e+09,-1.09879e+09,-284813,-0.0185938,-0.0327122,-0,0.0376274,-12043.8,-40000,-0,41773.8,-284813
step02_gravity_refstate-crust.xmf,50,-4.58326e-07,-7.54375e-07,0,-3.59974e-06,-1.0988e+09,-1.09882e+09,-1.09877e+09,-246942,-0.0180977,-0.0252169,-0,0.0310389,-13122.5,-40000,-0,42097.5,-246942
step02_gravity_refstate-crust.xmf,51,-4.53403e-07,-4.10503e-07,0,-3.10801e-06,-1.09879e+09,-1.09878e+09,-1.09876e+09,-213209,-0.0175832,-0.0181088,-0,0.0252408,-14255.3,-40000,-0,42464.3,-213209
step02_gravity_refstate-crust.xmf,52,-4.52647e-07,-1.09034e-07,0,-2.67376e-06,-1.09877e+09,-1.09875e+09,-1.09874e+09,-183420,-0.0170461,-0.0113931,-0,0.0205029,-15444.9,-40000,-0,42878.2,-183420
step02_gravity_refstate-crust.xmf,53,-4.58316e-07,1.60487e-07,0,-2.291e-06,-1.09876e+09,-1.09872e+09,-1.09873e+09,-157162,-0.0164788,-0.0050737,-0,0.0172422,-16694.2,-40000,-0,43343.9,-157162
step02_gravity_refstate-crust.xmf,54,-4.71757e-07,4.05874e-07,0,-1.95422e-06,-1.09876e+09,-1.09869e+09,-1.09872e+09,-134060,-0.0158703,0.000845899,-0,0.0158928,-18006.4,-40000,-0,43866,-134060
step02_gravity_refstate-crust.xmf,55,-4.93565e-07,6.31982e-07,0,-1.65941e-06,-1.09875e+09,-1.09867e+09,-1.09871e+09,-113836,-0.0152066,0.0063623,-0,0.0164839,-19384.6,-40000,-0,44449.6,-113836
step02_gravity_refstate-crust.xmf,56,-5.23554e-07,8.42836e-07,0,-1.40089e-06,-1.09874e+09,-1.09865e+09,-1.09871e+09,-96100.9,-0.0144719,0.011472,-0,0.0184674,-20832.2,-40000,-0,45099.7,-96100.9
step02_gravity_refstate-crust.xmf,57,-5.60203e-07,1.04036e-06,0,-1.17525e-06,-1.09874e+09,-1.09863e+09,-1.0987e+09,-80622,-0.0136489,0.0161708,-0,0.021161,-22352.7,-40000,-0,45821.8,-80622
step02_gravity_refstate-crust.xmf,58,-6.03744e-07,1.22719e-06,0,-9.76638e-07,-1.09873e+09,-1.09861e+09,-1.09869e+09,-66997.4,-0.0127209,0.0204541,-0,0.0240872,-23949.7,-40000,-0,46621.8,-66997.4
step02_gravity_refstate-crust.xmf,59,-6.51294e-07,1.40209e-06,0,-8.02648e-07,-1.09873e+09,-1.09859e+09,-1.09869e+09,-55061.6,-0.0116694,0.0243157,-0,0.0269709,-25627.4,-40000,-0,47505.4,-55061.6
step02_gravity_refstate-crust.xmf,60,-7.01009e-07,1.56474e-06,0,-6.49549e-07,-1.09873e+09,-1.09858e+09,-1.09868e+09,-44559.1,-0.0104788,0.0277467,-0,0.0296595,-27389.7,-40000,-0,48478.8,-44559.1
step02_gravity_refstate-crust.xmf,61,-7.96909e-07,1.83893e-06,0,-3.99142e-07,-1.09873e+09,-1.09855e+09,-1.09868e+09,-27381.2,-0.00763098,0.0332636,-0,0.0341277,-31185.8,-40000,-0,50720.4,-27381.2
step02_gravity_refstate-crust.xmf,62,-8.39315e-07,1.95239e-06,0,-2.87918e-07,-1.09873e+09,-1.09854e+09,-1.09867e+09,-19751.1,-0.00595924,0.0353092,-0,0.0358086,-33229,-40000,-0,52001.6,-19751.1
step02_gravity_refstate-crust.xmf,63,-7.49741e-07,1.70782e-06,0,-5.19698e-07,-1.09873e+09,-1.09856e+09,-1.09868e+09,-35651.3,-0.00913587,0.0307348,-0,0.0320639,-29241,-40000,-0,49548.3,-35651.3
step02_gravity_refstate-crust.xmf,64,-8.72685e-07,2.03682e-06,0,-1.88156e-07,-1.09873e+09,-1.09853e+09,-1.09867e+09,-12907.5,-0.00412224,0.0368387,-0,0.0370686,-35375.6,-40000,-0,53398.8,-12907.5
step02_gravity_refstate-crust.xmf,65,-8.9415e-07,2.0902e-06,0,-9.41765e-08,-1.09873e+09,-1.09853e+09,-1.09867e+09,-6460.51,-0.00212929,0.0378063,-0,0.0378662,-37630.7,-40000,-0,54918.8,-6460.51
step02_gravity_refstate-crust.xmf,66,-9.03263e-07,2.11231e-06,0,-1.04754e-09,-1.09873e+09,-1.09852e+09,-1.09867e+09,-71.8611,-2.11397e-19,0.0381471,-0,0.0381471,-40000,-40000,-0,56568.5,-71.8611
step02_gravity_refstate-crust.xmf,67,2.16313e-06,-6.67006e-07,0,5.40391e-08,-5.55768e+07,-5.5771e+07,-5.57252e+07,3707.08,-0.00441704,0.0654651,-0,0.0656139,37970.9,-2031.05,0,38025.2,-3707.08
step02_gravity_refstate-crust.xmf,68,2.01915e-06,-5.57909e-07,0,-2.94177e-09,-7.76373e+07,-7.78141e+07,-7.77758e+07,-201.806,-2.83078e-19,0.0664866,-0,0.0664866,40000,-2833.77,0,40100.3,-201.806
step02_gravity_refstate-crust.xmf,69,1.76e-06,-3.75413e-07,0,1.1445e-07,-1.17486e+08,-1.17633e+08,-1.17607e+08,7851.24,-0.00394583,0.0665385,-0,0.0666554,37775.2,-4283.74,0,38017.3,-7851.24
step02_gravity_refstate-crust.xmf,70,2.64007e-06,-1.00959e-06,0,-1.13896e-08,250457,89.9474,69347.7,-781.325,-7.03172e-19,0.0642865,-0,0.0642865,40000,0,0,40000,-781.325
step02_gravity_refstate-crust.xmf,71,1.58138e-06,-2.42087e-07,0,-1.56162e-09,-1.53387e+08,-1.53512e+08,-1.53496e+08,-107.127,-2.22865e-19,0.0675893,-0,0.0675893,40000,-5590.24,0,40388.7,-107.127
step02_gravity_refstate-crust.xmf,72,1.53062e-06,-2.27475e-07,0,2.77457e-07,-1.52703e+08,-1.52824e+08,-1.52808e+08,19033.5,-0.00692242,0.065064,-0,0.0654312,35593.6,-5565.16,0,36026,-19033.5
step02_gravity_refstate-crust.xmf,73,1.99735e-06,-5.61435e-07,0,1.51946e-07,-7.19265e+07,-7.2102e+07,-7.20635e+07,10423.5,-0.00889333,0.0639678,-0,0.064583,35642.4,-2625.77,0,35739,-10423.5
step02_gravity_refstate-crust.xmf,74,2.59677e-06,-9.88174e-07,0,-8.16076e-09,246555,627.942,68416.7,-559.828,-0.00753897,0.0632768,-0,0.0637243,37123.5,0,0,37123.5,-559.828
step02_gravity_refstate-crust.xmf,75,1.39394e-06,-1.10806e-07,0,1.63551e-07,-1.92237e+08,-1.9234e+08,-1.92333e+08,11219.6,-0.00311467,0.0672017,-0,0.0672738,37780,-7004.05,0,38423.8,-11219.6
step02_gravity_refstate-crust.xmf,76,1.33219e-06,-1.16452e-07,0,5.07964e-07,-1.82068e+08,-1.82168e+08,-1.8216e+08,34846.4,-0.00982326,0.061482,-0,0.0622618,33033.7,-6633.6,0,33693.2,-34846.4
step02_gravity_refstate-crust.xmf,77,1.19936e-06,1.37587e-08,0,3.80521e-07,-2.37301e+08,-2.37383e+08,-2.37384e+08,26103.8,-0.00550916,0.0652519,-0,0.0654841,35481.5,-8644.07,0,36519.3,-26103.8
step02_gravity_refstate-crust.xmf,78,1.1356e-06,-6.12112e-10,0,7.07985e-07,-2.21874e+08,-2.21952e+08,-2.21952e+08,48567.7,-0.0106355,0.0582981,-0,0.0592603,31412.9,-8082.13,0,32435.9,-48567.7
step02_gravity_refstate-crust.xmf,79,1.0989e-06,5.3825e-08,0,6.12879e-07,-2.51045e+08,-2.51116e+08,-2.5112e+08,42043.5,-0.00808943,0.0615179,-0,0.0620475,33012.2,-9144.06,0,34255.2,-42043.5
step02_gravity_refstate-crust.xmf,80,1.65528e-06,-3.4458e-07,0,3.16181e-07,-1.15411e+08,-1.15548e+08,-1.15524e+08,21690,-0.0108092,0.0622477,-0,0.0631792,33814,-4207.8,0,34074.8,-21690
step02_gravity_refstate-crust.xmf,81,1.01825e-06,8.68863e-08,0,7.99871e-07,-2.66435e+08,-2.66499e+08,-2.66505e+08,54871.2,-0.00962476,0.0578196,-0,0.0586152,31230.1,-9704.08,0,32703.1,-54871.2
step02_gravity_refstate-crust.xmf,82,9.22966e-07,1.4448e-07,0,9.68296e-07,-3.06223e+08,-3.06277e+08,-3.06286e+08,66425.1,-0.00976963,0.0549114,-0,0.0557738,30100.5,-11152.3,0,32100.1,-66425.1
step02_gravity_refstate-crust.xmf,83,1.0103e-06,5.6955e-08,0,9.40257e-07,-2.44239e+08,-2.44305e+08,-2.44308e+08,64501.7,-0.0121088,0.0532965,-0,0.0546548,29403.8,-8895.95,0,30720.1,-64501.7
step02_gravity_refstate-crust.xmf,84,1.26368e-06,-1.40635e-08,0,-3.71584e-10,-2.27209e+08,-2.27296e+08,-2.27295e+08,-25.4907,-1.69285e-19,0.0679332,-0,0.0679332,40000,-8276.85,0,40847.4,-25.4907
step02_gravity_refstate-crust.xmf,85,1.2205e-06,-8.63021e-08,0,7.15039e-07,-1.76998e+08,-1.77088e+08,-1.77082e+08,49051.7,-0.0136849,0.0552053,-0,0.0568762,30141.3,-6448.61,0,30823.5,-49051.7
step02_gravity_refstate-crust.xmf,86,1.52063e-06,-2.84137e-07,0,4.54524e-07,-1.21629e+08,-1.21753e+08,-1.21733e+08,31180.3,-0.013992,0.0583355,-0,0.05999,31653.2,-4433.74,0,31962.2,-31180.3
step02_gravity_refstate-crust.xmf,87,1.94048e-06,-5.69295e-07,0,2.10404e-07,-6.0668e+07,-6.08401e+07,-6.08011e+07,14433.7,-0.0146422,0.0598901,-0,0.061654,32947.2,-2215.65,0,33021.6,-14433.7
step02_gravity_refstate-crust.xmf,88,2.48662e-06,-9.45279e-07,0,-2.56383e-09,236139,710.35,65556.5,-175.879,-0.0145743,0.0604155,-0,0.0621485,34354.5,0,0,34354.5,-175.879
step02_gravity_refstate-crust.xmf,89,9.50016e-07,1.55867e-07,0,7.57747e-07,-3.10412e+08,-3.10466e+08,-3.10477e+08,51981.4,-0.00773137,0.0596545,-0,0.0601534,32167.3,-11304.9,0,34095.9,-51981.4
step02_gravity_refstate-crust.xmf,90,8.77968e-07,1.4278e-07,0,1.19439e-06,-3.01901e+08,-3.01951e+08,-3.01961e+08,81935.2,-0.0118264,0.048839,-0,0.0502505,27950.2,-10994.8,0,30034.9,-81935.2
step02_gravity_refstate-crust.xmf,91,9.88231e-07,1.52896e-07,0,5.3633e-07,-3.04264e+08,-3.04321e+08,-3.04332e+08,36792.3,-0.0057121,0.0635308,-0,0.063787,34348.5,-11081.3,0,36091.7,-36792.3
step02_gravity_refstate-crust.xmf,92,1.13608e-06,7.50696e-08,0,1.83832e-07,-2.63214e+08,-2.63287e+08,-2.63292e+08,12610.9,-0.00238322,0.067323,-0,0.0673652,37911.7,-9587.28,0,39105.2,-12610.9
step02_gravity_refstate-crust.xmf,93,8.90755e-07,1.01009e-07,0,1.20762e-06,-2.52921e+08,-2.52975e+08,-2.52982e+08,82842.5,-0.0142026,0.0456986,-0,0.0478547,26905.1,-9211.61,0,28438.4,-82842.5
step02_gravity_refstate-crust.xmf,94,8.16339e-07,1.60424e-07,0,1.43335e-06,-2.99882e+08,-2.99927e+08,-2.99938e+08,98327.6,-0.0137271,0.0415633,-0,0.0437715,25778.5,-10921.1,0,27996.5,-98327.6
step02_gravity_refstate-crust.xmf,95,8.6102e-07,2.13016e-07,0,9.14234e-07,-3.6016e+08,-3.60205e+08,-3.60219e+08,62716.5,-0.00785226,0.0567663,-0,0.0573068,31000.5,-13115.8,0,33660.9,-62716.5
step02_gravity_refstate-crust.xmf,96,8.51893e-07,1.91064e-07,0,1.14961e-06,-3.55799e+08,-3.55844e+08,-3.55858e+08,78862.9,-0.00977094,0.0512582,-0,0.0521812,28869.9,-12957,0,31644.2,-78862.9
step02_gravity_refstate-crust.xmf,97,8.28751e-07,1.80532e-07,0,1.38563e-06,-3.50798e+08,-3.50842e+08,-3.50854e+08,95054.1,-0.0116259,0.0448282,-0,0.0463113,26802.3,-12774.8,0,29691,-95054.1
step02_gravity_refstate-crust.xmf,98,1.01969e-06,1.49227e-07,0,3.42184e-07,-3.00074e+08,-3.00134e+08,-3.00144e+08,23473.8,-0.00377274,0.0659736,-0,0.0660814,36329.1,-10928.9,0,37937.4,-23473.8
step02_gravity_refstate-crust.xmf,99,1.03107e-06,1.53983e-07,0,9.63473e-11,-2.99306e+08,-2.99366e+08,-2.99377e+08,6.60942,-1.28698e-19,0.0677491,-0,0.0677491,40000,-10900.9,0,41458.8,-6.60942
step02_gravity_refstate-crust.xmf,100,1.00422e-06,1.18755e-08,0,9.87655e-07,-2.03568e+08,-2.03636e+08,-2.03637e+08,67753.1,-0.0152619,0.0484756,-0,0.0508213,27735.3,-7415.19,0,28709.4,-67753.1
step02_gravity_refstate-crust.xmf,101,1.37827e-06,-2.40931e-07,0,5.78975e-07,-1.17913e+08,-1.18024e+08,-1.18007e+08,39717.7,-0.0176273,0.0525868,-0,0.0554625,29269.5,-4297.94,0,29583.4,-39717.7
step02_gravity_refstate-crust.xmf,102,1.77214e-06,-5.11593e-07,0,2.83295e-07,-5.87496e+07,-5.89062e+07,-5.88711e+07,19434,-0.0194391,0.0546754,-0,0.0580282,30421.6,-2145.21,0,30497.2,-19434
step02_gravity_refstate-crust.xmf,103,2.29914e-06,-8.73544e-07,0,-2.35138e-09,218354,708.176,60633.3,-161.305,-0.0209661,0.0559378,-0,0.0597379,31685.6,0,0,31685.6,-161.305
step02_gravity_refstate-crust.xmf,104,7.88957e-07,1.89829e-07,0,1.62832e-06,-3.44762e+08,-3.44803e+08,-3.44816e+08,111703,-0.0134439,0.0373468,-0,0.0396929,24728,-12554.9,0,27732.6,-111703
step02_gravity_refstate-crust.xmf,105,7.25432e-07,1.96636e-07,0,1.64984e-06,-2.95189e+08,-2.95225e+08,-2.95238e+08,113179,-0.0154185,0.0338249,-0,0.0371733,23751.3,-10749.9,0,26070.8,-113179
step02_gravity_refstate-crust.xmf,106,7.77742e-07,1.43434e-07,0,1.41652e-06,-2.49712e+08,-2.49755e+08,-2.49765e+08,97173.1,-0.0160808,0.0381701,-0,0.0414192,24787.9,-9094.37,0,26403.5,-97173.1
step02_gravity_refstate-crust.xmf,107,7.13493e-07,2.30025e-07,0,1.86852e-06,-3.39238e+08,-3.39271e+08,-3.39287e+08,128181,-0.0151063,0.0289906,-0,0.0326903,22677.4,-12353.6,0,25823.9,-128181
step02_gravity_refstate-crust.xmf,108,7.87022e-07,2.01719e-07,0,1.81665e-06,-3.84848e+08,-3.84888e+08,-3.84902e+08,124622,-0.0135285,0.0323592,-0,0.0350733,23556.9,-14014.3,0,27410.4,-124622
step02_gravity_refstate-crust.xmf,109,7.31637e-07,2.45196e-07,0,2.05832e-06,-3.80742e+08,-3.80775e+08,-3.80792e+08,141201,-0.0150434,0.0241459,-0,0.0284487,21668.3,-13864.6,0,25724.4,-141201
step02_gravity_refstate-crust.xmf,110,8.6501e-07,2.36464e-07,0,6.74611e-07,-3.61405e+08,-3.61448e+08,-3.61464e+08,46278.3,-0.00587645,0.0613587,-0,0.0616394,33256.4,-13161.2,0,35766,-46278.3
step02_gravity_refstate-crust.xmf,111,8.66325e-07,2.61929e-07,0,4.10301e-07,-3.64582e+08,-3.64624e+08,-3.64641e+08,28146.6,-0.00359736,0.0649884,-0,0.0650879,35841.1,-13276.9,0,38221.2,-28146.6
step02_gravity_refstate-crust.xmf,112,9.39197e-07,2.18812e-07,0,1.86098e-07,-3.33574e+08,-3.33623e+08,-3.33638e+08,12766.3,-0.00181954,0.0670272,-0,0.0670519,38065.8,-12148.2,0,39957.3,-12766.3
step02_gravity_refstate-crust.xmf,113,6.1758e-07,2.98273e-07,0,2.08218e-06,-3.36649e+08,-3.36671e+08,-3.36691e+08,142838,-0.0163781,0.0207729,-0,0.0264529,20844.9,-12259,0,24182.5,-142838
step02_gravity_refstate-crust.xmf,114,1.14508e-06,-1.06639e-07,0,7.85122e-07,-1.50788e+08,-1.50874e+08,-1.50866e+08,53859.4,-0.0175343,0.0489459,-0,0.0519919,27917.6,-5494.05,0,28453,-53859.4
step02_gravity_refstate-crust.xmf,115,8.76184e-07,7.24445e-08,0,1.19511e-06,-2.15548e+08,-2.15603e+08,-2.15608e+08,81984.8,-0.0164825,0.0423886,-0,0.0454804,25904.1,-7850.89,0,27067.7,-81984.8
step02_gravity_refstate-crust.xmf,116,6.09873e-07,2.59186e-07,0,1.85689e-06,-2.92953e+08,-2.92977e+08,-2.92994e+08,127382,-0.0167737,0.0256159,-0,0.0306192,21811.9,-10668.1,0,24281,-127382
step02_gravity_refstate-crust.xmf,117,8.22744e-07,1.94568e-07,0,1.54597e-06,-3.97522e+08,-3.97565e+08,-3.97578e+08,106054,-0.0115112,0.0407949,-0,0.0423879,25744.2,-14475.8,0,29534.9,-106054
step02_gravity_refstate-crust.xmf,118,6.55623e-07,3.24272e-07,0,2.28482e-06,-3.78697e+08,-3.7872e+08,-3.78742e+08,156738,-0.0162942,0.0158285,-0,0.0227165,19913.8,-13790,0,24222.4,-156738
step02_gravity_refstate-crust.xmf,119,7.84114e-07,2.48461e-07,0,2.22745e-06,-4.2094e+08,-4.20977e+08,-4.20994e+08,152803,-0.0151418,0.0193675,-0,0.024584,20729.3,-15328.3,0,25781,-152803
step02_gravity_refstate-crust.xmf,120,8.18961e-07,2.01571e-07,0,1.98188e-06,-4.23772e+08,-4.23815e+08,-4.23828e+08,135957,-0.0136839,0.0275003,-0,0.0307167,22491.5,-15431.5,0,27276.3,-135957
step02_gravity_refstate-crust.xmf,121,7.16717e-07,3.40063e-07,0,2.46818e-06,-4.19187e+08,-4.19213e+08,-4.19236e+08,169317,-0.0164419,0.0108393,-0,0.0196933,19024,-15264.3,0,24390.9,-169317
step02_gravity_refstate-crust.xmf,122,8.54949e-07,2.38572e-07,0,2.3742e-06,-4.60546e+08,-4.60589e+08,-4.60605e+08,162870,-0.01534,0.0146561,-0,0.021216,19850.9,-16770.5,0,25986.7,-162870
step02_gravity_refstate-crust.xmf,123,7.90384e-07,2.84354e-07,0,8.19392e-07,-4.11689e+08,-4.11724e+08,-4.11743e+08,56210.3,-0.00619101,0.058408,-0,0.0587352,31960.1,-14991.6,0,35301.5,-56210.3
step02_gravity_refstate-crust.xmf,124,8.09156e-07,2.45563e-07,0,1.0596e-06,-4.08311e+08,-4.08349e+08,-4.08366e+08,72688.7,-0.00797534,0.0533999,-0,0.0539922,29802.6,-14868.6,0,33305.7,-72688.7
step02_gravity_refstate-crust.xmf,125,8.20766e-07,2.12602e-07,0,1.30304e-06,-4.04004e+08,-4.04046e+08,-4.04061e+08,89388.8,-0.00975333,0.0474586,-0,0.0484504,27724.9,-14711.8,0,31386.4,-89388.8
step02_gravity_refstate-crust.xmf,126,8.50878e-07,2.87117e-07,0,5.74906e-10,-3.69882e+08,-3.69921e+08,-3.6994e+08,39.4385,-9.32345e-20,0.0671819,-0,0.0671819,40000,-13469.8,0,42207.1,-39.4385
step02_gravity_refstate-crust.xmf,127,7.97713e-07,3.42393e-07,0,2.63266e-06,-4.58322e+08,-4.58353e+08,-4.58377e+08,180600,-0.0167437,0.00584859,-0,0.0177358,18179.5,-16689.4,0,24678.5,-180600
step02_gravity_refstate-crust.xmf,128,9.62945e-07,-1.87363e-08,0,9.85152e-07,-1.67781e+08,-1.67848e+08,-1.67847e+08,67581.4,-0.018471,0.0434011,-0,0.0471681,26181.2,-6112.09,0,26885.2,-67581.4
step02_gravity_refstate-crust.xmf,129,1.17323e-06,-1.79534e-07,0,6.91598e-07,-1.1298e+08,-1.13072e+08,-1.1306e+08,47443.6,-0.021032,0.0453981,-0,0.0500334,26841.7,-4117.6,0,27155.7,-47443.6
step02_gravity_refstate-crust.xmf,130,1.54254e-06,-4.33477e-07,0,3.46284e-07,-5.54935e+07,-5.56291e+07,-5.55994e+07,23755.1,-0.0238809,0.0479598,-0,0.0535765,27887.4,-2025.87,0,27960.9,-23755.1
step02_gravity_refstate-crust.xmf,131,2.04573e-06,-7.77028e-07,0,-8.62735e-10,194297,656.229,53960.3,-59.1836,-0.0265689,0.0500804,-0,0.0566917,29109.7,0,0,29109.7,-59.1836
step02_gravity_refstate-crust.xmf,132,6.41443e-07,1.9999e-07,0,1.59587e-06,-2.45492e+08,-2.45522e+08,-2.45536e+08,109477,-0.0176263,0.0303624,-0,0.0351079,22823.2,-8940.27,0,24511.8,-109477
step02_gravity_refstate-crust.xmf,133,7.4987e-07,9.94487e-08,0,1.28269e-06,-1.94619e+08,-1.94663e+08,-1.9467e+08,87992.5,-0.018922,0.0356289,-0,0.0403418,24061.4,-7088.47,0,25083.8,-87992.5
step02_gravity_refstate-crust.xmf,134,9.43871e-07,2.1859e-07,0,2.5084e-06,-4.99369e+08,-4.99419e+08,-4.99434e+08,172076,-0.0156131,0.00984266,-0,0.0184567,18993.2,-18184.2,0,26294.6,-172076
step02_gravity_refstate-crust.xmf,135,8.31917e-07,1.87342e-07,0,1.73607e-06,-4.27725e+08,-4.27769e+08,-4.27782e+08,119094,-0.0121129,0.0350982,-0,0.0371296,24304.8,-15575.4,0,28867.2,-119094
step02_gravity_refstate-crust.xmf,136,8.76584e-07,1.86185e-07,0,2.11905e-06,-4.63066e+08,-4.63114e+08,-4.63127e+08,145367,-0.0138475,0.0228568,-0,0.0267243,21533.2,-16862.2,0,27349.8,-145367
step02_gravity_refstate-crust.xmf,137,7.66581e-07,3.23801e-07,0,5.85027e-07,-4.16551e+08,-4.16582e+08,-4.16604e+08,40132.8,-0.00440152,0.0622778,-0,0.0624332,34169.7,-15168.6,0,37385.2,-40132.8
step02_gravity_refstate-crust.xmf,138,7.76522e-07,3.42303e-07,0,1.67207e-07,-4.04014e+08,-4.04044e+08,-4.04068e+08,11470.4,-0.00131872,0.0664181,-0,0.0664312,38300.4,-14712.2,0,41028.9,-11470.4
step02_gravity_refstate-crust.xmf,139,6.19275e-07,4.74004e-07,0,2.68826e-06,-4.18421e+08,-4.18431e+08,-4.18464e+08,184415,-0.0175121,0.00232709,-0,0.017666,17429.2,-15236.3,0,23150,-184415
step02_gravity_refstate-crust.xmf,140,4.746e-07,3.50822e-07,0,2.05248e-06,-2.9341e+08,-2.93418e+08,-2.93442e+08,140800,-0.0177618,0.017166,-0,0.0247013,19970.7,-10684.3,0,22649.2,-140800
step02_gravity_refstate-crust.xmf,141,5.00017e-07,4.01018e-07,0,2.28796e-06,-3.37421e+08,-3.37427e+08,-3.37455e+08,156954,-0.0173592,0.0121735,-0,0.0212022,19066.3,-12286.8,0,22682.3,-156954
step02_gravity_refstate-crust.xmf,142,5.46762e-07,4.4229e-07,0,2.49427e-06,-3.78078e+08,-3.78085e+08,-3.78115e+08,171107,-0.0173183,0.007251,-0,0.018775,18223.1,-13767.2,0,22838.9,-171107
step02_gravity_refstate-crust.xmf,143,4.92348e-07,2.81396e-07,0,1.78256e-06,-2.478e+08,-2.47814e+08,-2.47834e+08,122284,-0.0185902,0.0223412,-0,0.0290642,20978.7,-9023.83,0,22837.2,-122284
step02_gravity_refstate-crust.xmf,144,8.96771e-07,3.33913e-07,0,2.79951e-06,-4.978e+08,-4.97838e+08,-4.97861e+08,192046,-0.0172055,0.00027905,-0,0.0172078,17279.9,-18127,0,25043.6,-192046
step02_gravity_refstate-crust.xmf,145,9.49548e-07,1.58557e-07,0,2.2309e-06,-5.02398e+08,-5.02453e+08,-5.02463e+08,153040,-0.0140027,0.0183392,-0,0.0230738,20646,-18294.4,0,27585.2,-153040
step02_gravity_refstate-crust.xmf,146,8.28585e-07,2.12049e-07,0,1.46331e-06,-4.54258e+08,-4.54301e+08,-4.54315e+08,100383,-0.00988336,0.0425921,-0,0.0437238,26368.7,-16541.4,0,31127.6,-100383
step02_gravity_refstate-crust.xmf,147,8.728e-07,1.73491e-07,0,1.87288e-06,-4.66993e+08,-4.67041e+08,-4.67053e+08,128480,-0.0122974,0.0303978,-0,0.032791,23227.1,-17005.2,0,28786.7,-128480
step02_gravity_refstate-crust.xmf,148,7.25252e-07,3.74749e-07,0,3.58873e-07,-4.3282e+08,-4.32844e+08,-4.32869e+08,24618.7,-0.002607,0.0647199,-0,0.0647724,36363.1,-15760.7,0,39631.7,-24618.7
step02_gravity_refstate-crust.xmf,149,7.07032e-07,3.63523e-07,0,7.08982e-07,-4.61849e+08,-4.61873e+08,-4.61898e+08,48636.2,-0.00477307,0.0595901,-0,0.0597809,32880.2,-16817.5,0,36931.5,-48636.2
step02_gravity_refstate-crust.xmf,150,7.44933e-07,3.13116e-07,0,9.35983e-07,-4.58727e+08,-4.58757e+08,-4.58778e+08,64208.4,-0.0063372,0.0553204,-0,0.0556822,30787.1,-16703.9,0,35026.6,-64208.4
step02_gravity_refstate-crust.xmf,151,7.86956e-07,2.59188e-07,0,1.18456e-06,-4.55805e+08,-4.55841e+08,-4.55859e+08,81261.1,-0.00803844,0.0497326,-0,0.050378,28627.6,-16597.6,0,33091.1,-81261.1
step02_gravity_refstate-crust.xmf,152,6.98751e-07,4.04552e-07,0,1.42321e-09,-4.39136e+08,-4.39157e+08,-4.39184e+08,97.632,-8.86838e-20,0.06631,-0,0.06631,40000,-15990.7,0,43077.8,-97.632
step02_gravity_refstate-crust.xmf,153,6.91618e-07,5.03435e-07,0,2.8756e-06,-4.54814e+08,-4.54827e+08,-4.54862e+08,197266,-0.0179534,-0.00313925,-0,0.0182258,16575.8,-16561.5,0,23431.7,-197266
step02_gravity_refstate-crust.xmf,154,8.95971e-07,-5.17462e-08,0,9.06894e-07,-1.28534e+08,-1.28599e+08,-1.28595e+08,62213,-0.0222697,0.0378774,-0,0.043939,24637.5,-4682.95,0,25078.6,-62213
step02_gravity_refstate-crust.xmf,155,1.1979e-06,-2.87062e-07,0,4.65015e-07,-5.99397e+07,-6.00416e+07,-6.00219e+07,31900,-0.0271808,0.0394468,-0,0.0479045,25192.9,-2186.57,0,25287.6,-31900
step02_gravity_refstate-crust.xmf,156,1.72289e-06,-6.5348e-07,0,-1.28122e-09,163675,655.527,45484.2,-87.8918,-0.0312737,0.0430771,-0,0.0532323,26619.5,0,0,26619.5,-87.8918
step02_gravity_refstate-crust.xmf,157,5.37292e-07,1.94586e-07,0,1.47531e-06,-1.97169e+08,-1.97192e+08,-1.97205e+08,101206,-0.0202291,0.0265727,-0,0.0333964,21843.7,-7180.59,0,22993.7,-101206
step02_gravity_refstate-crust.xmf,158,1.03835e-06,2.68113e-07,0,2.8577e-06,-5.39631e+08,-5.39684e+08,-5.39702e+08,196039,-0.0171326,-0.00219423,-0,0.0172725,16942.1,-19650.4,0,25945.6,-196039
step02_gravity_refstate-crust.xmf,159,1.04452e-06,1.76746e-07,0,2.60163e-06,-5.37543e+08,-5.37603e+08,-5.37615e+08,178472,-0.0157769,0.005591,-0,0.0167383,18272.2,-19574.3,0,26777.4,-178472
step02_gravity_refstate-crust.xmf,160,1.03436e-06,1.24017e-07,0,2.32482e-06,-5.39416e+08,-5.39479e+08,-5.39487e+08,159483,-0.0141414,0.0139353,-0,0.0198538,19814.8,-19642.4,0,27900.7,-159483
step02_gravity_refstate-crust.xmf,161,8.56981e-07,1.85471e-07,0,1.65588e-06,-4.74072e+08,-4.74118e+08,-4.74131e+08,113593,-0.0108404,0.0365562,-0,0.0381297,24757.3,-17262.8,0,30181.6,-113593
step02_gravity_refstate-crust.xmf,162,9.2695e-07,1.46359e-07,0,1.97257e-06,-5.04696e+08,-5.0475e+08,-5.0476e+08,135319,-0.0124072,0.0261261,-0,0.0289225,22301.2,-18377.9,0,28898,-135319
step02_gravity_refstate-crust.xmf,163,6.77045e-07,4.03184e-07,0,5.21136e-07,-4.65922e+08,-4.65941e+08,-4.65968e+08,35749.9,-0.00347866,0.0623499,-0,0.0624469,34683.1,-16965.7,0,38610.3,-35749.9
step02_gravity_refstate-crust.xmf,164,6.29878e-07,4.5812e-07,0,1.90714e-07,-4.74806e+08,-4.74818e+08,-4.7485e+08,13083,-0.00124842,0.0652502,-0,0.0652621,38007.4,-17289.1,0,41754.9,-13083
step02_gravity_refstate-crust.xmf,165,9.13151e-07,4.16809e-07,0,3.00251e-06,-5.14784e+08,-5.14818e+08,-5.14847e+08,205972,-0.0180404,-0.00621175,-0,0.0190799,16232.5,-18745.6,0,24797,-205972
step02_gravity_refstate-crust.xmf,166,9.97059e-07,4.1966e-07,0,3.14778e-06,-5.42077e+08,-5.42116e+08,-5.42145e+08,215937,-0.0185529,-0.0110933,-0,0.0216164,15524.1,-19739.5,0,25112.7,-215937
step02_gravity_refstate-crust.xmf,167,1.22524e-06,3.83135e-07,0,3.44611e-06,-6.01127e+08,-6.01184e+08,-6.01211e+08,236403,-0.0194987,-0.0214435,-0,0.0289831,14143.5,-21890.2,0,26061.8,-236403
step02_gravity_refstate-crust.xmf,168,1.12385e-06,6.71454e-07,0,3.82968e-06,-6.01641e+08,-6.01672e+08,-6.01718e+08,262716,-0.0211037,-0.0317916,-0,0.0381585,12774.1,-21908.9,0,25361,-262716
step02_gravity_refstate-crust.xmf,169,1.00931e-06,6.5648e-07,0,3.60832e-06,-5.71388e+08,-5.71412e+08,-5.71457e+08,247531,-0.020384,-0.0250988,-0,0.0323335,13563.5,-20807,0,24837.5,-247531
step02_gravity_refstate-crust.xmf,170,4.35111e-07,5.83671e-07,0,2.67528e-06,-3.81327e+08,-3.81317e+08,-3.81357e+08,183524,-0.0180131,-0.000602224,-0,0.0180231,16763.3,-13885.3,0,21767.2,-183524
step02_gravity_refstate-crust.xmf,171,4.83491e-07,6.61684e-07,0,2.88918e-06,-4.17901e+08,-4.17888e+08,-4.17934e+08,198198,-0.0183606,-0.0063059,-0,0.0194133,15890.5,-15217.1,0,22001.5,-198198
step02_gravity_refstate-crust.xmf,172,7.46475e-07,5.61115e-07,0,3.07038e-06,-4.85365e+08,-4.85378e+08,-4.85416e+08,210628,-0.0185852,-0.00919806,-0,0.0207368,15660.3,-17674.1,0,23613.9,-210628
step02_gravity_refstate-crust.xmf,173,2.9819e-07,3.945e-07,0,1.95015e-06,-2.47324e+08,-2.47317e+08,-2.47344e+08,133780,-0.0193872,0.0132411,-0,0.0234774,19012.9,-9005.89,0,21038,-133780
step02_gravity_refstate-crust.xmf,174,3.18438e-07,4.79648e-07,0,2.24981e-06,-2.98315e+08,-2.98303e+08,-2.98336e+08,154337,-0.0183979,0.00802615,-0,0.0200724,18109.7,-10862.5,0,21117.6,-154337
step02_gravity_refstate-crust.xmf,175,3.55169e-07,5.40212e-07,0,2.47286e-06,-3.39436e+08,-3.39424e+08,-3.39461e+08,169638,-0.0180744,0.00331233,-0,0.0183754,17336.3,-12359.8,0,21291.1,-169638
step02_gravity_refstate-crust.xmf,176,6.32064e-07,8.3009e-08,0,1.1423e-06,-1.45243e+08,-1.45281e+08,-1.45287e+08,78361.9,-0.022747,0.0298351,-0,0.0375175,22562.6,-5290.41,0,23174.5,-78361.9
step02_gravity_refstate-crust.xmf,177,3.89783e-07,2.86408e-07,0,1.66199e-06,-2.08732e+08,-2.08739e+08,-2.08759e+08,114012,-0.0204018,0.0197477,-0,0.0283937,20313.1,-7601.13,0,21688.7,-114012
step02_gravity_refstate-crust.xmf,178,1.33703e-06,5.30754e-07,0,3.92806e-06,-6.36662e+08,-6.36717e+08,-6.36754e+08,269465,-0.0211384,-0.0353161,-0,0.0411589,12434.9,-23184.6,0,26308.8,-269465
step02_gravity_refstate-crust.xmf,179,1.34629e-06,3.5725e-07,0,3.61179e-06,-6.27931e+08,-6.27998e+08,-6.28023e+08,247769,-0.0199491,-0.0270907,-0,0.0336433,13441.5,-22866.4,0,26524.5,-247769
step02_gravity_refstate-crust.xmf,180,1.48244e-06,4.7168e-07,0,4.07637e-06,-6.61849e+08,-6.61919e+08,-6.61951e+08,279639,-0.021363,-0.0403404,-0,0.0456478,11903.9,-24102,0,26881.4,-279639
step02_gravity_refstate-crust.xmf,181,1.24134e-06,8.41793e-07,0,4.30175e-06,-6.38767e+08,-6.38794e+08,-6.38852e+08,295100,-0.022456,-0.0443179,-0,0.0496825,11392,-23261.3,0,25901,-295100
step02_gravity_refstate-crust.xmf,182,1.15077e-06,2.33365e-07,0,2.9786e-06,-5.72422e+08,-5.72484e+08,-5.725e+08,204332,-0.0174857,-0.00707654,-0,0.0188634,16204.9,-20844.6,0,26402.6,-204332
step02_gravity_refstate-crust.xmf,183,1.15462e-06,1.28481e-07,0,2.6817e-06,-5.73647e+08,-5.73718e+08,-5.73727e+08,183965,-0.015876,0.0014011,-0,0.0159377,17583.6,-20889.1,0,27304.5,-183965
step02_gravity_refstate-crust.xmf,184,9.92154e-07,1.11076e-07,0,2.05489e-06,-5.42018e+08,-5.42078e+08,-5.42086e+08,140966,-0.0124809,0.0217928,-0,0.0251138,21400.8,-19736.9,0,29112.5,-140966
step02_gravity_refstate-crust.xmf,185,8.33597e-07,2.11948e-07,0,1.48587e-06,-5.13678e+08,-5.1372e+08,-5.13735e+08,101931,-0.00918749,0.0399124,-0,0.0409562,25737.4,-18704.7,0,31816.4,-101931
step02_gravity_refstate-crust.xmf,186,8.89198e-07,1.66975e-07,0,1.72942e-06,-5.09545e+08,-5.09594e+08,-5.09606e+08,118638,-0.0108015,0.0331815,-0,0.0348953,23961.3,-18554.3,0,30305.2,-118638
step02_gravity_refstate-crust.xmf,187,1.10562e-06,4.05052e-07,0,3.29175e-06,-5.71845e+08,-5.71893e+08,-5.7192e+08,225814,-0.0190285,-0.0160729,-0,0.0249082,14843.8,-20823.7,0,25572.7,-225814
step02_gravity_refstate-crust.xmf,188,1.38817e-06,8.06033e-07,0,4.50085e-06,-6.62951e+08,-6.62991e+08,-6.63046e+08,308758,-0.0228117,-0.0497519,-0,0.0547323,10878.5,-24142.2,0,26480,-308758
step02_gravity_refstate-crust.xmf,189,1.63989e-06,3.88053e-07,0,4.22811e-06,-6.8732e+08,-6.87406e+08,-6.87432e+08,290048,-0.02143,-0.0456914,-0,0.0504673,11363.9,-25029.8,0,27488.7,-290048
step02_gravity_refstate-crust.xmf,190,1.51769e-06,2.30234e-07,0,3.67634e-06,-6.60991e+08,-6.61079e+08,-6.61095e+08,252197,-0.0197823,-0.0312004,-0,0.0369433,12973.7,-24070.5,0,27344.3,-252197
step02_gravity_refstate-crust.xmf,191,7.77189e-07,2.66463e-07,0,1.26309e-06,-5.0591e+08,-5.05945e+08,-5.05963e+08,86647.9,-0.00783829,0.0462664,-0,0.0469256,27627.2,-18421.7,0,33205.7,-86647.9
step02_gravity_refstate-crust.xmf,192,5.80289e-07,4.92883e-07,0,3.68561e-07,-5.07654e+08,-5.0766e+08,-5.07694e+08,25283.3,-0.00220603,0.0632782,-0,0.0633166,36086.7,-18484.8,0,40545.5,-25283.3
step02_gravity_refstate-crust.xmf,193,6.08943e-07,4.55406e-07,0,5.79196e-07,-5.10071e+08,-5.10081e+08,-5.10113e+08,39732.9,-0.00346724,0.0605721,-0,0.0606713,33914.5,-18572.8,0,38667.1,-39732.9
step02_gravity_refstate-crust.xmf,194,6.58258e-07,3.96906e-07,0,7.99021e-07,-5.08088e+08,-5.08106e+08,-5.08133e+08,54812.8,-0.0048499,0.0568188,-0,0.0570254,31766.8,-18500.7,0,36761.5,-54812.8
step02_gravity_refstate-crust.xmf,195,7.16301e-07,3.30875e-07,0,1.02764e-06,-5.05996e+08,-5.06023e+08,-5.06045e+08,70496.2,-0.00632405,0.0520176,-0,0.0524006,29664.2,-18424.7,0,34920.4,-70496.2
step02_gravity_refstate-crust.xmf,196,5.55292e-07,5.21499e-07,0,2.51939e-09,-5.07267e+08,-5.07269e+08,-5.07305e+08,172.83,-8.30754e-20,0.0651625,-0,0.0651625,40000,-18470.6,0,44058.6,-172.83
step02_gravity_refstate-crust.xmf,197,8.94493e-07,6.49235e-07,0,3.43625e-06,-5.42131e+08,-5.42148e+08,-5.42193e+08,235726,-0.0198372,-0.0201435,-0,0.0282714,14166.2,-19741.5,0,24298.3,-235726
step02_gravity_refstate-crust.xmf,198,7.94961e-07,6.41089e-07,0,3.27345e-06,-5.12344e+08,-5.12354e+08,-5.12398e+08,224559,-0.0192871,-0.0153438,-0,0.0246459,14780.2,-18656.6,0,23801.8,-224559
step02_gravity_refstate-crust.xmf,199,8.25623e-07,1.00541e-06,0,3.89955e-06,-5.67335e+08,-5.67322e+08,-5.67391e+08,267509,-0.0214758,-0.0339096,-0,0.0401381,12362.5,-20659.3,0,24075.7,-267509
step02_gravity_refstate-crust.xmf,200,5.2807e-07,7.36376e-07,0,3.09411e-06,-4.51204e+08,-4.5119e+08,-4.5124e+08,212256,-0.0188999,-0.0123082,-0,0.0225543,15015.6,-16429.8,0,22257.7,-212256
step02_gravity_refstate-crust.xmf,201,2.533e-07,6.79437e-07,0,2.63928e-06,-3.5086e+08,-3.50831e+08,-3.50878e+08,181054,-0.0183875,-0.00385859,-0,0.018788,16033,-12775.5,0,20500.5,-181054
step02_gravity_refstate-crust.xmf,202,7.75936e-07,-7.59639e-08,0,7.47135e-07,-8.90303e+07,-8.90887e+07,-8.90835e+07,51253.5,-0.026734,0.0314531,-0,0.0412796,22964.8,-3244.26,0,23192.8,-51253.5
step02_gravity_refstate-crust.xmf,203,1.34469e-06,-5.13312e-07,0,3.05898e-09,127606,147.014,35360.2,209.846,-0.0349725,0.0351625,-0,0.0495931,24208.2,0,0,24208.2,-209.846
step02_gravity_refstate-crust.xmf,204,3.70022e-07,2.21032e-07,0,1.36326e-06,-1.56642e+08,-1.56652e+08,-1.56667e+08,93519.9,-0.0231017,0.020621,-0,0.0309663,20401.1,-5704.54,0,21183.6,-93519.9
step02_gravity_refstate-crust.xmf,205,1.97623e-07,3.6802e-07,0,1.68764e-06,-1.93891e+08,-1.93879e+08,-1.93904e+08,115772,-0.0215073,0.0131108,-0,0.0251884,18827.3,-7060.16,0,20107.5,-115772
step02_gravity_refstate-crust.xmf,206,1.11452e-06,8.7398e-07,0,4.13824e-06,-6.16543e+08,-6.16559e+08,-6.16619e+08,283883,-0.0220841,-0.0398276,-0,0.0455406,11832.7,-22451.7,0,25379,-283883
step02_gravity_refstate-crust.xmf,207,1.56138e-06,7.35254e-07,0,4.70534e-06,-6.87884e+08,-6.87941e+08,-6.87991e+08,322787,-0.0230087,-0.0554924,-0,0.0600733,10366,-25050.6,0,27110.6,-322787
step02_gravity_refstate-crust.xmf,208,1.7396e-06,6.45253e-07,0,4.91566e-06,-7.11967e+08,-7.12042e+08,-7.12087e+08,337214,-0.0230476,-0.0616857,-0,0.0658507,9838.49,-25927.9,0,27731.8,-337214
step02_gravity_refstate-crust.xmf,209,1.39876e-06,1.21175e-06,0,5.21399e-06,-6.88105e+08,-6.88117e+08,-6.882e+08,357680,-0.024438,-0.065707,-0,0.0701044,9396.8,-25058.7,0,26762.6,-357680
step02_gravity_refstate-crust.xmf,210,1.58936e-06,1.17163e-06,0,5.52258e-06,-7.11755e+08,-7.11784e+08,-7.11864e+08,378849,-0.0246696,-0.0727594,-0,0.0768279,8867.12,-25920.4,0,27395.1,-378849
step02_gravity_refstate-crust.xmf,211,1.945e-06,5.29767e-07,0,5.14244e-06,-7.36551e+08,-7.36648e+08,-7.36685e+08,352771,-0.0227975,-0.0683498,-0,0.0720515,9302.89,-26823.6,0,28391,-352771
step02_gravity_refstate-crust.xmf,212,1.80375e-06,2.7637e-07,0,4.36917e-06,-7.12616e+08,-7.1272e+08,-7.12739e+08,299725,-0.0212584,-0.0512222,-0,0.0554584,10831.6,-25951.2,0,28121,-299725
step02_gravity_refstate-crust.xmf,213,1.1207e-06,7.40176e-08,0,2.39272e-06,-5.754e+08,-5.75471e+08,-5.75476e+08,164141,-0.0142042,0.00956618,-0,0.0171251,19019.7,-20952.6,0,28297.7,-164141
step02_gravity_refstate-crust.xmf,214,1.06733e-06,7.03078e-08,0,2.12214e-06,-5.78049e+08,-5.78118e+08,-5.78122e+08,145579,-0.0124843,0.0174497,-0,0.0214557,20532.1,-21048.9,0,29404.4,-145579
step02_gravity_refstate-crust.xmf,215,9.34083e-07,1.3465e-07,0,1.79672e-06,-5.47745e+08,-5.478e+08,-5.47809e+08,123255,-0.0107747,0.029106,-0,0.0310363,23032.1,-19945.2,0,30467.9,-123255
step02_gravity_refstate-crust.xmf,216,1.26655e-06,1.87975e-07,0,3.09372e-06,-6.03091e+08,-6.03165e+08,-6.03178e+08,212229,-0.0178082,-0.0121314,-0,0.0215477,15472.8,-21961.5,0,26864.8,-212229
step02_gravity_refstate-crust.xmf,217,1.66113e-06,1.33992e-07,0,3.77558e-06,-6.87706e+08,-6.87811e+08,-6.8782e+08,259005,-0.019665,-0.0360549,-0,0.0410691,12424,-25043.6,0,27955.9,-259005
step02_gravity_refstate-crust.xmf,218,1.38605e-06,1.37135e-07,0,3.21176e-06,-6.31772e+08,-6.31858e+08,-6.31868e+08,220327,-0.0180744,-0.0173641,-0,0.0250639,14748.3,-23006.1,0,27327.5,-220327
step02_gravity_refstate-crust.xmf,219,1.50839e-06,6.07355e-08,0,3.29135e-06,-6.60468e+08,-6.60568e+08,-6.60572e+08,225787,-0.0180374,-0.0219881,-0,0.0284398,14138.3,-24051.2,0,27898.9,-225787
step02_gravity_refstate-crust.xmf,220,4.81794e-07,5.82433e-07,0,2.1937e-07,-5.47392e+08,-5.47385e+08,-5.47425e+08,15048.8,-0.00115001,0.0636436,-0,0.063654,37574.2,-19931.2,0,42533.2,-15048.8
step02_gravity_refstate-crust.xmf,221,8.84831e-07,1.09969e-06,0,4.14842e-06,-5.92121e+08,-5.92106e+08,-5.92182e+08,284582,-0.0222613,-0.0406677,-0,0.0463619,11624.1,-21562,0,24495.7,-284582
step02_gravity_refstate-crust.xmf,222,7.88537e-07,8.9829e-07,0,3.68852e-06,-5.46202e+08,-5.46195e+08,-5.46256e+08,253033,-0.0207793,-0.028028,-0,0.0348906,13059.4,-19889.6,0,23793.8,-253033
step02_gravity_refstate-crust.xmf,223,2.71714e-07,7.83178e-07,0,2.83046e-06,-3.80972e+08,-3.80937e+08,-3.80991e+08,194170,-0.0185385,-0.00882619,-0,0.0205324,15275.5,-13872,0,20634.3,-194170
step02_gravity_refstate-crust.xmf,224,2.94418e-07,9.0514e-07,0,3.04765e-06,-4.14787e+08,-4.14745e+08,-4.14807e+08,209069,-0.0189209,-0.0147985,-0,0.0240207,14415.4,-15103.3,0,20878.5,-209069
step02_gravity_refstate-crust.xmf,225,5.6667e-07,8.42642e-07,0,3.31405e-06,-4.8209e+08,-4.82071e+08,-4.82129e+08,227344,-0.0195821,-0.0187549,-0,0.0271146,14124,-17554.6,0,22531.1,-227344
step02_gravity_refstate-crust.xmf,226,1.05603e-07,5.6646e-07,0,2.1771e-06,-2.62199e+08,-2.62168e+08,-2.62206e+08,149349,-0.0193882,0.00307908,-0,0.0196312,16981.8,-9546.93,0,19481.4,-149349
step02_gravity_refstate-crust.xmf,227,1.0742e-07,7.01478e-07,0,2.47418e-06,-3.08696e+08,-3.08655e+08,-3.08703e+08,169728,-0.0187158,-0.00342387,-0,0.0190264,15914.7,-11239.9,0,19483.7,-169728
step02_gravity_refstate-crust.xmf,228,9.45095e-07,-2.50576e-07,0,3.4941e-07,-3.831e+07,-3.8392e+07,-3.83748e+07,23969.5,-0.031697,0.0314739,-0,0.0446688,23048.2,-1398.15,0,23090.5,-23969.5
step02_gravity_refstate-crust.xmf,229,5.07134e-07,7.91046e-08,0,9.91144e-07,-1.09554e+08,-1.09584e+08,-1.09589e+08,67992.5,-0.0260732,0.0247059,-0,0.0359192,21294.4,-3990.61,0,21665.1,-67992.5
step02_gravity_refstate-crust.xmf,230,9.08115e-08,4.82705e-07,0,1.9227e-06,-2.22149e+08,-2.22122e+08,-2.22155e+08,131897,-0.0205076,0.0069803,-0,0.021663,17623.3,-8088.66,0,19390.9,-131897
step02_gravity_refstate-crust.xmf,231,9.45181e-07,1.22911e-06,0,4.43275e-06,-6.15284e+08,-6.15264e+08,-6.15348e+08,304086,-0.0230234,-0.0475747,-0,0.0528529,10921.1,-22405.7,0,24925.6,-304086
step02_gravity_refstate-crust.xmf,232,1.07465e-06,1.24221e-06,0,4.67504e-06,-6.39748e+08,-6.39737e+08,-6.39822e+08,320708,-0.0235859,-0.0532726,-0,0.0582603,10412.6,-23297,0,25518,-320708
step02_gravity_refstate-crust.xmf,233,1.23197e-06,1.22842e-06,0,4.9307e-06,-6.64337e+08,-6.64337e+08,-6.64422e+08,338246,-0.0240532,-0.0591894,-0,0.0638901,9917.55,-24192.7,0,26146.6,-338246
step02_gravity_refstate-crust.xmf,234,1.12649e-06,1.84542e-06,0,5.73512e-06,-6.87616e+08,-6.87567e+08,-6.87693e+08,393429,-0.0256181,-0.0761404,-0,0.0803346,8465.23,-25040.8,0,26432.9,-393429
step02_gravity_refstate-crust.xmf,235,1.77238e-06,1.18824e-06,0,5.93435e-06,-7.3419e+08,-7.3423e+08,-7.34312e+08,407096,-0.0248913,-0.0815969,-0,0.085309,8234.56,-26737.9,0,27977.2,-407096
step02_gravity_refstate-crust.xmf,236,1.96196e-06,1.44709e-07,0,4.50561e-06,-7.37242e+08,-7.37367e+08,-7.37377e+08,309085,-0.0208268,-0.0570862,-0,0.0607667,10292.9,-26848.2,0,28753.6,-309085
step02_gravity_refstate-crust.xmf,237,1.26246e-06,7.4536e-08,0,2.76491e-06,-6.06076e+08,-6.06157e+08,-6.06163e+08,189673,-0.0160113,-0.00325145,-0,0.0163381,16839.8,-22070,0,27760.9,-189673
step02_gravity_refstate-crust.xmf,238,1.2183e-06,2.19045e-08,0,2.45994e-06,-6.09512e+08,-6.09594e+08,-6.09596e+08,168752,-0.0142096,0.00501205,-0,0.0150677,18218.6,-22194.9,0,28714.6,-168752
step02_gravity_refstate-crust.xmf,239,9.87075e-07,1.00109e-07,0,1.86054e-06,-5.81924e+08,-5.81985e+08,-5.81991e+08,127633,-0.0107637,0.0248942,-0,0.0271215,22105.6,-21189.7,0,30621.2,-127633
step02_gravity_refstate-crust.xmf,240,7.76667e-07,2.64136e-07,0,1.30968e-06,-5.53793e+08,-5.53828e+08,-5.53846e+08,89844,-0.00751487,0.0427883,-0,0.0434432,26679.4,-20164.9,0,33442.7,-89844
step02_gravity_refstate-crust.xmf,241,8.61019e-07,1.90566e-07,0,1.5473e-06,-5.53165e+08,-5.53211e+08,-5.53224e+08,106145,-0.00906746,0.0361389,-0,0.0372591,24789.6,-20142.3,0,31941.2,-106145
step02_gravity_refstate-crust.xmf,242,1.7995e-06,2.50678e-08,0,3.87301e-06,-7.13474e+08,-7.13596e+08,-7.13598e+08,265688,-0.0193659,-0.0412666,-0,0.0455847,11856.5,-25982.1,0,28559.5,-265688
step02_gravity_refstate-crust.xmf,243,1.63041e-06,-3.22443e-08,0,3.3585e-06,-6.88284e+08,-6.88398e+08,-6.88396e+08,230393,-0.0178057,-0.0267131,-0,0.0321035,13537.6,-25064.2,0,28486.5,-230393
step02_gravity_refstate-crust.xmf,244,6.96594e-07,3.42052e-07,0,1.08937e-06,-5.53229e+08,-5.53253e+08,-5.53277e+08,74730.7,-0.00611892,0.0486127,-0,0.0489963,28606.1,-20144.2,0,34987.1,-74730.7
step02_gravity_refstate-crust.xmf,245,5.03409e-07,5.54015e-07,0,4.48155e-07,-5.54403e+08,-5.544e+08,-5.54438e+08,30743.4,-0.00234898,0.0612262,-0,0.0612713,35007.7,-20186.5,0,40410.8,-30743.4
step02_gravity_refstate-crust.xmf,246,5.4825e-07,5.00294e-07,0,6.53088e-07,-5.57401e+08,-5.57404e+08,-5.57439e+08,44801.9,-0.00346006,0.0579642,-0,0.0580674,32805.8,-20295.7,0,38576.4,-44801.9
step02_gravity_refstate-crust.xmf,247,6.18903e-07,4.22861e-07,0,8.70808e-07,-5.547e+08,-5.54713e+08,-5.54742e+08,59737.4,-0.00475899,0.0537112,-0,0.0539216,30643,-20197.6,0,36700.6,-59737.4
step02_gravity_refstate-crust.xmf,248,4.10088e-07,6.4688e-07,0,1.78417e-09,-5.74469e+08,-5.74453e+08,-5.74497e+08,122.394,-4.90214e-20,0.0637321,-0,0.0637321,40000,-20916.8,0,45138.8,-122.394
step02_gravity_refstate-crust.xmf,249,6.24289e-07,9.76304e-07,0,3.57015e-06,-5.14842e+08,-5.14818e+08,-5.14885e+08,244912,-0.0203986,-0.0257336,-0,0.0328377,13234,-18747.4,0,22947.8,-244912
step02_gravity_refstate-crust.xmf,250,5.79192e-07,1.42984e-06,0,4.15973e-06,-5.64575e+08,-5.64516e+08,-5.64615e+08,285358,-0.022248,-0.0426436,-0,0.0480984,11217.9,-20558.5,0,23419.9,-285358
step02_gravity_refstate-crust.xmf,251,5.4351e-07,1.27201e-06,0,3.89178e-06,-5.38122e+08,-5.38072e+08,-5.3816e+08,266976,-0.0214297,-0.0357541,-0,0.0416844,11953.8,-19595.1,0,22953.4,-266976
step02_gravity_refstate-crust.xmf,252,3.14474e-07,1.02841e-06,0,3.26787e-06,-4.47714e+08,-4.47665e+08,-4.47735e+08,224176,-0.0194874,-0.0211654,-0,0.0287703,13553.9,-16302.3,0,21200.8,-224176
step02_gravity_refstate-crust.xmf,253,6.57178e-08,8.5167e-07,0,2.70686e-06,-3.43218e+08,-3.43164e+08,-3.43222e+08,185691,-0.0186153,-0.0106635,-0,0.0214532,14738,-12496.8,0,19323,-185691
step02_gravity_refstate-crust.xmf,254,5.50298e-07,-5.3831e-08,0,5.65205e-07,-5.49894e+07,-5.50309e+07,-5.50272e+07,38773.1,-0.0313737,0.0235517,-0,0.03923,21009.4,-2004.09,0,21104.7,-38773.1
step02_gravity_refstate-crust.xmf,255,8.8853e-07,-3.38048e-07,0,2.87687e-09,84366.2,223.038,23413.1,197.354,-0.0376014,0.0265755,-0,0.0460447,21869,0,0,21869,-197.354
step02_gravity_refstate-crust.xmf,256,2.41069e-07,1.74798e-07,0,1.01462e-06,-1.01866e+08,-1.01871e+08,-1.01882e+08,69603.1,-0.0273684,0.0172154,-0,0.0323326,19534.4,-3709.78,0,19883.6,-69603.1
step02_gravity_refstate-crust.xmf,257,7.80608e-08,3.31922e-07,0,1.389e-06,-1.44183e+08,-1.44166e+08,-1.44189e+08,95285.7,-0.0243424,0.0117255,-0,0.0270192,18389.9,-5249.97,0,19124.6,-95285.7
step02_gravity_refstate-crust.xmf,258,-4.42059e-08,4.79323e-07,0,1.72199e-06,-1.84211e+08,-1.84175e+08,-1.84208e+08,118129,-0.0220936,0.00537452,-0,0.0227379,17149,-6706.96,0,18413.9,-118129
step02_gravity_refstate-crust.xmf,259,1.28032e-06,1.90343e-06,0,6.126e-06,-7.08761e+08,-7.08719e+08,-7.08849e+08,420244,-0.0260374,-0.0837382,-0,0.0876929,7955.49,-25811.3,0,27009.5,-420244
step02_gravity_refstate-crust.xmf,260,9.87156e-07,1.78257e-06,0,5.37601e-06,-6.65485e+08,-6.6543e+08,-6.65552e+08,368794,-0.0250936,-0.0689988,-0,0.0734202,8976.79,-24234.4,0,25843.5,-368794
step02_gravity_refstate-crust.xmf,261,1.59831e-06,1.74913e-06,0,6.62701e-06,-7.4068e+08,-7.40669e+08,-7.40789e+08,454613,-0.0261104,-0.0941174,-0,0.097672,7343.45,-26974.4,0,27956.1,-454613
step02_gravity_refstate-crust.xmf,262,2.01696e-06,9.00344e-07,0,6.07238e-06,-7.59653e+08,-7.5973e+08,-7.59792e+08,416565,-0.0240767,-0.0873116,-0,0.0905704,7886.74,-27665.5,0,28767.7,-416565
step02_gravity_refstate-crust.xmf,263,2.13484e-06,3.62432e-07,0,5.32756e-06,-7.60924e+08,-7.61046e+08,-7.61071e+08,365471,-0.0220885,-0.0749819,-0,0.0781677,8800.99,-27711.4,0,29075.4,-365471
step02_gravity_refstate-crust.xmf,264,2.1239e-06,3.22557e-09,0,4.64729e-06,-7.61436e+08,-7.61581e+08,-7.61582e+08,318804,-0.0200312,-0.0632238,-0,0.0663212,9756.75,-27729.4,0,29395.8,-318804
step02_gravity_refstate-crust.xmf,265,1.92574e-06,-9.7361e-08,0,3.96263e-06,-7.38249e+08,-7.38388e+08,-7.38381e+08,271837,-0.0188156,-0.0466946,-0,0.050343,11291.2,-26884.3,0,29159.2,-271837
step02_gravity_refstate-crust.xmf,266,1.13659e-06,1.67811e-08,0,2.16896e-06,-6.12308e+08,-6.12384e+08,-6.12386e+08,148791,-0.0124071,0.013024,-0,0.0179878,19677.8,-22296.3,0,29737.9,-148791
step02_gravity_refstate-crust.xmf,267,1.05128e-06,5.46135e-08,0,1.91615e-06,-6.15565e+08,-6.15633e+08,-6.15637e+08,131448,-0.0106945,0.020368,-0,0.0230049,21148.8,-22414.6,0,30817,-131448
step02_gravity_refstate-crust.xmf,268,8.94834e-07,1.5368e-07,0,1.59883e-06,-5.95693e+08,-5.95744e+08,-5.95754e+08,109679,-0.00889094,0.0314869,-0,0.0327181,23667.2,-21690.7,0,32103.3,-109679
step02_gravity_refstate-crust.xmf,269,1.36304e-06,6.56264e-09,0,2.82723e-06,-6.36232e+08,-6.36325e+08,-6.36325e+08,193948,-0.016023,-0.00778991,-0,0.0178162,16141,-23168.2,0,28236.4,-193948
step02_gravity_refstate-crust.xmf,270,1.7436e-06,-1.35622e-07,0,3.41846e-06,-7.14826e+08,-7.14955e+08,-7.14946e+08,234507,-0.0173731,-0.0316307,-0,0.0360878,12936.3,-26030.8,0,29068,-234507
step02_gravity_refstate-crust.xmf,271,1.46447e-06,-6.02077e-08,0,2.89539e-06,-6.64316e+08,-6.64421e+08,-6.64417e+08,198624,-0.015958,-0.0125604,-0,0.0203081,15434.1,-24190.9,0,28695.2,-198624
step02_gravity_refstate-crust.xmf,272,1.5629e-06,-1.27954e-07,0,2.97972e-06,-6.89526e+08,-6.89642e+08,-6.89634e+08,204409,-0.0158978,-0.017791,-0,0.0238591,14694.2,-25109,0,29092.6,-204409
step02_gravity_refstate-crust.xmf,273,3.93157e-07,6.53686e-07,0,3.19191e-07,-5.94204e+08,-5.94186e+08,-5.94231e+08,21896.5,-0.00141567,0.0616065,-0,0.0616228,36223.8,-21635.2,0,42193,-21896.5
step02_gravity_refstate-crust.xmf,274,3.31234e-07,7.15754e-07,0,1.68399e-07,-6.12272e+08,-6.12246e+08,-6.12295e+08,11552.2,-0.000666962,0.0623088,-0,0.0623124,37950.3,-22292.8,0,44013.6,-11552.2
step02_gravity_refstate-crust.xmf,275,6.20288e-07,1.57308e-06,0,4.44265e-06,-5.90028e+08,-5.89963e+08,-5.90071e+08,304766,-0.0230639,-0.0496551,-0,0.0547501,10528.2,-21485.5,0,23926.3,-304766
step02_gravity_refstate-crust.xmf,276,5.83298e-08,1.02803e-06,0,2.93235e-06,-3.77285e+08,-3.77218e+08,-3.77289e+08,201159,-0.0187627,-0.0168978,-0,0.0252502,13824.5,-13737.3,0,19489.2,-201159
step02_gravity_refstate-crust.xmf,277,5.45239e-08,1.20527e-06,0,3.15705e-06,-4.11106e+08,-4.11027e+08,-4.11109e+08,216574,-0.0191357,-0.0232176,-0,0.0300871,12970.2,-14968.8,0,19806.3,-216574
step02_gravity_refstate-crust.xmf,278,3.28753e-07,1.18497e-06,0,3.50178e-06,-4.78378e+08,-4.78319e+08,-4.78401e+08,240222,-0.0201696,-0.0277757,-0,0.0343264,12714.3,-17419,0,21565.6,-240222
step02_gravity_refstate-crust.xmf,279,-9.79493e-08,6.09956e-07,0,2.01e-06,-2.23118e+08,-2.23069e+08,-2.23111e+08,137886,-0.0204695,-0.00021783,-0,0.0204707,16145.3,-8123.37,0,18073.8,-137886
step02_gravity_refstate-crust.xmf,280,-1.18604e-07,7.5257e-07,0,2.28636e-06,-2.64131e+08,-2.64071e+08,-2.64122e+08,156844,-0.0193361,-0.00598997,-0,0.0202427,15186.6,-9616.62,0,17975.3,-156844
step02_gravity_refstate-crust.xmf,281,-1.44651e-07,9.22543e-07,0,2.53678e-06,-3.02972e+08,-3.02899e+08,-3.02962e+08,174023,-0.0187309,-0.0123619,-0,0.0224425,14174.7,-11030.8,0,17961.1,-174023
step02_gravity_refstate-crust.xmf,282,1.88615e-06,1.56595e-06,0,6.9227e-06,-7.62939e+08,-7.62961e+08,-7.63069e+08,474898,-0.0255819,-0.100701,-0,0.1039,6995.05,-27785.6,0,28652.6,-474898
step02_gravity_refstate-crust.xmf,283,1.28614e-06,2.10674e-06,0,6.50898e-06,-7.21808e+08,-7.21751e+08,-7.21896e+08,446516,-0.0264787,-0.0912938,-0,0.0950562,7449.72,-26286.6,0,27321.8,-446516
step02_gravity_refstate-crust.xmf,284,6.92281e-07,1.71683e-06,0,4.75826e-06,-6.15277e+08,-6.15207e+08,-6.15325e+08,326417,-0.023842,-0.0564791,-0,0.0613052,9922.57,-22405.2,0,24504.1,-326417
step02_gravity_refstate-crust.xmf,285,8.51543e-07,1.72593e-06,0,5.05145e-06,-6.41859e+08,-6.41799e+08,-6.41917e+08,346529,-0.0244968,-0.0623882,-0,0.0670253,9474.66,-23373.6,0,25220.9,-346529
step02_gravity_refstate-crust.xmf,286,6.0516e-07,2.51797e-06,0,5.80997e-06,-6.65121e+08,-6.6499e+08,-6.65163e+08,398564,-0.0258309,-0.0791319,-0,0.0832412,8044.39,-24220.7,0,25521.7,-398564
step02_gravity_refstate-crust.xmf,287,6.92369e-07,2.69404e-06,0,6.24613e-06,-6.85939e+08,-6.85802e+08,-6.85986e+08,428484,-0.0264483,-0.086935,-0,0.0908692,7542.65,-24979.3,0,26093.2,-428484
step02_gravity_refstate-crust.xmf,288,1.81838e-06,1.99201e-06,0,7.57217e-06,-7.73543e+08,-7.73532e+08,-7.73668e+08,519451,-0.0260322,-0.111765,-0,0.114757,6359.35,-28172.1,0,28880.9,-519451
step02_gravity_refstate-crust.xmf,289,2.20147e-06,1.03652e-06,0,6.89775e-06,-7.88169e+08,-7.88249e+08,-7.8832e+08,473186,-0.0237364,-0.104213,-0,0.106882,6853.12,-28704.6,0,29511.3,-473186
step02_gravity_refstate-crust.xmf,290,2.16924e-06,7.81103e-07,0,6.30306e-06,-7.78278e+08,-7.78373e+08,-7.78426e+08,432390,-0.0233216,-0.0935173,-0,0.0963815,7503.34,-28344,0,29320.3,-432390
step02_gravity_refstate-crust.xmf,291,2.02838e-06,-2.33129e-07,0,4.0375e-06,-7.62174e+08,-7.62329e+08,-7.62314e+08,276972,-0.0179306,-0.0522207,-0,0.0552132,10741.8,-27755.6,0,29761.7,-276972
step02_gravity_refstate-crust.xmf,292,1.30564e-06,-3.96235e-08,0,2.49961e-06,-6.40999e+08,-6.41091e+08,-6.41089e+08,171474,-0.0140377,0.000811838,-0,0.0140612,17504.5,-23341.4,0,29175.9,-171474
step02_gravity_refstate-crust.xmf,293,1.21433e-06,-3.6151e-08,0,2.20488e-06,-6.45652e+08,-6.45738e+08,-6.45735e+08,151254,-0.0121478,0.00868455,-0,0.0149329,18869,-23510.5,0,30146,-151254
step02_gravity_refstate-crust.xmf,294,9.70696e-07,1.03883e-07,0,1.73938e-06,-6.14116e+08,-6.14175e+08,-6.14182e+08,119321,-0.00953475,0.0258621,-0,0.0275638,22350.6,-22361.6,0,31616.3,-119321
step02_gravity_refstate-crust.xmf,295,6.78529e-07,3.50268e-07,0,1.12244e-06,-5.99394e+08,-5.99416e+08,-5.9944e+08,76999.1,-0.0057063,0.0451734,-0,0.0455324,27608.9,-21824.8,0,35193.4,-76999.1
step02_gravity_refstate-crust.xmf,296,7.8477e-07,2.52168e-07,0,1.34543e-06,-5.9854e+08,-5.98576e+08,-5.98593e+08,92296.6,-0.00714148,0.0389296,-0,0.0395792,25660.3,-21794,0,33666.4,-92296.6
step02_gravity_refstate-crust.xmf,297,1.84008e-06,-2.46023e-07,0,3.47217e-06,-7.39973e+08,-7.40117e+08,-7.401e+08,238191,-0.0167113,-0.0367167,-0,0.0403408,12340.2,-26946.5,0,29637.8,-238191
step02_gravity_refstate-crust.xmf,298,1.64826e-06,-2.17659e-07,0,3.01305e-06,-7.16283e+08,-7.16411e+08,-7.16396e+08,206695,-0.015367,-0.022408,-0,0.027171,14065.3,-26083.3,0,29634,-206695
step02_gravity_refstate-crust.xmf,299,5.83731e-07,4.44577e-07,0,9.19769e-07,-6.01072e+08,-6.01081e+08,-6.01112e+08,63096.2,-0.00445954,0.0503672,-0,0.0505642,29537.1,-21885.7,0,36761.7,-63096.2
step02_gravity_refstate-crust.xmf,300,4.02073e-07,6.34819e-07,0,4.97536e-07,-6.12331e+08,-6.12315e+08,-6.12359e+08,34131,-0.00209123,0.0586756,-0,0.0587129,33998.4,-22295.1,0,40656.7,-34131
step02_gravity_refstate-crust.xmf,301,4.96396e-07,5.35785e-07,0,7.24442e-07,-6.04721e+08,-6.04719e+08,-6.04755e+08,49696.7,-0.00331934,0.0547023,-0,0.0548029,31523.4,-22018.3,0,38451.6,-49696.7
step02_gravity_refstate-crust.xmf,302,2.52446e-07,7.90016e-07,0,1.88826e-09,-6.40916e+08,-6.4088e+08,-6.40934e+08,129.535,-2.61349e-20,0.0619943,-0,0.0619943,40000,-23335.4,0,46309.2,-129.535
step02_gravity_refstate-crust.xmf,303,2.56907e-07,1.95778e-06,0,4.39042e-06,-5.63145e+08,-5.63028e+08,-5.63163e+08,301183,-0.0226961,-0.0516644,-0,0.0564298,10074.9,-20505.9,0,22847.2,-301183
step02_gravity_refstate-crust.xmf,304,2.58592e-07,1.72661e-06,0,4.08873e-06,-5.36272e+08,-5.36171e+08,-5.36289e+08,280487,-0.021862,-0.044317,-0,0.0494161,10789.1,-19527.2,0,22309.6,-280487
step02_gravity_refstate-crust.xmf,305,3.16603e-07,1.40751e-06,0,3.75137e-06,-5.0533e+08,-5.05255e+08,-5.05352e+08,257344,-0.0209032,-0.0347934,-0,0.0405897,11865,-18400.5,0,21894.2,-257344
step02_gravity_refstate-crust.xmf,306,4.41365e-08,1.38353e-06,0,3.38417e-06,-4.43753e+08,-4.43661e+08,-4.43756e+08,232154,-0.0196814,-0.0297925,-0,0.0357065,12144.1,-16157.6,0,20212.6,-232154
step02_gravity_refstate-crust.xmf,307,-1.77698e-07,1.09638e-06,0,2.75748e-06,-3.38519e+08,-3.38432e+08,-3.38507e+08,189163,-0.0185245,-0.0188188,-0,0.0264065,13205.8,-12325.1,0,18063.9,-189163
step02_gravity_refstate-crust.xmf,308,3.9111e-07,-1.46431e-07,0,7.43827e-09,37236.8,361.531,10406.7,510.265,-0.0390716,0.0175717,-0,0.0428411,19595.1,0,0,19595.1,-510.265
step02_gravity_refstate-crust.xmf,309,8.61268e-08,1.16934e-07,0,5.86262e-07,-5.10937e+07,-5.10916e+07,-5.10996e+07,40217.5,-0.0325902,0.0132751,-0,0.0351902,18564.3,-1860.65,0,18657.3,-40217.5
step02_gravity_refstate-crust.xmf,310,-1.17964e-07,3.12307e-07,0,1.04902e-06,-9.70093e+07,-9.69797e+07,-9.70012e+07,71962.9,-0.0279182,0.0080792,-0,0.0290637,17462.9,-3531.73,0,17816.5,-71962.9
step02_gravity_refstate-crust.xmf,311,-2.39555e-07,4.72301e-07,0,1.43539e-06,-1.39855e+08,-1.39806e+08,-1.39839e+08,98467.7,-0.024465,0.00263698,-0,0.0246067,16401.9,-5091.33,0,17173.9,-98467.7
step02_gravity_refstate-crust.xmf,312,-3.04453e-07,6.20031e-07,0,1.76713e-06,-1.81287e+08,-1.81223e+08,-1.81266e+08,121225,-0.0219273,-0.00280719,-0,0.0221063,15415.3,-6599.65,0,16768.7,-121225
step02_gravity_refstate-crust.xmf,313,1.38204e-06,2.75106e-06,0,7.79468e-06,-7.56263e+08,-7.5617e+08,-7.56358e+08,534715,-0.0272576,-0.113357,-0,0.116588,6176.31,-27542.4,0,28226.4,-534715
step02_gravity_refstate-crust.xmf,314,1.99428e-06,1.86476e-06,0,7.87212e-06,-7.89122e+08,-7.89131e+08,-7.89259e+08,540028,-0.0253021,-0.118336,-0,0.121011,6050.94,-28739.7,0,29369.8,-540028
step02_gravity_refstate-crust.xmf,315,1.45555e-06,2.94532e-06,0,8.34965e-06,-7.71234e+08,-7.71132e+08,-7.71334e+08,572786,-0.0272204,-0.1228,-0,0.125781,5721.35,-28088,0,28664.8,-572786
step02_gravity_refstate-crust.xmf,316,1.36744e-06,2.49607e-06,0,7.31244e-06,-7.44208e+08,-7.44131e+08,-7.44302e+08,501633,-0.0270368,-0.104923,-0,0.10835,6632.84,-27103,0,27902.9,-501633
step02_gravity_refstate-crust.xmf,317,7.65746e-07,2.90823e-06,0,6.72876e-06,-7.04994e+08,-7.04847e+08,-7.05046e+08,461593,-0.0269884,-0.0952776,-0,0.0990262,7036.88,-25673.6,0,26620.5,-461593
step02_gravity_refstate-crust.xmf,318,9.12886e-07,3.08885e-06,0,7.293e-06,-7.25524e+08,-7.25374e+08,-7.25586e+08,500300,-0.0274305,-0.10442,-0,0.107963,6539.59,-26421.9,0,27219.2,-500300
step02_gravity_refstate-crust.xmf,319,5.11103e-07,2.35978e-06,0,5.41084e-06,-6.4244e+08,-6.42313e+08,-6.42475e+08,371184,-0.0251395,-0.0718237,-0,0.0760963,8539.7,-23394.4,0,24904.3,-371184
step02_gravity_refstate-crust.xmf,320,2.05002e-06,1.78762e-06,0,8.27564e-06,-8.06596e+08,-8.06614e+08,-8.06737e+08,567709,-0.024104,-0.127212,-0,0.129475,5652.23,-29376,0,29914.8,-567709
step02_gravity_refstate-crust.xmf,321,1.59013e-06,3.00637e-06,0,8.89959e-06,-7.88139e+08,-7.88042e+08,-7.88248e+08,610512,-0.0267042,-0.13244,-0,0.135106,5312.33,-28704.1,0,29191.5,-610512
step02_gravity_refstate-crust.xmf,322,2.28668e-06,1.88487e-07,0,5.53812e-06,-7.85476e+08,-7.8562e+08,-7.85633e+08,379915,-0.0209153,-0.0826705,-0,0.0852752,8250.88,-28605.6,0,29771.8,-379915
step02_gravity_refstate-crust.xmf,323,2.30465e-06,3.63304e-07,0,6.08384e-06,-7.94771e+08,-7.94904e+08,-7.94929e+08,417352,-0.0214579,-0.0934092,-0,0.0958422,7533.23,-28944.3,0,29908.6,-417352
step02_gravity_refstate-crust.xmf,324,2.22881e-06,-1.65842e-07,0,4.74936e-06,-7.84627e+08,-7.84791e+08,-7.8478e+08,325806,-0.0187754,-0.0692833,-0,0.0717823,9253.71,-28573.9,0,30035,-325806
step02_gravity_refstate-crust.xmf,325,2.11592e-06,-3.65856e-07,0,4.11431e-06,-7.85209e+08,-7.8538e+08,-7.85354e+08,282242,-0.0166461,-0.0577687,-0,0.0601191,10215.3,-28594.3,0,30364.3,-282242
step02_gravity_refstate-crust.xmf,326,1.91079e-06,-3.60676e-07,0,3.51912e-06,-7.63811e+08,-7.63967e+08,-7.63942e+08,241411,-0.015778,-0.0419197,-0,0.0447907,11757.3,-27814.5,0,30197.3,-241411
step02_gravity_refstate-crust.xmf,327,1.0918e-06,6.77174e-09,0,1.92759e-06,-6.4882e+08,-6.48894e+08,-6.48895e+08,132232,-0.0103257,0.0164084,-0,0.019387,20343.8,-23625.4,0,31177.3,-132232
step02_gravity_refstate-crust.xmf,328,9.66707e-07,8.7e-08,0,1.67937e-06,-6.50136e+08,-6.50197e+08,-6.50203e+08,115205,-0.00861237,0.0240068,-0,0.0255049,21959.3,-23672.9,0,32289.6,-115205
step02_gravity_refstate-crust.xmf,329,8.89897e-07,1.53296e-07,0,1.55945e-06,-6.33123e+08,-6.33174e+08,-6.33184e+08,106978,-0.00806711,0.0295003,-0,0.0305834,23229.9,-23053.3,0,32727.4,-106978
step02_gravity_refstate-crust.xmf,330,1.37321e-06,-1.1152e-07,0,2.50919e-06,-6.71375e+08,-6.71477e+08,-6.71469e+08,172130,-0.0136433,-0.00319956,-0,0.0140135,16842.2,-24447.5,0,29687.3,-172130
step02_gravity_refstate-crust.xmf,331,1.71749e-06,-3.15764e-07,0,3.0371e-06,-7.42271e+08,-7.42411e+08,-7.42389e+08,208345,-0.0145796,-0.0271951,-0,0.0308568,13438.5,-27029.6,0,30185.9,-208345
step02_gravity_refstate-crust.xmf,332,1.4543e-06,-1.74983e-07,0,2.57946e-06,-6.96232e+08,-6.96344e+08,-6.96332e+08,176951,-0.0135311,-0.0083993,-0,0.015926,16023.8,-25352.6,0,29992,-176951
step02_gravity_refstate-crust.xmf,333,1.52602e-06,-2.42977e-07,0,2.64347e-06,-7.19726e+08,-7.19847e+08,-7.19831e+08,181342,-0.0132708,-0.013598,-0,0.0190006,15245.2,-26208.1,0,30319.7,-181342
step02_gravity_refstate-crust.xmf,334,2.83124e-07,7.52898e-07,0,3.10992e-07,-6.43481e+08,-6.43449e+08,-6.435e+08,21334,-0.00104027,0.06013,-0,0.060139,35981,-23428.9,0,42936.6,-21334
step02_gravity_refstate-crust.xmf,335,1.80572e-07,8.54936e-07,0,1.46719e-07,-6.73031e+08,-6.72985e+08,-6.73043e+08,10064.9,-0.000351374,0.0605894,-0,0.0605904,37989.1,-24504.4,0,45206.6,-10064.9
step02_gravity_refstate-crust.xmf,336,2.68174e-07,2.15711e-06,0,4.70679e-06,-5.88982e+08,-5.88852e+08,-5.89e+08,322885,-0.0235281,-0.0589557,-0,0.0634771,9434.56,-21446.9,0,23430.3,-322885
step02_gravity_refstate-crust.xmf,337,-2.02734e-07,1.32622e-06,0,2.9823e-06,-3.7363e+08,-3.73525e+08,-3.73616e+08,204586,-0.0186225,-0.0251161,-0,0.0312669,12344.7,-13603.6,0,18369.8,-204586
step02_gravity_refstate-crust.xmf,338,-2.31137e-07,1.55844e-06,0,3.20659e-06,-4.07927e+08,-4.07804e+08,-4.07911e+08,219972,-0.0189602,-0.0314953,-0,0.036762,11546.7,-14852.5,0,18812.8,-219972
step02_gravity_refstate-crust.xmf,339,1.62591e-08,1.61341e-06,0,3.62726e-06,-4.74133e+08,-4.74024e+08,-4.74134e+08,248830,-0.0203285,-0.0367461,-0,0.0419943,11323.1,-17263.9,0,20645.9,-248830
step02_gravity_refstate-crust.xmf,340,-3.42966e-07,7.79213e-07,0,2.06087e-06,-2.2237e+08,-2.22293e+08,-2.22346e+08,141376,-0.0201153,-0.00855744,-0,0.0218599,14436,-8095.4,0,16551,-141376
step02_gravity_refstate-crust.xmf,341,-3.72246e-07,9.57941e-07,0,2.31692e-06,-2.61794e+08,-2.61703e+08,-2.61768e+08,158941,-0.0189559,-0.0144792,-0,0.0238532,13486.1,-9530.85,0,16514,-158941
step02_gravity_refstate-crust.xmf,342,-4.05956e-07,1.16338e-06,0,2.5438e-06,-2.99183e+08,-2.99076e+08,-2.99155e+08,174505,-0.0183036,-0.0205646,-0,0.0275304,12566.2,-10892.2,0,16629.8,-174505
step02_gravity_refstate-crust.xmf,343,6.69381e-07,3.81489e-06,0,7.98094e-06,-7.37089e+08,-7.36873e+08,-7.37135e+08,547492,-0.0279296,-0.116194,-0,0.119503,5861.04,-26843.1,0,27475.5,-547492
step02_gravity_refstate-crust.xmf,344,2.99281e-07,2.4296e-06,0,5.11413e-06,-6.16107e+08,-6.15961e+08,-6.16127e+08,350829,-0.0244207,-0.0670361,-0,0.0713457,8792.51,-22435,0,24096.4,-350829
step02_gravity_refstate-crust.xmf,345,7.59653e-08,3.77637e-06,0,6.70337e-06,-6.84288e+08,-6.84034e+08,-6.84293e+08,459851,-0.0267634,-0.0980581,-0,0.101645,6625.82,-24918.3,0,25784.2,-459851
step02_gravity_refstate-crust.xmf,346,6.31118e-08,3.16333e-06,0,5.7615e-06,-6.44315e+08,-6.44102e+08,-6.44319e+08,395239,-0.0254578,-0.0817977,-0,0.0856678,7601.4,-23462.1,0,24662.7,-395239
step02_gravity_refstate-crust.xmf,347,7.31163e-08,3.44607e-06,0,6.19892e-06,-6.6451e+08,-6.64279e+08,-6.64515e+08,425246,-0.0261281,-0.0895279,-0,0.0932626,7120.62,-24197.8,0,25223.7,-425246
step02_gravity_refstate-crust.xmf,348,1.62746e-06,3.15267e-06,0,9.53986e-06,-8.06561e+08,-8.06456e+08,-8.06673e+08,654434,-0.0255681,-0.14408,-0,0.146331,4861.08,-29375.1,0,29774.6,-654434
step02_gravity_refstate-crust.xmf,349,2.28396e-06,9.32125e-07,0,7.26141e-06,-8.07445e+08,-8.07538e+08,-8.07602e+08,498132,-0.0223969,-0.113,-0,0.115198,6391.67,-29406.5,0,30093.2,-498132
step02_gravity_refstate-crust.xmf,350,2.04653e-06,1.70178e-06,0,8.71689e-06,-8.24156e+08,-8.2418e+08,-8.24297e+08,597979,-0.0221558,-0.135949,-0,0.137743,5293.34,-30015.2,0,30478.3,-597979
step02_gravity_refstate-crust.xmf,351,2.35695e-06,3.15938e-07,0,6.35117e-06,-8.08812e+08,-8.08952e+08,-8.08974e+08,435690,-0.0204978,-0.100007,-0,0.102086,7135.38,-29455.6,0,30307.6,-435690
step02_gravity_refstate-crust.xmf,352,1.94597e-06,-4.79464e-07,0,3.55743e-06,-7.8688e+08,-7.87046e+08,-7.87013e+08,244040,-0.0144907,-0.0472294,-0,0.0494024,11189.4,-28654.3,0,30761.5,-244040
step02_gravity_refstate-crust.xmf,353,1.27276e-06,-9.51003e-08,0,2.2126e-06,-6.77295e+08,-6.77389e+08,-6.77382e+08,151785,-0.0116563,0.00461939,-0,0.0125383,18134.6,-24662.6,0,30612.2,-151785
step02_gravity_refstate-crust.xmf,354,1.14538e-06,-4.16247e-08,0,1.94312e-06,-6.82921e+08,-6.83002e+08,-6.82999e+08,133298,-0.00977914,0.0119693,-0,0.0154562,19470.7,-24867,0,31582.8,-133298
step02_gravity_refstate-crust.xmf,355,7.88464e-07,2.37716e-07,0,1.35921e-06,-6.44915e+08,-6.44952e+08,-6.44969e+08,93241.5,-0.00652395,0.0346566,-0,0.0352653,24580.5,-23482.3,0,33994.4,-93241.5
step02_gravity_refstate-crust.xmf,356,5.48328e-07,4.64171e-07,0,9.46674e-07,-6.45666e+08,-6.45672e+08,-6.45704e+08,64941.8,-0.00394058,0.046916,-0,0.0470812,28475.6,-23509.1,0,36926.1,-64941.8
step02_gravity_refstate-crust.xmf,357,6.58288e-07,3.56238e-07,0,1.13669e-06,-6.44393e+08,-6.44414e+08,-6.44438e+08,77976.7,-0.00509566,0.0415301,-0,0.0418416,26601.8,-23463,0,35470.7,-77976.7
step02_gravity_refstate-crust.xmf,358,1.75975e-06,-4.15839e-07,0,3.05529e-06,-7.66837e+08,-7.66986e+08,-7.66958e+08,209593,-0.0135356,-0.0320932,-0,0.0348308,12824,-27923.9,0,30727.8,-209593
step02_gravity_refstate-crust.xmf,359,1.57275e-06,-3.21288e-07,0,2.66396e-06,-7.44888e+08,-7.45018e+08,-7.44996e+08,182748,-0.0125201,-0.0183057,-0,0.0221777,14565.6,-27124.3,0,30787.7,-182748
step02_gravity_refstate-crust.xmf,360,4.52086e-07,5.6302e-07,0,7.75876e-07,-6.48744e+08,-6.48737e+08,-6.48775e+08,53225.1,-0.00296812,0.0512261,-0,0.051312,30279.6,-23620.9,0,38403.2,-53225.1
step02_gravity_refstate-crust.xmf,361,3.51766e-07,6.66334e-07,0,6.02332e-07,-6.58883e+08,-6.58861e+08,-6.58907e+08,41320,-0.00200072,0.054694,-0,0.0547306,32156.5,-23989.7,0,40119.2,-41320
step02_gravity_refstate-crust.xmf,362,2.42442e-07,7.81487e-07,0,4.22531e-07,-6.76148e+08,-6.76111e+08,-6.76165e+08,28985.6,-0.00109387,0.0573294,-0,0.0573398,34225.1,-24618,0,42159.2,-28985.6
step02_gravity_refstate-crust.xmf,363,8.17837e-08,9.51297e-07,0,1.58549e-09,-7.06791e+08,-7.06731e+08,-7.06797e+08,108.765,-2.45875e-21,0.059907,-0,0.059907,40000,-25733.2,0,47562.6,-108.765
step02_gravity_refstate-crust.xmf,364,-1.53727e-07,2.58611e-06,0,4.55127e-06,-5.61321e+08,-5.61133e+08,-5.61311e+08,312217,-0.0226983,-0.0605308,-0,0.0646467,8962.04,-20438.8,0,22317.4,-312217
step02_gravity_refstate-crust.xmf,365,-1.12059e-07,2.28839e-06,0,4.2369e-06,-5.34921e+08,-5.34757e+08,-5.34914e+08,290651,-0.0219128,-0.053193,-0,0.0575297,9600.99,-19477.4,0,21715.2,-290651
step02_gravity_refstate-crust.xmf,366,-4.03274e-08,1.93919e-06,0,3.91107e-06,-5.04153e+08,-5.04017e+08,-5.0415e+08,268299,-0.0210706,-0.0446191,-0,0.0493441,10453.8,-18357,0,21124.9,-268299
step02_gravity_refstate-crust.xmf,367,-2.72607e-07,1.79543e-06,0,3.43622e-06,-4.40846e+08,-4.40704e+08,-4.40827e+08,235724,-0.0194639,-0.038159,-0,0.0428363,10776.2,-16051.1,0,19333,-235724
step02_gravity_refstate-crust.xmf,368,-5.79461e-07,7.68509e-07,0,1.78186e-06,-1.80063e+08,-1.79971e+08,-1.80024e+08,122235,-0.02121,-0.0110061,-0,0.0238956,13672.6,-6554.23,0,15162.3,-122235
step02_gravity_refstate-crust.xmf,369,-4.50215e-07,1.37883e-06,0,2.75219e-06,-3.35095e+08,-3.3497e+08,-3.35064e+08,188800,-0.018028,-0.0268131,-0,0.0323102,11684.2,-12199.8,0,16892.5,-188800
step02_gravity_refstate-crust.xmf,370,-1.52703e-07,5.96223e-08,0,9.1187e-09,-14434.4,131.173,-3958.92,625.543,-0.0393536,0.00840185,-0,0.0402404,17380,0,0,17380,-625.543
step02_gravity_refstate-crust.xmf,371,-3.718e-07,2.90236e-07,0,6.0411e-07,-4.92307e+07,-4.91853e+07,-4.92052e+07,41441.9,-0.0324997,0.00388347,-0,0.0327309,16398.7,-1791.24,0,16496.2,-41441.9
step02_gravity_refstate-crust.xmf,372,-5.10403e-07,4.7514e-07,0,1.08108e-06,-9.54041e+07,-9.53365e+07,-9.53691e+07,74161.9,-0.027403,-0.00132668,-0,0.0274351,15366.9,-3471.95,0,15754.2,-74161.9
step02_gravity_refstate-crust.xmf,373,-5.53768e-07,6.15131e-07,0,1.44294e-06,-1.3678e+08,-1.367e+08,-1.36742e+08,98985.8,-0.0239321,-0.0057925,-0,0.0246231,14562.8,-4978.33,0,15390.2,-98985.8
step02_gravity_refstate-crust.xmf,374,7.20135e-07,4.1221e-06,0,8.60757e-06,-7.52869e+08,-7.52636e+08,-7.52918e+08,590479,-0.0281421,-0.125957,-0,0.129063,5411.63,-27418.2,0,27947.2,-590479
step02_gravity_refstate-crust.xmf,375,8.22001e-07,4.38037e-06,0,9.28475e-06,-7.69246e+08,-7.69002e+08,-7.69303e+08,636934,-0.0281295,-0.136166,-0,0.139041,4994.03,-28015.3,0,28456.9,-636934
step02_gravity_refstate-crust.xmf,376,3.58193e-08,4.20608e-06,0,7.27366e-06,-7.02492e+08,-7.02206e+08,-7.02494e+08,498973,-0.0273115,-0.107507,-0,0.110922,6105.86,-25581.6,0,26300.2,-498973
step02_gravity_refstate-crust.xmf,377,7.79692e-08,2.92594e-06,0,5.44348e-06,-6.28027e+08,-6.27832e+08,-6.28033e+08,373423,-0.024909,-0.0756045,-0,0.0796021,8028.77,-22868.8,0,24237.2,-373423
step02_gravity_refstate-crust.xmf,378,-2.03612e-07,2.8733e-06,0,4.89139e-06,-5.86627e+08,-5.86416e+08,-5.86613e+08,335549,-0.0234877,-0.0682235,-0,0.0721535,8348.11,-21360.4,0,22933.7,-335549
step02_gravity_refstate-crust.xmf,379,9.53954e-07,4.60109e-06,0,1.00184e-05,-7.86294e+08,-7.86044e+08,-7.8636e+08,687261,-0.0277469,-0.147257,-0,0.149848,4587.71,-28636.8,0,29002,-687261
step02_gravity_refstate-crust.xmf,380,1.66588e-06,2.81946e-06,0,9.84993e-06,-8.24386e+08,-8.24307e+08,-8.245e+08,675705,-0.0232948,-0.150907,-0,0.152694,4652.54,-30023.7,0,30382,-675705
step02_gravity_refstate-crust.xmf,381,2.2305e-06,7.92002e-07,0,7.57037e-06,-8.25016e+08,-8.25114e+08,-8.25169e+08,519328,-0.0205028,-0.12105,-0,0.122774,6001.57,-30045.8,0,30639.3,-519328
step02_gravity_refstate-crust.xmf,382,2.31307e-06,-1.01738e-07,0,5.50318e-06,-8.07593e+08,-8.07758e+08,-8.07751e+08,377518,-0.0187708,-0.087012,-0,0.0890137,7956.29,-29410.4,0,30467.6,-377518
step02_gravity_refstate-crust.xmf,383,2.26109e-06,-3.44124e-07,0,4.82322e-06,-8.0707e+08,-8.07249e+08,-8.07225e+08,330873,-0.016952,-0.0751454,-0,0.0770338,8789.63,-29390.8,0,30677,-330873
step02_gravity_refstate-crust.xmf,384,2.12457e-06,-5.13239e-07,0,4.16542e-06,-8.07561e+08,-8.07742e+08,-8.07707e+08,285748,-0.0148952,-0.0633669,-0,0.065094,9708.63,-29407.9,0,30969,-285748
step02_gravity_refstate-crust.xmf,385,1.9541e-06,-5.88059e-07,0,3.60905e-06,-8.08924e+08,-8.09099e+08,-8.09058e+08,247581,-0.0128231,-0.0525619,-0,0.0541035,10645.7,-29456.7,0,31321.4,-247581
step02_gravity_refstate-crust.xmf,386,1.77578e-06,-5.09996e-07,0,3.09133e-06,-7.88904e+08,-7.8906e+08,-7.89025e+08,212065,-0.012381,-0.0373285,-0,0.0393282,12201.6,-28727.2,0,31211.1,-212065
step02_gravity_refstate-crust.xmf,387,9.9268e-07,4.39491e-08,0,1.6891e-06,-6.85859e+08,-6.85924e+08,-6.85927e+08,115872,-0.00802866,0.01946,-0,0.0210512,20983.1,-24973.5,0,32618.5,-115872
step02_gravity_refstate-crust.xmf,388,8.52375e-07,1.725e-07,0,1.46978e-06,-6.63367e+08,-6.63414e+08,-6.63425e+08,100827,-0.00693901,0.0293177,-0,0.0301277,23229.4,-24154.3,0,33511.7,-100827
step02_gravity_refstate-crust.xmf,389,1.30498e-06,-1.55482e-07,0,2.20612e-06,-7.06547e+08,-7.06647e+08,-7.06636e+08,151339,-0.0110128,0.000542405,-0,0.0110261,17420.9,-25727.6,0,31070.8,-151339
step02_gravity_refstate-crust.xmf,390,1.58891e-06,-4.05508e-07,0,2.66222e-06,-7.70483e+08,-7.7062e+08,-7.70592e+08,182628,-0.0113638,-0.0229646,-0,0.0256224,13917.3,-28056,0,31318.2,-182628
step02_gravity_refstate-crust.xmf,391,1.41603e-06,-2.85701e-07,0,2.33866e-06,-7.50002e+08,-7.50119e+08,-7.501e+08,160432,-0.0104483,-0.0102469,-0,0.0146344,15685.1,-27309.9,0,31493.7,-160432
step02_gravity_refstate-crust.xmf,392,1.37673e-06,-2.18698e-07,0,2.29442e-06,-7.27268e+08,-7.27378e+08,-7.27363e+08,157397,-0.0109593,-0.00509396,-0,0.0120853,16493.7,-26482.2,0,31198.5,-157397
step02_gravity_refstate-crust.xmf,393,1.32947e-07,8.94453e-07,0,2.63649e-07,-7.00836e+08,-7.00784e+08,-7.00846e+08,18086.3,-0.000421371,0.0585702,-0,0.0585717,36168.5,-25516.6,0,44263.4,-18086.3
step02_gravity_refstate-crust.xmf,394,1.80741e-08,1.01076e-06,0,1.26481e-07,-7.33633e+08,-7.33564e+08,-7.33634e+08,8676.58,-2.44918e-05,0.058543,-0,0.058543,38016.6,-26710.3,0,46461.8,-8676.58
step02_gravity_refstate-crust.xmf,395,-4.99883e-07,1.67201e-06,0,2.97153e-06,-3.71365e+08,-3.71216e+08,-3.71331e+08,203847,-0.0180725,-0.03322,-0,0.0378177,10866.5,-13520.5,0,17346,-203847
step02_gravity_refstate-crust.xmf,396,-5.4375e-07,1.95002e-06,0,3.19251e-06,-4.06866e+08,-4.06695e+08,-4.06828e+08,219006,-0.0184091,-0.0393999,-0,0.0434885,10178.7,-14813.2,0,17973.2,-219006
step02_gravity_refstate-crust.xmf,397,-3.44171e-07,2.10279e-06,0,3.68291e-06,-4.71707e+08,-4.71539e+08,-4.71683e+08,252648,-0.0200463,-0.0453686,-0,0.0496,9990.24,-17174.8,0,19869,-252648
step02_gravity_refstate-crust.xmf,398,-6.02633e-07,9.61847e-07,0,2.05354e-06,-2.20438e+08,-2.20331e+08,-2.20397e+08,140873,-0.0193814,-0.0164897,-0,0.0254469,12778,-8024.32,0,15088.6,-140873
step02_gravity_refstate-crust.xmf,399,-6.34783e-07,1.17669e-06,0,2.28653e-06,-2.59335e+08,-2.5921e+08,-2.59291e+08,156856,-0.0181743,-0.0223072,-0,0.0287736,11876.4,-9440.59,0,15171.4,-156856
step02_gravity_refstate-crust.xmf,400,-6.81152e-07,1.42306e-06,0,2.48675e-06,-2.95903e+08,-2.95758e+08,-2.95856e+08,170591,-0.0174602,-0.0282236,-0,0.0331878,11013.7,-10772.1,0,15405.8,-170591
step02_gravity_refstate-crust.xmf,401,-7.81699e-07,7.5331e-07,0,1.49796e-06,-1.42717e+08,-1.42612e+08,-1.42663e+08,102760,-0.0226157,-0.0125201,-0,0.02585,13115,-5193.75,0,14106,-102760
step02_gravity_refstate-crust.xmf,402,-8.2566e-07,9.22744e-07,0,1.76347e-06,-1.80055e+08,-1.79935e+08,-1.79998e+08,120974,-0.0201368,-0.0180301,-0,0.0270292,12144.6,-6553.16,0,13799.8,-120974
step02_gravity_refstate-crust.xmf,403,-1.94575e-07,4.91798e-06,0,7.91802e-06,-7.17358e+08,-7.17008e+08,-7.17345e+08,543176,-0.0276956,-0.118491,-0,0.121685,5509.57,-26123,0,26697.7,-543176
step02_gravity_refstate-crust.xmf,404,-7.24696e-07,5.07815e-06,0,7.03965e-06,-6.82959e+08,-6.8256e+08,-6.82909e+08,482920,-0.0264211,-0.109079,-0,0.112234,5737.29,-24868.7,0,25521.9,-482920
step02_gravity_refstate-crust.xmf,405,-2.02792e-07,5.37072e-06,0,8.6079e-06,-7.34332e+08,-7.3395e+08,-7.34318e+08,590502,-0.0280771,-0.12846,-0,0.131493,5075.41,-26741.6,0,27219,-590502
step02_gravity_refstate-crust.xmf,406,-3.13608e-07,3.31455e-06,0,5.25922e-06,-6.0772e+08,-6.07471e+08,-6.07698e+08,360783,-0.0241346,-0.0762422,-0,0.079971,7725.27,-22128.5,0,23438.2,-360783
step02_gravity_refstate-crust.xmf,407,-6.13814e-07,4.56104e-06,0,6.49017e-06,-6.63995e+08,-6.6364e+08,-6.63953e+08,445226,-0.0258625,-0.0999066,-0,0.1032,6218.9,-24178,0,24965,-445226
step02_gravity_refstate-crust.xmf,408,-4.35597e-07,3.72551e-06,0,5.61164e-06,-6.25655e+08,-6.25369e+08,-6.25625e+08,384959,-0.0246659,-0.0838303,-0,0.0873838,7177.41,-22781.6,0,23885.5,-384959
step02_gravity_refstate-crust.xmf,409,-5.47039e-07,4.14899e-06,0,6.01401e-06,-6.44323e+08,-6.44001e+08,-6.44286e+08,412561,-0.0252335,-0.0917235,-0,0.0951311,6672.67,-23461.4,0,24391.9,-412561
step02_gravity_refstate-crust.xmf,410,-6.41817e-07,3.26248e-06,0,4.61163e-06,-5.59934e+08,-5.59666e+08,-5.5989e+08,316358,-0.0222126,-0.0691507,-0,0.0726307,7878.86,-20387.4,0,21856.9,-316358
step02_gravity_refstate-crust.xmf,411,8.48091e-07,5.08965e-06,0,1.0828e-05,-7.99841e+08,-7.9955e+08,-7.99899e+08,742804,-0.0271656,-0.159689,-0,0.161984,4147.11,-29130.3,0,29424,-742804
step02_gravity_refstate-crust.xmf,412,1.26659e-06,4.06247e-06,0,1.05894e-05,-8.14465e+08,-8.14273e+08,-8.14552e+08,726433,-0.0253711,-0.158608,-0,0.160625,4291.18,-29662.8,0,29971.6,-726433
step02_gravity_refstate-crust.xmf,413,2.33306e-06,1.70828e-07,0,6.58607e-06,-8.26252e+08,-8.264e+08,-8.26412e+08,451805,-0.0186076,-0.107012,-0,0.108618,6741.09,-30090.2,0,30836.1,-451805
step02_gravity_refstate-crust.xmf,414,1.83932e-06,1.61097e-06,0,9.23055e-06,-8.40898e+08,-8.40913e+08,-8.41024e+08,633216,-0.0195692,-0.145004,-0,0.146318,4948.13,-30623.7,0,31020.8,-633216
step02_gravity_refstate-crust.xmf,415,2.09804e-06,6.90643e-07,0,8.01288e-06,-8.42063e+08,-8.4216e+08,-8.42207e+08,549684,-0.0180102,-0.129534,-0,0.13078,5619.28,-30665.7,0,31176.3,-549684
step02_gravity_refstate-crust.xmf,416,2.3065e-06,-2.57733e-07,0,5.68613e-06,-8.27279e+08,-8.27455e+08,-8.27437e+08,390069,-0.0166347,-0.09364,-0,0.0951061,7523.65,-30126.9,0,31052.1,-390069
step02_gravity_refstate-crust.xmf,417,1.73247e-06,-6.02183e-07,0,3.11708e-06,-8.12374e+08,-8.12534e+08,-8.12493e+08,213832,-0.0106228,-0.0426314,-0,0.043935,11597.3,-29581.4,0,31773.5,-213832
step02_gravity_refstate-crust.xmf,418,1.1647e-06,-8.90839e-08,0,1.92451e-06,-7.15463e+08,-7.15549e+08,-7.15543e+08,132022,-0.00890542,0.00797911,-0,0.0119571,18710.2,-26051.7,0,32074.3,-132022
step02_gravity_refstate-crust.xmf,419,1.00818e-06,1.12417e-08,0,1.68152e-06,-7.19741e+08,-7.19809e+08,-7.1981e+08,115352,-0.00713666,0.0153179,-0,0.0168988,20127.1,-26207,0,33044,-115352
step02_gravity_refstate-crust.xmf,420,8.59829e-07,1.4415e-07,0,1.48074e-06,-6.89477e+08,-6.89526e+08,-6.89536e+08,101579,-0.00651758,0.0258927,-0,0.0267004,22434.3,-25104.8,0,33668.2,-101579
step02_gravity_refstate-crust.xmf,421,4.01061e-07,5.94722e-07,0,7.9638e-07,-6.90767e+08,-6.90754e+08,-6.90795e+08,54631.7,-0.00232293,0.0479436,-0,0.0479998,29231.3,-25150.6,0,38561.9,-54631.7
step02_gravity_refstate-crust.xmf,422,7.38741e-07,2.57465e-07,0,1.29602e-06,-6.90208e+08,-6.90241e+08,-6.90259e+08,88906.7,-0.00523442,0.0321294,-0,0.032553,24008.7,-25131.1,0,34756.2,-88906.7
step02_gravity_refstate-crust.xmf,423,5.03289e-07,4.87372e-07,0,9.52402e-07,-6.8947e+08,-6.89471e+08,-6.89505e+08,65334.8,-0.00315029,0.0434083,-0,0.0435225,27467.6,-25103.6,0,37211,-65334.8
step02_gravity_refstate-crust.xmf,424,6.21754e-07,3.69181e-07,0,1.1258e-06,-6.88484e+08,-6.88501e+08,-6.88527e+08,77229.9,-0.00418316,0.0379675,-0,0.0381972,25671,-25068,0,35880.5,-77229.9
step02_gravity_refstate-crust.xmf,425,1.56259e-06,-4.87285e-07,0,2.65244e-06,-7.9559e+08,-7.9573e+08,-7.95697e+08,181958,-0.00982994,-0.0276624,-0,0.0293571,13289,-28969.8,0,31872.3,-181958
step02_gravity_refstate-crust.xmf,426,1.4185e-06,-3.48291e-07,0,2.3461e-06,-7.73825e+08,-7.73946e+08,-7.73922e+08,160943,-0.00943298,-0.0147865,-0,0.0175392,14997.7,-28177.1,0,31919.9,-160943
step02_gravity_refstate-crust.xmf,427,3.25153e-07,6.76744e-07,0,6.70127e-07,-6.90791e+08,-6.90767e+08,-6.90813e+08,45970.7,-0.00176497,0.0513282,-0,0.0513585,30778.7,-25151.3,0,39748.2,-45970.7
step02_gravity_refstate-crust.xmf,428,7.66668e-08,9.39288e-07,0,3.52634e-07,-7.35189e+08,-7.3513e+08,-7.35194e+08,24190.7,-0.000155967,0.0558114,-0,0.0558116,34503.4,-26767,0,43668.8,-24190.7
step02_gravity_refstate-crust.xmf,429,1.83596e-07,8.20013e-07,0,5.23502e-07,-7.23008e+08,-7.22964e+08,-7.2302e+08,35912.2,-0.00067464,0.0529762,-0,0.0529805,32164.8,-26323.8,0,41563.4,-35912.2
step02_gravity_refstate-crust.xmf,430,-1.00228e-07,1.13039e-06,0,2.09742e-09,-7.72286e+08,-7.72202e+08,-7.7228e+08,143.883,2.69212e-20,0.0574272,0,0.0574272,40000,-28117.2,0,48893.5,-143.883
step02_gravity_refstate-crust.xmf,431,-5.54791e-07,2.91677e-06,0,4.28209e-06,-5.32411e+08,-5.32173e+08,-5.32373e+08,293751,-0.0214479,-0.0614812,-0,0.0651149,8469.62,-19385.2,0,21154.7,-293751
step02_gravity_refstate-crust.xmf,432,-4.52159e-07,2.52074e-06,0,3.97098e-06,-5.02367e+08,-5.02164e+08,-5.02336e+08,272409,-0.0206993,-0.0534629,-0,0.0573301,9172.51,-18291.3,0,20462.3,-272409
step02_gravity_refstate-crust.xmf,433,-6.13697e-07,2.2339e-06,0,3.41253e-06,-4.38611e+08,-4.38415e+08,-4.38568e+08,234099,-0.0188369,-0.0458106,-0,0.0495322,9499.2,-15969,0,18580.8,-234099
step02_gravity_refstate-crust.xmf,434,-7.4723e-07,1.69217e-06,0,2.67694e-06,-3.32436e+08,-3.32268e+08,-3.32385e+08,183638,-0.0170929,-0.0345068,-0,0.0385082,10165.9,-12102.3,0,15805.4,-183638
step02_gravity_refstate-crust.xmf,435,-7.2407e-07,2.75871e-07,0,1.1327e-08,-68734,-137.995,-19062.8,777.032,-0.0384241,-0.000669692,-0,0.0384299,15217,0,0,15217,-777.032
step02_gravity_refstate-crust.xmf,436,-8.5384e-07,4.78403e-07,0,6.17782e-07,-4.88959e+07,-4.88045e+07,-4.88373e+07,42379.8,-0.0312151,-0.0055147,-0,0.0316985,14232.7,-1777.39,0,14343.2,-42379.8
step02_gravity_refstate-crust.xmf,437,-9.13576e-07,6.70831e-07,0,1.1437e-06,-1.00653e+08,-1.00544e+08,-1.0059e+08,78457.9,-0.0253927,-0.0113127,-0,0.0277986,13142.2,-3661.7,0,13642.8,-78457.9
step02_gravity_refstate-crust.xmf,438,-1.05904e-06,8.86845e-07,0,1.43032e-06,-1.38097e+08,-1.37963e+08,-1.38024e+08,98119.7,-0.0214672,-0.0190428,-0,0.0286961,11597.9,-5024.63,0,12639.6,-98119.7
step02_gravity_refstate-crust.xmf,439,-1.86789e-07,5.83452e-06,0,9.37096e-06,-7.50913e+08,-7.505e+08,-7.509e+08,642848,-0.028335,-0.138945,-0,0.141805,4664.56,-27346,0,27741,-642848
step02_gravity_refstate-crust.xmf,440,-1.24442e-07,6.28273e-06,0,1.02107e-05,-7.67385e+08,-7.66945e+08,-7.67376e+08,700453,-0.0284038,-0.150094,-0,0.152758,4273.6,-27946.6,0,28271.5,-700453
step02_gravity_refstate-crust.xmf,441,-9.14357e-07,5.72776e-06,0,7.63254e-06,-6.99849e+08,-6.99393e+08,-6.99786e+08,523592,-0.0268277,-0.118936,-0,0.121924,5243.04,-25483.9,0,26017.6,-523592
step02_gravity_refstate-crust.xmf,442,-7.74825e-07,3.699e-06,0,4.95853e-06,-5.84109e+08,-5.83802e+08,-5.84056e+08,340155,-0.0228655,-0.077135,-0,0.0804527,7289.96,-21267.7,0,22482.4,-340155
step02_gravity_refstate-crust.xmf,443,-1.10796e-07,6.82031e-06,0,1.11141e-05,-7.82752e+08,-7.82276e+08,-7.82744e+08,762428,-0.0281831,-0.162202,-0,0.164632,3880.8,-28507,0,28769.9,-762428
step02_gravity_refstate-crust.xmf,444,6.32567e-07,5.69228e-06,0,1.16797e-05,-8.12109e+08,-8.11762e+08,-8.12152e+08,801226,-0.0261872,-0.1721,-0,0.174081,3752.59,-29577,0,29814.1,-801226
step02_gravity_refstate-crust.xmf,445,1.0863e-06,4.2609e-06,0,1.11768e-05,-8.26039e+08,-8.25821e+08,-8.26113e+08,766732,-0.0238918,-0.167691,-0,0.169384,4009.96,-30083.8,0,30349.8,-766732
step02_gravity_refstate-crust.xmf,446,1.3742e-06,2.87232e-06,0,1.05524e-05,-8.40167e+08,-8.40064e+08,-8.40261e+08,723893,-0.0207476,-0.161374,-0,0.162702,4309.58,-30597.1,0,30899.1,-723893
step02_gravity_refstate-crust.xmf,447,2.17591e-06,1.13744e-08,0,6.88244e-06,-8.43643e+08,-8.43791e+08,-8.43792e+08,472136,-0.0161616,-0.114783,-0,0.115916,6331.79,-30722.5,0,31368.2,-472136
step02_gravity_refstate-crust.xmf,448,2.1799e-06,-5.36013e-07,0,4.87842e-06,-8.28088e+08,-8.28274e+08,-8.28238e+08,334660,-0.0146573,-0.0809902,-0,0.0823058,8349.14,-30155.4,0,31289.8,-334660
step02_gravity_refstate-crust.xmf,449,2.05644e-06,-6.58537e-07,0,4.22283e-06,-8.29105e+08,-8.29291e+08,-8.29246e+08,289686,-0.0126575,-0.0690509,-0,0.0702014,9219.16,-30191.7,0,31567.9,-289686
step02_gravity_refstate-crust.xmf,450,1.87319e-06,-7.04719e-07,0,3.64669e-06,-8.30442e+08,-8.30618e+08,-8.3057e+08,250163,-0.0106875,-0.0579127,-0,0.0588906,10125.4,-30239.5,0,31889.7,-250163
step02_gravity_refstate-crust.xmf,451,1.67945e-06,-6.8585e-07,0,3.17567e-06,-8.32197e+08,-8.32359e+08,-8.32312e+08,217851,-0.00882201,-0.0478459,-0,0.0486524,11037.1,-30302.7,0,32250.1,-217851
step02_gravity_refstate-crust.xmf,452,1.48328e-06,-5.55567e-07,0,2.6528e-06,-8.22528e+08,-8.22667e+08,-8.22629e+08,181982,-0.00766781,-0.0328655,-0,0.0337481,12622.8,-29950.1,0,32501.4,-181982
step02_gravity_refstate-crust.xmf,453,8.45397e-07,1.25194e-07,0,1.46351e-06,-7.23448e+08,-7.23497e+08,-7.23506e+08,100397,-0.00557644,0.0221481,-0,0.0228393,21602,-26341.4,0,34066.4,-100397
step02_gravity_refstate-crust.xmf,454,1.18626e-06,-1.47437e-07,0,1.9352e-06,-7.46783e+08,-7.46875e+08,-7.46865e+08,132754,-0.0080138,0.00273499,-0,0.00846765,17754.1,-27192,0,32474.8,-132754
step02_gravity_refstate-crust.xmf,455,1.36899e-06,-4.09142e-07,0,2.3169e-06,-7.9966e+08,-7.99782e+08,-7.99754e+08,158939,-0.00779,-0.0189263,-0,0.0204668,14386.1,-29117.3,0,32477.4,-158939
step02_gravity_refstate-crust.xmf,456,1.24703e-06,-2.69171e-07,0,2.06791e-06,-7.79066e+08,-7.7917e+08,-7.79152e+08,141859,-0.00754335,-0.00739599,-0,0.0105642,16068.2,-28367.3,0,32602,-141859
step02_gravity_refstate-crust.xmf,457,1.27862e-06,-2.26669e-07,0,2.08626e-06,-7.57117e+08,-7.57221e+08,-7.57205e+08,143117,-0.00859222,-0.0038049,-0,0.00939699,16658.8,-27568.4,0,32210.8,-143117
step02_gravity_refstate-crust.xmf,458,6.93317e-09,1.01708e-06,0,2.33614e-07,-7.4646e+08,-7.46391e+08,-7.46461e+08,16026,5.74223e-05,0.0570312,0,0.0570313,36230,-27177.2,0,45290.3,-16026
step02_gravity_refstate-crust.xmf,459,-1.59571e-07,1.1882e-06,0,1.31964e-07,-7.97836e+08,-7.97743e+08,-7.97825e+08,9052.72,0.000394701,0.0558145,0,0.0558159,37640.3,-29047.2,0,47545,-9052.72
step02_gravity_refstate-crust.xmf,460,-1.01582e-06,3.58869e-06,0,4.27519e-06,-5.34398e+08,-5.34082e+08,-5.34328e+08,293278,-0.0206822,-0.0696858,-0,0.0726902,7392.09,-19456.7,0,20813.6,-293278
step02_gravity_refstate-crust.xmf,461,-1.19513e-06,4.04082e-06,0,4.57004e-06,-5.59099e+08,-5.5874e+08,-5.59017e+08,313505,-0.0212063,-0.0773836,-0,0.0802367,6825.98,-20356,0,21470,-313505
step02_gravity_refstate-crust.xmf,462,-8.47249e-07,2.07045e-06,0,2.88767e-06,-3.72021e+08,-3.71821e+08,-3.71963e+08,198094,-0.0170277,-0.0416901,-0,0.0450334,9292.46,-13543.6,0,16424.9,-198094
step02_gravity_refstate-crust.xmf,463,-8.12469e-07,2.29727e-06,0,3.14704e-06,-4.09561e+08,-4.09348e+08,-4.09506e+08,215887,-0.0177357,-0.0457842,-0,0.0490994,9087.68,-14910.8,0,17461.9,-215887
step02_gravity_refstate-crust.xmf,464,-7.53077e-07,2.63484e-06,0,3.63791e-06,-4.68725e+08,-4.68493e+08,-4.68674e+08,249560,-0.0192462,-0.0533787,-0,0.0567424,8707.11,-17065.4,0,19158.4,-249560
step02_gravity_refstate-crust.xmf,465,-8.58739e-07,1.15029e-06,0,1.99585e-06,-2.18726e+08,-2.18589e+08,-2.18668e+08,136916,-0.0182752,-0.0236952,-0,0.029924,11212.7,-7961.26,0,13751.6,-136916
step02_gravity_refstate-crust.xmf,466,-9.01318e-07,1.40206e-06,0,2.19228e-06,-2.56575e+08,-2.56417e+08,-2.56513e+08,150390,-0.0170082,-0.0294471,-0,0.034006,10328.9,-9339.39,0,13925.2,-150390
step02_gravity_refstate-crust.xmf,467,-9.6509e-07,1.6928e-06,0,2.35767e-06,-2.92707e+08,-2.92525e+08,-2.92641e+08,161737,-0.0161974,-0.0352868,-0,0.0388267,9491.55,-10655,0,14269.5,-161737
step02_gravity_refstate-crust.xmf,468,-1.09277e-06,1.08468e-06,0,1.68077e-06,-1.77595e+08,-1.77446e+08,-1.77521e+08,115301,-0.0186937,-0.0249035,-0,0.0311391,10552.4,-6462.8,0,12374.2,-115301
step02_gravity_refstate-crust.xmf,469,-1.42476e-06,5.74286e-06,0,6.61523e-06,-6.63813e+08,-6.63321e+08,-6.63715e+08,453804,-0.024981,-0.109778,-0,0.112584,5367.63,-24169.9,0,24758.7,-453804
step02_gravity_refstate-crust.xmf,470,-1.13908e-06,6.48292e-06,0,8.31591e-06,-7.16406e+08,-7.15883e+08,-7.16328e+08,570472,-0.027153,-0.129638,-0,0.132451,4756.19,-26086.9,0,26516.9,-570472
step02_gravity_refstate-crust.xmf,471,-1.69016e-06,6.54038e-06,0,7.16283e-06,-6.81295e+08,-6.8073e+08,-6.81179e+08,491370,-0.0253184,-0.119283,-0,0.12194,4902.64,-24806.5,0,25286.3,-491370
step02_gravity_refstate-crust.xmf,472,-1.28789e-06,7.20262e-06,0,9.09903e-06,-7.33189e+08,-7.32607e+08,-7.33101e+08,624194,-0.0274813,-0.140484,-0,0.143147,4335.98,-26698.4,0,27048.2,-624194
step02_gravity_refstate-crust.xmf,473,-9.50694e-07,4.25675e-06,0,5.33405e-06,-6.05713e+08,-6.05356e+08,-6.05648e+08,365916,-0.0234024,-0.0854289,-0,0.0885764,6711.11,-22054.3,0,23052.8,-365916
step02_gravity_refstate-crust.xmf,474,-1.29735e-06,5.29013e-06,0,6.13479e-06,-6.44857e+08,-6.44405e+08,-6.44768e+08,420847,-0.0244155,-0.10166,-0,0.104551,5754.99,-23479.6,0,24174.6,-420847
step02_gravity_refstate-crust.xmf,475,-1.17383e-06,4.82012e-06,0,5.69121e-06,-6.24182e+08,-6.23771e+08,-6.24102e+08,390417,-0.0237822,-0.0936556,-0,0.096628,6166.25,-22726.7,0,23548.4,-390417
step02_gravity_refstate-crust.xmf,476,-1.64166e-07,7.34059e-06,0,1.20139e-05,-7.96914e+08,-7.96399e+08,-7.96903e+08,824155,-0.0275854,-0.174819,-0,0.176982,3509.29,-29023.1,0,29234.5,-824155
step02_gravity_refstate-crust.xmf,477,9.01025e-07,3.02638e-06,0,1.15234e-05,-8.53888e+08,-8.53742e+08,-8.5395e+08,790502,-0.0179137,-0.172613,-0,0.17354,3967.41,-31095,0,31347.1,-790502
step02_gravity_refstate-crust.xmf,478,1.46644e-06,1.55762e-06,0,9.96687e-06,-8.56264e+08,-8.56258e+08,-8.56365e+08,683727,-0.0165626,-0.154891,-0,0.155774,4597.11,-31181.5,0,31518.6,-683727
step02_gravity_refstate-crust.xmf,479,2.1794e-06,-4.09142e-07,0,5.92418e-06,-8.45358e+08,-8.45536e+08,-8.45508e+08,406399,-0.0141729,-0.100803,-0,0.101794,7085.58,-30784.3,0,31589.2,-406399
step02_gravity_refstate-crust.xmf,480,1.78859e-06,5.78734e-07,0,8.65595e-06,-8.5887e+08,-8.58953e+08,-8.58993e+08,593798,-0.0149144,-0.139385,-0,0.140181,5208.68,-31276.2,0,31706.9,-593798
step02_gravity_refstate-crust.xmf,481,1.9458e-06,-1.30436e-07,0,7.36976e-06,-8.60787e+08,-8.60929e+08,-8.6092e+08,505566,-0.0131292,-0.123307,-0,0.124004,5915.14,-31345.5,0,31898.7,-505566
step02_gravity_refstate-crust.xmf,482,2.07406e-06,-6.7753e-07,0,5.05679e-06,-8.47438e+08,-8.47627e+08,-8.4758e+08,346896,-0.0120673,-0.0874961,-0,0.0883243,7888.7,-30859.2,0,31851.5,-346896
step02_gravity_refstate-crust.xmf,483,1.49756e-06,-6.32428e-07,0,2.82747e-06,-8.34626e+08,-8.34772e+08,-8.34729e+08,193965,-0.00719351,-0.0396938,-0,0.0403404,11849.3,-30390.5,0,32618.8,-193965
step02_gravity_refstate-crust.xmf,484,2.43885e-07,7.40125e-07,0,6.62303e-07,-7.32553e+08,-7.32519e+08,-7.32569e+08,45434,-0.000879298,0.0487807,-0,0.0487886,30061.2,-26671.4,0,40187.6,-45434
step02_gravity_refstate-crust.xmf,485,9.9203e-07,-2.15077e-08,0,1.66196e-06,-7.52534e+08,-7.52603e+08,-7.52602e+08,114011,-0.00598446,0.0110695,-0,0.0125836,19279.5,-27400.7,0,33503.7,-114011
step02_gravity_refstate-crust.xmf,486,8.23197e-07,1.11102e-07,0,1.44971e-06,-7.56935e+08,-7.56984e+08,-7.56992e+08,99450,-0.00439791,0.0181376,-0,0.0186632,20739.3,-27560.5,0,34492,-99450
step02_gravity_refstate-crust.xmf,487,7.02115e-07,2.50945e-07,0,1.27531e-06,-7.26142e+08,-7.26173e+08,-7.2619e+08,87486,-0.00424084,0.0285324,-0,0.0288458,23152.5,-26439.1,0,35143.5,-87486
step02_gravity_refstate-crust.xmf,488,3.33039e-07,6.36488e-07,0,7.97564e-07,-7.33775e+08,-7.33754e+08,-7.33797e+08,54712.9,-0.00135521,0.0445913,-0,0.0446119,28253.1,-26716.1,0,38884.3,-54712.9
step02_gravity_refstate-crust.xmf,489,5.7379e-07,3.83548e-07,0,1.10697e-06,-7.28917e+08,-7.2893e+08,-7.28956e+08,75938.1,-0.00308153,0.0344311,-0,0.0345687,24779.3,-26539.9,0,36309.5,-75938.1
step02_gravity_refstate-crust.xmf,490,4.46641e-07,5.13603e-07,0,9.46432e-07,-7.31534e+08,-7.31529e+08,-7.31565e+08,64925.3,-0.00211357,0.0398225,-0,0.0398786,26488.6,-26634.8,0,37564.1,-64925.3
step02_gravity_refstate-crust.xmf,491,1.26225e-06,-4.54672e-07,0,2.28875e-06,-8.24806e+08,-8.24924e+08,-8.24893e+08,157008,-0.00578686,-0.0230764,-0,0.0237909,13794.8,-30032.3,0,33049,-157008
step02_gravity_refstate-crust.xmf,492,1.23172e-06,-3.13995e-07,0,2.10528e-06,-7.99377e+08,-7.99483e+08,-7.99462e+08,144423,-0.00657103,-0.012026,-0,0.0137041,15346.3,-29106.6,0,32904.5,-144423
step02_gravity_refstate-crust.xmf,493,-9.43569e-08,1.11022e-06,0,2.73393e-07,-7.88543e+08,-7.88461e+08,-7.88537e+08,18754.8,0.000615861,0.0545262,0,0.0545297,35189.9,-28709,0,45415.1,-18754.8
step02_gravity_refstate-crust.xmf,494,-9.72962e-09,1.00793e-06,0,4.10584e-07,-7.79136e+08,-7.79066e+08,-7.79135e+08,28166,0.000575692,0.0523702,0,0.0523733,32999,-28366.7,0,43515.6,-28166
step02_gravity_refstate-crust.xmf,495,-2.86097e-07,1.32204e-06,0,1.04235e-09,-8.37595e+08,-8.37484e+08,-8.37575e+08,71.5055,4.86804e-20,0.0545114,0,0.0545114,40000,-30494.4,0,50298.2,-71.5055
step02_gravity_refstate-crust.xmf,496,-9.74689e-07,3.23033e-06,0,3.91671e-06,-5.01529e+08,-5.01241e+08,-5.01462e+08,268687,-0.0197042,-0.0626954,-0,0.0657189,7811.24,-18259.7,0,19860.3,-268687
step02_gravity_refstate-crust.xmf,497,-1.53994e-06,4.32042e-06,0,4.1451e-06,-5.35224e+08,-5.34821e+08,-5.35118e+08,284354,-0.0193811,-0.0772728,-0,0.0796663,6345.45,-19485.8,0,20493,-284354
step02_gravity_refstate-crust.xmf,498,-9.96226e-07,2.71804e-06,0,3.27024e-06,-4.32825e+08,-4.3257e+08,-4.32757e+08,224339,-0.0176362,-0.0527062,-0,0.0555786,8230.92,-15757.6,0,17777.8,-224339
step02_gravity_refstate-crust.xmf,499,-1.06001e-06,2.01342e-06,0,2.50602e-06,-3.28183e+08,-3.27972e+08,-3.2811e+08,171913,-0.0156886,-0.0414543,-0,0.0443237,8670.87,-11946.6,0,14761.6,-171913
step02_gravity_refstate-crust.xmf,500,-1.30387e-06,4.95494e-07,0,1.34928e-08,-123827,-390.849,-34381.8,925.608,-0.0362959,-0.00937639,-0,0.0374874,13099.6,0,0,13099.6,-925.608
step02_gravity_refstate-crust.xmf,501,-1.34115e-06,6.68764e-07,0,6.04107e-07,-4.84323e+07,-4.82944e+07,-4.83403e+07,41441.8,-0.02889,-0.0145901,-0,0.0323651,12064.5,-1758.84,0,12192,-41441.8
step02_gravity_refstate-crust.xmf,502,-1.3642e-06,1.04088e-06,0,1.32545e-06,-1.35286e+08,-1.35121e+08,-1.35193e+08,90925.9,-0.0194933,-0.0261051,-0,0.0325801,9853.35,-4921.33,0,11014,-90925.9
step02_gravity_refstate-crust.xmf,503,-1.36026e-06,8.4356e-07,0,1.02793e-06,-9.33123e+07,-9.31612e+07,-9.3219e+07,70516.3,-0.0234349,-0.0203657,-0,0.0310477,10939.7,-3392.93,0,11453.8,-70516.3
step02_gravity_refstate-crust.xmf,504,-1.39654e-06,7.94705e-06,0,9.99376e-06,-7.49648e+08,-7.49007e+08,-7.49553e+08,685572,-0.0277242,-0.15189,-0,0.154399,3945.76,-27298.4,0,27582,-685572
step02_gravity_refstate-crust.xmf,505,-1.49202e-06,8.76014e-06,0,1.10067e-05,-7.65501e+08,-7.64798e+08,-7.65399e+08,755062,-0.0277964,-0.164127,-0,0.166464,3568.71,-27876.4,0,28103.9,-755062
step02_gravity_refstate-crust.xmf,506,-1.99782e-06,7.38935e-06,0,7.77829e-06,-6.98597e+08,-6.97953e+08,-6.9846e+08,533590,-0.0255931,-0.129598,-0,0.132101,4446.67,-25436.5,0,25822.2,-533590
step02_gravity_refstate-crust.xmf,507,-1.98922e-06,6.33536e-06,0,6.1709e-06,-6.48168e+08,-6.47597e+08,-6.48032e+08,423323,-0.0233914,-0.110254,-0,0.112708,5011.57,-23599,0,24125.2,-423323
step02_gravity_refstate-crust.xmf,508,-2.35468e-06,7.07036e-06,0,6.53249e-06,-6.62831e+08,-6.62184e+08,-6.62669e+08,448129,-0.0233952,-0.118693,-0,0.120977,4563.45,-24132.4,0,24560.1,-448129
step02_gravity_refstate-crust.xmf,509,-1.42267e-06,4.60815e-06,0,4.89432e-06,-5.82638e+08,-5.82224e+08,-5.8254e+08,335751,-0.0216524,-0.0857167,-0,0.0884091,6252.3,-21212.9,0,22115.1,-335751
step02_gravity_refstate-crust.xmf,510,-1.59458e-06,9.64375e-06,0,1.21144e-05,-7.80588e+08,-7.79817e+08,-7.80478e+08,831045,-0.027607,-0.177299,-0,0.179435,3202.23,-28426.6,0,28606.4,-831045
step02_gravity_refstate-crust.xmf,511,-4.50863e-07,8.22291e-06,0,1.30433e-05,-8.09994e+08,-8.09399e+08,-8.09963e+08,894772,-0.0264749,-0.188978,-0,0.190824,3124.25,-29499.6,0,29664.5,-894772
step02_gravity_refstate-crust.xmf,512,2.4108e-07,6.28224e-06,0,1.25767e-05,-8.25079e+08,-8.24665e+08,-8.25096e+08,862758,-0.0244615,-0.184903,-0,0.186514,3399.32,-30048.5,0,30240.2,-862758
step02_gravity_refstate-crust.xmf,513,6.21998e-07,4.60086e-06,0,1.2081e-05,-8.39662e+08,-8.39389e+08,-8.39704e+08,828757,-0.0214937,-0.179482,-0,0.180764,3675.32,-30578.4,0,30798.4,-828757
step02_gravity_refstate-crust.xmf,514,3.84264e-07,3.03733e-06,0,1.27739e-05,-8.66929e+08,-8.66747e+08,-8.66955e+08,876287,-0.0146568,-0.183978,-0,0.184561,3653.35,-31567.7,0,31778.4,-876287
step02_gravity_refstate-crust.xmf,515,1.05613e-06,1.66094e-06,0,1.1004e-05,-8.66828e+08,-8.66787e+08,-8.66901e+08,754871,-0.0142498,-0.165524,-0,0.166137,4241.75,-31564.6,0,31848.3,-754871
step02_gravity_refstate-crust.xmf,516,1.93979e-06,-5.91501e-07,0,6.24232e-06,-8.62734e+08,-8.62908e+08,-8.62867e+08,428223,-0.0112474,-0.108506,-0,0.109088,6646.85,-31415.6,0,32111.1,-428223
step02_gravity_refstate-crust.xmf,517,1.88033e-06,-8.15268e-07,0,4.29791e-06,-8.49597e+08,-8.49782e+08,-8.49726e+08,294837,-0.00999119,-0.0750168,-0,0.0756792,8733.92,-30936.8,0,32146,-294837
step02_gravity_refstate-crust.xmf,518,1.71674e-06,-8.18771e-07,0,3.70881e-06,-8.51297e+08,-8.51471e+08,-8.51415e+08,254424,-0.00809783,-0.0633938,-0,0.0639089,9619.2,-30998,0,32456.2,-254424
step02_gravity_refstate-crust.xmf,519,1.52051e-06,-7.69356e-07,0,3.20909e-06,-8.52755e+08,-8.52912e+08,-8.52859e+08,220144,-0.00638213,-0.0526612,-0,0.0530466,10537.1,-31050.4,0,32789.5,-220144
step02_gravity_refstate-crust.xmf,520,1.337e-06,-6.80759e-07,0,2.8116e-06,-8.53833e+08,-8.53972e+08,-8.53925e+08,192876,-0.0049007,-0.0429679,-0,0.0432465,11464.6,-31089,0,33135.5,-192876
step02_gravity_refstate-crust.xmf,521,1.21399e-06,-5.74854e-07,0,2.50872e-06,-8.50953e+08,-8.51076e+08,-8.51036e+08,172098,-0.00411931,-0.0340806,-0,0.0343286,12419.8,-30983.8,0,33380.4,-172098
step02_gravity_refstate-crust.xmf,522,6.58878e-07,2.47378e-07,0,1.26063e-06,-7.60828e+08,-7.60857e+08,-7.60873e+08,86479.1,-0.00305721,0.0246372,-0,0.0248262,22252.3,-27701.8,0,35532.4,-86479.1
step02_gravity_refstate-crust.xmf,523,1.12332e-06,-4.7431e-07,0,2.29009e-06,-8.46255e+08,-8.46365e+08,-8.46332e+08,157100,-0.00374706,-0.0268133,-0,0.0270739,13282.8,-30812.6,0,33553.6,-157100
step02_gravity_refstate-crust.xmf,524,1.09451e-06,-1.6538e-07,0,1.83849e-06,-7.83847e+08,-7.83933e+08,-7.83922e+08,126120,-0.00583486,-0.000366649,-0,0.00584637,17190,-28540.9,0,33317.8,-126120
step02_gravity_refstate-crust.xmf,525,1.06619e-06,-3.21015e-07,0,2.00904e-06,-8.28756e+08,-8.28851e+08,-8.28829e+08,137820,-0.00398706,-0.0143953,-0,0.0149372,14956.9,-30175.5,0,33678.9,-137820
step02_gravity_refstate-crust.xmf,526,9.90167e-07,-2.03597e-07,0,1.81527e-06,-8.15585e+08,-8.15667e+08,-8.15653e+08,124527,-0.00392295,-0.00545368,-0,0.00671805,16322.8,-29695.9,0,33886.3,-124527
step02_gravity_refstate-crust.xmf,527,6.99768e-08,9.07384e-07,0,5.39806e-07,-7.76592e+08,-7.76535e+08,-7.76597e+08,37030.7,0.00046082,0.0492405,0,0.0492427,30974.5,-28274.3,0,41938.7,-37030.7
step02_gravity_refstate-crust.xmf,528,-3.60504e-07,1.39971e-06,0,9.63252e-08,-8.66666e+08,-8.66545e+08,-8.66641e+08,6607.91,0.000722649,0.0527242,0,0.0527292,38020.7,-31552.6,0,49407.9,-6607.91
step02_gravity_refstate-crust.xmf,529,-1.35238e-06,3.85935e-06,0,3.94824e-06,-5.14665e+08,-5.14307e+08,-5.14572e+08,270849,-0.0191202,-0.0709722,-0,0.0735026,6824.01,-18737.4,0,19941.3,-270849
step02_gravity_refstate-crust.xmf,530,-1.80059e-06,4.8607e-06,0,4.37445e-06,-5.57688e+08,-5.57231e+08,-5.57565e+08,300087,-0.0195944,-0.0849155,-0,0.0871469,5798.31,-20303.4,0,21115.2,-300087
step02_gravity_refstate-crust.xmf,531,-1.07866e-06,2.53827e-06,0,2.947e-06,-3.9594e+08,-3.95692e+08,-3.95866e+08,202164,-0.0165263,-0.0494227,-0,0.0521126,8186.38,-14414.2,0,16576.6,-202164
step02_gravity_refstate-crust.xmf,532,-1.20137e-06,3.20141e-06,0,3.46818e-06,-4.64815e+08,-4.64513e+08,-4.64733e+08,237917,-0.0178694,-0.0607058,-0,0.0632812,7441.66,-16922.2,0,18486.2,-237917
step02_gravity_refstate-crust.xmf,533,-1.12155e-06,1.34521e-06,0,1.87539e-06,-2.16388e+08,-2.16219e+08,-2.16311e+08,128652,-0.0167552,-0.0304723,-0,0.034775,9634.71,-7875.38,0,12443.8,-128652
step02_gravity_refstate-crust.xmf,534,-1.16732e-06,1.63125e-06,0,2.03305e-06,-2.54094e+08,-2.53902e+08,-2.54014e+08,139467,-0.0154344,-0.0359972,-0,0.0391665,8795.1,-9248.36,0,12762.7,-139467
step02_gravity_refstate-crust.xmf,535,-1.23972e-06,1.95919e-06,0,2.16279e-06,-2.90357e+08,-2.90137e+08,-2.90272e+08,148368,-0.0145618,-0.0415656,-0,0.0440426,8019.22,-10568.7,0,13266.7,-148368
step02_gravity_refstate-crust.xmf,536,-1.20739e-06,2.41083e-06,0,2.6112e-06,-3.59859e+08,-3.5961e+08,-3.59776e+08,179129,-0.0152687,-0.0479498,-0,0.0503221,7822.05,-13099.9,0,15257.5,-179129
step02_gravity_refstate-crust.xmf,537,-1.36001e-06,1.25317e-06,0,1.54626e-06,-1.75707e+08,-1.75528e+08,-1.75614e+08,106074,-0.0167342,-0.0314462,-0,0.0356216,8908.53,-6393.23,0,10965.2,-106074
step02_gravity_refstate-crust.xmf,538,-2.32592e-06,8.3357e-06,0,8.49613e-06,-7.15684e+08,-7.14952e+08,-7.15524e+08,582835,-0.0258266,-0.140585,-0,0.142937,4017.34,-26058.7,0,26366.5,-582835
step02_gravity_refstate-crust.xmf,539,-2.78972e-06,8.14192e-06,0,7.03897e-06,-6.8032e+08,-6.7957e+08,-6.80129e+08,482873,-0.023448,-0.128891,-0,0.131006,4098.54,-24769.1,0,25105.9,-482873
step02_gravity_refstate-crust.xmf,540,-2.6495e-06,9.36915e-06,0,9.34325e-06,-7.32492e+08,-7.31667e+08,-7.3231e+08,640947,-0.0260284,-0.15219,-0,0.1544,3621.56,-26670.9,0,26915.6,-640947
step02_gravity_refstate-crust.xmf,541,-1.70257e-06,5.31698e-06,0,5.22483e-06,-6.03467e+08,-6.02986e+08,-6.0335e+08,358423,-0.0219285,-0.094262,-0,0.096779,5692.61,-21971.2,0,22696.7,-358423
step02_gravity_refstate-crust.xmf,542,-2.07574e-06,6.15392e-06,0,5.63716e-06,-6.26532e+08,-6.25967e+08,-6.26389e+08,386709,-0.0222033,-0.104426,-0,0.10676,5103.38,-22810.6,0,23374.6,-386709
step02_gravity_refstate-crust.xmf,543,-2.83303e-06,7.45605e-06,0,5.80695e-06,-6.42812e+08,-6.42106e+08,-6.42617e+08,398357,-0.0212365,-0.116433,-0,0.118354,4268.4,-23402.3,0,23788.4,-398357
step02_gravity_refstate-crust.xmf,544,-1.74038e-06,1.05128e-05,0,1.32685e-05,-7.94911e+08,-7.94071e+08,-7.94792e+08,910220,-0.0270218,-0.191587,-0,0.193483,2844.25,-28948.8,0,29088.2,-910220
step02_gravity_refstate-crust.xmf,545,-7.5133e-08,4.95133e-06,0,1.33916e-05,-8.533e+08,-8.52956e+08,-8.53295e+08,918667,-0.0183324,-0.192488,-0,0.193359,3343.16,-31072.6,0,31251.9,-918667
step02_gravity_refstate-crust.xmf,546,7.15834e-07,1.28228e-06,0,1.20198e-05,-8.80002e+08,-8.79963e+08,-8.80051e+08,824556,-0.0107685,-0.174043,-0,0.174376,3987.76,-32042.2,0,32289.4,-824556
step02_gravity_refstate-crust.xmf,547,1.31718e-06,4.87561e-07,0,9.86443e-06,-8.75485e+08,-8.75542e+08,-8.75575e+08,676700,-0.0113066,-0.152895,-0,0.153312,4697.19,-31879,0,32223.2,-676700
step02_gravity_refstate-crust.xmf,548,1.88056e-06,-8.25263e-07,0,5.32731e-06,-8.64739e+08,-8.64925e+08,-8.64868e+08,365454,-0.00934014,-0.0947808,-0,0.0952399,7410.7,-31488,0,32348.3,-365454
step02_gravity_refstate-crust.xmf,549,1.59692e-06,-3.57959e-07,0,8.07936e-06,-8.77758e+08,-8.77892e+08,-8.77868e+08,554244,-0.00952913,-0.133081,-0,0.133422,5475.24,-31961.6,0,32427.2,-554244
step02_gravity_refstate-crust.xmf,550,1.64859e-06,-7.92571e-07,0,6.76873e-06,-8.79836e+08,-8.80003e+08,-8.79949e+08,464335,-0.00779166,-0.116889,-0,0.117148,6204.04,-32036.7,0,32631.9,-464335
step02_gravity_refstate-crust.xmf,551,-3.52113e-08,2.6376e-06,0,1.44245e-05,-8.80834e+08,-8.80651e+08,-8.80832e+08,989524,-0.0107649,-0.196102,-0,0.196398,3347.99,-32071.6,0,32245.9,-989524
step02_gravity_refstate-crust.xmf,552,1.67163e-06,-9.51905e-07,0,4.48019e-06,-8.69388e+08,-8.69568e+08,-8.69503e+08,307341,-0.00684248,-0.0812322,-0,0.0815199,8257.41,-31656.2,0,32715.5,-307341
step02_gravity_refstate-crust.xmf,553,9.3419e-07,-4.14569e-08,0,1.63145e-06,-7.85406e+08,-7.85473e+08,-7.8547e+08,111917,-0.00442605,0.00688555,-0,0.0081854,18474.4,-28597.2,0,34045.6,-111917
step02_gravity_refstate-crust.xmf,554,1.54323e-07,7.99941e-07,0,6.67252e-07,-7.77095e+08,-7.77051e+08,-7.77105e+08,45773.5,0.000265298,0.0453258,0,0.0453265,29040.3,-28292.8,0,40544.1,-45773.5
step02_gravity_refstate-crust.xmf,555,7.65581e-07,9.94551e-08,0,1.43225e-06,-7.89332e+08,-7.89378e+08,-7.89385e+08,98252.1,-0.00296508,0.0139789,-0,0.0142899,19876.8,-28739.7,0,34943.6,-98252.1
step02_gravity_refstate-crust.xmf,556,6.09046e-07,2.46014e-07,0,1.25759e-06,-7.93337e+08,-7.93362e+08,-7.93379e+08,86270.5,-0.00170883,0.0205429,-0,0.0206139,21337.7,-28885.1,0,35911.6,-86270.5
step02_gravity_refstate-crust.xmf,557,5.09803e-07,3.92928e-07,0,1.08941e-06,-7.66007e+08,-7.66015e+08,-7.66042e+08,74733.9,-0.0018506,0.0306547,-0,0.0307105,23847.9,-27889.9,0,36695.7,-74733.9
step02_gravity_refstate-crust.xmf,558,2.56791e-07,6.77407e-07,0,7.97416e-07,-7.75076e+08,-7.75047e+08,-7.75094e+08,54702.7,-0.000167399,0.041008,-0,0.0410084,27248,-28219.5,0,39227.5,-54702.7
step02_gravity_refstate-crust.xmf,559,3.77122e-07,5.41884e-07,0,9.37665e-07,-7.71573e+08,-7.71562e+08,-7.71599e+08,64323.8,-0.000851083,0.0361205,-0,0.0361305,25518.9,-28092.2,0,37952.5,-64323.8
step02_gravity_refstate-crust.xmf,560,9.03156e-07,-3.47782e-07,0,2.0256e-06,-8.55229e+08,-8.55315e+08,-8.55291e+08,138956,-0.00166254,-0.0193524,-0,0.0194237,14225,-31138.6,0,34234,-138956
step02_gravity_refstate-crust.xmf,561,-2.70036e-07,1.29302e-06,0,2.04693e-07,-8.43157e+08,-8.4305e+08,-8.43138e+08,14041.9,0.00116834,0.0527874,0,0.0528003,35974.7,-30696.9,0,47291.4,-14041.9
step02_gravity_refstate-crust.xmf,562,-1.91801e-07,1.19352e-06,0,3.22405e-07,-8.31269e+08,-8.31174e+08,-8.31255e+08,22116.9,0.00148791,0.0513427,0,0.0513643,33841.9,-30264.2,0,45400.4,-22116.9
step02_gravity_refstate-crust.xmf,563,-1.13304e-07,1.08782e-06,0,4.43764e-07,-8.25515e+08,-8.25433e+08,-8.25508e+08,30442.2,0.00169151,0.0487317,0,0.048761,31726.8,-30054.9,0,43702.2,-30442.2
step02_gravity_refstate-crust.xmf,564,-4.69446e-07,1.52303e-06,0,1.30503e-09,-9.02873e+08,-9.02737e+08,-9.02841e+08,89.5252,7.35222e-20,0.0511312,0,0.0511312,40000,-32870.5,0,51773.2,-89.5252
step02_gravity_refstate-crust.xmf,565,-1.47524e-06,3.8156e-06,0,3.61597e-06,-4.90535e+08,-4.90172e+08,-4.90434e+08,248056,-0.0178266,-0.0687361,-0,0.0710101,6646.39,-17858.4,0,19055.1,-248056
step02_gravity_refstate-crust.xmf,566,-1.78783e-06,4.42722e-06,0,3.70885e-06,-5.11812e+08,-5.11385e+08,-5.11689e+08,254427,-0.0175505,-0.0764202,-0,0.0784096,5906.61,-18632.6,0,19546.4,-254427
step02_gravity_refstate-crust.xmf,567,-2.08948e-06,5.04621e-06,0,3.83923e-06,-5.33431e+08,-5.32942e+08,-5.33288e+08,263371,-0.0174337,-0.083774,-0,0.0855688,5320.74,-19419.5,0,20135.2,-263371
step02_gravity_refstate-crust.xmf,568,-1.26674e-06,2.90884e-06,0,2.97265e-06,-4.1327e+08,-4.12984e+08,-4.13183e+08,203924,-0.0161112,-0.0550808,-0,0.0573887,7418.04,-15044.9,0,16774.3,-203924
step02_gravity_refstate-crust.xmf,569,-1.42027e-06,3.29225e-06,0,3.07697e-06,-4.36274e+08,-4.35951e+08,-4.36177e+08,211080,-0.0161052,-0.0604869,-0,0.0625943,6871.68,-15882.3,0,17305.2,-211080
step02_gravity_refstate-crust.xmf,570,-1.35719e-06,2.30966e-06,0,2.25135e-06,-3.23247e+08,-3.22995e+08,-3.23154e+08,154443,-0.0138835,-0.0473547,-0,0.0493479,7233.66,-11766.2,0,13811.9,-154443
step02_gravity_refstate-crust.xmf,571,-1.86985e-06,7.10089e-07,0,1.49456e-08,-177599,-614.875,-49327,1025.27,-0.0330164,-0.0174553,-0,0.0373466,11021.2,0,0,11021.2,-1025.27
step02_gravity_refstate-crust.xmf,572,-1.80304e-06,8.44698e-07,0,5.45732e-07,-4.66173e+07,-4.64356e+07,-4.64936e+07,37437.2,-0.0258108,-0.022596,-0,0.0343042,9988.27,-1691.16,0,10130.4,-37437.2
step02_gravity_refstate-crust.xmf,573,-1.6667e-06,1.19367e-06,0,1.16219e-06,-1.32386e+08,-1.3219e+08,-1.32272e+08,79726.1,-0.0168449,-0.0327127,-0,0.036795,8022.21,-4814.75,0,9356.16,-79726.1
step02_gravity_refstate-crust.xmf,574,-1.72515e-06,9.98216e-07,0,9.17945e-07,-9.07919e+07,-9.06051e+07,-9.06735e+07,62971,-0.0206024,-0.027681,-0,0.0345065,8991.89,-3299.94,0,9578.29,-62971
step02_gravity_refstate-crust.xmf,575,-2.9973e-06,1.05486e-05,0,1.03274e-05,-7.48507e+08,-7.47578e+08,-7.48301e+08,708458,-0.0261092,-0.164545,-0,0.166604,3244.2,-27254.3,0,27446.8,-708458
step02_gravity_refstate-crust.xmf,576,-3.40999e-06,1.19702e-05,0,1.15049e-05,-7.6402e+08,-7.62965e+08,-7.63786e+08,789233,-0.0259997,-0.178179,-0,0.180066,2869.24,-27819.6,0,27967.2,-789233
step02_gravity_refstate-crust.xmf,577,-3.24155e-06,9.21959e-06,0,7.64137e-06,-6.98072e+08,-6.97217e+08,-6.97849e+08,524198,-0.0235478,-0.139655,-0,0.141627,3681.59,-25415.2,0,25680.4,-524198
step02_gravity_refstate-crust.xmf,578,-3.41869e-06,8.54081e-06,0,6.14781e-06,-6.61468e+08,-6.60648e+08,-6.61234e+08,421740,-0.0209102,-0.127139,-0,0.128847,3737.33,-24080.8,0,24369.1,-421740
step02_gravity_refstate-crust.xmf,579,-2.12566e-06,5.55365e-06,0,4.63141e-06,-5.80298e+08,-5.79771e+08,-5.80152e+08,317715,-0.0197262,-0.0933989,-0,0.0954592,5239.33,-21126.3,0,21766.3,-317715
step02_gravity_refstate-crust.xmf,580,-3.7e-06,1.30823e-05,0,1.27566e-05,-7.79577e+08,-7.78426e+08,-7.79324e+08,875104,-0.0258243,-0.19255,-0,0.194274,2542.56,-28386.6,0,28500.2,-875104
step02_gravity_refstate-crust.xmf,581,-1.96572e-06,1.15609e-05,0,1.45186e-05,-8.08847e+08,-8.07919e+08,-8.08712e+08,995975,-0.0258192,-0.206913,-0,0.208518,2508.7,-29456.8,0,29563.5,-995975
step02_gravity_refstate-crust.xmf,582,-1.0059e-06,9.09972e-06,0,1.40981e-05,-8.23732e+08,-8.23039e+08,-8.23663e+08,967128,-0.0244498,-0.203637,-0,0.205099,2787.93,-29998.8,0,30128.1,-967128
step02_gravity_refstate-crust.xmf,583,-5.19999e-07,6.98788e-06,0,1.37618e-05,-8.38706e+08,-8.38191e+08,-8.38671e+08,944060,-0.0217445,-0.19894,-0,0.200124,3060.41,-30542.7,0,30695.6,-944060
step02_gravity_refstate-crust.xmf,584,-7.64442e-07,4.99196e-06,0,1.51971e-05,-8.66763e+08,-8.66368e+08,-8.66711e+08,1.04252e+06,-0.0146023,-0.206101,-0,0.206618,3032.02,-31560,0,31705.3,-1.04252e+06
step02_gravity_refstate-crust.xmf,585,1.56276e-06,-1.02233e-06,0,5.68434e-06,-8.8201e+08,-8.82187e+08,-8.82117e+08,389946,-0.00604668,-0.102392,-0,0.10257,6944.8,-32115.2,0,32857.5,-389946
step02_gravity_refstate-crust.xmf,586,4.96747e-07,4.55145e-07,0,1.3527e-05,-8.95083e+08,-8.95086e+08,-8.95118e+08,927953,-0.00651907,-0.185642,-0,0.185757,3658.72,-32589.1,0,32793.9,-927953
step02_gravity_refstate-crust.xmf,587,1.45127e-06,-9.55211e-07,0,3.80605e-06,-8.71954e+08,-8.72119e+08,-8.72054e+08,261095,-0.00500087,-0.06929,-0,0.0694703,9105.18,-31748.8,0,33028.6,-261095
step02_gravity_refstate-crust.xmf,588,1.27983e-06,-8.56325e-07,0,3.28264e-06,-8.7374e+08,-8.73886e+08,-8.73828e+08,225189,-0.00340724,-0.0578089,-0,0.0579092,10027.9,-31813.2,0,33356.2,-225189
step02_gravity_refstate-crust.xmf,589,1.10706e-06,-7.36771e-07,0,2.85552e-06,-8.74802e+08,-8.74929e+08,-8.74878e+08,195889,-0.00211266,-0.0474321,-0,0.0474791,10970,-31851.4,0,33687.6,-195889
step02_gravity_refstate-crust.xmf,590,9.62289e-07,-5.99242e-07,0,2.50924e-06,-8.74746e+08,-8.74853e+08,-8.74812e+08,172134,-0.00111005,-0.0377327,-0,0.037749,11961.4,-31849,0,34021,-172134
step02_gravity_refstate-crust.xmf,591,8.37486e-07,-4.41582e-07,0,2.19135e-06,-8.73222e+08,-8.73309e+08,-8.73279e+08,150327,-0.000284666,-0.0275133,-0,0.0275147,13141.8,-31793.2,0,34402.3,-150327
step02_gravity_refstate-crust.xmf,592,4.50702e-07,3.96199e-07,0,1.09466e-06,-7.98788e+08,-7.98792e+08,-7.98819e+08,75093.8,-0.000582727,0.0265472,-0,0.0265536,22855.1,-29083.1,0,36988.9,-75093.8
step02_gravity_refstate-crust.xmf,593,8.21318e-07,-4.4389e-08,0,1.59495e-06,-8.18464e+08,-8.18523e+08,-8.1852e+08,109414,-0.0023917,0.00289797,-0,0.00375745,17734.4,-29800.2,0,34678,-109414
step02_gravity_refstate-crust.xmf,594,8.394e-07,-2.53038e-07,0,1.87584e-06,-8.52126e+08,-8.52201e+08,-8.52183e+08,128683,-0.00128883,-0.0133629,-0,0.0134249,15070.6,-31025.5,0,34492.1,-128683
step02_gravity_refstate-crust.xmf,595,7.86771e-07,-1.65552e-07,0,1.74959e-06,-8.48524e+08,-8.48589e+08,-8.48578e+08,120022,-0.00100845,-0.00790463,-0,0.00796869,15900.7,-30894.3,0,34746,-120022
step02_gravity_refstate-crust.xmf,596,-3.33409e-08,9.79565e-07,0,5.56604e-07,-8.22247e+08,-8.22178e+08,-8.22245e+08,38183.1,0.0017416,0.0455681,0,0.0456014,29854.9,-29936.1,0,42278.7,-38183.1
step02_gravity_refstate-crust.xmf,597,-4.19876e-07,1.45522e-06,0,1.62366e-07,-8.92177e+08,-8.92048e+08,-8.92148e+08,11138.3,0.00151489,0.0506773,0,0.0506999,36489.4,-32481.1,0,48851.8,-11138.3
step02_gravity_refstate-crust.xmf,598,-5.28817e-07,1.58844e-06,0,8.87046e-08,-9.27697e+08,-9.27552e+08,-9.27661e+08,6085.13,0.00106665,0.0493978,0,0.0494093,37997,-33774.1,0,50837.6,-6085.13
step02_gravity_refstate-crust.xmf,599,-2.42972e-06,5.69027e-06,0,3.99992e-06,-5.56008e+08,-5.55451e+08,-5.55841e+08,274395,-0.0173472,-0.0916668,-0,0.0932938,4777.79,-20241,0,20797.2,-274395
step02_gravity_refstate-crust.xmf,600,-1.39044e-06,2.86249e-06,0,2.67805e-06,-3.87356e+08,-3.87064e+08,-3.8726e+08,183714,-0.0148606,-0.0543239,-0,0.0563198,7016.09,-14100.9,0,15749.9,-183714
step02_gravity_refstate-crust.xmf,601,-1.66818e-06,3.7881e-06,0,3.17142e-06,-4.61968e+08,-4.61594e+08,-4.61854e+08,217559,-0.0159245,-0.0675299,-0,0.0693821,6160.25,-16817.5,0,17910.3,-217559
step02_gravity_refstate-crust.xmf,602,-1.59924e-06,3.30315e-06,0,2.69533e-06,-4.10128e+08,-4.09791e+08,-4.10018e+08,184900,-0.0143616,-0.0603393,-0,0.0620249,6261.66,-14929.8,0,16189.7,-184900
step02_gravity_refstate-crust.xmf,603,-1.38128e-06,1.54767e-06,0,1.69399e-06,-2.14961e+08,-2.1476e+08,-2.14866e+08,116208,-0.0147495,-0.0368079,-0,0.0396531,8014.74,-7822.67,0,11199.6,-116208
step02_gravity_refstate-crust.xmf,604,-1.4134e-06,1.86182e-06,0,1.82111e-06,-2.53942e+08,-2.53717e+08,-2.53845e+08,124928,-0.013497,-0.0418713,-0,0.0439929,7293.02,-9242.18,0,11773.1,-124928
step02_gravity_refstate-crust.xmf,605,-1.48948e-06,2.20721e-06,0,1.91205e-06,-2.89156e+08,-2.88903e+08,-2.89054e+08,131167,-0.0126354,-0.0469352,-0,0.0486063,6613.5,-10524.4,0,12429.9,-131167
step02_gravity_refstate-crust.xmf,606,-1.52224e-06,2.73644e-06,0,2.29903e-06,-3.54026e+08,-3.53734e+08,-3.53922e+08,157713,-0.0132529,-0.0534578,-0,0.0550761,6431.01,-12886.8,0,14402.3,-157713
step02_gravity_refstate-crust.xmf,607,-1.62309e-06,1.42392e-06,0,1.34301e-06,-1.74151e+08,-1.73942e+08,-1.74039e+08,92130.6,-0.0141455,-0.0376161,-0,0.0401879,7148.22,-6335.77,0,9551.91,-92130.6
step02_gravity_refstate-crust.xmf,608,-3.73851e-06,1.04388e-05,0,8.34602e-06,-7.1532e+08,-7.14348e+08,-7.15064e+08,572537,-0.0236012,-0.151048,-0,0.152881,3294.03,-26043,0,26250.5,-572537
step02_gravity_refstate-crust.xmf,609,-3.97741e-06,9.81922e-06,0,6.60812e-06,-6.80025e+08,-6.79078e+08,-6.79752e+08,453317,-0.0207901,-0.13773,-0,0.13929,3320.53,-24756.1,0,24977.8,-453317
step02_gravity_refstate-crust.xmf,610,-4.33275e-06,1.18823e-05,0,9.14268e-06,-7.31654e+08,-7.30542e+08,-7.31357e+08,627188,-0.023497,-0.163237,-0,0.164919,2917.76,-26637.5,0,26796.8,-627188
step02_gravity_refstate-crust.xmf,611,-2.5193e-06,6.42762e-06,0,4.89721e-06,-6.0177e+08,-6.01157e+08,-6.01598e+08,335949,-0.0197105,-0.102397,-0,0.104277,4690.03,-21907.8,0,22404.2,-335949
step02_gravity_refstate-crust.xmf,612,-3.74134e-06,8.69424e-06,0,5.26932e-06,-6.41321e+08,-6.40468e+08,-6.41065e+08,361476,-0.0185004,-0.123326,-0,0.124706,3467.68,-23346.3,0,23602.4,-361476
step02_gravity_refstate-crust.xmf,613,-3.02338e-06,7.38278e-06,0,5.09041e-06,-6.20362e+08,-6.19648e+08,-6.20154e+08,349202,-0.0193012,-0.111718,-0,0.113373,4119.84,-22584.1,0,22956.8,-349202
step02_gravity_refstate-crust.xmf,614,-2.33912e-07,1.78667e-06,0,1.65837e-05,-8.94724e+08,-8.94586e+08,-8.94708e+08,1.13764e+06,-0.00671763,-0.210343,-0,0.210451,3010.95,-32575.2,0,32714,-1.13764e+06
step02_gravity_refstate-crust.xmf,615,-3.94378e-06,1.49085e-05,0,1.44745e-05,-7.94085e+08,-7.92791e+08,-7.93814e+08,992948,-0.0252522,-0.208083,-0,0.209609,2225.82,-28916.6,0,29002.1,-992948
step02_gravity_refstate-crust.xmf,616,-1.54884e-06,7.60121e-06,0,1.55734e-05,-8.52361e+08,-8.51733e+08,-8.52255e+08,1.06834e+06,-0.0181081,-0.214028,-0,0.214792,2741.53,-31036.6,0,31157.4,-1.06834e+06
step02_gravity_refstate-crust.xmf,617,-1.22268e-06,4.46261e-06,0,1.76434e-05,-8.80502e+08,-8.80112e+08,-8.80418e+08,1.21034e+06,-0.010476,-0.221646,-0,0.221893,2705.97,-32057.5,0,32171.5,-1.21034e+06
step02_gravity_refstate-crust.xmf,618,9.45951e-07,-2.24314e-07,0,1.10871e-05,-8.94606e+08,-8.94687e+08,-8.94671e+08,760574,-0.0061596,-0.163538,-0,0.163654,4332.96,-32572.5,0,32859.4,-760574
step02_gravity_refstate-crust.xmf,619,1.3115e-06,-1.14232e-06,0,4.77145e-06,-8.90118e+08,-8.90286e+08,-8.90208e+08,327322,-0.00294571,-0.088591,-0,0.08864,7730.82,-32409.2,0,33318.4,-327322
step02_gravity_refstate-crust.xmf,620,1.23101e-06,-7.7517e-07,0,9.04893e-06,-8.94692e+08,-8.94829e+08,-8.94776e+08,620757,-0.00534127,-0.143459,-0,0.143558,5045.05,-32575.9,0,32964.3,-620757
step02_gravity_refstate-crust.xmf,621,1.30782e-06,-1.13494e-06,0,7.45411e-06,-8.96495e+08,-8.96662e+08,-8.96584e+08,511352,-0.00389597,-0.125761,-0,0.125821,5768.96,-32641.3,0,33147.2,-511352
step02_gravity_refstate-crust.xmf,622,1.27231e-06,-1.27297e-06,0,6.2359e-06,-8.97838e+08,-8.98013e+08,-8.97925e+08,427783,-0.00260488,-0.110531,-0,0.110562,6483.69,-32689.9,0,33326.7,-427783
step02_gravity_refstate-crust.xmf,623,1.12656e-06,-1.07243e-06,0,3.97058e-06,-8.92508e+08,-8.92659e+08,-8.92586e+08,272382,-0.00126401,-0.0743676,-0,0.0743784,8675.13,-32495.6,0,33633.6,-272382
step02_gravity_refstate-crust.xmf,624,6.68565e-07,9.90896e-08,0,1.41818e-06,-8.2145e+08,-8.21489e+08,-8.21496e+08,97287,-0.00118719,0.00977564,-0,0.00984747,19040.1,-29908.6,0,35454.9,-97287
step02_gravity_refstate-crust.xmf,625,5.88895e-08,8.56431e-07,0,6.75548e-07,-8.19536e+08,-8.19481e+08,-8.1954e+08,46342.6,0.00163041,0.0416417,0,0.0416736,27994.3,-29837.6,0,40914.1,-46342.6
step02_gravity_refstate-crust.xmf,626,5.21162e-07,2.50036e-07,0,1.25517e-06,-8.25077e+08,-8.25095e+08,-8.25113e+08,86104.5,-9.03055e-05,0.0163985,-0,0.0163988,20450.4,-30040.2,0,36340.6,-86104.5
step02_gravity_refstate-crust.xmf,627,3.86382e-07,3.99574e-07,0,1.10984e-06,-8.28921e+08,-8.2892e+08,-8.28947e+08,76135,0.000817843,0.02246,0,0.0224749,21907.2,-30179.9,0,37292.8,-76135
step02_gravity_refstate-crust.xmf,628,2.74037e-07,5.7846e-07,0,9.27722e-07,-8.14155e+08,-8.14134e+08,-8.14174e+08,63641.7,0.000827846,0.0319406,0,0.0319514,24475,-29642.1,0,38440.6,-63641.7
step02_gravity_refstate-crust.xmf,629,1.65613e-07,7.2198e-07,0,7.96982e-07,-8.14821e+08,-8.14783e+08,-8.14832e+08,54673,0.00125345,0.0373662,0,0.0373872,26280.6,-29666.2,0,39632.7,-54673
step02_gravity_refstate-crust.xmf,630,6.16162e-07,-2.87167e-07,0,1.95742e-06,-8.82006e+08,-8.82068e+08,-8.82048e+08,134279,0.00155759,-0.0198993,0,0.0199602,14109.4,-32112.3,0,35075.3,-134279
step02_gravity_refstate-crust.xmf,631,5.83985e-07,-1.66974e-07,0,1.77166e-06,-8.75628e+08,-8.7568e+08,-8.75668e+08,121536,0.00145563,-0.0122971,0,0.012383,15201.9,-31880.2,0,35319.2,-121536
step02_gravity_refstate-crust.xmf,632,6.51209e-07,-3.30867e-08,0,1.57164e-06,-8.49596e+08,-8.49642e+08,-8.4964e+08,107815,-7.9378e-05,-0.000933101,-0,0.000936471,17050.2,-30933,0,35320.8,-107815
step02_gravity_refstate-crust.xmf,633,-3.67778e-07,1.38284e-06,0,2.52295e-07,-8.83873e+08,-8.83753e+08,-8.83848e+08,17307.4,0.00211626,0.0497538,0,0.0497987,34696,-32178.9,0,47321.2,-17307.4
step02_gravity_refstate-crust.xmf,634,-2.92082e-07,1.27621e-06,0,3.60498e-07,-8.73811e+08,-8.73704e+08,-8.73791e+08,24730.2,0.0026146,0.047953,0,0.0480242,32632.6,-31812.8,0,45573.4,-24730.2
step02_gravity_refstate-crust.xmf,635,-2.1879e-07,1.16616e-06,0,4.69412e-07,-8.69104e+08,-8.69009e+08,-8.69089e+08,32201.7,0.00300894,0.0451683,0,0.0452684,30637.3,-31641.5,0,44043.5,-32201.7
step02_gravity_refstate-crust.xmf,636,-6.39943e-07,1.72521e-06,0,1.53506e-09,-9.6815e+08,-9.67988e+08,-9.68107e+08,105.305,1.05147e-19,0.0472718,0,0.0472718,40000,-35246.6,0,53313.4,-105.305
step02_gravity_refstate-crust.xmf,637,-1.96801e-06,4.42402e-06,0,3.23373e-06,-4.8593e+08,-4.85491e+08,-4.85795e+08,221834,-0.0155825,-0.0748582,-0,0.0764628,5453.32,-17689.6,0,18511.1,-221834
step02_gravity_refstate-crust.xmf,638,-2.30344e-06,5.07749e-06,0,3.27621e-06,-5.08438e+08,-5.07931e+08,-5.0828e+08,224748,-0.0151321,-0.082223,-0,0.0836038,4797.71,-18508.7,0,19120.4,-224748
step02_gravity_refstate-crust.xmf,639,-2.65149e-06,5.76984e-06,0,3.34516e-06,-5.31395e+08,-5.30817e+08,-5.31213e+08,229478,-0.0148031,-0.0896643,-0,0.090878,4251.5,-19344.2,0,19805.9,-229478
step02_gravity_refstate-crust.xmf,640,-1.82364e-06,3.78358e-06,0,2.72418e-06,-4.33894e+08,-4.3351e+08,-4.33769e+08,186879,-0.0139615,-0.0664115,-0,0.0678632,5598.79,-15794.8,0,16757.8,-186879
step02_gravity_refstate-crust.xmf,641,-1.62629e-06,2.58732e-06,0,1.93363e-06,-3.2024e+08,-3.19951e+08,-3.20128e+08,132647,-0.0117427,-0.052436,-0,0.0537348,5826.77,-11656.1,0,13031.3,-132647
step02_gravity_refstate-crust.xmf,642,-2.39675e-06,9.09615e-07,0,1.57007e-08,-227668,-851.217,-63250.8,1077.07,-0.028669,-0.0246537,-0,0.0378116,8975.48,0,0,8975.48,-1077.07
step02_gravity_refstate-crust.xmf,643,-2.21137e-06,1.00285e-06,0,4.7156e-07,-4.57323e+07,-4.55119e+07,-4.55806e+07,32349,-0.0218535,-0.0294569,-0,0.0366781,7976.38,-1657.54,0,8146.79,-32349
step02_gravity_refstate-crust.xmf,644,-1.94338e-06,1.32927e-06,0,9.37943e-07,-1.29332e+08,-1.29108e+08,-1.29199e+08,64342.9,-0.0135455,-0.0384114,-0,0.0407298,6133.09,-4702.67,0,7728.51,-64342.9
step02_gravity_refstate-crust.xmf,645,-2.05744e-06,1.13819e-06,0,7.64791e-07,-8.83021e+07,-8.80829e+07,-8.8161e+07,52464.7,-0.0170601,-0.0339771,-0,0.0380197,7041.11,-3208.17,0,7737.54,-52464.7
step02_gravity_refstate-crust.xmf,646,-5.10571e-06,1.37012e-05,0,1.00335e-05,-7.47104e+08,-7.45814e+08,-7.46753e+08,688301,-0.0231084,-0.176625,-0,0.17813,2535.43,-27199.6,0,27317.5,-688301
step02_gravity_refstate-crust.xmf,647,-6.37921e-06,1.63454e-05,0,1.11066e-05,-7.62858e+08,-7.61299e+08,-7.62421e+08,761911,-0.0222314,-0.192802,-0,0.194079,2110.91,-27772.1,0,27852.2,-761911
step02_gravity_refstate-crust.xmf,648,-4.61198e-06,1.11728e-05,0,7.13127e-06,-6.98168e+08,-6.97085e+08,-6.97852e+08,489205,-0.0206273,-0.14897,-0,0.150392,2936.31,-25416.1,0,25585.2,-489205
step02_gravity_refstate-crust.xmf,649,-6.439e-06,1.74091e-05,0,1.28646e-05,-7.79637e+08,-7.78001e+08,-7.79195e+08,882515,-0.0226804,-0.206994,-0,0.208232,1926.74,-28384.4,0,28449.7,-882515
step02_gravity_refstate-crust.xmf,650,-4.4622e-06,9.95201e-06,0,5.49874e-06,-6.61229e+08,-6.6024e+08,-6.60922e+08,377213,-0.0178223,-0.134527,-0,0.135703,2958.69,-24070,0,24251.2,-377213
step02_gravity_refstate-crust.xmf,651,-2.83721e-06,6.48999e-06,0,4.16559e-06,-5.78306e+08,-5.77666e+08,-5.78112e+08,285760,-0.0171389,-0.100188,-0,0.101644,4242.09,-21052.4,0,21475.5,-285760
step02_gravity_refstate-crust.xmf,652,4.61552e-07,-6.40577e-07,0,1.55035e-05,-9.09807e+08,-9.09882e+08,-9.09838e+08,1.06354e+06,-0.00231493,-0.198624,-0,0.198638,3309.7,-33123.3,0,33288.2,-1.06354e+06
step02_gravity_refstate-crust.xmf,653,-4.10632e-06,1.65289e-05,0,1.60261e-05,-8.07933e+08,-8.06517e+08,-8.07651e+08,1.09939e+06,-0.0239385,-0.225941,-0,0.227205,1896.69,-29422.6,0,29483.6,-1.09939e+06
step02_gravity_refstate-crust.xmf,654,-2.79039e-06,1.30384e-05,0,1.57334e-05,-8.22466e+08,-8.2138e+08,-8.22275e+08,1.07931e+06,-0.0234924,-0.223946,-0,0.225175,2181.31,-29951.6,0,30030.9,-1.07931e+06
step02_gravity_refstate-crust.xmf,655,-2.22555e-06,1.03743e-05,0,1.55695e-05,-8.37379e+08,-8.36515e+08,-8.37226e+08,1.06807e+06,-0.0212359,-0.219958,-0,0.220981,2460.09,-30492.7,0,30591.8,-1.06807e+06
step02_gravity_refstate-crust.xmf,656,-2.36907e-06,7.51479e-06,0,1.81836e-05,-8.66097e+08,-8.65419e+08,-8.65934e+08,1.2474e+06,-0.0138774,-0.230226,-0,0.230644,2438.53,-31533.2,0,31627.3,-1.2474e+06
step02_gravity_refstate-crust.xmf,657,1.18701e-06,-1.28383e-06,0,5.35196e-06,-8.98772e+08,-8.98942e+08,-8.98853e+08,367145,-0.00154944,-0.0980525,-0,0.0980647,7147.3,-32723.5,0,33495,-367145
step02_gravity_refstate-crust.xmf,658,8.21956e-07,-1.28329e-06,0,1.24866e-05,-9.1084e+08,-9.10984e+08,-9.10896e+08,856583,-0.00156718,-0.174755,-0,0.174762,3969.1,-33161.4,0,33398.1,-856583
step02_gravity_refstate-crust.xmf,659,9.34728e-07,-9.69288e-07,0,3.40637e-06,-8.9483e+08,-8.94961e+08,-8.94894e+08,233677,7.65531e-05,-0.0632805,0,0.0632805,9514.18,-32579.5,0,33940.3,-233677
step02_gravity_refstate-crust.xmf,660,7.86481e-07,-8.00187e-07,0,2.96746e-06,-8.96834e+08,-8.96943e+08,-8.96888e+08,203568,0.00124623,-0.0525013,0,0.0525161,10436.2,-32652.1,0,34279.3,-203568
step02_gravity_refstate-crust.xmf,661,6.43216e-07,-6.32781e-07,0,2.59755e-06,-8.98552e+08,-8.9864e+08,-8.98596e+08,178192,0.00222653,-0.0424376,0,0.0424959,11408.6,-32714.3,0,34646.6,-178192
step02_gravity_refstate-crust.xmf,662,5.19256e-07,-4.60663e-07,0,2.29095e-06,-9.00148e+08,-9.00215e+08,-9.00184e+08,157159,0.00307009,-0.0328818,0,0.0330248,12449.4,-32772.2,0,35057.1,-157159
step02_gravity_refstate-crust.xmf,663,3.98861e-07,-2.93332e-07,0,2.04667e-06,-9.02904e+08,-9.02951e+08,-9.02931e+08,140402,0.00392916,-0.0242752,0,0.0245911,13499.7,-32872.3,0,35536.3,-140402
step02_gravity_refstate-crust.xmf,664,2.70991e-07,5.31765e-07,0,9.92137e-07,-8.33243e+08,-8.33225e+08,-8.33261e+08,68060.6,0.00150749,0.0273417,0,0.0273833,23232.7,-30337,0,38211.1,-68060.6
step02_gravity_refstate-crust.xmf,665,5.20485e-07,1.19765e-07,0,1.40965e-06,-8.53119e+08,-8.53147e+08,-8.53155e+08,96702.2,0.000977069,0.00598682,0,0.00606603,18318.8,-31061,0,36060.5,-96702.2
step02_gravity_refstate-crust.xmf,666,4.57151e-07,-3.3922e-09,0,1.5896e-06,-8.79127e+08,-8.79159e+08,-8.79159e+08,109047,0.0024633,-0.00457841,0,0.00519901,16424.9,-32007.4,0,35975.7,-109047
step02_gravity_refstate-crust.xmf,667,-1.38638e-07,1.04711e-06,0,5.76333e-07,-8.64838e+08,-8.64756e+08,-8.64828e+08,39536.5,0.00320621,0.041869,0,0.0419916,28800.9,-31486.3,0,42671.8,-39536.5
step02_gravity_refstate-crust.xmf,668,-5.41002e-07,1.58628e-06,0,1.88689e-07,-9.40728e+08,-9.40582e+08,-9.40691e+08,12944,0.00240287,0.0474873,0,0.047548,35703.4,-34248.4,0,49474.1,-12944
step02_gravity_refstate-crust.xmf,669,-7.03308e-07,1.79839e-06,0,9.12825e-08,-9.96455e+08,-9.96284e+08,-9.96407e+08,6261.98,0.00153254,0.0451036,0,0.0451296,37818.8,-36276.9,0,52404.9,-6261.98
step02_gravity_refstate-crust.xmf,670,-3.02949e-06,6.46838e-06,0,3.44468e-06,-5.54471e+08,-5.53819e+08,-5.54263e+08,236305,-0.0145271,-0.0974136,-0,0.0984909,3773.15,-20183.8,0,20533.5,-236305
step02_gravity_refstate-crust.xmf,671,-1.73108e-06,3.23079e-06,0,2.29588e-06,-3.81592e+08,-3.81251e+08,-3.81473e+08,157497,-0.0125567,-0.0596342,-0,0.0609418,5630.53,-13890.2,0,14988,-157497
step02_gravity_refstate-crust.xmf,672,-2.10099e-06,4.32183e-06,0,2.74915e-06,-4.59191e+08,-4.58751e+08,-4.59047e+08,188592,-0.0135079,-0.073161,-0,0.0743976,4931.58,-16715.5,0,17427.8,-188592
step02_gravity_refstate-crust.xmf,673,-1.94533e-06,3.71381e-06,0,2.29011e-06,-4.0779e+08,-4.07402e+08,-4.07656e+08,157101,-0.0120074,-0.0654951,-0,0.0665866,4969.72,-14843.9,0,15653.7,-157101
step02_gravity_refstate-crust.xmf,674,-1.64038e-06,1.78186e-06,0,1.43884e-06,-2.18679e+08,-2.18444e+08,-2.18566e+08,98704.2,-0.0118945,-0.0433702,-0,0.0449717,6149.17,-7957.35,0,10056.4,-98704.2
step02_gravity_refstate-crust.xmf,675,-1.59885e-06,2.07372e-06,0,1.62488e-06,-2.59323e+08,-2.59071e+08,-2.59213e+08,111467,-0.0116128,-0.0465603,-0,0.0479867,6040.92,-9437.66,0,11205.5,-111467
step02_gravity_refstate-crust.xmf,676,-1.70831e-06,2.40565e-06,0,1.59504e-06,-2.85967e+08,-2.85684e+08,-2.85849e+08,109420,-0.010448,-0.0511462,-0,0.0522025,5260.19,-10407.7,0,11661.5,-109420
step02_gravity_refstate-crust.xmf,677,-1.8124e-06,3.04903e-06,0,1.90314e-06,-3.50446e+08,-3.50112e+08,-3.50322e+08,130555,-0.0108144,-0.0583169,-0,0.0593112,5009.22,-12755.7,0,13704,-130555
step02_gravity_refstate-crust.xmf,678,-1.86463e-06,1.57367e-06,0,1.05825e-06,-1.70915e+08,-1.70679e+08,-1.70787e+08,72595.7,-0.0110473,-0.0427206,-0,0.0441258,5335.96,-6217.23,0,8193.07,-72595.7
step02_gravity_refstate-crust.xmf,679,-5.34537e-06,1.27166e-05,0,7.68339e-06,-7.14908e+08,-7.13669e+08,-7.14541e+08,527081,-0.0202967,-0.160607,-0,0.161884,2575.45,-26025,0,26152.1,-527081
step02_gravity_refstate-crust.xmf,680,-5.24926e-06,1.15766e-05,0,5.76991e-06,-6.80419e+08,-6.79265e+08,-6.80059e+08,395816,-0.017162,-0.145955,-0,0.146961,2527.44,-24768,0,24896.7,-395816
step02_gravity_refstate-crust.xmf,681,-6.26051e-06,1.45864e-05,0,8.25971e-06,-7.30794e+08,-7.29364e+08,-7.30364e+08,566616,-0.0197112,-0.173123,-0,0.174242,2219.23,-26602.5,0,26694.9,-566616
step02_gravity_refstate-crust.xmf,682,-8.58278e-06,1.99797e-05,0,1.07744e-05,-7.69424e+08,-7.67464e+08,-7.68835e+08,739125,-0.0190654,-0.206805,-0,0.207682,1591.95,-28007.9,0,28053.1,-739125
step02_gravity_refstate-crust.xmf,683,-3.33948e-06,7.50033e-06,0,4.28517e-06,-5.99372e+08,-5.98629e+08,-5.99143e+08,293962,-0.0166433,-0.109309,-0,0.110568,3692.23,-21818.8,0,22129,-293962
step02_gravity_refstate-crust.xmf,684,-4.69023e-06,9.966e-06,0,4.40079e-06,-6.41161e+08,-6.40155e+08,-6.40839e+08,301894,-0.0148549,-0.130044,-0,0.130889,2605.87,-23338.6,0,23483.6,-301894
step02_gravity_refstate-crust.xmf,685,-3.96389e-06,8.6453e-06,0,4.35907e-06,-6.20374e+08,-6.19509e+08,-6.20103e+08,299033,-0.0158447,-0.119359,-0,0.120406,3130.37,-22582.7,0,22798.6,-299033
step02_gravity_refstate-crust.xmf,686,-1.24082e-06,3.29996e-06,0,2.0379e-05,-8.93611e+08,-8.93299e+08,-8.93525e+08,1.398e+06,-0.00657647,-0.23823,-0,0.23832,2381.02,-32532.9,0,32619.9,-1.398e+06
step02_gravity_refstate-crust.xmf,687,-5.4677e-08,3.58116e-07,0,1.90659e-05,-9.08452e+08,-9.08424e+08,-9.08448e+08,1.30792e+06,-0.00284603,-0.226188,-0,0.226206,2657.56,-33073.4,0,33180,-1.30792e+06
step02_gravity_refstate-crust.xmf,688,-7.3674e-06,2.08897e-05,0,1.48528e-05,-7.93654e+08,-7.91715e+08,-7.93148e+08,1.0189e+06,-0.0218505,-0.223998,-0,0.225062,1632.76,-28896.3,0,28942.4,-1.0189e+06
step02_gravity_refstate-crust.xmf,689,-3.64044e-06,1.09722e-05,0,1.82993e-05,-8.516e+08,-8.50598e+08,-8.5135e+08,1.25533e+06,-0.016879,-0.236868,-0,0.237468,2178.99,-31005.6,0,31082.1,-1.25533e+06
step02_gravity_refstate-crust.xmf,690,-2.58347e-06,6.25833e-06,0,2.12138e-05,-8.79458e+08,-8.78851e+08,-8.79281e+08,1.45527e+06,-0.00970807,-0.247059,-0,0.24725,2149.24,-32016.8,0,32088.8,-1.45527e+06
step02_gravity_refstate-crust.xmf,691,9.67234e-07,-1.53489e-06,0,1.02001e-05,-9.11704e+08,-9.11876e+08,-9.1177e+08,699726,-0.000689532,-0.153683,-0,0.153685,4647.28,-33193,0,33516.8,-699726
step02_gravity_refstate-crust.xmf,692,6.75645e-07,-1.22797e-06,0,4.13007e-06,-9.13587e+08,-9.13717e+08,-9.13633e+08,283323,0.00312019,-0.0782026,0,0.0782648,8343.45,-33260.9,0,34291.4,-283323
step02_gravity_refstate-crust.xmf,693,9.98736e-07,-1.68908e-06,0,8.3185e-06,-9.12987e+08,-9.13172e+08,-9.13056e+08,570649,0.00039353,-0.134867,0,0.134868,5349.94,-33239.6,0,33667.4,-570649
step02_gravity_refstate-crust.xmf,694,9.34519e-07,-1.69324e-06,0,6.86093e-06,-9.14386e+08,-9.14566e+08,-9.1445e+08,470660,0.00148777,-0.118338,0,0.118347,6063.25,-33290.3,0,33837.9,-470660
step02_gravity_refstate-crust.xmf,695,8.42779e-07,-1.58228e-06,0,5.73381e-06,-9.14885e+08,-9.15051e+08,-9.14942e+08,393339,0.00226703,-0.103736,0,0.10376,6789.64,-33308.2,0,33993.2,-393339
step02_gravity_refstate-crust.xmf,696,7.85521e-07,-1.40459e-06,0,4.85578e-06,-9.13304e+08,-9.13454e+08,-9.13358e+08,333107,0.00246664,-0.09071,0,0.0907436,7535.3,-33250.7,0,34093.9,-333107
step02_gravity_refstate-crust.xmf,697,8.33841e-07,-2.41848e-06,0,1.75132e-05,-9.2404e+08,-9.24263e+08,-9.24097e+08,1.2014e+06,0.00154802,-0.212396,0,0.212401,2955.23,-33640.2,0,33769.8,-1.2014e+06
step02_gravity_refstate-crust.xmf,698,9.29688e-07,-2.60612e-06,0,1.42437e-05,-9.25957e+08,-9.262e+08,-9.26021e+08,977116,0.00267678,-0.186734,0,0.186753,3598.23,-33710.1,0,33901.6,-977116
step02_gravity_refstate-crust.xmf,699,5.48924e-07,-1.05845e-06,0,3.59666e-06,-9.15087e+08,-9.15197e+08,-9.15125e+08,246731,0.00391035,-0.06763,0,0.067743,9111.57,-33315.2,0,34538.8,-246731
step02_gravity_refstate-crust.xmf,700,3.04226e-07,-1.3699e-07,0,1.83305e-06,-9.04971e+08,-9.05001e+08,-9.04992e+08,125747,0.00457431,-0.016141,0,0.0167767,14612,-32947.4,0,36042.2,-125747
step02_gravity_refstate-crust.xmf,701,3.9295e-07,2.68961e-07,0,1.26125e-06,-8.56761e+08,-8.56769e+08,-8.56788e+08,86521.5,0.0018659,0.0124117,0,0.0125512,19637.3,-31193.2,0,36859.8,-86521.5
step02_gravity_refstate-crust.xmf,702,-4.639e-08,9.15986e-07,0,6.84981e-07,-8.59165e+08,-8.59099e+08,-8.59162e+08,46989.7,0.00315594,0.0381581,0,0.0382884,27083.8,-31280,0,41376,-46989.7
step02_gravity_refstate-crust.xmf,703,2.75414e-07,4.19369e-07,0,1.12333e-06,-8.60083e+08,-8.60073e+08,-8.60102e+08,77060.2,0.00257463,0.0185745,0,0.0187521,21058.3,-31314,0,37736.1,-77060.2
step02_gravity_refstate-crust.xmf,704,1.70737e-07,5.62729e-07,0,9.99158e-07,-8.62998e+08,-8.62971e+08,-8.6301e+08,68542.2,0.0030814,0.0241501,0,0.0243459,22509.1,-31419.9,0,38650.6,-68542.2
step02_gravity_refstate-crust.xmf,705,8.42963e-08,6.98184e-07,0,8.80515e-07,-8.62724e+08,-8.62682e+08,-8.62729e+08,60403.3,0.00326824,0.0296125,0,0.0297923,24102.9,-31409.7,0,39591.9,-60403.3
step02_gravity_refstate-crust.xmf,706,5.79953e-08,7.75499e-07,0,7.9545e-07,-8.51929e+08,-8.51879e+08,-8.51933e+08,54567.9,0.00283283,0.0341086,0,0.034226,25486.9,-31016.8,0,40145,-54567.9
step02_gravity_refstate-crust.xmf,707,3.45063e-07,1.39845e-07,0,1.43251e-06,-8.81986e+08,-8.82e+08,-8.82009e+08,98270.1,0.00321062,0.00212858,0,0.00385213,17612.2,-32111.2,0,36624,-98270.1
step02_gravity_refstate-crust.xmf,708,-4.56112e-07,1.46137e-06,0,2.95174e-07,-9.22234e+08,-9.22103e+08,-9.22203e+08,20248.9,0.00322221,0.0466059,0,0.0467171,33527.5,-33575.3,0,47448.9,-20248.9
step02_gravity_refstate-crust.xmf,709,-3.9292e-07,1.35473e-06,0,3.99317e-07,-9.16468e+08,-9.16348e+08,-9.16441e+08,27393.1,0.00397557,0.044301,0,0.044479,31465.4,-33365.4,0,45862,-27393.1
step02_gravity_refstate-crust.xmf,710,-3.23731e-07,1.23729e-06,0,5.02823e-07,-9.1156e+08,-9.11453e+08,-9.11538e+08,34493.6,0.00452553,0.0414015,0,0.0416481,29554.4,-33186.9,0,44439.1,-34493.6
step02_gravity_refstate-crust.xmf,711,-7.86397e-07,1.92098e-06,0,3.32534e-10,-1.03343e+09,-1.03324e+09,-1.03337e+09,22.8118,9.65067e-20,0.042938,0,0.042938,40000,-37622.7,0,54913.3,-22.8118
step02_gravity_refstate-crust.xmf,712,-2.43056e-06,4.99196e-06,0,2.72032e-06,-4.82957e+08,-4.82448e+08,-4.8279e+08,186614,-0.0128452,-0.0801815,-0,0.0812039,4260.84,-17580.4,0,18089.4,-186614
step02_gravity_refstate-crust.xmf,713,-3.13665e-06,6.39884e-06,0,2.73397e-06,-5.3075e+08,-5.30096e+08,-5.30535e+08,187550,-0.0118483,-0.0944942,-0,0.0952341,3239.76,-19319.7,0,19589.5,-187550
step02_gravity_refstate-crust.xmf,714,-2.80481e-06,5.6926e-06,0,2.63236e-06,-5.04844e+08,-5.04261e+08,-5.04652e+08,180580,-0.0118958,-0.0873252,-0,0.0881317,3588.25,-18376.8,0,18723.9,-180580
step02_gravity_refstate-crust.xmf,715,-2.18121e-06,4.21275e-06,0,2.27235e-06,-4.32139e+08,-4.31701e+08,-4.3199e+08,155883,-0.0114533,-0.0712561,-0,0.0721707,4373.23,-15730.2,0,16326.8,-155883
step02_gravity_refstate-crust.xmf,716,-1.85677e-06,2.81443e-06,0,1.54105e-06,-3.16435e+08,-3.16114e+08,-3.16307e+08,105716,-0.00926867,-0.0564138,-0,0.0571701,4433.95,-11517,0,12341,-105716
step02_gravity_refstate-crust.xmf,717,-2.85855e-06,1.08492e-06,0,1.51849e-08,-271532,-1010.17,-75435.9,1041.69,-0.0233767,-0.0307376,-0,0.038617,6955.89,0,0,6955.89,-1041.69
step02_gravity_refstate-crust.xmf,718,-2.56955e-06,1.13748e-06,0,3.64881e-07,-4.38721e+07,-4.36178e+07,-4.36958e+07,25030.8,-0.0172175,-0.0350471,-0,0.039048,5979.13,-1588.57,0,6186.56,-25030.8
step02_gravity_refstate-crust.xmf,719,-2.16004e-06,1.43405e-06,0,6.78706e-07,-1.26804e+08,-1.26557e+08,-1.26655e+08,46559.2,-0.00983083,-0.0426854,-0,0.0438028,4288.28,-4609.89,0,6296.06,-46559.2
step02_gravity_refstate-crust.xmf,720,-2.3679e-06,1.25345e-06,0,5.49173e-07,-8.34441e+07,-8.31957e+07,-8.32816e+07,37673.3,-0.0126881,-0.0391559,-0,0.0411603,4962.75,-3030.23,0,5814.74,-37673.3
step02_gravity_refstate-crust.xmf,721,-7.52482e-06,1.69983e-05,0,8.68965e-06,-7.45005e+08,-7.43322e+08,-7.44488e+08,596110,-0.0185068,-0.186521,-0,0.187437,1839.89,-27118.5,0,27180.9,-596110
step02_gravity_refstate-crust.xmf,722,-6.03493e-06,1.31316e-05,0,6.09177e-06,-6.98343e+08,-6.97028e+08,-6.97929e+08,417895,-0.0166837,-0.157157,-0,0.15804,2192.95,-25419.8,0,25514.2,-417895
step02_gravity_refstate-crust.xmf,723,-9.92157e-06,2.24035e-05,0,1.1654e-05,-7.80498e+08,-7.7828e+08,-7.79817e+08,799465,-0.01804,-0.219941,-0,0.22068,1351.78,-28409.4,0,28441.5,-799465
step02_gravity_refstate-crust.xmf,724,-9.12031e-06,1.98634e-05,0,8.69644e-06,-7.56209e+08,-7.5422e+08,-7.55583e+08,596576,-0.0164888,-0.199421,-0,0.200102,1457.82,-27524.4,0,27563,-596576
step02_gravity_refstate-crust.xmf,725,-5.5499e-06,1.14226e-05,0,4.41467e-06,-6.61992e+08,-6.60828e+08,-6.61611e+08,302846,-0.0136508,-0.141587,-0,0.142244,2115.75,-24095.7,0,24188.4,-302846
step02_gravity_refstate-crust.xmf,726,-3.50337e-06,7.35462e-06,0,3.4893e-06,-5.76741e+08,-5.75996e+08,-5.765e+08,239366,-0.0139296,-0.105902,-0,0.106814,3256.16,-20994,0,21245,-239366
step02_gravity_refstate-crust.xmf,727,-3.53828e-06,7.12435e-06,0,2.74858e-06,-5.53361e+08,-5.5263e+08,-5.53118e+08,188553,-0.0113287,-0.101904,-0,0.102532,2814.38,-20142.4,0,20338,-188553
step02_gravity_refstate-crust.xmf,728,5.63632e-07,-1.72606e-06,0,2.15565e-05,-9.22026e+08,-9.22183e+08,-9.22065e+08,1.47877e+06,0.00058152,-0.241443,0,0.241443,2330.77,-33566.9,0,33647.7,-1.47877e+06
step02_gravity_refstate-crust.xmf,729,-9.80779e-06,2.47769e-05,0,1.88979e-05,-8.089e+08,-8.06527e+08,-8.08227e+08,1.2964e+06,-0.0195264,-0.248313,-0,0.249079,1242.75,-29447.5,0,29473.7,-1.2964e+06
step02_gravity_refstate-crust.xmf,730,-4.76579e-06,1.86053e-05,0,1.72352e-05,-8.20115e+08,-8.18512e+08,-8.19788e+08,1.18233e+06,-0.0214285,-0.244972,-0,0.245908,1588.79,-29866.6,0,29908.9,-1.18233e+06
step02_gravity_refstate-crust.xmf,731,-5.27095e-06,1.51758e-05,0,1.80855e-05,-8.37122e+08,-8.3572e+08,-8.36761e+08,1.24067e+06,-0.01907,-0.244798,-0,0.245539,1843.08,-30478.4,0,30534.1,-1.24067e+06
step02_gravity_refstate-crust.xmf,732,-4.46144e-06,1.03617e-05,0,2.21654e-05,-8.65575e+08,-8.64558e+08,-8.65269e+08,1.52055e+06,-0.0120547,-0.257634,-0,0.257915,1855.15,-31510.1,0,31564.7,-1.52055e+06
step02_gravity_refstate-crust.xmf,733,1.51871e-06,-4.57301e-06,0,1.96598e-05,-9.37513e+08,-9.37931e+08,-9.37617e+08,1.34866e+06,0.00478727,-0.226291,0,0.226341,2607.71,-34130.2,0,34229.6,-1.34866e+06
step02_gravity_refstate-crust.xmf,734,9.1598e-07,-2.7434e-06,0,1.14516e-05,-9.27917e+08,-9.28168e+08,-9.27979e+08,785581,0.00387917,-0.164237,0,0.164283,4255.84,-33781.2,0,34048.2,-785581
step02_gravity_refstate-crust.xmf,735,3.94775e-07,-8.86072e-07,0,3.13249e-06,-9.17952e+08,-9.1804e+08,-9.17979e+08,214889,0.0048698,-0.0573676,0,0.0575739,9945.25,-33419.2,0,34867.6,-214889
step02_gravity_refstate-crust.xmf,736,2.76337e-07,-6.8361e-07,0,2.77656e-06,-9.21094e+08,-9.2116e+08,-9.21113e+08,190472,0.00573213,-0.0475616,0,0.0479058,10840.8,-33533.4,0,35242.2,-190472
step02_gravity_refstate-crust.xmf,737,1.64779e-07,-4.84533e-07,0,2.45845e-06,-9.24288e+08,-9.24332e+08,-9.24299e+08,168650,0.00646104,-0.0378702,0,0.0384175,11839,-33649.5,0,35671.5,-168650
step02_gravity_refstate-crust.xmf,738,8.699e-08,-3.01136e-07,0,2.19769e-06,-9.27183e+08,-9.2721e+08,-9.27189e+08,150762,0.00700427,-0.0289286,0,0.0297644,12877.4,-33754.9,0,36127.9,-150762
step02_gravity_refstate-crust.xmf,739,2.07981e-08,-1.27336e-07,0,1.97736e-06,-9.30404e+08,-9.30414e+08,-9.30405e+08,135647,0.00747168,-0.0205583,0,0.021874,13969.2,-33872.2,0,36639.6,-135647
step02_gravity_refstate-crust.xmf,740,2.33479e-07,1.35827e-08,0,1.65402e-06,-9.06121e+08,-9.06136e+08,-9.06137e+08,113466,0.00501126,-0.00862977,0,0.00997926,15759.3,-32989.2,0,36560.1,-113466
step02_gravity_refstate-crust.xmf,741,2.37786e-07,2.93219e-07,0,1.29347e-06,-8.86736e+08,-8.86732e+08,-8.86752e+08,88731.9,0.00398382,0.00850347,0,0.00939041,18873.8,-32283.9,0,37396.1,-88731.9
step02_gravity_refstate-crust.xmf,742,1.53182e-07,1.65727e-07,0,1.50016e-06,-9.09312e+08,-9.09311e+08,-9.09323e+08,102911,0.00555649,-0.00169325,0,0.00580876,16940.9,-33105.3,0,37188.1,-102911
step02_gravity_refstate-crust.xmf,743,-2.44839e-07,1.11088e-06,0,6.03383e-07,-9.05294e+08,-9.05201e+08,-9.05277e+08,41392,0.00481141,0.0381737,0,0.0384758,27817.4,-32958.9,0,43128.8,-41392
step02_gravity_refstate-crust.xmf,744,-5.84847e-07,1.61298e-06,0,2.60892e-07,-9.66222e+08,-9.66071e+08,-9.66182e+08,17897.2,0.00368929,0.0446285,0,0.0447808,34008.1,-35176.4,0,48927.8,-17897.2
step02_gravity_refstate-crust.xmf,745,-6.83779e-07,1.75651e-06,0,1.97781e-07,-1.00036e+09,-1.00019e+09,-1.00031e+09,13567.8,0.00332942,0.0435595,0,0.0436866,35267,-36419.1,0,50696.2,-13567.8
step02_gravity_refstate-crust.xmf,746,-8.23134e-07,1.96945e-06,0,6.68869e-08,-1.05231e+09,-1.05212e+09,-1.05225e+09,4588.44,0.0013853,0.0414101,0,0.0414332,38312.5,-38310.1,0,54180.4,-4588.44
step02_gravity_refstate-crust.xmf,747,-2.06347e-06,3.61732e-06,0,1.78974e-06,-3.7982e+08,-3.7943e+08,-3.79678e+08,122776,-0.00958682,-0.0647914,-0,0.0654968,4086.41,-13825,0,14416.3,-122776
step02_gravity_refstate-crust.xmf,748,-2.47931e-06,4.78363e-06,0,2.20875e-06,-4.56818e+08,-4.56319e+08,-4.56648e+08,151521,-0.0106586,-0.0776837,-0,0.0784115,3721.28,-16628.3,0,17039.6,-151521
step02_gravity_refstate-crust.xmf,749,-2.21367e-06,4.04428e-06,0,1.88835e-06,-4.09163e+08,-4.08734e+08,-4.09011e+08,129541,-0.00974921,-0.069546,-0,0.0702261,3867.69,-14893.3,0,15387.3,-129541
step02_gravity_refstate-crust.xmf,750,-1.77352e-06,2.1576e-06,0,1.3143e-06,-2.4933e+08,-2.49061e+08,-2.49209e+08,90161.1,-0.00955949,-0.0493055,-0,0.0502236,4830.71,-9073.29,0,10279.1,-90161.1
step02_gravity_refstate-crust.xmf,751,-1.87661e-06,1.88428e-06,0,1.03665e-06,-2.07262e+08,-2.07004e+08,-2.07133e+08,71114.1,-0.00879599,-0.0473807,-0,0.0481902,4344.89,-7540.9,0,8703.06,-71114.1
step02_gravity_refstate-crust.xmf,752,-1.89123e-06,2.551e-06,0,1.21293e-06,-2.80888e+08,-2.80583e+08,-2.80758e+08,83207.3,-0.00793972,-0.0543165,-0,0.0548938,3884.18,-10222.3,0,10935.4,-83207.3
step02_gravity_refstate-crust.xmf,753,-2.0446e-06,3.28329e-06,0,1.42472e-06,-3.45566e+08,-3.452e+08,-3.45426e+08,97735.5,-0.00804352,-0.0617914,-0,0.0623128,3611.99,-12577.5,0,13085.9,-97735.5
step02_gravity_refstate-crust.xmf,754,-2.05492e-06,1.67505e-06,0,7.19353e-07,-1.66621e+08,-1.66365e+08,-1.6648e+08,49347.6,-0.00753175,-0.0463882,-0,0.0469957,3511.96,-6060.27,0,7004.34,-49347.6
step02_gravity_refstate-crust.xmf,755,-6.91911e-06,1.48472e-05,0,6.43525e-06,-7.14756e+08,-7.13263e+08,-7.14282e+08,441458,-0.0160688,-0.168524,-0,0.169288,1889.28,-26016.4,0,26084.9,-441458
step02_gravity_refstate-crust.xmf,756,-6.61883e-06,1.34005e-05,0,4.33e-06,-6.82758e+08,-6.81385e+08,-6.82304e+08,297038,-0.0120656,-0.154239,-0,0.15471,1640.38,-24850.5,0,24904.5,-297038
step02_gravity_refstate-crust.xmf,757,-8.1661e-06,1.71121e-05,0,6.49227e-06,-7.29753e+08,-7.28018e+08,-7.29192e+08,445370,-0.0146166,-0.18097,-0,0.181559,1526.45,-26560.8,0,26604.7,-445370
step02_gravity_refstate-crust.xmf,758,-1.10231e-05,2.33694e-05,0,8.47704e-06,-7.68394e+08,-7.66034e+08,-7.67638e+08,581525,-0.0141744,-0.213893,-0,0.214362,1104.84,-27965.7,0,27987.5,-581525
step02_gravity_refstate-crust.xmf,759,-5.51716e-06,1.10488e-05,0,3.21183e-06,-6.41625e+08,-6.40488e+08,-6.41246e+08,220332,-0.0105117,-0.135447,-0,0.135855,1750.05,-23353.8,0,23419.3,-220332
step02_gravity_refstate-crust.xmf,760,-4.08773e-06,8.47321e-06,0,3.44612e-06,-5.98679e+08,-5.97817e+08,-5.98398e+08,236404,-0.0129751,-0.115206,-0,0.115935,2714.86,-21792.1,0,21960.5,-236404
step02_gravity_refstate-crust.xmf,761,-4.75538e-06,9.6833e-06,0,3.36435e-06,-6.20421e+08,-6.19431e+08,-6.20095e+08,230794,-0.0118454,-0.125074,-0,0.125634,2212.68,-22582.8,0,22690.9,-230794
step02_gravity_refstate-crust.xmf,762,-3.53304e-06,6.92315e-06,0,2.1266e-06,-5.34508e+08,-5.3379e+08,-5.34265e+08,145884,-0.0090051,-0.0988734,-0,0.0992826,2348.21,-19455.7,0,19596.9,-145884
step02_gravity_refstate-crust.xmf,763,-3.7647e-06,8.01331e-06,0,2.46217e-05,-8.7907e+08,-8.78262e+08,-8.78812e+08,1.68905e+06,-0.00843571,-0.269577,-0,0.269709,1715.15,-32000.6,0,32046.5,-1.68905e+06
step02_gravity_refstate-crust.xmf,764,-2.46084e-06,5.03166e-06,0,2.44386e-05,-8.9093e+08,-8.90416e+08,-8.90762e+08,1.67649e+06,-0.00622287,-0.266125,-0,0.266197,1829.03,-32433,0,32484.6,-1.67649e+06
step02_gravity_refstate-crust.xmf,765,-8.50861e-07,1.46459e-06,0,2.38305e-05,-9.06823e+08,-9.06664e+08,-9.06764e+08,1.63477e+06,-0.00295488,-0.260117,-0,0.260133,1973.8,-33012.6,0,33071.6,-1.63477e+06
step02_gravity_refstate-crust.xmf,766,-1.25563e-05,2.84391e-05,0,1.2381e-05,-7.93955e+08,-7.91142e+08,-7.93093e+08,849335,-0.0159691,-0.238785,-0,0.239318,1037.45,-28897.9,0,28916.6,-849335
step02_gravity_refstate-crust.xmf,767,-1.23987e-05,2.99959e-05,0,2.13641e-05,-8.24142e+08,-8.21234e+08,-8.23292e+08,1.46558e+06,-0.0162405,-0.274943,-0,0.275422,1000,-30000,0,30016.7,-1.46558e+06
step02_gravity_refstate-crust.xmf,768,-5.89997e-06,1.39869e-05,0,2.14657e-05,-8.51345e+08,-8.49981e+08,-8.5094e+08,1.47255e+06,-0.0148527,-0.257485,-0,0.257913,1733.57,-30991.9,0,31040.3,-1.47255e+06
step02_gravity_refstate-crust.xmf,769,1.51947e-06,-4.34493e-06,0,2.42968e-05,-9.3517e+08,-9.35572e+08,-9.35274e+08,1.66676e+06,0.00324835,-0.259217,0,0.259238,1963.18,-34045.2,0,34101.8,-1.66676e+06
step02_gravity_refstate-crust.xmf,770,2.50277e-06,-7.14021e-06,0,2.16078e-05,-9.50573e+08,-9.51235e+08,-9.50745e+08,1.48229e+06,0.00741963,-0.238629,0,0.238745,2295.45,-34605.6,0,34681.7,-1.48229e+06
step02_gravity_refstate-crust.xmf,771,1.19182e-07,-1.20841e-06,0,3.8664e-06,-9.34596e+08,-9.34687e+08,-9.34605e+08,265235,0.00785553,-0.0721761,0,0.0726023,8707.1,-34023.5,0,35120,-265235
step02_gravity_refstate-crust.xmf,772,7.97726e-07,-2.55581e-06,0,9.3373e-06,-9.29547e+08,-9.29777e+08,-9.29601e+08,640539,0.00496037,-0.144129,0,0.144214,4942.65,-33840.3,0,34199.4,-640539
step02_gravity_refstate-crust.xmf,773,2.27489e-07,-1.46461e-06,0,4.4725e-06,-9.33257e+08,-9.33373e+08,-9.33273e+08,306813,0.00742492,-0.0835499,0,0.0838792,7920.11,-33974.8,0,34885.8,-306813
step02_gravity_refstate-crust.xmf,774,6.38871e-07,-2.33582e-06,0,7.63336e-06,-9.31089e+08,-9.31293e+08,-9.31132e+08,523648,0.00591619,-0.126434,0,0.126572,5646.32,-33896.2,0,34363.2,-523648
step02_gravity_refstate-crust.xmf,775,4.78146e-07,-2.05312e-06,0,6.30113e-06,-9.32179e+08,-9.32352e+08,-9.32211e+08,432257,0.0066258,-0.110568,0,0.110766,6379.04,-33935.6,0,34530,-432257
step02_gravity_refstate-crust.xmf,776,3.3944e-07,-1.75487e-06,0,5.27976e-06,-9.32834e+08,-9.32977e+08,-9.32857e+08,362191,0.00710021,-0.0964921,0,0.096753,7129.29,-33959.4,0,34699.7,-362191
step02_gravity_refstate-crust.xmf,777,1.36999e-06,-4.51046e-06,0,1.59387e-05,-9.40088e+08,-9.40492e+08,-9.40182e+08,1.0934e+06,0.00638872,-0.199016,0,0.199119,3230.66,-34223.4,0,34375.6,-1.0934e+06
step02_gravity_refstate-crust.xmf,778,2.0799e-06,-6.69704e-06,0,1.77135e-05,-9.53094e+08,-9.53696e+08,-9.53237e+08,1.21515e+06,0.00939355,-0.210972,0,0.211181,2879.27,-34696.4,0,34815.6,-1.21515e+06
step02_gravity_refstate-crust.xmf,779,1.10738e-06,-4.18021e-06,0,1.2952e-05,-9.42782e+08,-9.43145e+08,-9.42858e+08,888508,0.00796644,-0.174916,0,0.175097,3873.55,-34320.9,0,34538.8,-888508
step02_gravity_refstate-crust.xmf,780,8.64442e-09,-9.91199e-07,0,3.39619e-06,-9.37052e+08,-9.37121e+08,-9.37053e+08,232979,0.00839879,-0.0621556,0,0.0627205,9484.3,-34112.8,0,35406.7,-232979
step02_gravity_refstate-crust.xmf,781,-1.73118e-08,2.93694e-08,0,1.7807e-06,-9.32773e+08,-9.3277e+08,-9.32772e+08,122156,0.00774112,-0.012752,0,0.0149177,15111.5,-33958.5,0,37169.1,-122156
step02_gravity_refstate-crust.xmf,782,1.34174e-07,4.44288e-07,0,1.1611e-06,-8.91692e+08,-8.91671e+08,-8.91701e+08,79651.4,0.00460759,0.0145203,0,0.0152338,20211.7,-32464.2,0,38241.8,-79651.4
step02_gravity_refstate-crust.xmf,783,-1.68213e-07,9.82512e-07,0,7.03552e-07,-8.99543e+08,-8.99464e+08,-8.99532e+08,48263.7,0.00491039,0.0346396,0,0.0349859,26241.5,-32749.6,0,41966.1,-48263.7
step02_gravity_refstate-crust.xmf,784,4.52457e-08,5.92546e-07,0,1.03324e-06,-8.95031e+08,-8.94994e+08,-8.95035e+08,70880.5,0.00496273,0.0203542,0,0.0209505,21670.6,-32585.6,0,39133.6,-70880.5
step02_gravity_refstate-crust.xmf,785,-3.59899e-08,7.35294e-07,0,9.13307e-07,-8.97708e+08,-8.97655e+08,-8.97705e+08,62652.8,0.0051293,0.0257248,0,0.0262312,23193.8,-32682.9,0,40076.5,-62652.8
step02_gravity_refstate-crust.xmf,786,-9.9586e-08,8.59554e-07,0,8.05164e-07,-8.9759e+08,-8.97524e+08,-8.97583e+08,55234.2,0.00502348,0.0304916,0,0.0309026,24710.6,-32678.6,0,40969.5,-55234.2
step02_gravity_refstate-crust.xmf,787,7.31571e-08,3.09352e-07,0,1.35915e-06,-9.13674e+08,-9.13657e+08,-9.13679e+08,93237.4,0.00607786,0.00461783,0,0.00763313,18142.4,-33264,0,37889.8,-93237.4
step02_gravity_refstate-crust.xmf,788,-5.43362e-07,1.53294e-06,0,3.43051e-07,-9.62139e+08,-9.61996e+08,-9.62101e+08,23533.3,0.00456851,0.0430392,0,0.043281,32315.8,-35027.8,0,47657.7,-23533.3
step02_gravity_refstate-crust.xmf,789,-4.90061e-07,1.42455e-06,0,4.45308e-07,-9.58674e+08,-9.58542e+08,-9.5864e+08,30548.1,0.00550451,0.0404613,0,0.040834,30341.1,-34901.7,0,46246.2,-30548.1
step02_gravity_refstate-crust.xmf,790,-4.17127e-07,1.29326e-06,0,5.46202e-07,-9.50414e+08,-9.50297e+08,-9.50386e+08,37469.5,0.00607998,0.0377233,0,0.0382102,28552.7,-34601.1,0,44860.8,-37469.5
step02_gravity_refstate-crust.xmf,791,-3.4838e-07,1.16821e-06,0,6.4145e-07,-9.43522e+08,-9.43418e+08,-9.43498e+08,44003.5,0.00645932,0.0346418,0,0.0352389,26950.2,-34350.2,0,43660.7,-44003.5
step02_gravity_refstate-crust.xmf,792,-8.01596e-07,1.92394e-06,0,1.47013e-07,-1.04768e+09,-1.04749e+09,-1.04762e+09,10085.1,0.00289618,0.0410668,0,0.0411688,36413,-38141.6,0,52732.2,-10085.1
step02_gravity_refstate-crust.xmf,793,-2.83331e-06,5.48296e-06,0,2.06226e-06,-4.81067e+08,-4.80496e+08,-4.80872e+08,141471,-0.00958604,-0.0845416,-0,0.0850834,3046.32,-17510.7,0,17773.7,-141471
step02_gravity_refstate-crust.xmf,794,-3.28156e-06,6.31925e-06,0,1.88049e-06,-5.08775e+08,-5.08116e+08,-5.0855e+08,129001,-0.00832824,-0.0926042,-0,0.092978,2372.1,-18519,0,18670.3,-129001
step02_gravity_refstate-crust.xmf,795,-2.46322e-06,4.52617e-06,0,1.72671e-06,-4.28679e+08,-4.282e+08,-4.2851e+08,118452,-0.00862367,-0.0745998,-0,0.0750966,3193.15,-15603.5,0,15926.9,-118452
step02_gravity_refstate-crust.xmf,796,-2.03542e-06,2.9832e-06,0,1.08983e-06,-3.12843e+08,-3.12499e+08,-3.12703e+08,74762.4,-0.0065117,-0.0593186,-0,0.0596749,3035.92,-11385.7,0,11783.5,-74762.4
step02_gravity_refstate-crust.xmf,797,-3.23017e-06,1.22592e-06,0,1.46708e-08,-306835,-1147.16,-85245,1006.41,-0.0172983,-0.035502,-0,0.039492,4955.97,0,0,4955.97,-1006.41
step02_gravity_refstate-crust.xmf,798,-2.83655e-06,1.2414e-06,0,2.50556e-07,-4.35376e+07,-4.32578e+07,-4.3343e+07,17188.1,-0.0118108,-0.0392911,-0,0.0410279,3971.78,-1575.47,0,4272.84,-17188.1
step02_gravity_refstate-crust.xmf,799,-2.29089e-06,1.51233e-06,0,4.12128e-07,-1.26767e+08,-1.26506e+08,-1.2661e+08,28272,-0.00592871,-0.0455142,-0,0.0458987,2535.32,-4608.15,0,5259.55,-28272
step02_gravity_refstate-crust.xmf,800,-2.56043e-06,1.33487e-06,0,3.40926e-07,-8.20728e+07,-8.18056e+07,-8.18971e+07,23387.5,-0.00793203,-0.0425841,-0,0.0433165,3015.32,-2979.65,0,4239.16,-23387.5
step02_gravity_refstate-crust.xmf,801,-9.68587e-06,1.98361e-05,0,6.22128e-06,-7.43521e+08,-7.41496e+08,-7.42856e+08,426780,-0.012517,-0.193911,-0,0.194315,1159.55,-27060.1,0,27085,-426780
step02_gravity_refstate-crust.xmf,802,-6.38603e-06,1.25344e-05,0,2.91588e-06,-6.61298e+08,-6.6e+08,-6.6086e+08,200029,-0.00876538,-0.146028,-0,0.146291,1302.97,-24068.8,0,24104,-200029
step02_gravity_refstate-crust.xmf,803,-7.19237e-06,1.46758e-05,0,4.9228e-06,-7.01421e+08,-6.99921e+08,-7.00928e+08,337704,-0.0128029,-0.164253,-0,0.164751,1572.59,-25529.6,0,25577.9,-337704
step02_gravity_refstate-crust.xmf,804,-1.33188e-05,2.7427e-05,0,8.0689e-06,-7.80846e+08,-7.78051e+08,-7.79933e+08,553526,-0.0115892,-0.229576,-0,0.229868,795.261,-28416.1,0,28427.2,-553526
step02_gravity_refstate-crust.xmf,805,-1.13983e-05,2.29515e-05,0,5.50499e-06,-7.55845e+08,-7.53489e+08,-7.55064e+08,377642,-0.00979714,-0.206706,-0,0.206938,808.848,-27506.7,0,27518.6,-377642
step02_gravity_refstate-crust.xmf,806,-4.06674e-06,8.08105e-06,0,2.60944e-06,-5.75567e+08,-5.74733e+08,-5.75288e+08,179008,-0.0101697,-0.110336,-0,0.110803,2277.08,-20950.1,0,21073.5,-179008
step02_gravity_refstate-crust.xmf,807,-3.94422e-06,7.65008e-06,0,1.89474e-06,-5.52586e+08,-5.5179e+08,-5.52315e+08,129979,-0.00767343,-0.105269,-0,0.105548,1845.3,-20113.3,0,20197.8,-129979
step02_gravity_refstate-crust.xmf,808,-3.78401e-06,7.39809e-06,0,2.79911e-05,-8.85897e+08,-8.8513e+08,-8.85637e+08,1.92019e+06,-0.00585031,-0.290724,-0,0.290783,1383.35,-32248.1,0,32277.8,-1.92019e+06
step02_gravity_refstate-crust.xmf,809,2.0361e-07,-1.18381e-06,0,2.53564e-05,-9.20199e+08,-9.20294e+08,-9.20213e+08,1.73945e+06,-2.98152e-05,-0.268284,-0,0.268284,1827.14,-33499.7,0,33549.5,-1.73945e+06
step02_gravity_refstate-crust.xmf,810,-1.58378e-05,3.51972e-05,0,1.17985e-05,-8.05119e+08,-8.01618e+08,-8.04033e+08,809380,-0.0131093,-0.257282,-0,0.257616,761.83,-29301.6,0,29311.5,-809380
step02_gravity_refstate-crust.xmf,811,-1.6373e-05,3.92394e-05,0,1.28631e-05,-8.15063e+08,-8.11248e+08,-8.1394e+08,882406,-0.0134401,-0.270612,-0,0.270945,763.737,-29667.7,0,29677.5,-882406
step02_gravity_refstate-crust.xmf,812,-9.27759e-06,2.15907e-05,0,2.08434e-05,-8.32754e+08,-8.30636e+08,-8.32117e+08,1.42986e+06,-0.0169338,-0.263889,-0,0.264432,1365.35,-30313.1,0,30343.9,-1.42986e+06
step02_gravity_refstate-crust.xmf,813,-8.6061e-06,1.88547e-05,0,2.32563e-05,-8.44181e+08,-8.42297e+08,-8.43591e+08,1.59538e+06,-0.014218,-0.270741,-0,0.271114,1393.49,-30727.6,0,30759.2,-1.59538e+06
step02_gravity_refstate-crust.xmf,814,-6.97912e-06,1.45938e-05,0,2.55657e-05,-8.58472e+08,-8.56992e+08,-8.57993e+08,1.75381e+06,-0.0110698,-0.279145,-0,0.279364,1395.87,-31247.9,0,31279.1,-1.75381e+06
step02_gravity_refstate-crust.xmf,815,-5.34534e-06,1.08462e-05,0,2.70149e-05,-8.72379e+08,-8.71269e+08,-8.72013e+08,1.85322e+06,-0.00832406,-0.285842,-0,0.285963,1390.4,-31755,0,31785.4,-1.85322e+06
step02_gravity_refstate-crust.xmf,816,2.69434e-06,-7.13564e-06,0,2.54053e-05,-9.48046e+08,-9.48721e+08,-9.48231e+08,1.74281e+06,0.00561887,-0.2648,0,0.26486,1814.37,-34514.4,0,34562.1,-1.74281e+06
step02_gravity_refstate-crust.xmf,817,3.87048e-06,-1.01121e-05,0,2.40906e-05,-9.63126e+08,-9.64085e+08,-9.63391e+08,1.65261e+06,0.00910797,-0.253422,0,0.253586,1934.89,-35063.6,0,35116.9,-1.65261e+06
step02_gravity_refstate-crust.xmf,818,3.05009e-06,-9.24464e-06,0,1.94744e-05,-9.65223e+08,-9.66066e+08,-9.65432e+08,1.33595e+06,0.0116712,-0.22254,0,0.222846,2540.92,-35137.9,0,35229.7,-1.33595e+06
step02_gravity_refstate-crust.xmf,819,7.68632e-07,-3.82364e-06,0,1.03925e-05,-9.45296e+08,-9.45611e+08,-9.45348e+08,712928,0.00933132,-0.153576,0,0.153859,4541.09,-34411.6,0,34710,-712928
step02_gravity_refstate-crust.xmf,820,-1.22733e-07,-7.73612e-07,0,3.03148e-06,-9.41897e+08,-9.41942e+08,-9.41889e+08,207959,0.00923145,-0.0528149,0,0.0536157,10289.3,-34289,0,35799.5,-207959
step02_gravity_refstate-crust.xmf,821,-2.33874e-07,-5.35871e-07,0,2.72578e-06,-9.486e+08,-9.48621e+08,-9.48584e+08,186988,0.01013,-0.0428779,0,0.0440583,11252.8,-34533,0,36320.1,-186988
step02_gravity_refstate-crust.xmf,822,-2.52058e-07,-3.36979e-07,0,2.44164e-06,-9.50449e+08,-9.50455e+08,-9.50432e+08,167497,0.0101536,-0.0339898,0,0.035474,12235.3,-34600.5,0,36700.1,-167497
step02_gravity_refstate-crust.xmf,823,-2.86607e-07,-1.50517e-07,0,2.21089e-06,-9.55114e+08,-9.55105e+08,-9.55095e+08,151667,0.0104552,-0.0255052,0,0.027565,13284.5,-34770.5,0,37221.8,-151667
step02_gravity_refstate-crust.xmf,824,-2.9763e-07,2.54459e-08,0,1.99071e-06,-9.59029e+08,-9.59007e+08,-9.59008e+08,136563,0.0105526,-0.0172162,0,0.0201929,14439.8,-34913.2,0,37781.5,-136563
step02_gravity_refstate-crust.xmf,825,-5.89923e-08,1.78708e-07,0,1.61554e-06,-9.35899e+08,-9.35883e+08,-9.35895e+08,110826,0.00800752,-0.0057006,0,0.00982941,16265.2,-34072.4,0,37755.6,-110826
step02_gravity_refstate-crust.xmf,826,-1.08178e-08,4.62055e-07,0,1.22928e-06,-9.19742e+08,-9.1971e+08,-9.19742e+08,84328.3,0.00659275,0.0106297,0,0.0125082,19429.5,-33484.8,0,38713.5,-84328.3
step02_gravity_refstate-crust.xmf,827,-1.06581e-07,3.26403e-07,0,1.46517e-06,-9.39557e+08,-9.39527e+08,-9.39549e+08,100510,0.00823254,0.000896927,0,0.00828125,17472.1,-34205.6,0,38409.6,-100510
step02_gravity_refstate-crust.xmf,828,-4.8061e-07,1.31476e-06,0,6.00732e-07,-9.80001e+08,-9.79878e+08,-9.79969e+08,41210.2,0.00742908,0.0344019,0,0.0351949,27596,-35678,0,45105,-41210.2
step02_gravity_refstate-crust.xmf,829,-6.69505e-07,1.69998e-06,0,2.92713e-07,-1.00564e+09,-1.00548e+09,-1.0056e+09,20080.1,0.00477414,0.0414953,0,0.041769,33227,-36611.4,0,49441.1,-20080.1
step02_gravity_refstate-crust.xmf,830,-7.74823e-07,1.8675e-06,0,2.38104e-07,-1.04981e+09,-1.04963e+09,-1.04976e+09,16333.9,0.00458384,0.0395779,0,0.0398425,34289.5,-38219.2,0,51346.7,-16333.9
step02_gravity_refstate-crust.xmf,831,-2.39032e-06,4.16024e-06,0,1.2986e-06,-3.965e+08,-3.96051e+08,-3.96336e+08,89084.3,-0.00675265,-0.0708176,-0,0.0711388,2674.97,-14431.8,0,14677.6,-89084.3
step02_gravity_refstate-crust.xmf,832,-2.22274e-06,3.68641e-06,0,1.23597e-06,-3.66477e+08,-3.66071e+08,-3.66324e+08,84787.4,-0.00669738,-0.0661877,-0,0.0665257,2844.28,-13338.7,0,13638.5,-84787.4
step02_gravity_refstate-crust.xmf,833,-2.77198e-06,5.12959e-06,0,1.55491e-06,-4.53927e+08,-4.53384e+08,-4.53736e+08,106667,-0.00741131,-0.0808471,-0,0.081186,2513.1,-16522.4,0,16712.4,-106667
step02_gravity_refstate-crust.xmf,834,-1.93952e-06,2.26283e-06,0,9.18464e-07,-2.43303e+08,-2.43015e+08,-2.4317e+08,63006.6,-0.00673462,-0.0522,-0,0.0526326,3310.28,-8853.34,0,9451.96,-63006.6
step02_gravity_refstate-crust.xmf,835,-2.02639e-06,1.97511e-06,0,6.45343e-07,-2.03226e+08,-2.02952e+08,-2.03087e+08,44270.6,-0.00548656,-0.0501851,-0,0.0504841,2638.94,-7393.51,0,7850.35,-44270.6
step02_gravity_refstate-crust.xmf,836,-2.02965e-06,2.66284e-06,0,7.75126e-07,-2.77448e+08,-2.77126e+08,-2.77309e+08,53173.6,-0.00508111,-0.0566963,-0,0.0569236,2434.03,-10096.7,0,10385.9,-53173.6
step02_gravity_refstate-crust.xmf,837,-2.2007e-06,3.42816e-06,0,9.13054e-07,-3.41719e+08,-3.41333e+08,-3.41568e+08,62635.5,-0.00511956,-0.0640578,-0,0.0642621,2255.41,-12437,0,12639.9,-62635.5
step02_gravity_refstate-crust.xmf,838,-2.16456e-06,1.73969e-06,0,3.8251e-07,-1.64719e+08,-1.64452e+08,-1.64571e+08,26240.2,-0.00399075,-0.0485144,-0,0.0486783,1825.64,-5990.71,0,6262.71,-26240.2
step02_gravity_refstate-crust.xmf,839,-6.07321e-06,1.17434e-05,0,1.81594e-06,-6.41884e+08,-6.40662e+08,-6.41468e+08,124574,-0.0058608,-0.138779,-0,0.138903,945.302,-23362.1,0,23381.2,-124574
step02_gravity_refstate-crust.xmf,840,-8.28725e-06,1.65882e-05,0,4.48041e-06,-7.14053e+08,-7.12347e+08,-7.13485e+08,307356,-0.0107817,-0.174216,-0,0.174549,1202.02,-25988,0,26015.8,-307356
step02_gravity_refstate-crust.xmf,841,-7.93715e-06,1.55175e-05,0,3.02705e-06,-6.97172e+08,-6.95563e+08,-6.96628e+08,207655,-0.00774527,-0.165925,-0,0.166106,938.317,-25373.2,0,25390.5,-207655
step02_gravity_refstate-crust.xmf,842,-9.65035e-06,1.9008e-05,0,3.88579e-06,-7.29152e+08,-7.27186e+08,-7.2849e+08,266565,-0.00844748,-0.186378,-0,0.186569,838.998,-26535.9,0,26549.2,-266565
step02_gravity_refstate-crust.xmf,843,-1.30448e-05,2.61632e-05,0,5.19166e-06,-7.69005e+08,-7.66316e+08,-7.68111e+08,356148,-0.00836564,-0.219997,-0,0.220156,616.334,-27984.1,0,27990.9,-356148
step02_gravity_refstate-crust.xmf,844,-3.73765e-06,7.12193e-06,0,1.36223e-06,-5.28814e+08,-5.28069e+08,-5.28557e+08,93449.2,-0.00572854,-0.0997861,-0,0.0999504,1488.72,-19247.9,0,19305.4,-93449.2
step02_gravity_refstate-crust.xmf,845,-5.34134e-06,1.046e-05,0,2.18232e-06,-6.21175e+08,-6.20091e+08,-6.20808e+08,149707,-0.0075245,-0.12916,-0,0.129379,1350.61,-22609.1,0,22649.4,-149707
step02_gravity_refstate-crust.xmf,846,-4.67793e-06,9.2324e-06,0,2.39837e-06,-5.9839e+08,-5.97435e+08,-5.98069e+08,164528,-0.00882261,-0.119515,-0,0.11984,1770.48,-21780.3,0,21852.2,-164528
step02_gravity_refstate-crust.xmf,847,-2.23769e-06,3.94229e-06,0,2.82879e-05,-8.99486e+08,-8.99062e+08,-8.99332e+08,1.94055e+06,-0.0035955,-0.29121,-0,0.291232,1421.18,-32743.7,0,32774.6,-1.94055e+06
step02_gravity_refstate-crust.xmf,848,-6.97549e-07,6.49805e-07,0,2.8453e-05,-9.13371e+08,-9.13279e+08,-9.13323e+08,1.95188e+06,-0.00123784,-0.29109,-0,0.291092,1441.99,-33250.4,0,33281.6,-1.95188e+06
step02_gravity_refstate-crust.xmf,849,-1.64527e-05,3.45665e-05,0,5.99169e-06,-7.95444e+08,-7.91944e+08,-7.94315e+08,411030,-0.00743678,-0.250135,-0,0.250245,442.924,-28945.9,0,28949.3,-411030
step02_gravity_refstate-crust.xmf,850,-1.81287e-05,4.09462e-05,0,5.28766e-06,-8.11631e+08,-8.07578e+08,-8.10387e+08,362734,-0.00588702,-0.273402,-0,0.273466,324.398,-29538.3,0,29540.1,-362734
step02_gravity_refstate-crust.xmf,851,-1.71646e-05,4.45117e-05,0,9.13882e-06,-8.24054e+08,-8.19823e+08,-8.22877e+08,626923,-0.00886801,-0.290486,-0,0.290622,499.828,-30000,0,30004.2,-626923
step02_gravity_refstate-crust.xmf,852,-1.16092e-05,2.33214e-05,0,2.7279e-05,-8.38084e+08,-8.35688e+08,-8.37288e+08,1.87134e+06,-0.0116997,-0.288361,-0,0.288599,1000,-30500.4,0,30516.8,-1.87134e+06
step02_gravity_refstate-crust.xmf,853,7.81032e-07,-2.64334e-06,0,2.85988e-05,-9.27344e+08,-9.27579e+08,-9.27398e+08,1.96187e+06,0.00113155,-0.290328,0,0.29033,1446.03,-33760,0,33790.9,-1.96187e+06
step02_gravity_refstate-crust.xmf,854,2.21562e-06,-5.88116e-06,0,2.86012e-05,-9.41172e+08,-9.41727e+08,-9.41324e+08,1.96204e+06,0.0034397,-0.288319,0,0.28834,1443.85,-34264.2,0,34294.6,-1.96204e+06
step02_gravity_refstate-crust.xmf,855,3.63523e-06,-9.12602e-06,0,2.84458e-05,-9.54926e+08,-9.55802e+08,-9.55176e+08,1.95138e+06,0.00569709,-0.284957,0,0.285014,1437.61,-34765.6,0,34795.3,-1.95138e+06
step02_gravity_refstate-crust.xmf,856,-3.82032e-07,-1.12841e-06,0,3.73936e-06,-9.55064e+08,-9.55115e+08,-9.55038e+08,256520,0.011859,-0.0666044,0,0.0676519,9067.33,-34766.8,0,35929.7,-256520
step02_gravity_refstate-crust.xmf,857,-3.13487e-07,-1.42875e-06,0,4.24756e-06,-9.53373e+08,-9.5345e+08,-9.53352e+08,291382,0.011792,-0.0770246,0,0.077922,8291.6,-34705,0,35681.8,-291382
step02_gravity_refstate-crust.xmf,858,4.5107e-07,-3.24687e-06,0,8.52303e-06,-9.47397e+08,-9.47651e+08,-9.47428e+08,584680,0.010359,-0.134693,0,0.13509,5234.2,-34487.7,0,34882.7,-584680
step02_gravity_refstate-crust.xmf,859,-2.07602e-07,-1.80147e-06,0,4.93914e-06,-9.51937e+08,-9.52047e+08,-9.51923e+08,338825,0.0116882,-0.0892137,0,0.0899761,7489.1,-34652.6,0,35452.6,-338825
step02_gravity_refstate-crust.xmf,860,1.72267e-07,-2.72567e-06,0,7.0164e-06,-9.49032e+08,-9.49231e+08,-9.49044e+08,481325,0.011027,-0.117968,0,0.118483,5951.88,-34546.9,0,35055.9,-481325
step02_gravity_refstate-crust.xmf,861,-4.78085e-08,-2.2417e-06,0,5.84945e-06,-9.50589e+08,-9.5074e+08,-9.50586e+08,401273,0.0114703,-0.102926,0,0.103563,6700.63,-34603.5,0,35246.3,-401273
step02_gravity_refstate-crust.xmf,862,4.37657e-06,-1.23111e-05,0,2.07599e-05,-9.78957e+08,-9.80102e+08,-9.79258e+08,1.42413e+06,0.0139651,-0.230123,0,0.230547,2265.27,-35638.6,0,35710.5,-1.42413e+06
step02_gravity_refstate-crust.xmf,863,1.56486e-06,-6.16682e-06,0,1.43704e-05,-9.56748e+08,-9.57279e+08,-9.56856e+08,985807,0.0115067,-0.186013,0,0.186368,3486.71,-34828.2,0,35002.3,-985807
step02_gravity_refstate-crust.xmf,864,2.26909e-06,-8.21222e-06,0,1.59906e-05,-9.67825e+08,-9.68544e+08,-9.67981e+08,1.09696e+06,0.0138498,-0.19755,0,0.198035,3108.7,-35231.1,0,35368,-1.09696e+06
step02_gravity_refstate-crust.xmf,865,9.82396e-07,-5.36979e-06,0,1.16966e-05,-9.60643e+08,-9.61079e+08,-9.60711e+08,802389,0.0134261,-0.16331,0,0.163861,4134.09,-34968.8,0,35212.4,-802389
step02_gravity_refstate-crust.xmf,866,-4.1462e-07,-8.94398e-07,0,3.36927e-06,-9.56164e+08,-9.56197e+08,-9.56136e+08,231132,0.0117885,-0.0582175,0,0.059399,9763.82,-34807.1,0,36150.6,-231132
step02_gravity_refstate-crust.xmf,867,-2.84164e-07,1.78156e-07,0,1.79571e-06,-9.62325e+08,-9.62293e+08,-9.62305e+08,123185,0.0105323,-0.00975421,0,0.0143553,15609.6,-35033.5,0,38353.7,-123185
step02_gravity_refstate-crust.xmf,868,-9.14712e-08,6.15563e-07,0,1.09994e-06,-9.26096e+08,-9.26048e+08,-9.2609e+08,75456,0.00695877,0.0163963,0,0.0178118,20826.8,-33716,0,39629.9,-75456
step02_gravity_refstate-crust.xmf,869,-2.9356e-07,1.04302e-06,0,7.45245e-07,-9.39757e+08,-9.39666e+08,-9.39737e+08,51123.8,0.00680428,0.0309611,0,0.0317,25399.9,-34213.2,0,42611,-51123.8
step02_gravity_refstate-crust.xmf,870,-1.67193e-07,7.6747e-07,0,9.74913e-07,-9.32088e+08,-9.32024e+08,-9.32077e+08,66879,0.00712951,0.0217688,0,0.0229066,22310.6,-33934.1,0,40611.4,-66879
step02_gravity_refstate-crust.xmf,871,-2.32966e-07,9.09758e-07,0,8.56307e-07,-9.36425e+08,-9.36347e+08,-9.36409e+08,58742.7,0.00705601,0.0266323,0,0.0275512,23840,-34092,0,41600.5,-58742.7
step02_gravity_refstate-crust.xmf,872,-1.50958e-07,4.65634e-07,0,1.3282e-06,-9.44617e+08,-9.44575e+08,-9.44606e+08,91114.6,0.00847288,0.00684321,0,0.0108912,18693,-34389.8,0,39141.9,-91114.6
step02_gravity_refstate-crust.xmf,873,-4.52227e-07,1.22433e-06,0,6.94475e-07,-9.82919e+08,-9.82804e+08,-9.82888e+08,47641,0.00818759,0.0311149,0,0.0321741,26170.3,-35784.2,0,44332.8,-47641
step02_gravity_refstate-crust.xmf,874,-6.3253e-07,1.60536e-06,0,3.95602e-07,-1.00609e+09,-1.00594e+09,-1.00605e+09,27138.3,0.00610754,0.0390671,0,0.0395416,31175.8,-36627.7,0,48099.1,-27138.3
step02_gravity_refstate-crust.xmf,875,-5.81627e-07,1.4761e-06,0,5.13625e-07,-1.00313e+09,-1.00299e+09,-1.00309e+09,35234.7,0.00730502,0.0360157,0,0.036749,29070.2,-36520.1,0,46677.5,-35234.7
step02_gravity_refstate-crust.xmf,876,-3.12672e-06,5.82583e-06,0,1.2846e-06,-4.79235e+08,-4.78621e+08,-4.7902e+08,88123.5,-0.00592215,-0.0874475,-0,0.0876478,1831.02,-17443.4,0,17539.2,-88123.5
step02_gravity_refstate-crust.xmf,877,-2.66898e-06,4.75016e-06,0,1.08028e-06,-4.25041e+08,-4.24532e+08,-4.24858e+08,74107.1,-0.00536544,-0.0768513,-0,0.0770384,1949.07,-15470.6,0,15592.9,-74107.1
step02_gravity_refstate-crust.xmf,878,-2.15275e-06,3.09739e-06,0,5.96212e-07,-3.10834e+08,-3.10474e+08,-3.10686e+08,40900.1,-0.00353836,-0.0612124,-0,0.0613146,1622.68,-11312.3,0,11428.1,-40900.1
step02_gravity_refstate-crust.xmf,879,-3.49108e-06,1.32517e-06,0,1.34185e-08,-331608,-1213.61,-92120.3,920.51,-0.0106281,-0.0387796,-0,0.0402096,2969.28,0,0,2969.28,-920.51
step02_gravity_refstate-crust.xmf,880,-3.00173e-06,1.30471e-06,0,1.19741e-07,-4.33222e+07,-4.30267e+07,-4.31162e+07,8214.23,-0.00601222,-0.0418897,-0,0.042319,1983.78,-1567.06,0,2528.06,-8214.23
step02_gravity_refstate-crust.xmf,881,-2.32167e-06,1.57637e-06,0,1.77664e-07,-1.32865e+08,-1.32598e+08,-1.32706e+08,12187.7,-0.00239435,-0.0471577,-0,0.0472185,1028.77,-4830.14,0,4938.48,-12187.7
step02_gravity_refstate-crust.xmf,882,-2.59705e-06,1.4075e-06,0,1.38267e-07,-9.00164e+07,-8.97417e+07,-8.98383e+07,9485.13,-0.00258509,-0.0448564,-0,0.0449308,994.051,-3268.81,0,3416.61,-9485.13
step02_gravity_refstate-crust.xmf,883,-1.11927e-05,2.17796e-05,0,2.75785e-06,-7.43786e+08,-7.41524e+08,-7.43018e+08,189188,-0.00542109,-0.199108,-0,0.199182,479.103,-27066.7,0,27070.9,-189188
step02_gravity_refstate-crust.xmf,884,-7.33696e-06,1.42141e-05,0,2.25896e-06,-6.78561e+08,-6.77082e+08,-6.78057e+08,154965,-0.00619646,-0.156333,-0,0.156456,827.863,-24696,0,24709.9,-154965
step02_gravity_refstate-crust.xmf,885,-6.8265e-06,1.31001e-05,0,1.14163e-06,-6.59926e+08,-6.58559e+08,-6.59458e+08,78316,-0.0033542,-0.147979,-0,0.148017,490.224,-24017.9,0,24022.9,-78316
step02_gravity_refstate-crust.xmf,886,-1.50542e-05,3.00722e-05,0,2.30978e-06,-7.79115e+08,-7.76019e+08,-7.78082e+08,158451,-0.00342065,-0.232707,-0,0.232732,227.527,-28350.1,0,28351,-158451
step02_gravity_refstate-crust.xmf,887,-1.31531e-05,2.56842e-05,0,1.16641e-06,-7.60741e+08,-7.58076e+08,-7.59838e+08,80015.4,-0.00188784,-0.214636,-0,0.214644,145.197,-27682.1,0,27682.5,-80015.4
step02_gravity_refstate-crust.xmf,888,-3.4976e-06,6.53059e-06,0,9.11934e-07,-5.03097e+08,-5.02409e+08,-5.02857e+08,62558.7,-0.00404253,-0.0940226,-0,0.0941095,1141.89,-18311.7,0,18347.3,-62558.7
step02_gravity_refstate-crust.xmf,889,-5.6766e-06,1.08975e-05,0,1.10778e-06,-6.23565e+08,-6.22428e+08,-6.23176e+08,75994,-0.00379536,-0.13189,-0,0.131945,662.366,-22695.4,0,22705.1,-75994
step02_gravity_refstate-crust.xmf,890,-4.46268e-06,8.5886e-06,0,1.55888e-06,-5.74476e+08,-5.73581e+08,-5.7417e+08,106939,-0.00597643,-0.113211,-0,0.113368,1302.7,-20909.6,0,20950.2,-106939
step02_gravity_refstate-crust.xmf,891,-4.16467e-06,7.90624e-06,0,9.09477e-07,-5.4967e+08,-5.48842e+08,-5.49385e+08,62390.1,-0.00365509,-0.106593,-0,0.106655,870.122,-20006.7,0,20025.6,-62390.1
step02_gravity_refstate-crust.xmf,892,-5.31257e-06,1.00927e-05,0,3.13687e-05,-8.79171e+08,-8.78114e+08,-8.78807e+08,2.15189e+06,-0.00515124,-0.312943,-0,0.312985,1000,-32001.2,0,32016.9,-2.15189e+06
step02_gravity_refstate-crust.xmf,893,-3.51446e-06,6.35895e-06,0,3.19694e-05,-8.92853e+08,-8.92176e+08,-8.92612e+08,2.1931e+06,-0.00339216,-0.317053,-0,0.317071,1000,-32500.8,0,32516.2,-2.1931e+06
step02_gravity_refstate-crust.xmf,894,-9.35322e-06,1.83814e-05,0,2.92745e-05,-8.51778e+08,-8.49875e+08,-8.51136e+08,2.00823e+06,-0.0090993,-0.298794,-0,0.298933,1000,-31000.5,0,31016.6,-2.00823e+06
step02_gravity_refstate-crust.xmf,895,-7.37946e-06,1.40592e-05,0,3.06422e-05,-8.65492e+08,-8.64021e+08,-8.64986e+08,2.10206e+06,-0.00701842,-0.306914,-0,0.306994,1000,-31501,0,31516.9,-2.10206e+06
step02_gravity_refstate-crust.xmf,896,4.99418e-06,-1.23e-05,0,2.81041e-05,-9.68221e+08,-9.69407e+08,-9.68563e+08,1.92794e+06,0.00786352,-0.280095,0,0.280205,1432.57,-35250.2,0,35279.3,-1.92794e+06
step02_gravity_refstate-crust.xmf,897,5.12254e-06,-1.32264e-05,0,2.47915e-05,-9.76026e+08,-9.77285e+08,-9.76378e+08,1.7007e+06,0.0110217,-0.256637,0,0.256874,1775.26,-35533.5,0,35577.8,-1.7007e+06
step02_gravity_refstate-crust.xmf,898,3.07873e-06,-1.02455e-05,0,1.75066e-05,-9.76675e+08,-9.77589e+08,-9.76886e+08,1.20095e+06,0.0152957,-0.207943,0,0.208505,2780.94,-35553.4,0,35662,-1.20095e+06
step02_gravity_refstate-crust.xmf,899,3.85964e-07,-4.55007e-06,0,9.42327e-06,-9.63503e+08,-9.63842e+08,-9.6353e+08,646437,0.0146822,-0.143093,0,0.143844,4819.94,-35071.8,0,35401.5,-646437
step02_gravity_refstate-crust.xmf,900,-7.90272e-07,-1.00215e-06,0,3.69096e-06,-9.753e+08,-9.75315e+08,-9.75246e+08,253200,0.0150335,-0.060579,0,0.0624165,9500.9,-35502,0,36751.3,-253200
step02_gravity_refstate-crust.xmf,901,-6.53561e-07,-6.97317e-07,0,3.18803e-06,-9.70232e+08,-9.70235e+08,-9.70187e+08,218699,0.0136324,-0.0504007,0,0.0522118,10446.1,-35318.5,0,36830.9,-218699
step02_gravity_refstate-crust.xmf,902,-6.45057e-07,-4.43111e-07,0,2.85419e-06,-9.7522e+08,-9.75206e+08,-9.75176e+08,195797,0.0136463,-0.0402635,0,0.0425132,11482.5,-35500.6,0,37311.4,-195797
step02_gravity_refstate-crust.xmf,903,-6.01275e-07,-2.34572e-07,0,2.56337e-06,-9.78168e+08,-9.78143e+08,-9.78127e+08,175847,0.0133658,-0.0313963,0,0.0341229,12512.6,-35608.4,0,37742.8,-175847
step02_gravity_refstate-crust.xmf,904,-5.66548e-07,-3.16648e-08,0,2.30197e-06,-9.84676e+08,-9.84639e+08,-9.84637e+08,157915,0.0133223,-0.0221409,0,0.02584,13728.8,-35845.8,0,38384.9,-157915
step02_gravity_refstate-crust.xmf,905,-5.20029e-07,1.39088e-07,0,2.06332e-06,-9.88453e+08,-9.88408e+08,-9.88417e+08,141544,0.0130202,-0.0142083,0,0.0192718,14913.3,-35983.7,0,38951.7,-141544
step02_gravity_refstate-crust.xmf,906,-2.84098e-07,3.23519e-07,0,1.62124e-06,-9.65449e+08,-9.65408e+08,-9.6543e+08,111217,0.0104543,-0.00293906,0,0.0108595,16806.7,-35147.5,0,38959.1,-111217
step02_gravity_refstate-crust.xmf,907,-2.18334e-07,6.16293e-07,0,1.20481e-06,-9.53901e+08,-9.53843e+08,-9.53886e+08,82650.1,0.00887163,0.012265,0,0.0151373,19963.6,-34727.8,0,40057,-82650.1
step02_gravity_refstate-crust.xmf,908,-3.02642e-07,4.65159e-07,0,1.46214e-06,-9.68914e+08,-9.68861e+08,-9.68893e+08,100303,0.0103597,0.003278,0,0.0108659,18029.9,-35273.8,0,39614.6,-100303
step02_gravity_refstate-crust.xmf,909,-5.73158e-07,1.39595e-06,0,6.21699e-07,-1.01579e+09,-1.01565e+09,-1.01575e+09,42648.6,0.00858019,0.032283,0,0.0334037,27422.1,-36980.7,0,46038.5,-42648.6
step02_gravity_refstate-crust.xmf,910,-7.48319e-07,1.78067e-06,0,3.41847e-07,-1.0514e+09,-1.05122e+09,-1.05135e+09,23450.7,0.00618343,0.0375301,0,0.0380361,32208.3,-38276.9,0,50024.9,-23450.7
step02_gravity_refstate-crust.xmf,911,-2.37395e-06,3.88947e-06,0,7.325e-07,-3.69191e+08,-3.68762e+08,-3.69028e+08,50249.5,-0.00393826,-0.0685857,-0,0.0686987,1631.23,-13437.2,0,13535.8,-50249.5
step02_gravity_refstate-crust.xmf,912,-2.95492e-06,5.34108e-06,0,8.27027e-07,-4.51437e+08,-4.50868e+08,-4.51235e+08,56734,-0.00391443,-0.0826845,-0,0.0827771,1306.45,-16431.3,0,16483.2,-56734
step02_gravity_refstate-crust.xmf,913,-2.56898e-06,4.39089e-06,0,6.11443e-07,-3.98307e+08,-3.97829e+08,-3.9813e+08,41945,-0.00316136,-0.0734242,-0,0.0734922,1218.57,-14497.2,0,14548.3,-41945
step02_gravity_refstate-crust.xmf,914,-2.04871e-06,2.3319e-06,0,4.86972e-07,-2.39747e+08,-2.39446e+08,-2.39606e+08,33406.3,-0.00361281,-0.0541053,-0,0.0542258,1744.8,-8723.54,0,8896.31,-33406.3
step02_gravity_refstate-crust.xmf,915,-2.21427e-06,1.74517e-06,0,4.79166e-08,-1.6087e+08,-1.60599e+08,-1.60719e+08,3287.08,-0.000467101,-0.049099,-0,0.0491012,211.295,-5850.39,0,5854.21,-3287.08
step02_gravity_refstate-crust.xmf,916,-2.10707e-06,2.01107e-06,0,2.30478e-07,-1.99556e+08,-1.99274e+08,-1.99412e+08,15810.8,-0.00196051,-0.051527,-0,0.0515643,929.143,-7259.63,0,7318.85,-15810.8
step02_gravity_refstate-crust.xmf,917,-2.10871e-06,2.73329e-06,0,3.22165e-07,-2.76513e+08,-2.76181e+08,-2.76368e+08,22100.5,-0.00213727,-0.0580763,-0,0.0581156,1011.7,-10062.4,0,10113.2,-22100.5
step02_gravity_refstate-crust.xmf,918,-2.29529e-06,3.5353e-06,0,3.57372e-07,-3.41218e+08,-3.40818e+08,-3.41061e+08,24515.7,-0.00198261,-0.0655138,-0,0.0655438,862.096,-12418.6,0,12448.5,-24515.7
step02_gravity_refstate-crust.xmf,919,-6.1943e-06,1.18628e-05,0,2.03014e-07,-6.38237e+08,-6.36998e+08,-6.37812e+08,13926.8,-0.000718421,-0.138545,-0,0.138547,116.475,-23229,0,23229.3,-13926.8
step02_gravity_refstate-crust.xmf,920,-9.13228e-06,1.76204e-05,0,2.05591e-06,-7.13258e+08,-7.11423e+08,-7.12632e+08,141035,-0.0048899,-0.177261,-0,0.177329,530.195,-25957.2,0,25962.6,-141035
step02_gravity_refstate-crust.xmf,921,-8.37371e-06,1.60719e-05,0,9.39145e-07,-6.95922e+08,-6.94245e+08,-6.95348e+08,64425.4,-0.00234725,-0.16725,-0,0.167266,280.972,-25326.8,0,25328.3,-64425.4
step02_gravity_refstate-crust.xmf,922,-1.03623e-05,1.98611e-05,0,6.9172e-07,-7.28987e+08,-7.26913e+08,-7.28276e+08,47452,-0.00157596,-0.188822,-0,0.188829,153.097,-26528.3,0,26528.8,-47452
step02_gravity_refstate-crust.xmf,923,-3.85689e-06,7.23977e-06,0,4.30283e-07,-5.25427e+08,-5.24666e+08,-5.25162e+08,29517.4,-0.00179755,-0.100339,-0,0.100355,466.185,-19124.3,0,19130,-29517.4
step02_gravity_refstate-crust.xmf,924,-5.11996e-06,9.78419e-06,0,1.07366e-06,-6.00008e+08,-5.98986e+08,-5.99657e+08,73653.3,-0.00394193,-0.12286,-0,0.122924,764.941,-21838.3,0,21851.7,-73653.3
step02_gravity_refstate-crust.xmf,925,-1.79049e-06,2.76737e-06,0,3.23767e-05,-9.06528e+08,-9.06215e+08,-9.06405e+08,2.22104e+06,-0.0016984,-0.319332,-0,0.319337,1000,-33000.1,0,33015.2,-2.22104e+06
step02_gravity_refstate-crust.xmf,926,-1.20123e-07,-7.46903e-07,0,3.26122e-05,-9.20221e+08,-9.20264e+08,-9.20212e+08,2.2372e+06,-4.69488e-05,-0.319839,-0,0.319839,1000,-33499.9,0,33514.8,-2.2372e+06
step02_gravity_refstate-crust.xmf,927,-1.82922e-05,4.61935e-05,0,-1.26463e-09,-8.24108e+08,-8.19684e+08,-8.22853e+08,-86.7537,1.85571e-06,-0.295201,0,0.295201,-1.02887e-10,-30000,-0,30000,-86.7537
step02_gravity_refstate-crust.xmf,928,-1.78469e-05,3.77126e-05,0,-3.31298e-07,-8.02682e+08,-7.9887e+08,-8.01457e+08,-22727.1,0.000219829,-0.262071,0,0.262071,-11.8801,-29208.6,-0,29208.6,-22727.1
step02_gravity_refstate-crust.xmf,929,-1.64834e-05,3.36596e-05,0,-1.84499e-06,-7.90072e+08,-7.86632e+08,-7.88941e+08,-126567,0.0023236,-0.245517,0,0.245528,-141.344,-28748.8,-0,28749.1,-126567
step02_gravity_refstate-crust.xmf,930,1.5217e-06,-4.23021e-06,0,3.26906e-05,-9.33932e+08,-9.34327e+08,-9.34037e+08,2.24258e+06,0.00157777,-0.318594,0,0.318598,1000,-34000.3,0,34015,-2.24258e+06
step02_gravity_refstate-crust.xmf,931,3.13903e-06,-7.70974e-06,0,3.26162e-05,-9.47646e+08,-9.4839e+08,-9.47861e+08,2.23747e+06,0.00318628,-0.315607,0,0.315623,1000,-34500.8,0,34515.3,-2.23747e+06
step02_gravity_refstate-crust.xmf,932,4.6912e-06,-1.12136e-05,0,3.23636e-05,-9.61351e+08,-9.62442e+08,-9.61673e+08,2.22014e+06,0.00478795,-0.310878,0,0.310915,1000,-35000.6,0,35014.9,-2.22014e+06
step02_gravity_refstate-crust.xmf,933,6.39388e-06,-1.56219e-05,0,2.76891e-05,-9.81894e+08,-9.83404e+08,-9.82332e+08,1.89947e+06,0.00999669,-0.27438,0,0.274562,1412.29,-35748.5,0,35776.4,-1.89947e+06
step02_gravity_refstate-crust.xmf,934,6.35283e-06,-1.47865e-05,0,3.20185e-05,-9.75032e+08,-9.76483e+08,-9.75468e+08,2.19647e+06,0.00639404,-0.304388,0,0.304455,1000,-35499.8,0,35513.9,-2.19647e+06
step02_gravity_refstate-crust.xmf,935,5.9193e-06,-1.55941e-05,0,2.35472e-05,-9.87696e+08,-9.89172e+08,-9.88103e+08,1.61533e+06,0.0136835,-0.247353,0,0.247731,1834.1,-35957.9,0,36004.6,-1.61533e+06
step02_gravity_refstate-crust.xmf,936,-7.90189e-07,-1.3471e-06,0,4.17449e-06,-9.7389e+08,-9.73928e+08,-9.73836e+08,286370,0.0154542,-0.0710284,0,0.0726902,8656.27,-35450.2,0,36491.7,-286370
step02_gravity_refstate-crust.xmf,937,-7.35885e-07,-1.76928e-06,0,4.77498e-06,-9.72039e+08,-9.7211e+08,-9.71988e+08,327564,0.0157329,-0.0825552,0,0.084041,7835.07,-35382.3,0,36239.4,-327564
step02_gravity_refstate-crust.xmf,938,-3.82524e-08,-3.63437e-06,0,7.81348e-06,-9.65387e+08,-9.65634e+08,-9.65385e+08,536004,0.0153007,-0.125346,0,0.126277,5532.38,-35140.1,0,35572.9,-536004
step02_gravity_refstate-crust.xmf,939,-6.02603e-07,-2.29479e-06,0,5.55303e-06,-9.69963e+08,-9.70079e+08,-9.69922e+08,380938,0.0158471,-0.095535,0,0.0968404,7026.66,-35306.5,0,35998.9,-380938
step02_gravity_refstate-crust.xmf,940,-3.62719e-07,-2.90492e-06,0,6.53931e-06,-9.67245e+08,-9.6742e+08,-9.6722e+08,448597,0.0156051,-0.10976,0,0.110863,6261.11,-35207.6,0,35759.9,-448597
step02_gravity_refstate-crust.xmf,941,3.45322e-06,-1.23916e-05,0,1.668e-05,-9.90943e+08,-9.9203e+08,-9.9118e+08,1.14425e+06,0.0187757,-0.202832,0,0.2037,2763.44,-36071.1,0,36176.8,-1.14425e+06
step02_gravity_refstate-crust.xmf,942,2.30964e-06,-9.37034e-06,0,1.49149e-05,-9.8043e+08,-9.81231e+08,-9.80589e+08,1.02316e+06,0.0174371,-0.189041,0,0.189844,3226.39,-35688.4,0,35833.9,-1.02316e+06
step02_gravity_refstate-crust.xmf,943,1.49418e-06,-7.54064e-06,0,1.30507e-05,-9.76046e+08,-9.76666e+08,-9.76148e+08,895280,0.017144,-0.173937,0,0.17478,3693.99,-35528.3,0,35719.8,-895280
step02_gravity_refstate-crust.xmf,944,5.49628e-07,-6.04858e-06,0,1.04847e-05,-9.78739e+08,-9.79192e+08,-9.78777e+08,719253,0.0185394,-0.151296,0,0.152428,4412.94,-35624.8,0,35897.1,-719253
step02_gravity_refstate-crust.xmf,945,-4.6567e-07,2.88007e-07,0,1.85191e-06,-9.92085e+08,-9.92033e+08,-9.92053e+08,127041,0.0127197,-0.00715576,0,0.0145944,16098,-36116.4,0,39541.6,-127041
step02_gravity_refstate-crust.xmf,946,-2.88498e-07,7.72817e-07,0,1.07914e-06,-9.63411e+08,-9.63339e+08,-9.63392e+08,74029.2,0.00908246,0.0175074,0,0.0197231,21364.8,-35074,0,41068.7,-74029.2
step02_gravity_refstate-crust.xmf,947,-4.07573e-07,1.08171e-06,0,8.19335e-07,-9.78602e+08,-9.78499e+08,-9.78574e+08,56206.4,0.00872866,0.0270643,0,0.028437,24514.6,-35627,0,43246.4,-56206.4
step02_gravity_refstate-crust.xmf,948,-3.49666e-07,9.3097e-07,0,9.45958e-07,-9.71747e+08,-9.71659e+08,-9.71723e+08,64892.7,0.0090197,0.0225846,0,0.0243191,22922.1,-35377.4,0,42154.3,-64892.7
step02_gravity_refstate-crust.xmf,949,-3.12787e-07,5.83125e-07,0,1.33095e-06,-9.71912e+08,-9.7185e+08,-9.7189e+08,91302.9,0.0102345,0.00826197,0,0.0131532,19120.3,-35383.1,0,40218.7,-91302.9
step02_gravity_refstate-crust.xmf,950,-5.29725e-07,1.23884e-06,0,7.84999e-07,-1.02062e+09,-1.0205e+09,-1.02059e+09,53851,0.0099296,0.0271402,0,0.0288996,25222.1,-37156.5,0,44908.4,-53851
step02_gravity_refstate-crust.xmf,951,-7.09747e-07,1.67102e-06,0,4.52802e-07,-1.05235e+09,-1.05218e+09,-1.0523e+09,31062.2,0.00765645,0.0349554,0,0.0357841,30192.5,-38311.5,0,48778.6,-31062.2
step02_gravity_refstate-crust.xmf,952,-6.72744e-07,1.55145e-06,0,5.72626e-07,-1.05514e+09,-1.05499e+09,-1.05509e+09,39282.1,0.0089958,0.0318479,0,0.033094,28317,-38413,0,47722.3,-39282.1
step02_gravity_refstate-crust.xmf,953,-3.25255e-06,5.94976e-06,0,4.59979e-07,-4.76185e+08,-4.75554e+08,-4.75962e+08,31554.6,-0.00213767,-0.0884428,-0,0.0884686,656.542,-17332.1,0,17344.5,-31554.6
step02_gravity_refstate-crust.xmf,954,-2.78683e-06,4.88791e-06,0,4.13798e-07,-4.24808e+08,-4.24282e+08,-4.24617e+08,28386.6,-0.00206207,-0.0782946,-0,0.0783218,738.588,-15461.9,0,15479.5,-28386.6
step02_gravity_refstate-crust.xmf,955,-2.39458e-06,1.52077e-06,0,-8.08312e-08,-1.21957e+08,-1.21688e+08,-1.21792e+08,-5545.02,0.00100961,-0.0467523,0,0.0467632,-422.446,-4432.62,-0,4452.71,-5545.02
step02_gravity_refstate-crust.xmf,956,-2.19601e-06,3.12937e-06,0,7.8979e-08,-3.0867e+08,-3.08305e+08,-3.0852e+08,5417.96,-0.000452987,-0.0618084,-0,0.0618101,206.775,-11233.4,0,11235.3,-5417.96
step02_gravity_refstate-crust.xmf,957,-3.62397e-06,1.37618e-06,0,1.16818e-08,-344208,-1197.42,-95603.2,801.372,-0.00358566,-0.040451,-0,0.0406096,989.347,0,0,989.347,-801.372
step02_gravity_refstate-crust.xmf,958,-3.04527e-06,1.32705e-06,0,-1.61391e-08,-4.47015e+07,-4.44015e+07,-4.44926e+07,-1107.14,9.46588e-05,-0.0428383,0,0.0428384,-31.596,-1617.14,-0,1617.44,-1107.14
step02_gravity_refstate-crust.xmf,959,-1.15233e-05,2.21029e-05,0,-1.29061e-06,-7.44159e+08,-7.41852e+08,-7.43368e+08,-88535.8,0.00231629,-0.200287,0,0.2003,-202.618,-27079.5,-0,27080.2,-88535.8
step02_gravity_refstate-crust.xmf,960,-7.61673e-06,1.45954e-05,0,6.60019e-09,-6.78248e+08,-6.76725e+08,-6.77726e+08,452.773,8.21018e-06,-0.157632,0,0.157632,-1.1466,-24684.1,-0,24684.1,-452.773
step02_gravity_refstate-crust.xmf,961,-6.87684e-06,1.31931e-05,0,-7.25909e-07,-6.59933e+08,-6.58557e+08,-6.59462e+08,-49797.4,0.00217157,-0.148234,0,0.14825,-316.809,-24018.1,-0,24020.2,-49797.4
step02_gravity_refstate-crust.xmf,962,-1.43052e-05,2.85925e-05,0,-3.2547e-06,-7.74399e+08,-7.71456e+08,-7.73418e+08,-223272,0.00478443,-0.227269,0,0.227319,-332.13,-28179.2,-0,28181.1,-223272
step02_gravity_refstate-crust.xmf,963,-3.5468e-06,6.55911e-06,0,2.09516e-08,-5.00131e+08,-4.99438e+08,-4.99888e+08,1437.28,-0.000130056,-0.0941444,-0,0.0941445,36.7686,-18203.6,0,18203.6,-1437.28
step02_gravity_refstate-crust.xmf,964,-5.5506e-06,1.05827e-05,0,1.22394e-07,-6.15144e+08,-6.14037e+08,-6.14763e+08,8396.19,-0.000473361,-0.129151,-0,0.129152,85.6578,-22388.9,0,22389,-8396.19
step02_gravity_refstate-crust.xmf,965,-4.62458e-06,8.78358e-06,0,3.83523e-07,-5.72173e+08,-5.71253e+08,-5.71856e+08,26309.7,-0.0014674,-0.113979,-0,0.113989,317.906,-20825.4,0,20827.9,-26309.7
step02_gravity_refstate-crust.xmf,966,-4.20386e-06,7.93809e-06,0,-1.23446e-07,-5.47427e+08,-5.46595e+08,-5.47139e+08,-8468.4,0.00051252,-0.106551,0,0.106552,-122.367,-19924.9,-0,19925.3,-8468.4
step02_gravity_refstate-crust.xmf,967,-1.82583e-05,4.15101e-05,0,-3.82811e-06,-8.12776e+08,-8.08676e+08,-8.11523e+08,-262608,0.00432928,-0.275903,0,0.275937,-237.741,-29580.3,-0,29581.3,-262608
step02_gravity_refstate-crust.xmf,968,8.00337e-06,-1.84904e-05,0,3.14961e-05,-9.8873e+08,-9.90547e+08,-9.89279e+08,2.16064e+06,0.00802173,-0.296078,0,0.296187,1000,-35999.4,0,36013.3,-2.16064e+06
step02_gravity_refstate-crust.xmf,969,5.06396e-06,-1.48671e-05,0,2.00432e-05,-9.92717e+08,-9.94084e+08,-9.93065e+08,1.37496e+06,0.0169635,-0.224809,0,0.225448,2233.95,-36138.3,0,36207.3,-1.37496e+06
step02_gravity_refstate-crust.xmf,970,-1.62203e-07,-4.86419e-06,0,8.61427e-06,-9.81273e+08,-9.81596e+08,-9.81262e+08,590939,0.019282,-0.132814,0,0.134206,5108.27,-35716,0,36079.5,-590939
step02_gravity_refstate-crust.xmf,971,-1.14909e-06,-1.25976e-06,0,4.22335e-06,-9.94902e+08,-9.94909e+08,-9.94823e+08,289722,0.0182597,-0.065251,0,0.0677578,9037.22,-36213.8,0,37324.4,-289722
step02_gravity_refstate-crust.xmf,972,-1.07753e-06,-9.006e-07,0,3.75098e-06,-9.96558e+08,-9.96545e+08,-9.96484e+08,257317,0.0174875,-0.0549554,0,0.0576707,9939.79,-36274.9,0,37612.1,-257317
step02_gravity_refstate-crust.xmf,973,-9.78533e-07,-6.05163e-07,0,3.33357e-06,-9.97859e+08,-9.97834e+08,-9.97792e+08,228683,0.0166812,-0.0453103,0,0.0482834,10893.2,-36323.2,0,37921.4,-228683
step02_gravity_refstate-crust.xmf,974,-8.87456e-07,-3.67484e-07,0,3.00017e-06,-1.00162e+09,-1.00158e+09,-1.00156e+09,205812,0.0161403,-0.0362435,0,0.0396749,11896.1,-36460.7,0,38352.3,-205812
step02_gravity_refstate-crust.xmf,975,-7.98468e-07,-1.6163e-07,0,2.70341e-06,-1.00638e+09,-1.00634e+09,-1.00633e+09,185454,0.0156677,-0.0276454,0,0.0317765,12966.4,-36634.9,0,38861.8,-185454
step02_gravity_refstate-crust.xmf,976,-7.14839e-07,2.57907e-08,0,2.43119e-06,-1.01291e+09,-1.01286e+09,-1.01286e+09,166779,0.0152779,-0.0193029,0,0.0246174,14140.2,-36873.1,0,39491.4,-166779
step02_gravity_refstate-crust.xmf,977,-6.39193e-07,1.92707e-07,0,2.17332e-06,-1.0176e+09,-1.01755e+09,-1.01756e+09,149090,0.0148013,-0.0119128,0,0.0189998,15316.2,-37044.6,0,40086,-149090
step02_gravity_refstate-crust.xmf,978,-4.40965e-07,4.38561e-07,0,1.65444e-06,-9.96156e+08,-9.96095e+08,-9.96125e+08,113495,0.0124181,-0.000465333,0,0.0124269,17362.7,-36264.9,0,40207.1,-113495
step02_gravity_refstate-crust.xmf,979,-4.11184e-07,7.342e-07,0,1.25177e-06,-9.93731e+08,-9.93652e+08,-9.93702e+08,85871.7,0.0111067,0.0122897,0,0.0165648,20211.1,-36177.2,0,41440.1,-85871.7
step02_gravity_refstate-crust.xmf,980,-4.45898e-07,5.92462e-07,0,1.46577e-06,-9.99757e+08,-9.99686e+08,-9.99727e+08,100552,0.0120517,0.00579225,0,0.0133714,18696.8,-36396.3,0,40917.7,-100552
step02_gravity_refstate-crust.xmf,981,-6.34725e-07,1.41153e-06,0,7.1342e-07,-1.05817e+09,-1.05803e+09,-1.05813e+09,48940.6,0.0102775,0.0281042,0,0.0299244,26440.3,-38523.4,0,46724.1,-48940.6
step02_gravity_refstate-crust.xmf,982,-2.4678e-06,4.04214e-06,0,7.61345e-08,-3.73314e+08,-3.72867e+08,-3.73144e+08,5222.83,-0.000379951,-0.0701894,-0,0.0701904,154.459,-13587.1,0,13588,-5222.83
step02_gravity_refstate-crust.xmf,983,-3.00923e-06,5.39288e-06,0,9.5545e-08,-4.49109e+08,-4.48533e+08,-4.48903e+08,6554.38,-0.000443283,-0.083083,-0,0.0830842,147.674,-16346.4,0,16347.1,-6554.38
step02_gravity_refstate-crust.xmf,984,-2.6396e-06,4.50894e-06,0,9.07665e-08,-4.0253e+08,-4.02039e+08,-4.02349e+08,6226.58,-0.000471899,-0.0747189,-0,0.0747204,178.933,-14650.8,0,14651.9,-6226.58
step02_gravity_refstate-crust.xmf,985,-2.09066e-06,2.33731e-06,0,3.27127e-08,-2.36233e+08,-2.35929e+08,-2.36089e+08,2244.09,-0.000296093,-0.0546557,-0,0.0546565,142.121,-8595.45,0,8596.63,-2244.09
step02_gravity_refstate-crust.xmf,986,-2.21497e-06,1.6904e-06,0,-2.81416e-07,-1.5426e+08,-1.53992e+08,-1.54108e+08,-19305.1,0.00323483,-0.0481679,0,0.0482764,-1451.94,-5609.64,-0,5794.5,-19305.1
step02_gravity_refstate-crust.xmf,987,-2.11824e-06,1.98485e-06,0,-1.67342e-07,-1.95369e+08,-1.95088e+08,-1.95224e+08,-11479.7,0.00152108,-0.0513147,0,0.0513373,-717.693,-7107.12,-0,7143.27,-11479.7
step02_gravity_refstate-crust.xmf,988,-2.11547e-06,2.71629e-06,0,-1.58022e-07,-2.7355e+08,-2.73219e+08,-2.73405e+08,-10840.3,0.000991319,-0.0580243,0,0.0580328,-469.562,-9954.51,-0,9965.58,-10840.3
step02_gravity_refstate-crust.xmf,989,-2.29753e-06,3.52671e-06,0,-2.32394e-07,-3.39226e+08,-3.38826e+08,-3.39068e+08,-15942.2,0.00131541,-0.0654038,0,0.065417,-573.271,-12346,-0,12359.3,-15942.2
step02_gravity_refstate-crust.xmf,990,-2.66597e-06,1.37775e-06,0,-1.28624e-07,-8.08248e+07,-8.05474e+07,-8.06419e+07,-8823.63,0.00313091,-0.0443005,0,0.044411,-1171.27,-2933.85,-0,3159.01,-8823.63
step02_gravity_refstate-crust.xmf,991,-1.22724e-05,2.44379e-05,0,-4.26142e-06,-7.59162e+08,-7.56643e+08,-7.5832e+08,-292333,0.00725093,-0.211358,0,0.211482,-574.988,-27626.2,-0,27632.2,-292333
step02_gravity_refstate-crust.xmf,992,-6.14081e-06,1.17961e-05,0,-1.4152e-06,-6.4099e+08,-6.39759e+08,-6.40568e+08,-97082.5,0.00445003,-0.138973,0,0.139044,-717.1,-23329.3,-0,23340.3,-97082.5
step02_gravity_refstate-crust.xmf,993,-9.31041e-06,1.77939e-05,0,-6.65912e-07,-7.1278e+08,-7.10921e+08,-7.12142e+08,-45681.6,0.00146262,-0.177749,0,0.177755,-157.875,-25939.4,-0,25939.8,-45681.6
step02_gravity_refstate-crust.xmf,994,-8.27589e-06,1.59672e-05,0,-1.46326e-06,-6.95475e+08,-6.93812e+08,-6.94907e+08,-100380,0.00375042,-0.166672,0,0.166715,-451.522,-25310.7,-0,25314.7,-100380
step02_gravity_refstate-crust.xmf,995,-1.00503e-05,1.93815e-05,0,-2.5585e-06,-7.28554e+08,-7.26535e+08,-7.27865e+08,-175513,0.00536415,-0.187546,0,0.187623,-527.149,-26513.1,-0,26518.3,-175513
step02_gravity_refstate-crust.xmf,996,-3.81814e-06,7.17113e-06,0,-5.0216e-07,-5.23185e+08,-5.22431e+08,-5.22923e+08,-34448.2,0.00213876,-0.0996837,0,0.0997066,-559.595,-19042.7,-0,19050.9,-34448.2
step02_gravity_refstate-crust.xmf,997,-5.7661e-06,1.10342e-05,0,-7.66514e-07,-6.24959e+08,-6.23806e+08,-6.24563e+08,-52582.8,0.00250143,-0.132783,0,0.132806,-432.328,-22746,-0,22750.1,-52582.8
step02_gravity_refstate-crust.xmf,998,-5.0485e-06,9.60557e-06,0,-3.00963e-07,-5.93258e+08,-5.92253e+08,-5.92912e+08,-20646,0.00107097,-0.121071,0,0.121076,-212.57,-21592.6,-0,21593.7,-20646
step02_gravity_refstate-crust.xmf,999,-1.73522e-05,4.55934e-05,0,-8.42477e-06,-8.24029e+08,-8.19711e+08,-8.22839e+08,-577939,0.00886928,-0.290493,0,0.290629,-499.828,-30000,-0,30004.2,-577939
step02_gravity_refstate-crust.xmf,1000,-1.69554e-05,3.54974e-05,0,-7.25028e-06,-8.01089e+08,-7.97491e+08,-7.99926e+08,-497369,0.00817996,-0.256931,0,0.257061,-471.398,-29150.8,-0,29154.6,-497369
step02_gravity_refstate-crust.xmf,1001,-1.43835e-05,3.03796e-05,0,-8.19621e-06,-7.87563e+08,-7.84492e+08,-7.86576e+08,-562260,0.0107835,-0.237937,0,0.238181,-695.576,-28660.9,-0,28669.3,-562260
step02_gravity_refstate-crust.xmf,1002,7.70156e-06,-1.89286e-05,0,2.66459e-05,-9.95234e+08,-9.97061e+08,-9.95762e+08,1.82791e+06,0.0123594,-0.264922,0,0.26521,1430.4,-36234.3,0,36262.6,-1.82791e+06
step02_gravity_refstate-crust.xmf,1003,6.68067e-06,-1.82712e-05,0,2.19043e-05,-1.00136e+09,-1.00307e+09,-1.00181e+09,1.50263e+06,0.0168503,-0.236216,0,0.236817,1887.46,-36454.1,0,36502.9,-1.50263e+06
step02_gravity_refstate-crust.xmf,1004,4.77638e-06,-1.57677e-05,0,1.77739e-05,-1.00463e+09,-1.00604e+09,-1.00496e+09,1.21929e+06,0.0205959,-0.209964,0,0.210972,2420.54,-36569.4,0,36649.4,-1.21929e+06
step02_gravity_refstate-crust.xmf,1005,-1.1675e-06,-1.70278e-06,0,4.76961e-06,-9.92633e+08,-9.92669e+08,-9.92553e+08,327196,0.0189106,-0.0763158,0,0.0786239,8182.2,-36130.4,0,37045.3,-327196
step02_gravity_refstate-crust.xmf,1006,-1.11299e-06,-2.26348e-06,0,5.43968e-06,-9.90394e+08,-9.90473e+08,-9.90318e+08,373162,0.0194764,-0.0884225,0,0.0905421,7359.92,-36048.3,0,36791.9,-373162
step02_gravity_refstate-crust.xmf,1007,-6.10118e-07,-3.79097e-06,0,7.30548e-06,-9.84046e+08,-9.84264e+08,-9.84004e+08,501156,0.0196311,-0.11642,0,0.118063,5828.5,-35816.8,0,36288,-501156
step02_gravity_refstate-crust.xmf,1008,-9.30843e-07,-2.95317e-06,0,6.26194e-06,-9.87214e+08,-9.87352e+08,-9.8715e+08,429569,0.0196995,-0.101784,0,0.103673,6573.59,-35932.2,0,36528.5,-429569
step02_gravity_refstate-crust.xmf,1009,1.88231e-06,-1.00343e-05,0,1.34977e-05,-9.93255e+08,-9.94073e+08,-9.93385e+08,925940,0.0210317,-0.178178,0,0.179415,3406.51,-36152.5,0,36312.7,-925940
step02_gravity_refstate-crust.xmf,1010,7.98777e-07,-7.92461e-06,0,1.13782e-05,-9.94123e+08,-9.94722e+08,-9.94178e+08,780545,0.0220476,-0.158485,0,0.160011,4025.34,-36183,0,36406.2,-780545
step02_gravity_refstate-crust.xmf,1011,-1.03125e-07,-6.24822e-06,0,9.54918e-06,-9.96342e+08,-9.96764e+08,-9.96335e+08,655074,0.0227361,-0.139943,0,0.141778,4693.14,-36262.7,0,36565.2,-655074
step02_gravity_refstate-crust.xmf,1012,-5.64569e-07,3.41869e-07,0,1.94084e-06,-1.02228e+09,-1.02221e+09,-1.02224e+09,133142,0.0143677,-0.00536627,0,0.0153371,16487.9,-37215.2,0,40704.1,-133142
step02_gravity_refstate-crust.xmf,1013,-4.39732e-07,9.12281e-07,0,1.07415e-06,-1.00251e+09,-1.00242e+09,-1.00248e+09,73686.4,0.0108123,0.0183505,0,0.021299,21945.3,-36496.9,0,42586.6,-73686.4
step02_gravity_refstate-crust.xmf,1014,-4.9444e-07,1.08834e-06,0,9.32999e-07,-1.01763e+09,-1.01753e+09,-1.0176e+09,64003.7,0.010689,0.0227563,0,0.0251416,23533.2,-37047.7,0,43890.1,-64003.7
step02_gravity_refstate-crust.xmf,1015,-5.89429e-07,1.25921e-06,0,8.66812e-07,-1.05947e+09,-1.05935e+09,-1.05943e+09,59463.3,0.0113942,0.0239816,0,0.0265508,24656.7,-38570.8,0,45778.4,-59463.3
step02_gravity_refstate-crust.xmf,1016,-3.24032e-06,5.9087e-06,0,-3.34997e-07,-4.7398e+08,-4.73352e+08,-4.73758e+08,-22980.8,0.00149891,-0.0880889,0,0.0881016,-463.106,-17251.8,-0,17258,-22980.8
step02_gravity_refstate-crust.xmf,1017,-2.79014e-06,4.87227e-06,0,-2.18012e-07,-4.23404e+08,-4.22878e+08,-4.23212e+08,-14955.6,0.00104352,-0.078231,0,0.0782379,-374.592,-15410.7,-0,15415.2,-14955.6
step02_gravity_refstate-crust.xmf,1018,-2.39058e-06,1.45978e-06,0,-3.40174e-07,-1.13934e+08,-1.1367e+08,-1.13771e+08,-23336,0.00521812,-0.0452413,0,0.0455413,-2157.24,-4140.49,-0,4668.76,-23336
step02_gravity_refstate-crust.xmf,1019,-2.16345e-06,3.07763e-06,0,-4.36101e-07,-3.06517e+08,-3.06157e+08,-3.06369e+08,-29916.5,0.00263657,-0.0611039,0,0.0611607,-1212.07,-11155.1,-0,11220.7,-29916.5
step02_gravity_refstate-crust.xmf,1020,-3.62342e-06,1.37792e-06,0,7.32558e-09,-344072,-980.377,-95505.6,502.535,0.00358525,-0.0404514,0,0.0406099,-989.347,0,-0,989.347,-502.535
step02_gravity_refstate-crust.xmf,1021,-2.99542e-06,1.30233e-06,0,-1.49114e-07,-4.35738e+07,-4.3279e+07,-4.33684e+07,-10229.2,0.00607414,-0.0418802,0,0.0423184,-2006.21,-1576.25,-0,2551.36,-10229.2
step02_gravity_refstate-crust.xmf,1022,-1.04158e-05,2.05847e-05,0,-4.98168e-06,-7.43762e+08,-7.41636e+08,-7.43048e+08,-341743,0.00970629,-0.196614,0,0.196853,-877.178,-27067.1,-0,27081.3,-341743
step02_gravity_refstate-crust.xmf,1023,-7.32571e-06,1.42334e-05,0,-2.07746e-06,-6.77846e+08,-6.76368e+08,-6.77344e+08,-142514,0.00578981,-0.156147,0,0.156254,-775.429,-24670.1,-0,24682.3,-142514
step02_gravity_refstate-crust.xmf,1024,-6.46348e-06,1.26687e-05,0,-2.48509e-06,-6.59407e+08,-6.58094e+08,-6.58963e+08,-170477,0.00749871,-0.145953,0,0.146145,-1117.01,-23999.8,-0,24025.8,-170477
step02_gravity_refstate-crust.xmf,1025,-1.20545e-05,2.542e-05,0,-8.16853e-06,-7.731e+08,-7.70529e+08,-7.72273e+08,-560361,0.0126707,-0.220337,0,0.220701,-935.317,-28136.1,-0,28151.6,-560361
step02_gravity_refstate-crust.xmf,1026,-3.44854e-06,6.40952e-06,0,-8.32548e-07,-4.97991e+08,-4.97314e+08,-4.97754e+08,-57112.8,0.00364908,-0.0929508,0,0.0930224,-1047.44,-18125.8,-0,18156.1,-57112.8
step02_gravity_refstate-crust.xmf,1027,-5.36859e-06,1.0303e-05,0,-8.59952e-07,-6.0978e+08,-6.08705e+08,-6.09412e+08,-58992.7,0.00302486,-0.126736,0,0.126772,-561.22,-22193.9,-0,22201,-58992.7
step02_gravity_refstate-crust.xmf,1028,-4.53645e-06,8.64727e-06,0,-7.87563e-07,-5.69866e+08,-5.68962e+08,-5.69555e+08,-54026.8,0.00305803,-0.112924,0,0.112966,-671.11,-20741.6,-0,20752.4,-54026.8
step02_gravity_refstate-crust.xmf,1029,-4.05995e-06,7.74553e-06,0,-1.12448e-06,-5.45845e+08,-5.45035e+08,-5.45567e+08,-77139.3,0.00458872,-0.105119,0,0.105219,-1112.45,-19867.6,-0,19898.7,-77139.3
step02_gravity_refstate-crust.xmf,1030,-1.6516e-05,3.68291e-05,0,-1.35262e-05,-8.12281e+08,-8.08622e+08,-8.11148e+08,-927896,0.0132365,-0.266901,0,0.267229,-751.233,-29562.1,-0,29571.7,-927896
step02_gravity_refstate-crust.xmf,1031,9.77622e-06,-2.24228e-05,0,3.08111e-05,-1.00244e+09,-1.00465e+09,-1.00311e+09,2.11364e+06,0.00970438,-0.285852,0,0.286016,1000,-36499.7,0,36513.4,-2.11364e+06
step02_gravity_refstate-crust.xmf,1032,2.62875e-06,-1.28445e-05,0,1.43487e-05,-1.00694e+09,-1.008e+09,-1.00712e+09,984318,0.0233221,-0.185613,0,0.187072,3027.82,-36649.4,0,36774.3,-984318
step02_gravity_refstate-crust.xmf,1033,-7.59832e-07,-4.93377e-06,0,8.09598e-06,-9.99328e+08,-9.99614e+08,-9.99276e+08,555384,0.0230241,-0.123355,0,0.125485,5384.57,-36370.8,0,36767.2,-555384
step02_gravity_refstate-crust.xmf,1034,-1.44303e-06,-1.66323e-06,0,4.90694e-06,-1.01417e+09,-1.01419e+09,-1.01407e+09,336616,0.0211111,-0.0704185,0,0.0735149,8532.62,-36913.6,0,37886.9,-336616
step02_gravity_refstate-crust.xmf,1035,-1.31192e-06,-1.23959e-06,0,4.3823e-06,-1.01703e+09,-1.01703e+09,-1.01694e+09,300626,0.0201815,-0.0599423,0,0.0632485,9409.4,-37018.8,0,38195.9,-300626
step02_gravity_refstate-crust.xmf,1036,-1.23049e-06,-8.79556e-07,0,3.94433e-06,-1.0207e+09,-1.02068e+09,-1.02062e+09,270581,0.0193082,-0.0500775,0,0.0536709,10338.1,-37153.3,0,38564.8,-270581
step02_gravity_refstate-crust.xmf,1037,-1.09756e-06,-5.9249e-07,0,3.52884e-06,-1.02373e+09,-1.0237e+09,-1.02366e+09,242079,0.0184287,-0.0409784,0,0.0449316,11303.9,-37264.6,0,38941.3,-242079
step02_gravity_refstate-crust.xmf,1038,-9.54493e-07,-3.74871e-07,0,3.19549e-06,-1.02937e+09,-1.02933e+09,-1.0293e+09,219211,0.0177623,-0.0324826,0,0.0370219,12310.4,-37470.6,0,39441,-219211
step02_gravity_refstate-crust.xmf,1039,-8.41784e-07,-1.81629e-07,0,2.90239e-06,-1.03714e+09,-1.03709e+09,-1.03708e+09,199104,0.0172188,-0.0244886,0,0.0299363,13373.5,-37754.4,0,40053.1,-199104
step02_gravity_refstate-crust.xmf,1040,-7.44938e-07,1.08177e-08,0,2.58987e-06,-1.04322e+09,-1.04317e+09,-1.04317e+09,177665,0.0166008,-0.0168688,0,0.0236673,14519.4,-37976.6,0,40657.5,-177665
step02_gravity_refstate-crust.xmf,1041,-6.60028e-07,1.86605e-07,0,2.28894e-06,-1.04522e+09,-1.04516e+09,-1.04517e+09,157021,0.0159288,-0.0102556,0,0.0189448,15635.1,-38049.9,0,41136.9,-157021
step02_gravity_refstate-crust.xmf,1042,-5.57632e-07,5.10078e-07,0,1.74157e-06,-1.03391e+09,-1.03384e+09,-1.03387e+09,119472,0.0141829,0.00114563,0,0.0142291,17829.2,-37639.1,0,41648.3,-119472
step02_gravity_refstate-crust.xmf,1043,-5.12413e-07,8.57319e-07,0,1.24844e-06,-1.03261e+09,-1.03251e+09,-1.03257e+09,85643,0.0125318,0.0139444,0,0.0187481,20952.8,-37592.4,0,43037.2,-85643
step02_gravity_refstate-crust.xmf,1044,-5.21138e-07,6.94054e-07,0,1.46186e-06,-1.03201e+09,-1.03192e+09,-1.03197e+09,100283,0.0132692,0.00818411,0,0.0155901,19434.5,-37570.2,0,42299.2,-100283
step02_gravity_refstate-crust.xmf,1045,-2.58534e-06,4.39615e-06,0,-4.14239e-07,-3.97088e+08,-3.96609e+08,-3.9691e+08,-28416.8,0.0021342,-0.0735658,0,0.0735968,-822.391,-14452.7,-0,14476.1,-28416.8
step02_gravity_refstate-crust.xmf,1046,-2.39117e-06,3.89978e-06,0,-6.06164e-07,-3.67992e+08,-3.6756e+08,-3.67828e+08,-41582.8,0.00326298,-0.0687335,0,0.0688109,-1350.7,-13393.5,-0,13461.4,-41582.8
step02_gravity_refstate-crust.xmf,1047,-2.94455e-06,5.29541e-06,0,-6.17927e-07,-4.46773e+08,-4.46207e+08,-4.46571e+08,-42389.8,0.00295619,-0.0821411,0,0.0821942,-996.89,-16261.5,-0,16292,-42389.8
step02_gravity_refstate-crust.xmf,1048,-2.04639e-06,2.32429e-06,0,-4.72404e-07,-2.3745e+08,-2.3715e+08,-2.3731e+08,-32406.9,0.00350035,-0.0539638,0,0.0540772,-1689.84,-8639.92,-0,8803.62,-32406.9
step02_gravity_refstate-crust.xmf,1049,-2.14651e-06,1.60349e-06,0,-5.85737e-07,-1.49128e+08,-1.48871e+08,-1.48981e+08,-40181.6,0.00698943,-0.0459341,0,0.0464628,-3150.63,-5422.97,-0,6271.77,-40181.6
step02_gravity_refstate-crust.xmf,1050,-2.0643e-06,1.89848e-06,0,-5.57514e-07,-1.90105e+08,-1.89833e+08,-1.89964e+08,-38245.4,0.00512104,-0.0495355,0,0.0497995,-2430.87,-6915.56,-0,7330.35,-38245.4
step02_gravity_refstate-crust.xmf,1051,-2.06891e-06,2.71204e-06,0,-5.94901e-07,-2.77369e+08,-2.77041e+08,-2.77227e+08,-40810.2,0.00384946,-0.0574586,0,0.0575874,-1832.59,-10093.7,-0,10258.7,-40810.2
step02_gravity_refstate-crust.xmf,1052,-2.20577e-06,3.40261e-06,0,-7.94918e-07,-3.36688e+08,-3.36303e+08,-3.36536e+08,-54531.4,0.00452162,-0.0638057,0,0.0639657,-2002.32,-12253.8,-0,12416.3,-54531.4
step02_gravity_refstate-crust.xmf,1053,-2.60047e-06,1.33242e-06,0,-3.09366e-07,-7.81844e+07,-7.79146e+07,-7.8006e+07,-21222.5,0.00746422,-0.0426849,0,0.0433326,-2798.11,-2837.92,-0,3985.38,-21222.5
step02_gravity_refstate-crust.xmf,1054,-5.4518e-06,1.05466e-05,0,-1.79647e-06,-6.20696e+08,-6.19598e+08,-6.20322e+08,-123238,0.00608973,-0.129799,0,0.129942,-1087.19,-22591.3,-0,22617.5,-123238
step02_gravity_refstate-crust.xmf,1055,-1.01062e-05,2.14703e-05,0,-7.94772e-06,-7.58423e+08,-7.56257e+08,-7.5773e+08,-545214,0.0143735,-0.204372,0,0.204877,-1214.98,-27603.5,-0,27630.2,-545214
step02_gravity_refstate-crust.xmf,1056,-5.64222e-06,1.10962e-05,0,-2.77959e-06,-6.38921e+08,-6.37773e+08,-6.38534e+08,-190680,0.00902465,-0.135516,0,0.135817,-1504.46,-23254.9,-0,23303.5,-190680
step02_gravity_refstate-crust.xmf,1057,-8.73071e-06,1.70008e-05,0,-3.29395e-06,-7.12355e+08,-7.1059e+08,-7.11756e+08,-225965,0.00774856,-0.175312,0,0.175484,-855.454,-25925,-0,25939.1,-225965
step02_gravity_refstate-crust.xmf,1058,-7.58854e-06,1.50907e-05,0,-3.66707e-06,-6.9535e+08,-6.93794e+08,-6.94829e+08,-251561,0.00956818,-0.163613,0,0.163892,-1184.85,-25307.6,-0,25335.3,-251561
step02_gravity_refstate-crust.xmf,1059,-8.86536e-06,1.77872e-05,0,-5.31838e-06,-7.28134e+08,-7.26306e+08,-7.27526e+08,-364841,0.0117236,-0.183026,0,0.183401,-1201.11,-26500.1,-0,26527.3,-364841
step02_gravity_refstate-crust.xmf,1060,-3.62407e-06,6.91171e-06,0,-1.39218e-06,-5.21583e+08,-5.20861e+08,-5.21335e+08,-95503.8,0.00596237,-0.0977174,0,0.0978992,-1593.09,-18984.8,-0,19051.5,-95503.8
step02_gravity_refstate-crust.xmf,1061,-4.89274e-06,9.41426e-06,0,-1.64363e-06,-5.95753e+08,-5.94772e+08,-5.95418e+08,-112753,0.00594318,-0.120477,0,0.120623,-1184.43,-21683.8,-0,21716.1,-112753
step02_gravity_refstate-crust.xmf,1062,-1.0096e-05,2.81369e-05,0,-2.19785e-05,-8.23965e+08,-8.21342e+08,-8.23273e+08,-1.50772e+06,0.0162424,-0.274984,0,0.275463,-1000,-30000,-0,30016.7,-1.50772e+06
step02_gravity_refstate-crust.xmf,1063,-1.29393e-05,2.9077e-05,0,-1.34719e-05,-7.99765e+08,-7.96883e+08,-7.98878e+08,-924172,0.0159919,-0.245773,0,0.246293,-996.784,-29108.9,-0,29126,-924172
step02_gravity_refstate-crust.xmf,1064,-1.05465e-05,2.47718e-05,0,-1.2347e-05,-7.86416e+08,-7.83993e+08,-7.85692e+08,-847006,0.0177101,-0.226985,0,0.227674,-1256.9,-28625.9,-0,28653.5,-847006
step02_gravity_refstate-crust.xmf,1065,9.03109e-06,-2.25532e-05,0,2.50597e-05,-1.00929e+09,-1.01145e+09,-1.00991e+09,1.71909e+06,0.0150148,-0.253236,0,0.253681,1449.57,-36745.7,0,36774.3,-1.71909e+06
step02_gravity_refstate-crust.xmf,1066,7.02397e-06,-2.05719e-05,0,1.93183e-05,-1.01692e+09,-1.01881e+09,-1.0174e+09,1.32524e+06,0.0207754,-0.221211,0,0.222185,1972.3,-37018.5,0,37071,-1.32524e+06
step02_gravity_refstate-crust.xmf,1067,3.54473e-06,-1.55358e-05,0,1.52101e-05,-1.01845e+09,-1.01976e+09,-1.0187e+09,1.04341e+06,0.0245884,-0.192748,0,0.19431,2660.03,-37068.1,0,37163.5,-1.04341e+06
step02_gravity_refstate-crust.xmf,1068,-1.47589e-06,-2.22182e-06,0,5.50953e-06,-1.0113e+09,-1.01135e+09,-1.01119e+09,377954,0.0220066,-0.0818259,0,0.0847336,7689.66,-36807.8,0,37602.5,-377954
step02_gravity_refstate-crust.xmf,1069,-1.41177e-06,-2.93169e-06,0,6.22372e-06,-1.00813e+09,-1.00823e+09,-1.00803e+09,426947,0.0227577,-0.0943321,0,0.0970385,6880.71,-36691.7,0,37331.3,-426947
step02_gravity_refstate-crust.xmf,1070,-1.15902e-06,-3.82652e-06,0,7.07154e-06,-1.00382e+09,-1.004e+09,-1.00374e+09,485108,0.0231074,-0.108158,0,0.110599,6111.1,-36534.3,0,37041.9,-485108
step02_gravity_refstate-crust.xmf,1071,1.41492e-06,-1.26701e-05,0,1.27287e-05,-1.0249e+09,-1.02586e+09,-1.02499e+09,873187,0.0272072,-0.169666,0,0.171834,3264.26,-37298.5,0,37441.1,-873187
step02_gravity_refstate-crust.xmf,1072,1.03821e-06,-1.01225e-05,0,1.20144e-05,-1.00927e+09,-1.01004e+09,-1.00934e+09,824187,0.0249681,-0.16422,0,0.166107,3662.85,-36732.1,0,36914.3,-824187
step02_gravity_refstate-crust.xmf,1073,-6.51727e-09,-7.88903e-06,0,1.03559e-05,-1.01102e+09,-1.01157e+09,-1.01102e+09,710417,0.025616,-0.146055,0,0.148284,4302.44,-36795.1,0,37045.8,-710417
step02_gravity_refstate-crust.xmf,1074,-7.70378e-07,-6.18175e-06,0,8.98898e-06,-1.01379e+09,-1.01416e+09,-1.01374e+09,616644,0.025792,-0.129553,0,0.132096,4967.29,-36895.3,0,37228.1,-616644
step02_gravity_refstate-crust.xmf,1075,-5.98958e-07,3.36669e-07,0,2.04847e-06,-1.04898e+09,-1.04892e+09,-1.04894e+09,140525,0.0154203,-0.00459812,0,0.0160913,16698.5,-38187.2,0,41678.6,-140525
step02_gravity_refstate-crust.xmf,1076,-5.23299e-07,9.98697e-07,0,1.08939e-06,-1.03603e+09,-1.03592e+09,-1.03599e+09,74732.3,0.0119729,0.0183524,0,0.0219125,22303.2,-37717.1,0,43818,-74732.3
step02_gravity_refstate-crust.xmf,1077,-5.62746e-07,1.11573e-06,0,1.02611e-06,-1.06166e+09,-1.06154e+09,-1.06162e+09,70391.3,0.0123211,0.019904,0,0.0234089,23151.2,-38650.1,0,45053.4,-70391.3
step02_gravity_refstate-crust.xmf,1078,-3.1007e-06,5.71129e-06,0,-1.09207e-06,-4.72036e+08,-4.71432e+08,-4.71824e+08,-74916.1,0.00501258,-0.0864156,0,0.0865608,-1577.79,-17181.3,-0,17253.6,-74916.1
step02_gravity_refstate-crust.xmf,1079,-2.69362e-06,4.72864e-06,0,-8.26337e-07,-4.20859e+08,-4.2035e+08,-4.20675e+08,-56686.7,0.00408358,-0.0768425,0,0.0769509,-1489.8,-15318.2,-0,15390.5,-56686.7
step02_gravity_refstate-crust.xmf,1080,-2.31647e-06,1.37013e-06,0,-5.56171e-07,-1.06887e+08,-1.06635e+08,-1.06729e+08,-38153.3,0.00932112,-0.0425071,0,0.0435171,-3843.36,-3884.09,-0,5464.21,-38153.3
step02_gravity_refstate-crust.xmf,1081,-2.05553e-06,2.93454e-06,0,-9.1224e-07,-3.03196e+08,-3.02854e+08,-3.03055e+08,-62579.7,0.00557981,-0.0590342,0,0.0592973,-2614.53,-11034.4,-0,11339.9,-62579.7
step02_gravity_refstate-crust.xmf,1082,-3.48099e-06,1.32242e-06,0,6.17764e-09,-330604,-1089.87,-91808.1,423.786,0.0106315,-0.0387798,0,0.0402107,-2969.28,0,-0,2969.28,-423.786
step02_gravity_refstate-crust.xmf,1083,-2.74436e-06,1.24932e-06,0,-2.91287e-07,-5.20005e+07,-5.17266e+07,-5.18123e+07,-19982.3,0.011577,-0.0395937,0,0.0412515,-4018.37,-1883.96,-0,4438.09,-19982.3
step02_gravity_refstate-crust.xmf,1084,-8.52956e-06,1.80395e-05,0,-7.59494e-06,-7.43359e+08,-7.41537e+08,-7.42774e+08,-521013,0.01578,-0.18974,0,0.190395,-1520.4,-27056.2,-0,27098.8,-521013
step02_gravity_refstate-crust.xmf,1085,-6.60062e-06,1.32907e-05,0,-3.85337e-06,-6.77432e+08,-6.76067e+08,-6.76979e+08,-264341,0.0110029,-0.152402,0,0.152799,-1526.17,-24656.5,-0,24703.7,-264341
step02_gravity_refstate-crust.xmf,1086,-5.72678e-06,1.17107e-05,0,-3.96607e-06,-6.59071e+08,-6.57874e+08,-6.58678e+08,-272073,0.0122863,-0.141767,0,0.142299,-1904.12,-23989.1,-0,24064.5,-272073
step02_gravity_refstate-crust.xmf,1087,-8.83616e-06,2.07947e-05,0,-1.10981e-05,-7.72517e+08,-7.70484e+08,-7.71911e+08,-761328,0.0189269,-0.210108,0,0.210959,-1537.33,-28120.7,-0,28162.7,-761328
step02_gravity_refstate-crust.xmf,1088,-3.21328e-06,6.09551e-06,0,-1.64041e-06,-4.9667e+08,-4.96031e+08,-4.96449e+08,-112532,0.00731539,-0.0904781,0,0.0907734,-2154.96,-18078.2,-0,18206.2,-112532
step02_gravity_refstate-crust.xmf,1089,-4.24604e-06,8.2799e-06,0,-1.89285e-06,-5.68818e+08,-5.67958e+08,-5.68526e+08,-129850,0.00740337,-0.110495,0,0.110743,-1665.64,-20704,-0,20770.9,-129850
step02_gravity_refstate-crust.xmf,1090,-3.74114e-06,7.32619e-06,0,-2.04674e-06,-5.44335e+08,-5.43575e+08,-5.44078e+08,-140406,0.00847009,-0.10218,0,0.10253,-2116.68,-19813.3,-0,19926,-140406
step02_gravity_refstate-crust.xmf,1091,-8.74384e-06,2.51129e-05,0,-1.807e-05,-8.11646e+08,-8.09324e+08,-8.11047e+08,-1.2396e+06,0.019788,-0.250386,0,0.251167,-1262.2,-29552.3,-0,29579.2,-1.2396e+06
step02_gravity_refstate-crust.xmf,1092,-9.28286e-06,2.1836e-05,0,-2.12218e-05,-8.33353e+08,-8.31218e+08,-8.32716e+08,-1.45582e+06,0.0164837,-0.265892,0,0.266403,-1334.68,-30335.3,-0,30364.6,-1.45582e+06
step02_gravity_refstate-crust.xmf,1093,-1.16239e-05,2.33342e-05,0,-2.72706e-05,-8.38085e+08,-8.35687e+08,-8.37288e+08,-1.87076e+06,0.0117002,-0.288358,0,0.288595,-1000,-30500.4,-0,30516.8,-1.87076e+06
step02_gravity_refstate-crust.xmf,1094,1.17799e-05,-2.67574e-05,0,2.98878e-05,-1.01615e+09,-1.01879e+09,-1.01696e+09,2.0503e+06,0.011541,-0.273555,0,0.273798,1000,-37000.2,0,37013.7,-2.0503e+06
step02_gravity_refstate-crust.xmf,1095,2.47616e-06,-1.57652e-05,0,1.398e-05,-1.03194e+09,-1.03319e+09,-1.03211e+09,959026,0.027283,-0.180773,0,0.182821,2786.16,-37554.3,0,37657.5,-959026
step02_gravity_refstate-crust.xmf,1096,-1.27367e-06,-4.88617e-06,0,7.89149e-06,-1.01753e+09,-1.01778e+09,-1.01744e+09,541356,0.0256187,-0.114865,0,0.117688,5642.48,-37031.5,0,37458.9,-541356
step02_gravity_refstate-crust.xmf,1097,-1.50803e-06,-1.70908e-06,0,5.14905e-06,-1.03655e+09,-1.03656e+09,-1.03645e+09,353225,0.0221989,-0.0649894,0,0.0686761,8870.5,-37727.8,0,38756.6,-353225
step02_gravity_refstate-crust.xmf,1098,-1.61705e-06,-2.24602e-06,0,5.7304e-06,-1.03321e+09,-1.03325e+09,-1.0331e+09,393105,0.0233262,-0.0755852,0,0.0791027,8019.38,-37604.9,0,38450.5,-393105
step02_gravity_refstate-crust.xmf,1099,-1.30844e-06,-1.30369e-06,0,4.61901e-06,-1.04006e+09,-1.04006e+09,-1.03997e+09,316864,0.0211153,-0.0551691,0,0.0590718,9757.09,-37857,0,39094.2,-316864
step02_gravity_refstate-crust.xmf,1100,-9.99518e-07,-6.5118e-07,0,3.67641e-06,-1.04635e+09,-1.04632e+09,-1.04628e+09,252202,0.0190989,-0.0371432,0,0.0417659,11693.4,-38088.3,0,39842.9,-252202
step02_gravity_refstate-crust.xmf,1101,-1.16816e-06,-9.74135e-07,0,4.21041e-06,-1.04871e+09,-1.0487e+09,-1.04863e+09,288834,0.0201753,-0.0452874,0,0.0495781,10743.4,-38173.2,0,39656.2,-288834
step02_gravity_refstate-crust.xmf,1102,-8.84251e-07,-4.99829e-07,0,3.44688e-06,-1.05648e+09,-1.05646e+09,-1.05642e+09,236456,0.0185797,-0.0303499,0,0.0355854,12532.1,-38457.9,0,40448.3,-236456
step02_gravity_refstate-crust.xmf,1103,-7.16999e-07,-3.33822e-07,0,3.14802e-06,-1.07132e+09,-1.07129e+09,-1.07127e+09,215954,0.0179398,-0.0222576,0,0.0285874,13654.4,-38998.9,0,41320.2,-215954
step02_gravity_refstate-crust.xmf,1104,-6.36731e-07,-6.88604e-08,0,2.70621e-06,-1.07275e+09,-1.07271e+09,-1.0727e+09,185646,0.0171532,-0.0145514,0,0.0224939,14897,-39051.8,0,41796.7,-185646
step02_gravity_refstate-crust.xmf,1105,-5.92549e-07,1.68831e-07,0,2.33244e-06,-1.07153e+09,-1.07148e+09,-1.07149e+09,160005,0.0164171,-0.00787771,0,0.0182093,16103.5,-39008.2,0,42201.4,-160005
step02_gravity_refstate-crust.xmf,1106,-5.55443e-07,9.49209e-07,0,1.22773e-06,-1.06557e+09,-1.06546e+09,-1.06553e+09,84222.3,0.013273,0.0151519,0,0.0201433,21627.6,-38792.3,0,44413.9,-84222.3
step02_gravity_refstate-crust.xmf,1107,-5.65035e-07,3.80385e-07,0,2.01006e-06,-1.06971e+09,-1.06965e+09,-1.06967e+09,137890,0.015688,-0.00175538,0,0.0157859,17334.2,-38942.2,0,42625.9,-137890
step02_gravity_refstate-crust.xmf,1108,-5.46261e-07,7.74396e-07,0,1.44648e-06,-1.06556e+09,-1.06547e+09,-1.06552e+09,99228.3,0.0140648,0.0100732,0,0.0173,20153.8,-38791.8,0,43714.7,-99228.3
step02_gravity_refstate-crust.xmf,1109,-5.50653e-07,5.822e-07,0,1.71102e-06,-1.06645e+09,-1.06637e+09,-1.06641e+09,117376,0.0148759,0.0042585,0,0.0154734,18677.6,-38823.9,0,43083.1,-117376
step02_gravity_refstate-crust.xmf,1110,-2.46646e-06,4.22181e-06,0,-1.00585e-06,-3.94426e+08,-3.93967e+08,-3.94257e+08,-69001.3,0.00521709,-0.0716927,0,0.0718823,-2052.65,-14356,-0,14502,-69001.3
step02_gravity_refstate-crust.xmf,1111,-2.2361e-06,3.71863e-06,0,-1.22538e-06,-3.67956e+08,-3.67548e+08,-3.67803e+08,-84061,0.00662896,-0.0664722,0,0.066802,-2804.34,-13392.5,-0,13683,-84061
step02_gravity_refstate-crust.xmf,1112,-2.77858e-06,5.07756e-06,0,-1.29075e-06,-4.45e+08,-4.44461e+08,-4.4481e+08,-88545.2,0.006213,-0.0800378,0,0.0802785,-2143.44,-16197.3,-0,16338.5,-88545.2
step02_gravity_refstate-crust.xmf,1113,-1.95229e-06,2.49225e-06,0,-9.62924e-07,-2.66132e+08,-2.65827e+08,-2.65998e+08,-66056.6,0.00651796,-0.0544161,0,0.0548051,-3176.93,-9684.76,-0,10192.5,-66056.6
step02_gravity_refstate-crust.xmf,1114,-1.9427e-06,2.11098e-06,0,-8.73308e-07,-2.24597e+08,-2.24319e+08,-2.24464e+08,-59908.9,0.0068898,-0.0505851,0,0.0510521,-3381.64,-8172.1,-0,8844.13,-59908.9
step02_gravity_refstate-crust.xmf,1115,-2.01334e-06,1.48907e-06,0,-8.51291e-07,-1.45211e+08,-1.4497e+08,-1.45073e+08,-58398.6,0.0106069,-0.0424449,0,0.0437501,-4856.72,-5280.7,-0,7174.51,-58398.6
step02_gravity_refstate-crust.xmf,1116,-1.94369e-06,1.76939e-06,0,-8.99124e-07,-1.85845e+08,-1.8559e+08,-1.85711e+08,-61679.9,0.00856368,-0.0464141,0,0.0471975,-4132.35,-6760.74,-0,7923.63,-61679.9
step02_gravity_refstate-crust.xmf,1117,-2.03719e-06,3.19116e-06,0,-1.30599e-06,-3.34149e+08,-3.3379e+08,-3.34009e+08,-89590.8,0.00752564,-0.0608811,0,0.0613444,-3429.52,-12161.7,-0,12636,-89590.8
step02_gravity_refstate-crust.xmf,1118,-4.93059e-06,9.77807e-06,0,-2.84456e-06,-6.1624e+08,-6.15231e+08,-6.15902e+08,-195137,0.00994968,-0.125321,0,0.125716,-1860.08,-22430,-0,22507,-195137
step02_gravity_refstate-crust.xmf,1119,-7.51563e-06,1.77919e-05,0,-1.00394e-05,-7.58034e+08,-7.56298e+08,-7.57518e+08,-688703,0.0197963,-0.194825,0,0.195828,-1832.7,-27594.1,-0,27654.9,-688703
step02_gravity_refstate-crust.xmf,1120,-4.8903e-06,1.0067e-05,0,-3.95142e-06,-6.3668e+08,-6.35654e+08,-6.36345e+08,-271068,0.0133076,-0.130194,0,0.130873,-2337.93,-23174.8,-0,23292.4,-271068
step02_gravity_refstate-crust.xmf,1121,-7.57311e-06,1.54514e-05,0,-5.42583e-06,-7.11931e+08,-7.10351e+08,-7.11411e+08,-372212,0.0133376,-0.170267,0,0.170789,-1543.28,-25911.8,-0,25957.8,-372212
step02_gravity_refstate-crust.xmf,1122,-6.48247e-06,1.36293e-05,0,-5.39968e-06,-6.9502e+08,-6.93641e+08,-6.94576e+08,-370418,0.0146465,-0.158181,0,0.158858,-1908.63,-25297.8,-0,25369.7,-370418
step02_gravity_refstate-crust.xmf,1123,-7.20629e-06,1.55527e-05,0,-7.27403e-06,-7.27835e+08,-7.26274e+08,-7.27341e+08,-498998,0.0170302,-0.17605,0,0.176872,-1863.14,-26492.5,-0,26557.9,-498998
step02_gravity_refstate-crust.xmf,1124,-3.28963e-06,6.47327e-06,0,-2.1966e-06,-5.20376e+08,-5.19706e+08,-5.20151e+08,-150687,0.00955723,-0.0944218,0,0.0949043,-2642.01,-18941.5,-0,19124.9,-150687
step02_gravity_refstate-crust.xmf,1125,-6.15985e-06,1.98604e-05,0,-1.7923e-05,-8.23443e+08,-8.21658e+08,-8.2302e+08,-1.22952e+06,0.0203806,-0.250596,0,0.251423,-1506.7,-29984.1,-0,30021.9,-1.22952e+06
step02_gravity_refstate-crust.xmf,1126,-7.52896e-06,2.11157e-05,0,-1.5523e-05,-7.99278e+08,-7.97313e+08,-7.98761e+08,-1.06488e+06,0.0216168,-0.230706,0,0.231716,-1546.32,-29100.7,-0,29141.8,-1.06488e+06
step02_gravity_refstate-crust.xmf,1127,-6.58378e-06,1.85375e-05,0,-1.36722e-05,-7.86051e+08,-7.84328e+08,-7.856e+08,-937910,0.0226997,-0.213257,0,0.214462,-1841.24,-28619,-0,28678.2,-937910
step02_gravity_refstate-crust.xmf,1128,-8.32489e-06,1.82422e-05,0,-2.35244e-05,-8.44818e+08,-8.42996e+08,-8.44247e+08,-1.61377e+06,0.013997,-0.271556,0,0.271916,-1386.3,-30751,-0,30782.3,-1.61377e+06
step02_gravity_refstate-crust.xmf,1129,-9.34709e-06,1.83762e-05,0,-2.9282e-05,-8.51778e+08,-8.49876e+08,-8.51136e+08,-2.00874e+06,0.00909807,-0.298795,0,0.298933,-1000,-31000.5,-0,31016.6,-2.00874e+06
step02_gravity_refstate-crust.xmf,1130,4.36996e-06,-1.91331e-05,0,1.56565e-05,-1.03109e+09,-1.0327e+09,-1.03139e+09,1.07404e+06,0.0255339,-0.19741,0,0.199054,2310.05,-37525.8,0,37596.9,-1.07404e+06
step02_gravity_refstate-crust.xmf,1131,1.03911e-05,-2.64995e-05,0,2.31699e-05,-1.02286e+09,-1.02539e+09,-1.02357e+09,1.58946e+06,0.0173947,-0.242739,0,0.243361,1419.81,-37239.2,0,37266.2,-1.58946e+06
step02_gravity_refstate-crust.xmf,1132,1.09773e-06,-1.41419e-05,0,1.28634e-05,-1.04165e+09,-1.04269e+09,-1.04172e+09,882433,0.0288483,-0.165898,0,0.168387,3111.55,-37904.8,0,38032.3,-882433
step02_gravity_refstate-crust.xmf,1133,-1.66463e-06,-2.92155e-06,0,6.36465e-06,-1.02927e+09,-1.02936e+09,-1.02916e+09,436615,0.0243969,-0.0871756,0,0.0905251,7200.26,-37460.3,0,38146,-436615
step02_gravity_refstate-crust.xmf,1134,-1.62019e-06,-3.88427e-06,0,7.17494e-06,-1.02664e+09,-1.0268e+09,-1.02653e+09,492201,0.0255299,-0.100496,0,0.103688,6364.71,-37363.3,0,37901.6,-492201
step02_gravity_refstate-crust.xmf,1135,7.42125e-08,-9.73088e-06,0,1.10326e-05,-1.02582e+09,-1.0265e+09,-1.02583e+09,756833,0.027841,-0.15062,0,0.153171,3940.21,-37331.4,0,37538.8,-756833
step02_gravity_refstate-crust.xmf,1136,-7.4503e-07,-7.6196e-06,0,9.81324e-06,-1.02776e+09,-1.02823e+09,-1.02771e+09,673188,0.0278506,-0.134755,0,0.137603,4577.03,-37401.7,0,37680.7,-673188
step02_gravity_refstate-crust.xmf,1137,-1.25509e-06,-6.08363e-06,0,8.82457e-06,-1.03071e+09,-1.03105e+09,-1.03063e+09,605365,0.0274967,-0.120818,0,0.123908,5204.07,-37509.7,0,37869,-605365
step02_gravity_refstate-crust.xmf,1138,-1.33182e-06,-1.85481e-06,0,5.39699e-06,-1.05821e+09,-1.05824e+09,-1.05812e+09,370233,0.0221409,-0.0600296,0,0.0639826,9191.92,-38516.8,0,39598.4,-370233
step02_gravity_refstate-crust.xmf,1139,-8.71329e-07,-9.78591e-07,0,4.14027e-06,-1.07346e+09,-1.07346e+09,-1.0734e+09,284023,0.0195098,-0.0372863,0,0.042082,11577,-39075.2,0,40754.1,-284023
step02_gravity_refstate-crust.xmf,1140,-2.8339e-06,5.36365e-06,0,-1.82e-06,-4.70813e+08,-4.70251e+08,-4.70619e+08,-124852,0.00850636,-0.0834003,0,0.083833,-2762.89,-17137.3,-0,17358.6,-124852
step02_gravity_refstate-crust.xmf,1141,-2.54354e-06,4.56025e-06,0,-1.3658e-06,-4.20645e+08,-4.20158e+08,-4.20471e+08,-93694,0.00684369,-0.0749119,0,0.0752239,-2546.05,-15310.8,-0,15521,-93694
step02_gravity_refstate-crust.xmf,1142,-2.16547e-06,1.25275e-06,0,-7.36611e-07,-1.01707e+08,-1.01473e+08,-1.01559e+08,-50531.5,0.0134387,-0.0384781,0,0.0407574,-5609.71,-3695.93,-0,6717.79,-50531.5
step02_gravity_refstate-crust.xmf,1143,-1.88737e-06,2.71832e-06,0,-1.34149e-06,-2.9921e+08,-2.98895e+08,-2.99081e+08,-92026.3,0.0083728,-0.0556885,0,0.0563144,-4045.77,-10889.6,-0,11616.9,-92026.3
step02_gravity_refstate-crust.xmf,1144,-3.22045e-06,1.22492e-06,0,-1.60249e-10,-305797,-844.809,-84874.1,-10.9931,0.0172971,-0.0355027,0,0.0394922,-4955.97,0,-0,4955.97,-10.9931
step02_gravity_refstate-crust.xmf,1145,-6.40042e-06,1.51109e-05,0,-9.14543e-06,-7.43148e+08,-7.41672e+08,-7.42709e+08,-627376,0.0205405,-0.180678,0,0.181842,-2159.03,-27052.5,-0,27138.6,-627376
step02_gravity_refstate-crust.xmf,1146,-5.56225e-06,1.19199e-05,0,-5.27242e-06,-6.77259e+08,-6.76059e+08,-6.76877e+08,-361688,0.0156444,-0.146725,0,0.147557,-2290.11,-24652.2,-0,24758.4,-361688
step02_gravity_refstate-crust.xmf,1147,-4.74038e-06,1.03602e-05,0,-5.06779e-06,-6.57411e+08,-6.56375e+08,-6.57086e+08,-347650,0.0164323,-0.135198,0,0.136193,-2715.19,-23930.6,-0,24084.1,-347650
step02_gravity_refstate-crust.xmf,1148,-5.79483e-06,1.61673e-05,0,-1.21311e-05,-7.72216e+08,-7.7071e+08,-7.71819e+08,-832193,0.023303,-0.197796,0,0.199164,-2136.81,-28114.9,-0,28196,-832193
step02_gravity_refstate-crust.xmf,1149,-2.8567e-06,5.64731e-06,0,-2.3803e-06,-4.97207e+08,-4.96624e+08,-4.97011e+08,-163289,0.0108304,-0.0868836,0,0.087556,-3306.54,-18098.5,-0,18398.1,-163289
step02_gravity_refstate-crust.xmf,1150,-4.30507e-06,8.59883e-06,0,-2.8289e-06,-5.91644e+08,-5.90759e+08,-5.91349e+08,-194062,0.0106398,-0.115406,0,0.115896,-2234.91,-21535.3,-0,21650.9,-194062
step02_gravity_refstate-crust.xmf,1151,-3.75873e-06,7.62702e-06,0,-2.81664e-06,-5.66712e+08,-5.65931e+08,-5.66454e+08,-193221,0.0112896,-0.106186,0,0.106785,-2654.77,-20628.3,-0,20798.5,-193221
step02_gravity_refstate-crust.xmf,1152,-3.28778e-06,6.72444e-06,0,-2.82444e-06,-5.42693e+08,-5.42007e+08,-5.42468e+08,-193757,0.0119475,-0.0978514,0,0.0985781,-3122.51,-19754.4,-0,19999.7,-193757
step02_gravity_refstate-crust.xmf,1153,-4.63639e-06,1.74201e-05,0,-1.67187e-05,-8.11791e+08,-8.10278e+08,-8.11473e+08,-1.1469e+06,0.023223,-0.232427,0,0.233584,-1775.95,-29562.3,-0,29615.6,-1.1469e+06
step02_gravity_refstate-crust.xmf,1154,-6.00252e-06,1.66773e-05,0,-1.88202e-05,-8.35745e+08,-8.3419e+08,-8.35334e+08,-1.29106e+06,0.0186686,-0.249889,0,0.250586,-1709.94,-30427.7,-0,30475.7,-1.29106e+06
step02_gravity_refstate-crust.xmf,1155,-6.84357e-06,1.43823e-05,0,-2.55696e-05,-8.58508e+08,-8.57051e+08,-8.58038e+08,-1.75408e+06,0.011083,-0.278994,0,0.279214,-1398.93,-31249.4,-0,31280.7,-1.75408e+06
step02_gravity_refstate-crust.xmf,1156,-7.23574e-06,1.40361e-05,0,-3.05137e-05,-8.65477e+08,-8.64018e+08,-8.64981e+08,-2.09324e+06,0.00701962,-0.306911,0,0.306991,-1000,-31501,-0,31516.9,-2.09324e+06
step02_gravity_refstate-crust.xmf,1157,2.37099e-06,-1.75727e-05,0,1.41693e-05,-1.04356e+09,-1.04493e+09,-1.04372e+09,972011,0.0280141,-0.180015,0,0.182182,2584.89,-37974.2,0,38062.1,-972011
step02_gravity_refstate-crust.xmf,1158,7.36769e-06,-2.42616e-05,0,1.80813e-05,-1.03185e+09,-1.03402e+09,-1.03236e+09,1.24038e+06,0.022687,-0.216972,0,0.218155,1791.18,-37557.8,0,37600.5,-1.24038e+06
step02_gravity_refstate-crust.xmf,1159,1.44071e-05,-3.19435e-05,0,2.87866e-05,-1.02981e+09,-1.03299e+09,-1.0308e+09,1.97476e+06,0.013864,-0.258949,0,0.259319,1000,-37500.2,0,37513.6,-1.97476e+06
step02_gravity_refstate-crust.xmf,1160,1.88806e-07,-1.14985e-05,0,1.1691e-05,-1.04004e+09,-1.04084e+09,-1.04005e+09,802006,0.0291081,-0.153003,0,0.155747,3631.17,-37846.6,0,38020.4,-802006
step02_gravity_refstate-crust.xmf,1161,-1.52201e-06,-5.00518e-06,0,8.09653e-06,-1.03363e+09,-1.03387e+09,-1.03353e+09,555422,0.0269321,-0.109674,0,0.112933,5766.19,-37616.4,0,38055.8,-555422
step02_gravity_refstate-crust.xmf,1162,-1.4683e-06,-2.42249e-06,0,6.06917e-06,-1.05729e+09,-1.05735e+09,-1.05719e+09,416345,0.0233035,-0.0696772,0,0.0734708,8332.6,-38481.9,0,39373.7,-416345
step02_gravity_refstate-crust.xmf,1163,-1.6238e-06,-3.03416e-06,0,6.65944e-06,-1.05063e+09,-1.05073e+09,-1.05052e+09,456837,0.0246136,-0.0808214,0,0.0844863,7490.65,-38238.1,0,38964.8,-456837
step02_gravity_refstate-crust.xmf,1164,-1.17629e-06,-1.44824e-06,0,4.85865e-06,-1.06033e+09,-1.06035e+09,-1.06025e+09,333304,0.0211384,-0.0516365,0,0.0557957,10009.8,-38595.4,0,39872.3,-333304
step02_gravity_refstate-crust.xmf,1165,-6.98016e-07,-7.27691e-07,0,3.70063e-06,-1.08087e+09,-1.08087e+09,-1.08082e+09,253863,0.0186855,-0.0294067,0,0.0348411,12585.9,-39346.1,0,41310,-253863
step02_gravity_refstate-crust.xmf,1166,-1.99531e-06,3.42196e-06,0,-1.74803e-06,-3.65861e+08,-3.6549e+08,-3.65724e+08,-119915,0.00960521,-0.0625919,0,0.0633247,-4226.72,-13316.8,-0,13971.5,-119915
step02_gravity_refstate-crust.xmf,1167,-2.25122e-06,4.05012e-06,0,-1.71862e-06,-4.01854e+08,-4.01422e+08,-4.017e+08,-117897,0.00888943,-0.06941,0,0.0699769,-3553.93,-14627.1,-0,15052.6,-117897
step02_gravity_refstate-crust.xmf,1168,-2.45614e-06,4.64189e-06,0,-1.97308e-06,-4.41082e+08,-4.40595e+08,-4.40914e+08,-135353,0.00965392,-0.0757681,0,0.0763807,-3490.43,-16055.3,-0,16430.3,-135353
step02_gravity_refstate-crust.xmf,1169,-1.79095e-06,2.30005e-06,0,-1.33138e-06,-2.62587e+08,-2.62307e+08,-2.62464e+08,-91332.8,0.00923628,-0.0508876,0,0.051719,-4634.41,-9556.07,-0,10620.6,-91332.8
step02_gravity_refstate-crust.xmf,1170,-1.83399e-06,1.347e-06,0,-1.05922e-06,-1.40746e+08,-1.40528e+08,-1.40621e+08,-72662.6,0.0139793,-0.03778,0,0.0402834,-6549.93,-5118.68,-0,8312.79,-72662.6
step02_gravity_refstate-crust.xmf,1171,-1.76232e-06,1.93083e-06,0,-1.25823e-06,-2.22428e+08,-2.22175e+08,-2.22307e+08,-86314.4,0.0101616,-0.046491,0,0.0475885,-5142.96,-8093.58,-0,9589.38,-86314.4
step02_gravity_refstate-crust.xmf,1172,-1.76814e-06,1.61229e-06,0,-1.18891e-06,-1.82783e+08,-1.82551e+08,-1.82661e+08,-81559.5,0.0117507,-0.042093,0,0.0437024,-5828.4,-6649.73,-0,8842.46,-81559.5
step02_gravity_refstate-crust.xmf,1173,-1.80941e-06,2.91e-06,0,-1.74106e-06,-3.31391e+08,-3.31068e+08,-3.31267e+08,-119437,0.0102287,-0.0567486,0,0.0576631,-4853.35,-12061.8,-0,13001.6,-119437
step02_gravity_refstate-crust.xmf,1174,-2.48516e-06,1.13551e-06,0,-4.23013e-07,-5.0368e+07,-5.01196e+07,-5.01975e+07,-29018.7,0.0172128,-0.0349047,0,0.0389181,-6141.07,-1825.4,-0,6406.62,-29018.7
step02_gravity_refstate-crust.xmf,1175,-4.20806e-06,8.78695e-06,0,-3.8321e-06,-6.13305e+08,-6.12413e+08,-6.13016e+08,-262882,0.0139481,-0.119505,0,0.120316,-2765.81,-22324.6,-0,22495.2,-262882
step02_gravity_refstate-crust.xmf,1176,-5.09073e-06,1.41864e-05,0,-1.08858e-05,-7.57874e+08,-7.56552e+08,-7.57525e+08,-746767,0.0236853,-0.183611,0,0.185133,-2449.84,-27592.5,-0,27701.1,-746767
step02_gravity_refstate-crust.xmf,1177,-3.90602e-06,8.82045e-06,0,-4.95976e-06,-6.35992e+08,-6.35119e+08,-6.35724e+08,-340240,0.0174377,-0.123157,0,0.124386,-3283.93,-23151.8,-0,23383.5,-340240
step02_gravity_refstate-crust.xmf,1178,-6.04822e-06,1.3405e-05,0,-7.01339e-06,-7.12028e+08,-7.10694e+08,-7.11613e+08,-481119,0.0182193,-0.163089,0,0.164104,-2256.81,-25918.4,-0,26016.4,-481119
step02_gravity_refstate-crust.xmf,1179,-5.11708e-06,1.17904e-05,0,-6.66138e-06,-6.95017e+08,-6.93857e+08,-6.94666e+08,-456971,0.0190301,-0.15076,0,0.151957,-2663.27,-25300.3,-0,25440.1,-456971
step02_gravity_refstate-crust.xmf,1180,-5.46221e-06,1.31717e-05,0,-8.46196e-06,-7.28336e+08,-7.27058e+08,-7.27961e+08,-580491,0.0211839,-0.167812,0,0.169144,-2509.99,-26514.1,-0,26632.6,-580491
step02_gravity_refstate-crust.xmf,1181,-2.87129e-06,5.9215e-06,0,-2.83411e-06,-5.18945e+08,-5.18342e+08,-5.18748e+08,-194420,0.0125853,-0.0900622,0,0.0909373,-3641.6,-18890.3,-0,19238.1,-194420
step02_gravity_refstate-crust.xmf,1182,-3.75091e-06,1.47362e-05,0,-1.64302e-05,-8.2439e+08,-8.23122e+08,-8.24133e+08,-1.12711e+06,0.0224666,-0.232731,0,0.233813,-1969.87,-30020.4,-0,30085,-1.12711e+06
step02_gravity_refstate-crust.xmf,1183,-3.8158e-06,1.47628e-05,0,-1.48587e-05,-8.00112e+08,-7.98837e+08,-7.9985e+08,-1.0193e+06,0.025076,-0.213435,0,0.214903,-2153.11,-29136.3,-0,29215.7,-1.0193e+06
step02_gravity_refstate-crust.xmf,1184,-3.74331e-06,1.37315e-05,0,-1.33657e-05,-7.85648e+08,-7.84449e+08,-7.85391e+08,-916884,0.0257024,-0.198412,0,0.20007,-2425.53,-28608.4,-0,28711.1,-916884
step02_gravity_refstate-crust.xmf,1185,-5.11665e-06,1.27962e-05,0,-2.03653e-05,-8.51239e+08,-8.5001e+08,-8.50888e+08,-1.39706e+06,0.0156111,-0.251008,0,0.251493,-1865.95,-30989.3,-0,31045.4,-1.39706e+06
step02_gravity_refstate-crust.xmf,1186,-5.2436e-06,1.06861e-05,0,-2.68095e-05,-8.72265e+08,-8.71172e+08,-8.71905e+08,-1.83913e+06,0.00845112,-0.284603,0,0.284728,-1410.62,-31751,-0,31782.3,-1.83913e+06
step02_gravity_refstate-crust.xmf,1187,4.37405e-06,-2.17786e-05,0,1.55318e-05,-1.04396e+09,-1.04576e+09,-1.04426e+09,1.06548e+06,0.0262564,-0.196522,0,0.198268,2063.69,-37990.5,0,38046.5,-1.06548e+06
step02_gravity_refstate-crust.xmf,1188,1.22173e-05,-3.09597e-05,0,2.10687e-05,-1.0342e+09,-1.03716e+09,-1.03503e+09,1.44531e+06,0.0193209,-0.234282,0,0.235078,1355.16,-37652.4,0,37676.8,-1.44531e+06
step02_gravity_refstate-crust.xmf,1189,1.21568e-06,-1.60881e-05,0,1.34472e-05,-1.05627e+09,-1.05745e+09,-1.05635e+09,922477,0.0286943,-0.164203,0,0.166691,2873.37,-38434.4,0,38541.7,-922477
step02_gravity_refstate-crust.xmf,1190,4.29947e-07,-1.33639e-05,0,1.24043e-05,-1.05255e+09,-1.05349e+09,-1.05258e+09,850934,0.0292369,-0.15474,0,0.157478,3332.77,-38300.1,0,38444.8,-850934
step02_gravity_refstate-crust.xmf,1191,-1.67004e-06,-3.82694e-06,0,7.32937e-06,-1.04723e+09,-1.04738e+09,-1.04712e+09,502795,0.0258136,-0.0918027,0,0.0953629,6734.79,-38112.9,0,38703.3,-502795
step02_gravity_refstate-crust.xmf,1192,-6.17717e-07,-9.28999e-06,0,1.06385e-05,-1.04234e+09,-1.04293e+09,-1.04229e+09,729799,0.029089,-0.13863,0,0.141649,4203.75,-37930.4,0,38162.6,-729799
step02_gravity_refstate-crust.xmf,1193,-1.19732e-06,-7.39506e-06,0,9.71012e-06,-1.04488e+09,-1.04531e+09,-1.0448e+09,666114,0.0285907,-0.124748,0,0.127982,4829.99,-38023.7,0,38329.2,-666114
step02_gravity_refstate-crust.xmf,1194,-1.49146e-06,-6.00375e-06,0,8.90785e-06,-1.04765e+09,-1.04796e+09,-1.04755e+09,611079,0.0278166,-0.112678,0,0.116061,5439.37,-38125.4,0,38511.4,-611079
step02_gravity_refstate-crust.xmf,1195,-1.63674e-06,-4.77951e-06,0,8.06851e-06,-1.04728e+09,-1.04749e+09,-1.04717e+09,553500,0.0268471,-0.101806,0,0.105286,6086.32,-38113.2,0,38596.1,-553500
step02_gravity_refstate-crust.xmf,1196,-1.04201e-06,-2.65854e-06,0,6.2689e-06,-1.07881e+09,-1.07892e+09,-1.07874e+09,430046,0.0219864,-0.0638102,0,0.0674918,8677.94,-39266.8,0,40214.3,-430046
step02_gravity_refstate-crust.xmf,1197,-9.71442e-07,-2.01607e-06,0,5.51289e-06,-1.07858e+09,-1.07865e+09,-1.07851e+09,378184,0.0211275,-0.0545654,0,0.0585129,9588.02,-39259.8,0,40413.6,-378184
step02_gravity_refstate-crust.xmf,1198,-9.29731e-07,-1.45925e-06,0,4.81117e-06,-1.07632e+09,-1.07635e+09,-1.07625e+09,330046,0.0203607,-0.0460036,0,0.050308,10526.8,-39178.4,0,40568,-330046
step02_gravity_refstate-crust.xmf,1199,-2.51262e-06,4.98829e-06,0,-2.44596e-06,-4.73467e+08,-4.72952e+08,-4.73294e+08,-167793,0.0116174,-0.0799836,0,0.0808229,-3897.32,-17234.6,-0,17669.8,-167793
step02_gravity_refstate-crust.xmf,1200,-1.97916e-06,1.12767e-06,0,-8.47995e-07,-9.52329e+07,-9.50197e+07,-9.50971e+07,-58172.5,0.0171627,-0.0335727,0,0.0377052,-7270.22,-3460.79,-0,8051.91,-58172.5
step02_gravity_refstate-crust.xmf,1201,-1.67462e-06,2.46289e-06,0,-1.70611e-06,-2.95899e+08,-2.95615e+08,-2.95784e+08,-117039,0.0109034,-0.0513406,0,0.0524856,-5482.4,-10769.5,-0,12084.7,-117039
step02_gravity_refstate-crust.xmf,1202,-2.84483e-06,1.08388e-06,0,-4.97161e-09,-270052,-542.535,-74896.7,-341.053,0.0233756,-0.030738,0,0.0386166,-6955.89,0,-0,6955.89,-341.053
step02_gravity_refstate-crust.xmf,1203,-4.4573e-06,1.23595e-05,0,-9.83059e-06,-7.43415e+08,-7.42261e+08,-7.43109e+08,-674379,0.0239364,-0.170711,0,0.172381,-2778.11,-27065.9,-0,27208.1,-674379
step02_gravity_refstate-crust.xmf,1204,-4.38028e-06,1.03038e-05,0,-6.23202e-06,-6.76694e+08,-6.75687e+08,-6.76394e+08,-427516,0.0194411,-0.139258,0,0.140609,-3061.21,-24634,-0,24823.4,-427516
step02_gravity_refstate-crust.xmf,1205,-3.82258e-06,9.13215e-06,0,-5.83979e-06,-6.58575e+08,-6.57686e+08,-6.58313e+08,-400610,0.0196112,-0.129168,0,0.130648,-3438.15,-23974.8,-0,24220,-400610
step02_gravity_refstate-crust.xmf,1206,-3.37229e-06,1.22757e-05,0,-1.20943e-05,-7.7244e+08,-7.71366e+08,-7.72208e+08,-829672,0.0261453,-0.184435,0,0.186279,-2750.79,-28126.8,-0,28261,-829672
step02_gravity_refstate-crust.xmf,1207,-2.50785e-06,5.19589e-06,0,-2.82022e-06,-4.94673e+08,-4.94144e+08,-4.945e+08,-193467,0.0131229,-0.0826377,0,0.0836731,-4196.12,-18006.9,-0,18489.4,-193467
step02_gravity_refstate-crust.xmf,1208,-3.64855e-06,7.70985e-06,0,-3.676e-06,-5.89128e+08,-5.88348e+08,-5.88877e+08,-252174,0.014308,-0.109709,0,0.110638,-3186.35,-21445,-0,21680.4,-252174
step02_gravity_refstate-crust.xmf,1209,-3.172e-06,6.83732e-06,0,-3.5405e-06,-5.64881e+08,-5.64195e+08,-5.64664e+08,-242878,0.0146074,-0.100704,0,0.101758,-3635.62,-20562.8,-0,20881.7,-242878
step02_gravity_refstate-crust.xmf,1210,-2.75664e-06,6.00807e-06,0,-3.41915e-06,-5.40484e+08,-5.39882e+08,-5.40295e+08,-234554,0.0148681,-0.0923188,0,0.0935084,-4120.53,-19675,-0,20101.9,-234554
step02_gravity_refstate-crust.xmf,1211,-2.84368e-06,1.34698e-05,0,-1.53696e-05,-8.13422e+08,-8.12303e+08,-8.13227e+08,-1.05435e+06,0.0246906,-0.21898,0,0.220368,-2197.84,-29622.8,-0,29704.2,-1.05435e+06
step02_gravity_refstate-crust.xmf,1212,-3.28546e-06,1.20628e-05,0,-1.6664e-05,-8.37146e+08,-8.36093e+08,-8.36921e+08,-1.14315e+06,0.0205512,-0.230165,0,0.231081,-2194.64,-30482.5,-0,30561.4,-1.14315e+06
step02_gravity_refstate-crust.xmf,1213,-5.34472e-06,1.01789e-05,0,-3.13588e-05,-8.79171e+08,-8.78106e+08,-8.78804e+08,-2.15121e+06,0.00515182,-0.312944,0,0.312987,-1000,-32001.2,-0,32016.9,-2.15121e+06
step02_gravity_refstate-crust.xmf,1214,-4.94765e-06,1.09539e-05,0,-2.32612e-05,-8.65356e+08,-8.64265e+08,-8.65016e+08,-1.59572e+06,0.0115075,-0.264254,0,0.264504,-1725.83,-31501.1,-0,31548.3,-1.59572e+06
step02_gravity_refstate-crust.xmf,1215,-3.64826e-06,7.22716e-06,0,-2.73403e-05,-8.85972e+08,-8.85226e+08,-8.85722e+08,-1.87555e+06,0.00608786,-0.286622,0,0.286687,-1451.74,-32251.1,-0,32283.8,-1.87555e+06
step02_gravity_refstate-crust.xmf,1216,-3.54155e-06,6.41563e-06,0,-3.19547e-05,-8.92854e+08,-8.92171e+08,-8.92611e+08,-2.19209e+06,0.00339195,-0.317053,0,0.317071,-1000,-32500.8,-0,32516.2,-2.19209e+06
step02_gravity_refstate-crust.xmf,1217,-2.13929e-06,3.83383e-06,0,-2.79547e-05,-8.99779e+08,-8.99369e+08,-8.99632e+08,-1.91769e+06,0.0036163,-0.289235,0,0.289258,-1454.22,-32754.6,-0,32786.9,-1.91769e+06
step02_gravity_refstate-crust.xmf,1218,-1.82086e-06,2.79916e-06,0,-3.23595e-05,-9.0653e+08,-9.06213e+08,-9.06405e+08,-2.21986e+06,0.00169852,-0.319332,0,0.319337,-1000,-33000.1,-0,33015.2,-2.21986e+06
step02_gravity_refstate-crust.xmf,1219,2.7254e-06,-2.0162e-05,0,1.48219e-05,-1.05667e+09,-1.05824e+09,-1.05686e+09,1.01678e+06,0.0275543,-0.178535,0,0.180649,2329.83,-38449.1,0,38519.6,-1.01678e+06
step02_gravity_refstate-crust.xmf,1220,6.1511e-06,-2.78882e-05,0,1.78648e-05,-1.0446e+09,-1.04693e+09,-1.04502e+09,1.22553e+06,0.023315,-0.21538,0,0.216638,1541.19,-38011.4,0,38042.6,-1.22553e+06
step02_gravity_refstate-crust.xmf,1221,1.52082e-05,-4.86735e-05,0,2.06223e-05,-1.04416e+09,-1.04855e+09,-1.04521e+09,1.41469e+06,0.0182801,-0.241392,0,0.242083,1000,-38000,0,38013.2,-1.41469e+06
step02_gravity_refstate-crust.xmf,1222,-2.79303e-07,-1.12992e-05,0,1.16183e-05,-1.05632e+09,-1.05707e+09,-1.0563e+09,797018,0.029119,-0.142251,0,0.145201,3803,-38437.6,0,38625.3,-797018
step02_gravity_refstate-crust.xmf,1223,-1.16152e-06,-3.46902e-06,0,7.14228e-06,-1.07663e+09,-1.07679e+09,-1.07655e+09,489960,0.0231591,-0.0749705,0,0.078466,7710.33,-39185.7,0,39937.1,-489960
step02_gravity_refstate-crust.xmf,1224,-1.37125e-06,-4.12745e-06,0,7.72371e-06,-1.06756e+09,-1.06775e+09,-1.06747e+09,529847,0.0248332,-0.0861769,0,0.0896836,6924.68,-38853.7,0,39466,-529847
step02_gravity_refstate-crust.xmf,1225,-1.69895e-06,3.04716e-06,0,-2.16528e-06,-3.63127e+08,-3.62801e+08,-3.6301e+08,-148538,0.0121715,-0.057482,0,0.0587565,-5644.28,-13217.8,-0,14372.5,-148538
step02_gravity_refstate-crust.xmf,1226,-1.88887e-06,3.55781e-06,0,-2.24202e-06,-3.96687e+08,-3.96313e+08,-3.96557e+08,-153802,0.0119217,-0.0636304,0,0.0647376,-5074.88,-14439.6,-0,15305.5,-153802
step02_gravity_refstate-crust.xmf,1227,-2.08024e-06,4.07347e-06,0,-2.37366e-06,-4.29365e+08,-4.28943e+08,-4.29222e+08,-162833,0.012031,-0.0696564,0,0.0706877,-4681.66,-15629.4,-0,16315.5,-162833
step02_gravity_refstate-crust.xmf,1228,-1.60916e-06,1.19217e-06,0,-1.2174e-06,-1.37205e+08,-1.37013e+08,-1.37095e+08,-83513.5,0.0170363,-0.0321176,0,0.0363562,-8255.03,-4990.43,-0,9646.24,-83513.5
step02_gravity_refstate-crust.xmf,1229,-1.59026e-06,2.07119e-06,0,-1.63906e-06,-2.5876e+08,-2.58509e+08,-2.58651e+08,-112440,0.0117214,-0.0462976,0,0.0477583,-6109.21,-9417.2,-0,11225.2,-112440
step02_gravity_refstate-crust.xmf,1230,-1.55354e-06,1.43741e-06,0,-1.4162e-06,-1.80268e+08,-1.80063e+08,-1.80162e+08,-97151.5,0.0145797,-0.0367494,0,0.0395359,-7504.17,-6558.79,-0,9966.46,-97151.5
step02_gravity_refstate-crust.xmf,1231,-1.5521e-06,1.72945e-06,0,-1.54392e-06,-2.19999e+08,-2.19773e+08,-2.19892e+08,-105913,0.012877,-0.0414752,0,0.0434282,-6771.76,-8005.67,-0,10485.6,-105913
step02_gravity_refstate-crust.xmf,1232,-1.54272e-06,2.58766e-06,0,-2.09261e-06,-3.28983e+08,-3.28699e+08,-3.28877e+08,-143553,0.0125864,-0.0516162,0,0.0531287,-6280.64,-11974.7,-0,13521.8,-143553
step02_gravity_refstate-crust.xmf,1233,-2.17786e-06,1.00455e-06,0,-5.02357e-07,-4.87795e+07,-4.85612e+07,-4.86301e+07,-34461.7,0.0217279,-0.0293971,0,0.0365553,-8030.42,-1768.61,-0,8222.87,-34461.7
step02_gravity_refstate-crust.xmf,1234,-3.38647e-06,7.6639e-06,0,-4.55071e-06,-6.10557e+08,-6.09799e+08,-6.10324e+08,-312179,0.0172947,-0.112426,0,0.113749,-3687.78,-22226.1,-0,22530,-312179
step02_gravity_refstate-crust.xmf,1235,-3.06616e-06,1.10081e-05,0,-1.09208e-05,-7.57923e+08,-7.56958e+08,-7.57713e+08,-749167,0.026277,-0.171317,0,0.173321,-3082.58,-27597.6,-0,27769.2,-749167
step02_gravity_refstate-crust.xmf,1236,-3.27885e-06,8.13737e-06,0,-5.69269e-06,-6.45817e+08,-6.45034e+08,-6.45592e+08,-390519,0.0202321,-0.121068,0,0.122747,-3871.77,-23510.9,-0,23827.6,-390519
step02_gravity_refstate-crust.xmf,1237,-4.24059e-06,1.10733e-05,0,-8.13418e-06,-7.13811e+08,-7.12761e+08,-7.1352e+08,-558005,0.0225366,-0.153707,0,0.15535,-3061.23,-25987,-0,26166.7,-558005
step02_gravity_refstate-crust.xmf,1238,-3.67778e-06,9.76411e-06,0,-7.36672e-06,-6.94755e+08,-6.93833e+08,-6.94503e+08,-505357,0.0224646,-0.141489,0,0.143261,-3447.06,-25293.5,-0,25527.3,-505357
step02_gravity_refstate-crust.xmf,1239,-3.9614e-06,1.1218e-05,0,-9.15331e-06,-7.31226e+08,-7.30184e+08,-7.30954e+08,-627917,0.0241354,-0.160484,0,0.162289,-3081.04,-26622.3,-0,26800,-627917
step02_gravity_refstate-crust.xmf,1240,-2.40441e-06,5.27424e-06,0,-3.27926e-06,-5.14645e+08,-5.14118e+08,-5.1448e+08,-224958,0.0149633,-0.0843813,0,0.0856978,-4611.46,-18734.6,-0,19293.8,-224958
step02_gravity_refstate-crust.xmf,1241,-1.97273e-06,1.113e-05,0,-1.49904e-05,-8.23397e+08,-8.22498e+08,-8.23262e+08,-1.02834e+06,0.0239823,-0.215164,0,0.216496,-2441.66,-29985.8,-0,30085.1,-1.02834e+06
step02_gravity_refstate-crust.xmf,1242,-1.64769e-06,1.08045e-05,0,-1.41713e-05,-8.09924e+08,-8.0907e+08,-8.09811e+08,-972148,0.0259371,-0.204052,0,0.205694,-2615.84,-29496.2,-0,29611.9,-972148
step02_gravity_refstate-crust.xmf,1243,-2.2396e-06,1.1519e-05,0,-1.36907e-05,-7.96281e+08,-7.95337e+08,-7.96127e+08,-939179,0.0266007,-0.197481,0,0.199265,-2648.06,-28998.2,-0,29118.8,-939179
step02_gravity_refstate-crust.xmf,1244,-1.72262e-06,1.01562e-05,0,-1.26234e-05,-7.86863e+08,-7.86048e+08,-7.86745e+08,-865966,0.0273689,-0.183903,0,0.185928,-3023.19,-28655.3,-0,28814.3,-865966
step02_gravity_refstate-crust.xmf,1245,-6.97817e-07,6.51226e-07,0,-2.8529e-05,-9.13361e+08,-9.13268e+08,-9.13313e+08,-1.95709e+06,0.00123298,-0.291668,0,0.29167,-1432.61,-33250,-0,33280.9,-1.95709e+06
step02_gravity_refstate-crust.xmf,1246,-1.45936e-07,-7.37191e-07,0,-3.25926e-05,-9.20223e+08,-9.20264e+08,-9.20213e+08,-2.23585e+06,4.71453e-05,-0.319839,0,0.319839,-1000,-33499.9,-0,33514.8,-2.23585e+06
step02_gravity_refstate-crust.xmf,1247,-2.50894e-06,9.03818e-06,0,-1.69151e-05,-8.51322e+08,-8.5053e+08,-8.5115e+08,-1.16038e+06,0.017781,-0.22536,0,0.226061,-2448.19,-30997.1,-0,31093.6,-1.16038e+06
step02_gravity_refstate-crust.xmf,1248,-3.3198e-06,8.70937e-06,0,-1.99133e-05,-8.65227e+08,-8.64401e+08,-8.64999e+08,-1.36605e+06,0.0133312,-0.24237,0,0.242736,-2164.86,-31499.5,-0,31573.8,-1.36605e+06
step02_gravity_refstate-crust.xmf,1249,-3.52965e-06,7.84489e-06,0,-2.32759e-05,-8.77105e+08,-8.76325e+08,-8.76863e+08,-1.59673e+06,0.00937205,-0.261501,0,0.261669,-1854.28,-31929.7,-0,31983.5,-1.59673e+06
step02_gravity_refstate-crust.xmf,1250,5.30165e-06,-1.2903e-05,0,-2.85265e-05,-9.70652e+08,-9.719e+08,-9.71015e+08,-1.95692e+06,-0.00797086,-0.282421,-0,0.282534,-1376.2,-35339,-0,35365.8,-1.95692e+06
step02_gravity_refstate-crust.xmf,1251,4.72593e-06,-1.11898e-05,0,-3.23252e-05,-9.61347e+08,-9.62438e+08,-9.61671e+08,-2.21751e+06,-0.00478811,-0.310878,-0,0.310915,-1000,-35000.6,-0,35014.9,-2.21751e+06
step02_gravity_refstate-crust.xmf,1252,6.31971e-06,-1.48657e-05,0,-3.19747e-05,-9.7504e+08,-9.76493e+08,-9.75473e+08,-2.19346e+06,-0.00639417,-0.304388,-0,0.304455,-1000,-35499.8,-0,35513.9,-2.19346e+06
step02_gravity_refstate-crust.xmf,1253,4.97053e-06,-2.56919e-05,0,1.66449e-05,-1.0564e+09,-1.0585e+09,-1.05674e+09,1.14184e+06,0.0254486,-0.194924,0,0.196579,1789.82,-38439.6,0,38481.2,-1.14184e+06
step02_gravity_refstate-crust.xmf,1254,5.87333e-07,-1.44498e-05,0,1.29066e-05,-1.06843e+09,-1.06946e+09,-1.06847e+09,885391,0.0277598,-0.148731,0,0.1513,3244.74,-38877.1,0,39012.3,-885391
step02_gravity_refstate-crust.xmf,1255,2.17863e-06,-1.89448e-05,0,1.42432e-05,-1.07038e+09,-1.07183e+09,-1.07053e+09,977084,0.0264891,-0.162769,0,0.164911,2563.31,-38947.8,0,39032.1,-977084
step02_gravity_refstate-crust.xmf,1256,-1.38788e-06,-4.96593e-06,0,8.33046e-06,-1.06316e+09,-1.0634e+09,-1.06306e+09,571469,0.0260449,-0.096207,0,0.0996701,6265.93,-38692,0,39196.1,-571469
step02_gravity_refstate-crust.xmf,1257,-8.32223e-07,-9.17075e-06,0,1.07574e-05,-1.05994e+09,-1.06051e+09,-1.05989e+09,737959,0.0285325,-0.128504,0,0.131634,4406.97,-38570.7,0,38821.7,-737959
step02_gravity_refstate-crust.xmf,1258,-1.22974e-06,-7.36868e-06,0,9.92805e-06,-1.06357e+09,-1.06399e+09,-1.06348e+09,681064,0.0275701,-0.115417,0,0.118664,5062.07,-38703.8,0,39033.5,-681064
step02_gravity_refstate-crust.xmf,1259,-1.33533e-06,-6.04013e-06,0,9.1215e-06,-1.06574e+09,-1.06606e+09,-1.06565e+09,625735,0.0266077,-0.104445,0,0.107781,5693.73,-38784.5,0,39200.2,-625735
step02_gravity_refstate-crust.xmf,1260,-2.1585e-06,4.62648e-06,0,-3.03713e-06,-4.8438e+08,-4.83915e+08,-4.84232e+08,-208347,0.0145092,-0.0771285,0,0.0784814,-4963.11,-17632.8,-0,18317.9,-208347
step02_gravity_refstate-crust.xmf,1261,-2.20846e-06,4.45162e-06,0,-2.56568e-06,-4.55383e+08,-4.54926e+08,-4.55232e+08,-176005,0.0125837,-0.0741632,0,0.0752232,-4562.46,-16576.6,-0,17193,-176005
step02_gravity_refstate-crust.xmf,1262,-1.70911e-06,9.88545e-07,0,-9.46856e-07,-9.2596e+07,-9.2411e+07,-9.24788e+07,-64954.3,0.0205633,-0.027592,0,0.0344117,-9035.17,-3365.67,-0,9641.69,-64954.3
step02_gravity_refstate-crust.xmf,1263,-1.42844e-06,2.18148e-06,0,-2.00327e-06,-2.93436e+08,-2.93188e+08,-2.93338e+08,-137425,0.0131477,-0.0460632,0,0.0479028,-6941.9,-10680.4,-0,12738.2,-137425
step02_gravity_refstate-crust.xmf,1264,-2.3807e-06,9.08668e-07,0,-8.6879e-09,-225924,-273.724,-62608.3,-595.99,0.0286688,-0.0246542,0,0.0378118,-8975.48,0,-0,8975.48,-595.99
step02_gravity_refstate-crust.xmf,1265,-2.96734e-06,7.44862e-06,0,-5.35745e-06,-6.29493e+08,-6.28779e+08,-6.2929e+08,-367521,0.0200231,-0.113821,0,0.115569,-4160.84,-22916.9,-0,23291.5,-367521
step02_gravity_refstate-crust.xmf,1266,-2.81887e-06,9.90695e-06,0,-9.89559e-06,-7.4318e+08,-7.42307e+08,-7.42986e+08,-678837,0.0261784,-0.159767,0,0.161897,-3398.47,-27060.1,-0,27272.7,-678837
step02_gravity_refstate-crust.xmf,1267,-2.79438e-06,7.71213e-06,0,-6.33569e-06,-6.59786e+08,-6.59065e+08,-6.59594e+08,-434629,0.0223218,-0.121492,0,0.123525,-4231.01,-24020.8,-0,24390.6,-434629
step02_gravity_refstate-crust.xmf,1268,-3.20941e-06,8.67358e-06,0,-6.80682e-06,-6.77186e+08,-6.76371e+08,-6.76966e+08,-466948,0.0223963,-0.131097,0,0.132996,-3828.11,-24654.1,-0,24949.5,-466948
step02_gravity_refstate-crust.xmf,1269,-1.53849e-06,9.11383e-06,0,-1.14851e-05,-7.73123e+08,-7.72393e+08,-7.73018e+08,-787876,0.0277531,-0.17039,0,0.172636,-3392.76,-28154.2,-0,28357.9,-787876
step02_gravity_refstate-crust.xmf,1270,-2.94044e-06,6.74787e-06,0,-4.288e-06,-5.87286e+08,-5.86621e+08,-5.87084e+08,-294157,0.0173209,-0.103129,0,0.104574,-4130.36,-21379.3,-0,21774.6,-294157
step02_gravity_refstate-crust.xmf,1271,-2.53149e-06,5.96431e-06,0,-4.0679e-06,-5.63162e+08,-5.62579e+08,-5.62988e+08,-279058,0.0173582,-0.0941555,0,0.0957422,-4630.4,-20501.5,-0,21017.9,-279058
step02_gravity_refstate-crust.xmf,1272,-2.19095e-06,5.23348e-06,0,-3.84614e-06,-5.38033e+08,-5.37523e+08,-5.37882e+08,-263845,0.0172634,-0.0857963,0,0.0875159,-5135.98,-19586.9,-0,20249,-263845
step02_gravity_refstate-crust.xmf,1273,7.48097e-07,-2.59161e-06,0,-2.87073e-05,-9.27076e+08,-9.27305e+08,-9.27127e+08,-1.96932e+06,-0.00107569,-0.291159,-0,0.291161,-1433.03,-33750.1,-0,33780.5,-1.96932e+06
step02_gravity_refstate-crust.xmf,1274,1.49576e-06,-4.23771e-06,0,-3.26674e-05,-9.33935e+08,-9.34329e+08,-9.34038e+08,-2.24099e+06,-0.00157732,-0.318594,-0,0.318598,-1000,-34000.3,-0,34015,-2.24099e+06
step02_gravity_refstate-crust.xmf,1275,2.15352e-06,-5.72013e-06,0,-2.88145e-05,-9.40435e+08,-9.40975e+08,-9.40583e+08,-1.97668e+06,-0.00326691,-0.28992,-0,0.289939,-1420.54,-34237.3,-0,34266.8,-1.97668e+06
step02_gravity_refstate-crust.xmf,1276,3.1074e-06,-7.70973e-06,0,-3.25856e-05,-9.4765e+08,-9.48392e+08,-9.47863e+08,-2.23537e+06,-0.00318643,-0.315607,-0,0.315624,-1000,-34500.8,-0,34515.3,-2.23537e+06
step02_gravity_refstate-crust.xmf,1277,-1.32442e-06,8.59959e-06,0,-1.47142e-05,-8.36916e+08,-8.36235e+08,-8.36825e+08,-1.00939e+06,0.0218374,-0.209645,0,0.210779,-2736.98,-30476.7,-0,30599.4,-1.00939e+06
step02_gravity_refstate-crust.xmf,1278,-1.90092e-06,3.99863e-06,0,-2.31676e-05,-8.93453e+08,-8.93048e+08,-8.93323e+08,-1.5893e+06,0.00601365,-0.257671,0,0.257742,-1994.12,-32525.6,-0,32586.6,-1.5893e+06
step02_gravity_refstate-crust.xmf,1279,-1.01176e-06,1.67419e-06,0,-2.48537e-05,-9.06491e+08,-9.06306e+08,-9.06421e+08,-1.70496e+06,0.00291066,-0.267049,0,0.267065,-1846.86,-33000.2,-0,33051.8,-1.70496e+06
step02_gravity_refstate-crust.xmf,1280,3.35745e-06,-8.45694e-06,0,-2.8949e-05,-9.5175e+08,-9.52561e+08,-9.5198e+08,-1.9859e+06,-0.00500456,-0.289078,-0,0.289121,-1387.34,-34649.9,-0,34677.7,-1.9859e+06
step02_gravity_refstate-crust.xmf,1281,6.38967e-06,-1.56186e-05,0,-2.74933e-05,-9.81925e+08,-9.83435e+08,-9.82364e+08,-1.88604e+06,-0.0101314,-0.273156,-0,0.273344,-1432.52,-35749.6,-0,35778.3,-1.88604e+06
step02_gravity_refstate-crust.xmf,1282,7.9533e-06,-1.85816e-05,0,-3.14297e-05,-9.88739e+08,-9.90559e+08,-9.89285e+08,-2.15608e+06,-0.0080219,-0.296077,-0,0.296186,-1000,-35999.4,-0,36013.3,-2.15608e+06
step02_gravity_refstate-crust.xmf,1283,4.07092e-06,-1.02303e-05,0,-2.66045e-05,-9.6137e+08,-9.62351e+08,-9.61649e+08,-1.82507e+06,-0.00754983,-0.27133,-0,0.271435,-1627.05,-35000.3,-0,35038.1,-1.82507e+06
step02_gravity_refstate-crust.xmf,1284,7.97524e-06,-1.9433e-05,0,-2.72479e-05,-9.95643e+08,-9.97523e+08,-9.9619e+08,-1.86921e+06,-0.0118835,-0.268699,-0,0.268962,-1360.96,-36249.6,-0,36275.1,-1.86921e+06
step02_gravity_refstate-crust.xmf,1285,9.74255e-06,-2.24049e-05,0,-3.07931e-05,-1.00244e+09,-1.00465e+09,-1.00311e+09,-2.11241e+06,-0.00970442,-0.285848,-0,0.286012,-1000,-36499.7,-0,36513.4,-2.11241e+06
step02_gravity_refstate-crust.xmf,1286,4.27162e-06,-2.3791e-05,0,1.53212e-05,-1.0691e+09,-1.07102e+09,-1.06939e+09,1.05104e+06,0.025068,-0.17638,0,0.178152,2039.15,-38901.9,0,38955.3,-1.05104e+06
step02_gravity_refstate-crust.xmf,1287,1.98178e-05,-5.39027e-05,0,5.66109e-06,-1.0528e+09,-1.05785e+09,-1.05415e+09,388350,0.00664368,-0.241955,0,0.242046,330.672,-38324.8,0,38326.2,-388350
step02_gravity_refstate-crust.xmf,1288,2.03844e-05,-5.82698e-05,0,-1.66561e-07,-1.044e+09,-1.04939e+09,-1.0454e+09,-11426.1,8.08191e-06,-0.262106,0,0.262106,0,-38000,0,38000,-11426.1
step02_gravity_refstate-crust.xmf,1289,1.93878e-05,-5.67616e-05,0,9.27775e-06,-1.04404e+09,-1.04927e+09,-1.04537e+09,636453,0.00990714,-0.257375,0,0.257566,500,-38000,0,38003.3,-636453
step02_gravity_refstate-crust.xmf,1290,1.04096e-05,-3.56053e-05,0,1.83988e-05,-1.05613e+09,-1.05929e+09,-1.05685e+09,1.26216e+06,0.0215635,-0.213113,0,0.214201,1248.3,-38436.6,0,38456.9,-1.26216e+06
step02_gravity_refstate-crust.xmf,1291,1.81615e-05,-4.96981e-05,0,1.27694e-05,-1.05495e+09,-1.05961e+09,-1.0562e+09,875979,0.0143089,-0.230727,0,0.23117,735.242,-38403.1,0,38410.1,-875979
step02_gravity_refstate-crust.xmf,1292,-1.9743e-07,-1.1451e-05,0,1.19101e-05,-1.07275e+09,-1.07352e+09,-1.07274e+09,817030,0.0271486,-0.133093,0,0.135833,3918.86,-39036,0,39232.2,-817030
step02_gravity_refstate-crust.xmf,1293,-8.24319e-07,-4.6369e-06,0,8.13517e-06,-1.08496e+09,-1.08522e+09,-1.0849e+09,558072,0.0229572,-0.0828792,0,0.0859999,6963.42,-39488.4,0,40097.7,-558072
step02_gravity_refstate-crust.xmf,1294,-1.00467e-06,-5.59549e-06,0,8.937e-06,-1.0803e+09,-1.08061e+09,-1.08023e+09,613079,0.024264,-0.09345,0,0.0965487,6227.97,-39316.6,0,39806.9,-613079
step02_gravity_refstate-crust.xmf,1295,-1.89862e-06,4.06945e-06,0,-2.90676e-06,-4.55639e+08,-4.5523e+08,-4.55509e+08,-199404,0.0144869,-0.0700393,0,0.0715218,-5484.63,-16586.6,-0,17469.9,-199404
step02_gravity_refstate-crust.xmf,1296,-1.38726e-06,2.65695e-06,0,-2.47284e-06,-3.6064e+08,-3.60363e+08,-3.60545e+08,-169637,0.0142502,-0.0516152,0,0.0535462,-7024.39,-13128,-0,14889.1,-169637
step02_gravity_refstate-crust.xmf,1297,-1.54024e-06,3.10315e-06,0,-2.5984e-06,-3.93653e+08,-3.93335e+08,-3.93548e+08,-178250,0.0141603,-0.0576887,0,0.0594012,-6425.53,-14329.9,-0,15704.6,-178250
step02_gravity_refstate-crust.xmf,1298,-1.71473e-06,3.58274e-06,0,-2.74125e-06,-4.25725e+08,-4.25361e+08,-4.25607e+08,-188050,0.0142441,-0.0639189,0,0.0654868,-5905.39,-15497.5,-0,16584.6,-188050
step02_gravity_refstate-crust.xmf,1299,-1.34868e-06,1.03052e-06,0,-1.32584e-06,-1.34645e+08,-1.34482e+08,-1.34552e+08,-90952.3,0.0196748,-0.0256416,0,0.0323201,-9965.27,-4898.02,-0,11103.9,-90952.3
step02_gravity_refstate-crust.xmf,1300,-1.30199e-06,1.2491e-06,0,-1.58633e-06,-1.78443e+08,-1.78268e+08,-1.78354e+08,-108822,0.0170772,-0.0303561,0,0.0348299,-9222.82,-6493.06,-0,11279.2,-108822
step02_gravity_refstate-crust.xmf,1301,-1.35355e-06,1.82607e-06,0,-1.89534e-06,-2.56577e+08,-2.56359e+08,-2.56484e+08,-130020,0.0139731,-0.0407551,0,0.0430839,-7639.12,-9338.28,-0,12064.8,-130020
step02_gravity_refstate-crust.xmf,1302,-1.30508e-06,1.51528e-06,0,-1.77295e-06,-2.1909e+08,-2.18896e+08,-2.19e+08,-121624,0.0152601,-0.0354526,0,0.0385974,-8433.1,-7973.25,-0,11605.6,-121624
step02_gravity_refstate-crust.xmf,1303,-1.26734e-06,2.25385e-06,0,-2.34337e-06,-3.26021e+08,-3.2578e+08,-3.25935e+08,-160755,0.0144859,-0.0457826,0,0.0480197,-7663.22,-11867.5,-0,14126.7,-160755
step02_gravity_refstate-crust.xmf,1304,-1.81168e-06,8.50616e-07,0,-5.47363e-07,-4.6795e+07,-4.66124e+07,-4.66707e+07,-37549.1,0.0257197,-0.0227529,0,0.0343394,-9947.09,-1697.61,-0,10090.9,-37549.1
step02_gravity_refstate-crust.xmf,1305,-2.59679e-06,6.57703e-06,0,-5.01946e-06,-6.09293e+08,-6.08664e+08,-6.09115e+08,-344335,0.0198964,-0.105061,0,0.106929,-4581.99,-22181.6,-0,22649.9,-344335
step02_gravity_refstate-crust.xmf,1306,-1.4889e-06,8.36203e-06,0,-1.04701e-05,-7.5791e+08,-7.57234e+08,-7.57808e+08,-718246,0.0277663,-0.158363,0,0.160778,-3735.99,-27599.4,-0,27851.1,-718246
step02_gravity_refstate-crust.xmf,1307,-2.52158e-06,7.02404e-06,0,-5.9375e-06,-6.44527e+08,-6.43872e+08,-6.44354e+08,-407312,0.0220877,-0.114204,0,0.116321,-4541.01,-23465.3,-0,23900.7,-407312
step02_gravity_refstate-crust.xmf,1308,-2.39563e-06,7.88013e-06,0,-7.60887e-06,-6.94473e+08,-6.93768e+08,-6.94308e+08,-521968,0.0248175,-0.131412,0,0.133734,-4225.97,-25285.5,-0,25636.2,-521968
step02_gravity_refstate-crust.xmf,1309,-2.71976e-06,9.25471e-06,0,-9.06368e-06,-7.27388e+08,-7.26567e+08,-7.27202e+08,-621768,0.0257521,-0.149882,0,0.152078,-3657.42,-26484.6,-0,26736,-621768
step02_gravity_refstate-crust.xmf,1310,-2.67029e-06,8.6696e-06,0,-8.23814e-06,-7.10149e+08,-7.09371e+08,-7.09965e+08,-565137,0.025094,-0.140795,0,0.143013,-3885.92,-25856.3,-0,26146.7,-565137
step02_gravity_refstate-crust.xmf,1311,-1.91579e-06,4.59693e-06,0,-3.61463e-06,-5.11013e+08,-5.10566e+08,-5.10881e+08,-247964,0.0169941,-0.0779908,0,0.0798208,-5625.69,-18603.3,-0,19435.3,-247964
step02_gravity_refstate-crust.xmf,1312,-5.09332e-07,8.03629e-06,0,-1.34504e-05,-8.22202e+08,-8.21615e+08,-8.22167e+08,-922700,0.024872,-0.195973,0,0.197545,-3012.42,-29943.5,-0,30094.6,-922700
step02_gravity_refstate-crust.xmf,1313,-3.83516e-07,7.99715e-06,0,-1.26623e-05,-8.04524e+08,-8.03949e+08,-8.04497e+08,-868631,0.0270042,-0.184141,0,0.186111,-3238.21,-29300.3,-0,29478.7,-868631
step02_gravity_refstate-crust.xmf,1314,-1.83405e-07,7.13545e-06,0,-1.15203e-05,-7.89105e+08,-7.88602e+08,-7.89092e+08,-790291,0.0279682,-0.168321,0,0.170629,-3688.01,-28738.4,-0,28974.1,-790291
step02_gravity_refstate-crust.xmf,1315,3.35552e-07,-1.5177e-06,0,-2.42414e-05,-9.20953e+08,-9.2108e+08,-9.20976e+08,-1.66296e+06,-0.000166026,-0.260684,-0,0.260684,-1963.54,-33527.2,-0,33584.7,-1.66296e+06
step02_gravity_refstate-crust.xmf,1316,-7.60564e-07,6.21861e-06,0,-1.44879e-05,-8.51282e+08,-8.50803e+08,-8.5123e+08,-993869,0.0187089,-0.203404,0,0.204263,-3019.55,-30998.3,-0,31145,-993869
step02_gravity_refstate-crust.xmf,1317,-1.55906e-06,6.11425e-06,0,-1.67307e-05,-8.65825e+08,-8.65299e+08,-8.65718e+08,-1.14773e+06,0.0144894,-0.218578,0,0.219058,-2711.64,-31524.4,-0,31640.8,-1.14773e+06
step02_gravity_refstate-crust.xmf,1318,-1.96018e-06,5.31184e-06,0,-1.96609e-05,-8.80346e+08,-8.79847e+08,-8.80212e+08,-1.34874e+06,0.0100043,-0.236265,0,0.236477,-2378.54,-32050.2,-0,32138.3,-1.34874e+06
step02_gravity_refstate-crust.xmf,1319,4.86051e-06,-1.24962e-05,0,-2.44522e-05,-9.73588e+08,-9.74778e+08,-9.73921e+08,-1.67742e+06,-0.0107681,-0.255254,-0,0.255481,-1821.44,-35444.8,-0,35491.5,-1.67742e+06
step02_gravity_refstate-crust.xmf,1320,9.66729e-06,-2.31783e-05,0,-2.62014e-05,-1.00936e+09,-1.01161e+09,-1.01002e+09,-1.79742e+06,-0.0141383,-0.258594,-0,0.25898,-1352.57,-36749.9,-0,36774.8,-1.79742e+06
step02_gravity_refstate-crust.xmf,1321,1.16219e-05,-2.7115e-05,0,-2.96813e-05,-1.01618e+09,-1.01884e+09,-1.01698e+09,-2.03613e+06,-0.0115404,-0.273559,-0,0.273802,-1000,-37000.2,-0,37013.7,-2.03613e+06
step02_gravity_refstate-crust.xmf,1322,1.03715e-05,-2.67623e-05,0,-2.30138e-05,-1.02318e+09,-1.02572e+09,-1.02389e+09,-1.57875e+06,-0.0175955,-0.241767,-0,0.242406,-1432.91,-37250.2,-0,37277.8,-1.57875e+06
step02_gravity_refstate-crust.xmf,1323,1.43755e-05,-3.19377e-05,0,-2.87679e-05,-1.02982e+09,-1.03299e+09,-1.0308e+09,-1.97348e+06,-0.0138638,-0.258948,-0,0.259319,-1000,-37500.2,-0,37513.6,-1.97348e+06
step02_gravity_refstate-crust.xmf,1324,7.62275e-06,-3.14206e-05,0,1.66082e-05,-1.06752e+09,-1.0702e+09,-1.06804e+09,1.13932e+06,0.0221861,-0.191853,0,0.193132,1501.2,-38846.2,0,38875.2,-1.13932e+06
step02_gravity_refstate-crust.xmf,1325,2.02553e-05,-5.31698e-05,0,-2.37974e-07,-1.05661e+09,-1.06165e+09,-1.058e+09,-16325,1.14069e-06,-0.236128,0,0.236128,0,-38466.7,0,38466.7,-16325
step02_gravity_refstate-crust.xmf,1326,2.00376e-06,-1.78811e-05,0,1.39365e-05,-1.08474e+09,-1.0861e+09,-1.08487e+09,956047,0.0232374,-0.148365,0,0.150173,2789.64,-39471.3,0,39569.7,-956047
step02_gravity_refstate-crust.xmf,1327,4.36507e-06,-2.3575e-05,0,1.42519e-05,-1.08489e+09,-1.0868e+09,-1.08519e+09,977678,0.0210132,-0.161586,0,0.162946,2089.75,-39477.5,0,39532.8,-977678
step02_gravity_refstate-crust.xmf,1328,9.03209e-07,-1.42325e-05,0,1.31351e-05,-1.08574e+09,-1.08678e+09,-1.0858e+09,901066,0.0238342,-0.136042,0,0.138114,3429.73,-39509,0,39657.6,-901066
step02_gravity_refstate-crust.xmf,1329,-5.20896e-07,-9.34882e-06,0,1.11755e-05,-1.08052e+09,-1.08113e+09,-1.08049e+09,766640,0.0253946,-0.118046,0,0.120747,4602.52,-39320.9,0,39589.4,-766640
step02_gravity_refstate-crust.xmf,1330,-7.75982e-07,-7.25923e-06,0,1.00566e-05,-1.08196e+09,-1.08241e+09,-1.08191e+09,689884,0.0246457,-0.104723,0,0.107584,5419.73,-39375.5,0,39746.7,-689884
step02_gravity_refstate-crust.xmf,1331,-1.38821e-06,8.3302e-07,0,-1.00063e-06,-9.00087e+07,-8.98563e+07,-8.99134e+07,-68643,0.0235904,-0.0205098,0,0.0312595,-10878.4,-3272.53,-0,11359.9,-68643
step02_gravity_refstate-crust.xmf,1332,-1.17117e-06,1.89754e-06,0,-2.22118e-06,-2.91714e+08,-2.91504e+08,-2.91634e+08,-152373,0.0150018,-0.0401551,0,0.0428659,-8377.37,-10618.3,-0,13525.1,-152373
step02_gravity_refstate-crust.xmf,1333,-1.85251e-06,7.0905e-07,0,-1.04969e-08,-175716,6.97295,-48633.8,-720.088,0.0330168,-0.0174553,0,0.037347,-11021.2,0,-0,11021.2,-720.088
step02_gravity_refstate-crust.xmf,1334,-2.16994e-06,6.34124e-06,0,-5.70366e-06,-6.30896e+08,-6.30313e+08,-6.30748e+08,-391271,0.0221835,-0.106748,0,0.109029,-4963.64,-22969.5,-0,23499.7,-391271
step02_gravity_refstate-crust.xmf,1335,-1.47837e-06,7.71808e-06,0,-9.55493e-06,-7.42004e+08,-7.41373e+08,-7.41903e+08,-655468,0.0275274,-0.147669,0,0.150213,-4057.81,-27019.4,-0,27322.4,-655468
step02_gravity_refstate-crust.xmf,1336,-1.85262e-06,6.28637e-06,0,-6.38059e-06,-6.54766e+08,-6.54208e+08,-6.54639e+08,-437708,0.0239351,-0.111114,0,0.113662,-5072.65,-23839.7,-0,24373.4,-437708
step02_gravity_refstate-crust.xmf,1337,-2.10759e-06,7.07565e-06,0,-7.02636e-06,-6.77266e+08,-6.76636e+08,-6.77121e+08,-482008,0.0245126,-0.121765,0,0.124208,-4620.29,-24659,-0,25088.1,-482008
step02_gravity_refstate-crust.xmf,1338,-2.1037e-07,6.61464e-06,0,-1.05955e-05,-7.73612e+08,-7.73144e+08,-7.73598e+08,-726854,0.0283449,-0.15589,0,0.158446,-4065.49,-28173.5,-0,28465.3,-726854
step02_gravity_refstate-crust.xmf,1339,-1.68784e-06,4.00322e-06,0,-3.39824e-06,-4.83152e+08,-4.82762e+08,-4.83036e+08,-233119,0.0166867,-0.0707684,0,0.0727091,-6119.94,-17589,-0,18623.3,-233119
step02_gravity_refstate-crust.xmf,1340,-2.24061e-06,5.79066e-06,0,-4.70239e-06,-5.86685e+08,-5.86134e+08,-5.86531e+08,-322584,0.0196989,-0.0961126,0,0.0981105,-5059.99,-21358.7,-0,21949.9,-322584
step02_gravity_refstate-crust.xmf,1341,-1.87371e-06,5.06691e-06,0,-4.42899e-06,-5.62409e+08,-5.61933e+08,-5.62281e+08,-303829,0.0195934,-0.0867595,0,0.0889444,-5663,-20475.3,-0,21244,-303829
step02_gravity_refstate-crust.xmf,1342,-1.61718e-06,4.43932e-06,0,-4.12882e-06,-5.36167e+08,-5.35752e+08,-5.36056e+08,-283237,0.0191855,-0.0784776,0,0.0807888,-6192.85,-19520,-0,20478.8,-283237
step02_gravity_refstate-crust.xmf,1343,1.44453e-06,-4.1613e-06,0,-2.55629e-05,-9.3412e+08,-9.34504e+08,-9.34219e+08,-1.75362e+06,-0.00279932,-0.268037,-0,0.268051,-1807.67,-34007,-0,34055,-1.75362e+06
step02_gravity_refstate-crust.xmf,1344,2.63416e-06,-6.9389e-06,0,-2.47469e-05,-9.47939e+08,-9.48596e+08,-9.4812e+08,-1.69764e+06,-0.00579397,-0.260657,-0,0.260722,-1889.11,-34510.6,-0,34562.3,-1.69764e+06
step02_gravity_refstate-crust.xmf,1345,8.53352e-08,5.86395e-06,0,-1.29247e-05,-8.36784e+08,-8.36387e+08,-8.3679e+08,-886634,0.0222279,-0.18935,0,0.19065,-3339.51,-30473.4,-0,30655.8,-886634
step02_gravity_refstate-crust.xmf,1346,-3.93948e-07,6.70452e-07,0,-2.1185e-05,-9.07843e+08,-9.0777e+08,-9.07816e+08,-1.45329e+06,0.00293642,-0.241238,0,0.241256,-2340.28,-33050.4,-0,33133.1,-1.45329e+06
step02_gravity_refstate-crust.xmf,1347,5.73513e-06,-1.5588e-05,0,-2.24393e-05,-9.88957e+08,-9.9042e+08,-9.89351e+08,-1.53933e+06,-0.014591,-0.240867,-0,0.241308,-1945.83,-36003.1,-0,36055.6,-1.53933e+06
step02_gravity_refstate-crust.xmf,1348,3.43853e-06,-9.35574e-06,0,-2.22287e-05,-9.62257e+08,-9.63134e+08,-9.62493e+08,-1.52489e+06,-0.00975341,-0.241651,-0,0.241848,-2165.9,-35031.3,-0,35098.2,-1.52489e+06
step02_gravity_refstate-crust.xmf,1349,7.18825e-06,-1.91923e-05,0,-2.26011e-05,-1.00268e+09,-1.00449e+09,-1.00317e+09,-1.55043e+06,-0.0163636,-0.240845,-0,0.2414,-1777.41,-36502.8,-0,36546.1,-1.55043e+06
step02_gravity_refstate-crust.xmf,1350,1.11969e-05,-3.0955e-05,0,-2.06942e-05,-1.03414e+09,-1.03703e+09,-1.0349e+09,-1.41962e+06,-0.0193404,-0.234187,-0,0.234984,-1360.92,-37646.1,-0,37670.7,-1.41962e+06
step02_gravity_refstate-crust.xmf,1351,1.50906e-05,-4.86132e-05,0,-2.06764e-05,-1.04417e+09,-1.04854e+09,-1.04521e+09,-1.4184e+06,-0.0182797,-0.241385,-0,0.242076,-1000,-38000,-0,38013.2,-1.4184e+06
step02_gravity_refstate-crust.xmf,1352,1.95003e-05,-5.80373e-05,0,-8.31628e-06,-1.04409e+09,-1.0494e+09,-1.04542e+09,-570497,-0.00991309,-0.257371,-0,0.257562,-500,-38000,-0,38003.3,-570497
step02_gravity_refstate-crust.xmf,1353,1.98021e-05,-5.39133e-05,0,-5.68856e-06,-1.05276e+09,-1.05782e+09,-1.05412e+09,-390236,-0.00671306,-0.241986,-0,0.242079,-334.148,-38323.5,-0,38324.9,-390236
step02_gravity_refstate-crust.xmf,1354,6.0906e-06,-2.76959e-05,0,1.50143e-05,-1.07739e+09,-1.07971e+09,-1.07781e+09,1.02998e+06,0.0215715,-0.175544,0,0.176864,1745.12,-39205.2,0,39244,-1.02998e+06
step02_gravity_refstate-crust.xmf,1355,1.89343e-05,-4.90577e-05,0,6.88543e-06,-1.06324e+09,-1.06791e+09,-1.06454e+09,472340,0.00767123,-0.221356,0,0.221489,403.805,-38709,0,38711.1,-472340
step02_gravity_refstate-crust.xmf,1356,1.42825e-05,-4.09658e-05,0,1.26421e-05,-1.06881e+09,-1.0726e+09,-1.06979e+09,867245,0.0155396,-0.203888,0,0.204479,921.526,-38905.6,0,38916.5,-867245
step02_gravity_refstate-crust.xmf,1357,3.39359e-07,-1.18236e-05,0,1.23401e-05,-1.08771e+09,-1.08854e+09,-1.08773e+09,846534,0.0235982,-0.125306,0,0.127509,3999,-39582.2,0,39783.7,-846534
step02_gravity_refstate-crust.xmf,1358,-1.08247e-06,2.27503e-06,0,-2.6765e-06,-3.57906e+08,-3.57676e+08,-3.57832e+08,-183608,0.0158485,-0.0452245,0,0.0479211,-8363.18,-13029.1,-0,15482.2,-183608
step02_gravity_refstate-crust.xmf,1359,-1.49576e-06,3.53618e-06,0,-3.20239e-06,-4.53795e+08,-4.5345e+08,-4.53693e+08,-219684,0.0163654,-0.0639341,0,0.0659954,-6629.9,-16520.3,-0,17801,-219684
step02_gravity_refstate-crust.xmf,1360,-1.19234e-06,2.65658e-06,0,-2.84611e-06,-3.91417e+08,-3.91153e+08,-3.91336e+08,-195243,0.0159167,-0.0511887,0,0.0536062,-7753.48,-14249.2,-0,16222.1,-195243
step02_gravity_refstate-crust.xmf,1361,-1.33003e-06,3.07677e-06,0,-3.02009e-06,-4.23357e+08,-4.23055e+08,-4.23266e+08,-207178,0.0161049,-0.0574197,0,0.0596355,-7175.84,-15412.1,-0,17000.8,-207178
step02_gravity_refstate-crust.xmf,1362,-1.07653e-06,8.59742e-07,0,-1.36306e-06,-1.29409e+08,-1.29276e+08,-1.29335e+08,-93506.1,0.0220223,-0.01843,0,0.0287167,-11677.2,-4708.24,-0,12590.6,-93506.1
step02_gravity_refstate-crust.xmf,1363,-1.04693e-06,1.05222e-06,0,-1.67016e-06,-1.74375e+08,-1.74231e+08,-1.74303e+08,-114573,0.0191725,-0.0232997,0,0.0301738,-10900,-6345.69,-0,12612.6,-114573
step02_gravity_refstate-crust.xmf,1364,-9.91395e-07,1.27606e-06,0,-1.97127e-06,-2.22456e+08,-2.223e+08,-2.22388e+08,-135229,0.0173831,-0.0278229,0,0.0328068,-10321.7,-8096.69,-0,13118.4,-135229
step02_gravity_refstate-crust.xmf,1365,-1.08822e-06,1.5929e-06,0,-2.11124e-06,-2.59438e+08,-2.59254e+08,-2.59364e+08,-144831,0.0158585,-0.0346579,0,0.0381138,-9186.19,-9443.17,-0,13174.2,-144831
step02_gravity_refstate-crust.xmf,1366,-1.00006e-06,1.93388e-06,0,-2.50924e-06,-3.23212e+08,-3.23011e+08,-3.23143e+08,-172134,0.0159691,-0.0395452,0,0.0426478,-9004.04,-11765.8,-0,14815.8,-172134
step02_gravity_refstate-crust.xmf,1367,-1.38528e-06,6.78621e-07,0,-5.756e-07,-4.59065e+07,-4.57649e+07,-4.58115e+07,-39486.2,0.0289593,-0.0151122,0,0.0326652,-11920.2,-1666.72,-0,12036.2,-39486.2
step02_gravity_refstate-crust.xmf,1368,-1.85661e-06,5.56704e-06,0,-5.32086e-06,-6.11017e+08,-6.10508e+08,-6.1089e+08,-365011,0.0219345,-0.0979308,0,0.100357,-5448.44,-22245.8,-0,22903.3,-365011
step02_gravity_refstate-crust.xmf,1369,-3.1235e-07,6.21835e-06,0,-9.75463e-06,-7.57564e+08,-7.57116e+08,-7.57543e+08,-669168,0.0283672,-0.145048,0,0.147796,-4415.71,-27588.2,-0,27939.4,-669168
step02_gravity_refstate-crust.xmf,1370,-1.28711e-06,6.20135e-06,0,-7.56796e-06,-6.95401e+08,-6.94887e+08,-6.95312e+08,-519162,0.0263385,-0.121046,0,0.123878,-5018.24,-25321.1,-0,25813.6,-519162
step02_gravity_refstate-crust.xmf,1371,-1.55954e-06,6.90235e-06,0,-8.07964e-06,-7.08362e+08,-7.07782e+08,-7.08255e+08,-554263,0.0264959,-0.129958,0,0.132631,-4602.12,-25793,-0,26200.4,-554263
step02_gravity_refstate-crust.xmf,1372,-1.31684e-06,6.91066e-06,0,-8.71727e-06,-7.25437e+08,-7.24873e+08,-7.25347e+08,-598005,0.0272623,-0.136305,0,0.139004,-4469.25,-26415.6,-0,26791.1,-598005
step02_gravity_refstate-crust.xmf,1373,-1.41063e-06,3.90393e-06,0,-3.86326e-06,-5.0943e+08,-5.09065e+08,-5.09333e+08,-265019,0.0187393,-0.0709421,0,0.0733753,-6716.4,-18546.6,-0,19725.3,-265019
step02_gravity_refstate-crust.xmf,1374,6.23241e-07,5.49087e-06,0,-1.19021e-05,-8.2172e+08,-8.21386e+08,-8.21763e+08,-816481,0.024901,-0.176522,0,0.17827,-3663.31,-29926.6,-0,30149.9,-816481
step02_gravity_refstate-crust.xmf,1375,8.30902e-07,4.90844e-06,0,-1.03229e-05,-7.89883e+08,-7.89603e+08,-7.8994e+08,-708150,0.027699,-0.15215,0,0.15465,-4393.36,-28767.4,-0,29101,-708150
step02_gravity_refstate-crust.xmf,1376,8.23229e-07,5.20754e-06,0,-1.10977e-05,-8.05644e+08,-8.05343e+08,-8.057e+08,-761302,0.026729,-0.164151,0,0.166313,-4010.04,-29341.7,-0,29614.4,-761302
step02_gravity_refstate-crust.xmf,1377,1.48046e-06,-4.3544e-06,0,-2.18906e-05,-9.35557e+08,-9.35958e+08,-9.35659e+08,-1.5017e+06,-0.00381781,-0.242229,-0,0.242259,-2285.39,-34059.1,-0,34135.7,-1.5017e+06
step02_gravity_refstate-crust.xmf,1378,4.69675e-07,3.95314e-06,0,-1.24381e-05,-8.51803e+08,-8.51565e+08,-8.51836e+08,-853256,0.0186562,-0.182429,0,0.18338,-3641.7,-31018.8,-0,31231.8,-853256
step02_gravity_refstate-crust.xmf,1379,-1.92983e-07,3.94759e-06,0,-1.40881e-05,-8.66132e+08,-8.65848e+08,-8.66119e+08,-966441,0.0149095,-0.195963,0,0.196529,-3303.46,-31537.7,-0,31710.3,-966441
step02_gravity_refstate-crust.xmf,1380,-7.70669e-07,2.37373e-06,0,-1.87292e-05,-8.94364e+08,-8.94148e+08,-8.94311e+08,-1.28483e+06,0.00663817,-0.226146,0,0.226243,-2643.05,-32560.8,-0,32667.9,-1.28483e+06
step02_gravity_refstate-crust.xmf,1381,-6.69658e-07,3.44792e-06,0,-1.62191e-05,-8.80495e+08,-8.80212e+08,-8.80449e+08,-1.11263e+06,0.010734,-0.210398,0,0.210672,-2976.36,-32057.9,-0,32195.8,-1.11263e+06
step02_gravity_refstate-crust.xmf,1382,6.51714e-07,-2.02448e-06,0,-1.98117e-05,-9.2223e+08,-9.22413e+08,-9.22275e+08,-1.35908e+06,-0.000782204,-0.229194,-0,0.229195,-2583.71,-33574.2,-0,33673.5,-1.35908e+06
step02_gravity_refstate-crust.xmf,1383,3.92294e-06,-1.13761e-05,0,-2.0096e-05,-9.76356e+08,-9.77405e+08,-9.76625e+08,-1.37858e+06,-0.013806,-0.225999,-0,0.22642,-2376.23,-35543.5,-0,35622.8,-1.37858e+06
step02_gravity_refstate-crust.xmf,1384,7.24827e-06,-2.08442e-05,0,-1.9665e-05,-1.01637e+09,-1.0183e+09,-1.01687e+09,-1.34902e+06,-0.0203667,-0.223516,-0,0.224442,-1930.03,-36999.2,-0,37049.5,-1.34902e+06
step02_gravity_refstate-crust.xmf,1385,7.29646e-06,-2.43419e-05,0,-1.79628e-05,-1.03172e+09,-1.0339e+09,-1.03223e+09,-1.23225e+06,-0.0226889,-0.216911,-0,0.218095,-1795.57,-37552.8,-0,37595.7,-1.23225e+06
step02_gravity_refstate-crust.xmf,1386,7.15144e-06,-2.81956e-05,0,-1.77837e-05,-1.04444e+09,-1.04687e+09,-1.04493e+09,-1.21996e+06,-0.0233509,-0.215189,-0,0.216453,-1547.5,-38009.2,-0,38040.7,-1.21996e+06
step02_gravity_refstate-crust.xmf,1387,1.82916e-05,-4.86289e-05,0,-1.44502e-05,-1.05448e+09,-1.05908e+09,-1.05574e+09,-991285,-0.0145306,-0.231181,-0,0.231637,-746.247,-38388.3,-0,38395.5,-991285
step02_gravity_refstate-crust.xmf,1388,1.02072e-05,-3.43421e-05,0,1.3464e-05,-1.07668e+09,-1.07973e+09,-1.07738e+09,923629,0.0177614,-0.186656,0,0.187499,1250.64,-39185.7,0,39205.6,-923629
step02_gravity_refstate-crust.xmf,1389,1.89636e-05,-4.90304e-05,0,-7.21274e-06,-1.06308e+09,-1.06775e+09,-1.06438e+09,-494794,-0.00797082,-0.221461,-0,0.221605,-419.545,-38703.4,-0,38705.6,-494794
step02_gravity_refstate-crust.xmf,1390,1.82107e-05,-4.75583e-05,0,-2.16039e-07,-1.07001e+09,-1.07452e+09,-1.07126e+09,-14820.2,5.35635e-07,-0.211549,0,0.211549,0,-38954.7,0,38954.7,-14820.2
step02_gravity_refstate-crust.xmf,1391,7.41731e-06,-3.02102e-05,0,1.3421e-05,-1.08712e+09,-1.08971e+09,-1.08763e+09,920681,0.0167396,-0.170219,0,0.17104,1492.2,-39561.1,0,39589.2,-920681
step02_gravity_refstate-crust.xmf,1392,-1.02954e-06,6.77884e-07,0,-1.04135e-06,-9.07004e+07,-9.05832e+07,-9.06297e+07,-71436.8,0.0257684,-0.0128702,0,0.0288037,-12725.3,-3298.92,-0,13145.9,-71436.8
step02_gravity_refstate-crust.xmf,1393,-9.41991e-07,1.64802e-06,0,-2.35254e-06,-2.90655e+08,-2.90477e+08,-2.9059e+08,-161384,0.0163428,-0.0344204,0,0.0381032,-9652.92,-10580.3,-0,14322.1,-161384
step02_gravity_refstate-crust.xmf,1394,-1.28613e-06,4.94805e-07,0,-1.20303e-08,-121885,286.995,-33656.6,-825.282,0.0362968,-0.00937533,0,0.0374881,-13099.6,0,-0,13099.6,-825.282
step02_gravity_refstate-crust.xmf,1395,-1.45368e-06,5.37156e-06,0,-5.90853e-06,-6.34939e+08,-6.3447e+08,-6.34839e+08,-405325,0.0237739,-0.10027,0,0.10305,-5703.93,-23118,-0,23811.3,-405325
step02_gravity_refstate-crust.xmf,1396,-5.09913e-07,6.06337e-06,0,-9.1095e-06,-7.4212e+08,-7.41669e+08,-7.42085e+08,-624911,0.0281321,-0.137216,0,0.14007,-4653.97,-27024.9,-0,27422.8,-624911
step02_gravity_refstate-crust.xmf,1397,-1.13571e-06,5.58707e-06,0,-6.93616e-06,-6.76223e+08,-6.75762e+08,-6.76145e+08,-475821,0.0258093,-0.111285,0,0.114238,-5456.78,-24622.6,-0,25220,-475821
step02_gravity_refstate-crust.xmf,1398,7.04786e-07,4.70902e-06,0,-9.61093e-06,-7.73417e+08,-7.73143e+08,-7.73466e+08,-659310,0.0281738,-0.141403,0,0.144183,-4763.27,-28167.2,-0,28567.1,-659310
step02_gravity_refstate-crust.xmf,1399,-1.22472e-06,3.37808e-06,0,-3.62612e-06,-4.81705e+08,-4.8139e+08,-4.81621e+08,-248752,0.0183282,-0.0636822,0,0.0662672,-7285.35,-17537.2,-0,18990.3,-248752
step02_gravity_refstate-crust.xmf,1400,-1.41282e-06,4.71849e-06,0,-5.02718e-06,-5.89748e+08,-5.89327e+08,-5.89651e+08,-344864,0.0219553,-0.0873851,0,0.090101,-6197.96,-21471.9,-0,22348.6,-344864
step02_gravity_refstate-crust.xmf,1401,-1.23359e-06,4.15919e-06,0,-4.59723e-06,-5.61165e+08,-5.60795e+08,-5.6108e+08,-315370,0.0211987,-0.078391,0,0.0812067,-6736.33,-20431.2,-0,21513.1,-315370
step02_gravity_refstate-crust.xmf,1402,-1.08474e-06,3.68685e-06,0,-4.2681e-06,-5.34736e+08,-5.34409e+08,-5.34662e+08,-292792,0.0205496,-0.0707561,0,0.0736797,-7251.27,-19468.9,-0,20775.5,-292792
step02_gravity_refstate-crust.xmf,1403,1.04469e-06,3.77488e-06,0,-1.12889e-05,-8.37116e+08,-8.36928e+08,-8.37187e+08,-774418,0.0217876,-0.170065,0,0.171455,-3983.23,-30486.1,-0,30745.2,-774418
step02_gravity_refstate-crust.xmf,1404,1.68419e-07,-1.66836e-07,0,-1.7573e-05,-9.08705e+08,-9.08728e+08,-9.08717e+08,-1.20551e+06,0.00276411,-0.214957,0,0.214975,-2911.16,-33082.7,-0,33210.6,-1.20551e+06
step02_gravity_refstate-crust.xmf,1405,2.27288e-06,-6.54082e-06,0,-2.01725e-05,-9.49842e+08,-9.50447e+08,-9.49998e+08,-1.38383e+06,-0.00774123,-0.228574,-0,0.228705,-2506.2,-34579,-0,34669.7,-1.38383e+06
step02_gravity_refstate-crust.xmf,1406,5.21926e-06,-1.64566e-05,0,-1.87211e-05,-1.00262e+09,-1.00411e+09,-1.00298e+09,-1.28426e+06,-0.0194338,-0.217253,-0,0.218121,-2277.47,-36497.1,-0,36568.1,-1.28426e+06
step02_gravity_refstate-crust.xmf,1407,3.9974e-06,-1.30642e-05,0,-1.80424e-05,-9.89673e+08,-9.90844e+08,-9.89947e+08,-1.23771e+06,-0.0177,-0.212031,-0,0.212768,-2555.93,-36026,-0,36116.5,-1.23771e+06
step02_gravity_refstate-crust.xmf,1408,2.67639e-06,-8.41505e-06,0,-1.81856e-05,-9.64219e+08,-9.6498e+08,-9.64403e+08,-1.24753e+06,-0.0120184,-0.213472,-0,0.21381,-2750.91,-35101.2,-0,35208.8,-1.24753e+06
step02_gravity_refstate-crust.xmf,1409,1.01802e-05,-3.52404e-05,0,-1.82645e-05,-1.05624e+09,-1.05936e+09,-1.05694e+09,-1.25294e+06,-0.0216831,-0.212517,-0,0.21362,-1261.59,-38440.2,-0,38460.9,-1.25294e+06
step02_gravity_refstate-crust.xmf,1410,1.56509e-05,-4.34034e-05,0,5.96265e-06,-1.07683e+09,-1.08089e+09,-1.07791e+09,409038,0.00700608,-0.198367,0,0.19849,435.392,-39199.4,0,39201.8,-409038
step02_gravity_refstate-crust.xmf,1411,1.16249e-05,-3.72196e-05,0,9.88485e-06,-1.08523e+09,-1.08858e+09,-1.08602e+09,678101,0.0117169,-0.181342,0,0.18172,894.786,-39498.1,0,39508.3,-678101
step02_gravity_refstate-crust.xmf,1412,-7.98867e-07,1.91853e-06,0,-2.7924e-06,-3.54565e+08,-3.54378e+08,-3.5451e+08,-191558,0.0170152,-0.0384896,0,0.0420829,-9667.39,-12908,-0,16126.9,-191558
step02_gravity_refstate-crust.xmf,1413,-8.56339e-07,2.22446e-06,0,-2.99662e-06,-3.8911e+08,-3.88899e+08,-3.89052e+08,-205568,0.0172275,-0.0440979,0,0.0473436,-9088.66,-14165.9,-0,16830.8,-205568
step02_gravity_refstate-crust.xmf,1414,-1.06532e-06,2.96675e-06,0,-3.41499e-06,-4.52707e+08,-4.5243e+08,-4.52633e+08,-234268,0.0179465,-0.0566904,0,0.0594632,-7893.97,-16481.5,-0,18274.4,-234268
step02_gravity_refstate-crust.xmf,1415,-9.45305e-07,2.57399e-06,0,-3.20296e-06,-4.21881e+08,-4.21639e+08,-4.21816e+08,-219723,0.0175557,-0.0502029,0,0.0531839,-8489.87,-15359.2,-0,17549.4,-219723
step02_gravity_refstate-crust.xmf,1416,-7.43437e-07,7.13474e-07,0,-1.45047e-06,-1.36115e+08,-1.36015e+08,-1.36064e+08,-99502.2,0.0232457,-0.010857,0,0.0256561,-13445.6,-4953.49,-0,14329,-99502.2
step02_gravity_refstate-crust.xmf,1417,-8.23386e-07,8.72123e-07,0,-1.66779e-06,-1.66581e+08,-1.66464e+08,-1.66524e+08,-114410,0.0208691,-0.0164866,0,0.0265956,-12389.2,-6062.56,-0,13793,-114410
step02_gravity_refstate-crust.xmf,1418,-7.59501e-07,1.0083e-06,0,-1.93828e-06,-2.05839e+08,-2.05718e+08,-2.05787e+08,-132966,0.0192701,-0.0192682,0,0.0272507,-12072.3,-7492.26,-0,14208.2,-132966
step02_gravity_refstate-crust.xmf,1419,-7.83258e-07,1.40522e-06,0,-2.3422e-06,-2.75401e+08,-2.75251e+08,-2.75347e+08,-160675,0.0172665,-0.0285156,0,0.0333357,-10735.7,-10025.2,-0,14688.8,-160675
step02_gravity_refstate-crust.xmf,1420,-7.55777e-07,1.63563e-06,0,-2.59205e-06,-3.18412e+08,-3.18248e+08,-3.1836e+08,-177815,0.0170576,-0.0329857,0,0.0371351,-10300.2,-11591.6,-0,15506.7,-177815
step02_gravity_refstate-crust.xmf,1421,-9.15602e-07,5.01031e-07,0,-6.11496e-07,-4.79444e+07,-4.78472e+07,-4.78816e+07,-41948.7,0.031076,-0.00668707,0,0.0317873,-13954.9,-1742.54,-0,14063.2,-41948.7
step02_gravity_refstate-crust.xmf,1422,-1.26068e-06,4.79202e-06,0,-5.48217e-06,-6.14535e+08,-6.1412e+08,-6.14448e+08,-376077,0.0232774,-0.0918096,0,0.0947145,-6183.12,-22375.1,-0,23213.7,-376077
step02_gravity_refstate-crust.xmf,1423,4.74615e-07,4.54752e-06,0,-8.82966e-06,-7.52694e+08,-7.52415e+08,-7.52727e+08,-605715,0.0282812,-0.130189,0,0.133225,-5169.78,-27411.6,-0,27894.8,-605715
step02_gravity_refstate-crust.xmf,1424,-9.44268e-07,4.94522e-06,0,-6.37023e-06,-6.55917e+08,-6.55513e+08,-6.55852e+08,-436998,0.0252732,-0.101263,0,0.104369,-5978.78,-23883.1,-0,24620.1,-436998
step02_gravity_refstate-crust.xmf,1425,-4.41527e-07,4.8213e-06,0,-7.26936e-06,-6.94946e+08,-6.94585e+08,-6.94916e+08,-498678,0.0269799,-0.11063,0,0.113872,-5783.99,-25305.9,-0,25958.5,-498678
step02_gravity_refstate-crust.xmf,1426,-4.60996e-07,5.29267e-06,0,-7.99515e-06,-7.15451e+08,-7.15056e+08,-7.15419e+08,-548467,0.0275571,-0.121193,0,0.124287,-5304.55,-26053,-0,26587.6,-548467
step02_gravity_refstate-crust.xmf,1427,-1.85756e-07,5.26385e-06,0,-8.5272e-06,-7.33717e+08,-7.33343e+08,-7.33705e+08,-584966,0.0280693,-0.127518,0,0.130571,-5125.56,-26719.1,-0,27206.3,-584966
step02_gravity_refstate-crust.xmf,1428,-9.35785e-07,3.24445e-06,0,-3.99151e-06,-5.08804e+08,-5.08517e+08,-5.0874e+08,-273817,0.0200068,-0.0635051,0,0.066582,-7817.68,-18524.8,-0,20106.8,-273817
step02_gravity_refstate-crust.xmf,1429,1.39567e-06,3.57994e-06,0,-1.04644e-05,-8.2185e+08,-8.21701e+08,-8.21946e+08,-717857,0.0241924,-0.158403,0,0.16024,-4340.32,-29931.5,-0,30244.5,-717857
step02_gravity_refstate-crust.xmf,1430,1.49536e-06,3.27003e-06,0,-9.17432e-06,-7.90348e+08,-7.90226e+08,-7.90451e+08,-629359,0.0268273,-0.136766,0,0.139372,-5112.12,-28784.5,-0,29235,-629359
step02_gravity_refstate-crust.xmf,1431,1.52998e-06,3.39023e-06,0,-9.78003e-06,-8.0642e+08,-8.06292e+08,-8.06525e+08,-670910,0.0257988,-0.147168,0,0.149412,-4724.16,-29370,-0,29747.5,-670910
step02_gravity_refstate-crust.xmf,1432,1.4043e-06,-4.32831e-06,0,-1.82165e-05,-9.36922e+08,-9.37315e+08,-9.37018e+08,-1.24965e+06,-0.00496251,-0.215986,-0,0.216043,-2837.4,-34108.6,-0,34226.4,-1.24965e+06
step02_gravity_refstate-crust.xmf,1433,1.2516e-06,2.32826e-06,0,-1.07145e-05,-8.52122e+08,-8.52048e+08,-8.52208e+08,-735018,0.0180281,-0.163496,0,0.164487,-4274.22,-31031,-0,31324,-735018
step02_gravity_refstate-crust.xmf,1434,7.59703e-07,2.24837e-06,0,-1.18891e-05,-8.66673e+08,-8.6657e+08,-8.66725e+08,-815589,0.014573,-0.174956,0,0.175562,-3931.47,-31558.6,-0,31802.6,-815589
step02_gravity_refstate-crust.xmf,1435,3.03189e-07,1.91014e-06,0,-1.34818e-05,-8.80994e+08,-8.80884e+08,-8.81015e+08,-924850,0.0106902,-0.187545,0,0.187849,-3586.23,-32077.7,-0,32277.5,-924850
step02_gravity_refstate-crust.xmf,1436,6.05399e-08,1.14562e-06,0,-1.54343e-05,-8.94977e+08,-8.94903e+08,-8.94981e+08,-1.05879e+06,0.00666656,-0.201096,0,0.201207,-3242.25,-32584.6,-0,32745.5,-1.05879e+06
step02_gravity_refstate-crust.xmf,1437,8.30198e-07,-2.31858e-06,0,-1.63571e-05,-9.2321e+08,-9.23426e+08,-9.23267e+08,-1.1221e+06,-0.00148257,-0.203823,-0,0.203829,-3162.16,-33610.2,-0,33758.6,-1.1221e+06
step02_gravity_refstate-crust.xmf,1438,2.97346e-06,-1.00555e-05,0,-1.71687e-05,-9.7629e+08,-9.77184e+08,-9.76494e+08,-1.17777e+06,-0.0153708,-0.205584,-0,0.206158,-2841,-35539.3,-0,35652.6,-1.17777e+06
step02_gravity_refstate-crust.xmf,1439,3.91755e-06,-1.61038e-05,0,-1.57529e-05,-1.01576e+09,-1.01713e+09,-1.01603e+09,-1.08065e+06,-0.0237502,-0.197084,-0,0.198509,-2584.3,-36970.7,-0,37060.9,-1.08065e+06
step02_gravity_refstate-crust.xmf,1440,4.38553e-06,-1.89527e-05,0,-1.57139e-05,-1.02988e+09,-1.03148e+09,-1.03018e+09,-1.07797e+06,-0.0254045,-0.197559,-0,0.199185,-2328.91,-37482.2,-0,37554.5,-1.07797e+06
step02_gravity_refstate-crust.xmf,1441,4.40662e-06,-2.19605e-05,0,-1.56929e-05,-1.04376e+09,-1.04557e+09,-1.04406e+09,-1.07653e+06,-0.026268,-0.196424,-0,0.198173,-2071.31,-37983,-0,38039.4,-1.07653e+06
step02_gravity_refstate-crust.xmf,1442,5.01872e-06,-2.57106e-05,0,-1.65146e-05,-1.05661e+09,-1.05872e+09,-1.05695e+09,-1.1329e+06,-0.025487,-0.194429,-0,0.196092,-1799.07,-38447.4,-0,38489.5,-1.1329e+06
step02_gravity_refstate-crust.xmf,1443,1.33326e-05,-3.9978e-05,0,-1.30544e-05,-1.06948e+09,-1.07313e+09,-1.07039e+09,-895533,-0.0161138,-0.201954,-0,0.202595,-971.346,-38927.4,-0,38939.6,-895533
step02_gravity_refstate-crust.xmf,1444,1.57534e-05,-4.36037e-05,0,-6.46192e-06,-1.07574e+09,-1.07981e+09,-1.07682e+09,-443288,-0.00761003,-0.199824,-0,0.199969,-465.529,-39159.6,-0,39162.4,-443288
step02_gravity_refstate-crust.xmf,1445,1.44142e-05,-4.17817e-05,0,-3.46357e-08,-1.08421e+09,-1.08807e+09,-1.0852e+09,-2376.01,2.62695e-06,-0.188711,0,0.188711,0,-39465.5,0,39465.5,-2376.01
step02_gravity_refstate-crust.xmf,1446,-6.32827e-07,5.27159e-07,0,-1.10107e-06,-9.73613e+07,-9.72817e+07,-9.73179e+07,-75533.5,0.0268464,-0.00443575,0,0.0272104,-14681.2,-3542.79,-0,15102.6,-75533.5
step02_gravity_refstate-crust.xmf,1447,-7.02012e-07,1.1525e-06,0,-2.18114e-06,-2.43731e+08,-2.43604e+08,-2.43683e+08,-149626,0.0182732,-0.0222557,0,0.0287963,-11749.5,-8872.21,-0,14723,-149626
step02_gravity_refstate-crust.xmf,1448,-7.06172e-07,2.7569e-07,0,-1.48446e-08,-66752.6,603.049,-18309.3,-1018.34,0.0384243,-0.000667346,0,0.0384301,-15217,0,-0,15217,-1018.34
step02_gravity_refstate-crust.xmf,1449,-8.25489e-07,4.42327e-06,0,-5.85179e-06,-6.33853e+08,-6.33492e+08,-6.33796e+08,-401433,0.0246021,-0.0920936,0,0.0953231,-6482.45,-23079.5,-0,23972.6,-401433
step02_gravity_refstate-crust.xmf,1450,-3.78225e-07,4.34496e-06,0,-6.70882e-06,-6.76855e+08,-6.76531e+08,-6.76829e+08,-460225,0.0264371,-0.101725,0,0.105104,-6241.73,-24646.8,-0,25424.9,-460225
step02_gravity_refstate-crust.xmf,1451,1.31645e-06,3.27297e-06,0,-8.61673e-06,-7.71881e+08,-7.71747e+08,-7.71971e+08,-591108,0.0274923,-0.126974,0,0.129916,-5498.13,-28111.5,-0,28644.1,-591108
step02_gravity_refstate-crust.xmf,1452,-7.25344e-07,2.73082e-06,0,-3.77555e-06,-4.83053e+08,-4.82816e+08,-4.83003e+08,-259003,0.0196929,-0.0552822,0,0.058685,-8629.85,-17587.3,-0,19590.5,-259003
step02_gravity_refstate-crust.xmf,1453,-7.83427e-07,4.03496e-06,0,-5.37518e-06,-6.09165e+08,-6.08834e+08,-6.09111e+08,-368737,0.023753,-0.0840131,0,0.0873064,-6918.85,-22180.3,-0,23234.4,-368737
step02_gravity_refstate-crust.xmf,1454,-7.58332e-07,3.71764e-06,0,-4.97046e-06,-5.84567e+08,-5.8426e+08,-5.84515e+08,-340974,0.0229017,-0.0770329,0,0.0803651,-7308.96,-21284.4,-0,22504.4,-340974
step02_gravity_refstate-crust.xmf,1455,-6.99051e-07,3.36938e-06,0,-4.60938e-06,-5.59223e+08,-5.58944e+08,-5.59175e+08,-316203,0.0221092,-0.0699335,0,0.0733451,-7770.55,-20361.5,-0,21793.8,-316203
step02_gravity_refstate-crust.xmf,1456,-6.29887e-07,3.02448e-06,0,-4.28956e-06,-5.33294e+08,-5.33043e+08,-5.33251e+08,-294264,0.0213661,-0.0630276,0,0.0665507,-8275.06,-19417.2,-0,21107,-294264
step02_gravity_refstate-crust.xmf,1457,1.63392e-06,2.32899e-06,0,-9.89594e-06,-8.3716e+08,-8.37112e+08,-8.37272e+08,-678861,0.0209327,-0.153075,0,0.154499,-4614.04,-30487.9,-0,30835,-678861
step02_gravity_refstate-crust.xmf,1458,5.68169e-07,-7.4302e-07,0,-1.46146e-05,-9.09e+08,-9.0909e+08,-9.09039e+08,-1.00256e+06,0.00246478,-0.19219,0,0.192205,-3478.51,-33094.2,-0,33276.5,-1.00256e+06
step02_gravity_refstate-crust.xmf,1459,1.82843e-06,-5.99281e-06,0,-1.65351e-05,-9.5172e+08,-9.52257e+08,-9.51846e+08,-1.13431e+06,-0.00943107,-0.202434,-0,0.202653,-3090.94,-34646.4,-0,34784.1,-1.13431e+06
step02_gravity_refstate-crust.xmf,1460,3.19103e-06,-1.31524e-05,0,-1.54604e-05,-1.00188e+09,-1.003e+09,-1.0021e+09,-1.06058e+06,-0.0217053,-0.193911,-0,0.195122,-2863.8,-36466.9,-0,36579.2,-1.06058e+06
step02_gravity_refstate-crust.xmf,1461,2.50023e-06,-1.04201e-05,0,-1.50138e-05,-9.86996e+08,-9.87882e+08,-9.87168e+08,-1.02995e+06,-0.0188926,-0.190112,-0,0.191049,-3134.5,-35926.6,-0,36063,-1.02995e+06
step02_gravity_refstate-crust.xmf,1462,1.93357e-06,-7.88779e-06,0,-1.4785e-05,-9.6926e+08,-9.69934e+08,-9.69393e+08,-1.01425e+06,-0.0146906,-0.188757,-0,0.189328,-3327.42,-35282.5,-0,35439,-1.01425e+06
step02_gravity_refstate-crust.xmf,1463,2.37652e-06,-1.50703e-05,0,-1.38446e-05,-1.02888e+09,-1.03008e+09,-1.02905e+09,-949742,-0.0270458,-0.179842,-0,0.181864,-2868.88,-37443.8,-0,37553.6,-949742
step02_gravity_refstate-crust.xmf,1464,7.80077e-06,-3.06402e-05,0,-1.55292e-05,-1.06901e+09,-1.07164e+09,-1.06954e+09,-1.0653e+06,-0.022084,-0.189443,-0,0.190726,-1527.61,-38902.3,-0,38932.3,-1.0653e+06
step02_gravity_refstate-crust.xmf,1465,1.2674e-05,-3.93772e-05,0,4.34026e-06,-1.08886e+09,-1.09243e+09,-1.08973e+09,297742,0.00487766,-0.180894,0,0.180959,383.391,-39631.4,0,39633.2,-297742
step02_gravity_refstate-crust.xmf,1466,-5.14733e-07,1.56996e-06,0,-2.84757e-06,-3.51943e+08,-3.518e+08,-3.51908e+08,-195343,0.0179025,-0.0309467,0,0.0357519,-11076.2,-12813.2,-0,16936.9,-195343
step02_gravity_refstate-crust.xmf,1467,-5.40776e-07,1.82146e-06,0,-3.06666e-06,-3.87422e+08,-3.8726e+08,-3.87385e+08,-210373,0.0181388,-0.0365663,0,0.040818,-10444.7,-14105.1,-0,17551.2,-210373
step02_gravity_refstate-crust.xmf,1468,-5.79176e-07,2.09596e-06,0,-3.29426e-06,-4.21326e+08,-4.21142e+08,-4.21286e+08,-225986,0.0185721,-0.0424047,0,0.0462935,-9843.03,-15339.7,-0,18226.1,-225986
step02_gravity_refstate-crust.xmf,1469,-6.39674e-07,2.39921e-06,0,-3.52323e-06,-4.5263e+08,-4.52422e+08,-4.52586e+08,-241693,0.0190892,-0.0486184,0,0.0522316,-9232.95,-16479.6,-0,18889.8,-241693
step02_gravity_refstate-crust.xmf,1470,-4.23097e-07,5.8193e-07,0,-1.51718e-06,-1.46438e+08,-1.46369e+08,-1.46409e+08,-104079,0.0236507,-0.00313705,0,0.0238579,-15183.8,-5330.41,-0,16092.2,-104079
step02_gravity_refstate-crust.xmf,1471,-5.22771e-07,7.78417e-07,0,-1.84252e-06,-1.88303e+08,-1.88214e+08,-1.88267e+08,-126397,0.0209967,-0.0102806,0,0.0233785,-13876.6,-6854.45,-0,15477.2,-126397
step02_gravity_refstate-crust.xmf,1472,-4.86161e-07,9.47653e-07,0,-2.16829e-06,-2.3774e+08,-2.37641e+08,-2.37706e+08,-148745,0.0192383,-0.0150242,0,0.0244098,-13207.3,-8654.66,-0,15790.4,-148745
step02_gravity_refstate-crust.xmf,1473,-4.91828e-07,1.13289e-06,0,-2.40465e-06,-2.7648e+08,-2.76369e+08,-2.76447e+08,-164959,0.0183557,-0.0201913,0,0.0272878,-12453.4,-10065.3,-0,16012.4,-164959
step02_gravity_refstate-crust.xmf,1474,-5.06421e-07,1.34492e-06,0,-2.62536e-06,-3.1424e+08,-3.14113e+08,-3.14205e+08,-180100,0.017923,-0.0256441,0,0.0312866,-11709.7,-11440.3,-0,16370.6,-180100
step02_gravity_refstate-crust.xmf,1475,-4.24509e-07,3.25272e-07,0,-6.6197e-07,-5.35076e+07,-5.34562e+07,-5.34785e+07,-45411.1,0.0318833,0.00246851,0,0.0319788,-16085.9,-1946.78,-0,16203.3,-45411.1
step02_gravity_refstate-crust.xmf,1476,-2.65746e-07,4.02667e-07,0,-1.18021e-06,-1.10356e+08,-1.1031e+08,-1.10337e+08,-80962.4,0.026628,0.00380971,0,0.0268992,-16555.7,-4017.16,-0,17036.1,-80962.4
step02_gravity_refstate-crust.xmf,1477,6.23167e-07,3.781e-06,0,-7.92971e-06,-7.35535e+08,-7.35318e+08,-7.35577e+08,-543978,0.0279275,-0.115998,0,0.119312,-5859.77,-26786.2,-0,27419.7,-543978
step02_gravity_refstate-crust.xmf,1478,-1.55748e-07,3.7121e-06,0,-6.18627e-06,-6.58878e+08,-6.58612e+08,-6.58867e+08,-424378,0.0259235,-0.0911359,0,0.0947511,-6915.12,-23992.2,-0,24968.9,-424378
step02_gravity_refstate-crust.xmf,1479,1.10816e-07,3.84884e-06,0,-6.91436e-06,-6.93296e+08,-6.93039e+08,-6.93304e+08,-474325,0.0270376,-0.101541,0,0.105079,-6451.38,-25246.5,-0,26057.8,-474325
step02_gravity_refstate-crust.xmf,1480,3.4849e-07,3.78183e-06,0,-7.3244e-06,-7.12213e+08,-7.11978e+08,-7.12237e+08,-502454,0.0275204,-0.107253,0,0.110727,-6226.08,-25936.1,-0,26672.9,-502454
step02_gravity_refstate-crust.xmf,1481,1.12683e-06,3.24314e-06,0,-8.09602e-06,-7.54838e+08,-7.54693e+08,-7.54915e+08,-555387,0.0276949,-0.118483,0,0.121677,-5861,-27490.2,-0,28108.1,-555387
step02_gravity_refstate-crust.xmf,1482,-5.73245e-07,2.73143e-06,0,-4.03178e-06,-5.09749e+08,-5.09523e+08,-5.0971e+08,-276580,0.0207437,-0.0571446,0,0.0607931,-8747.12,-18559.8,-0,20517.8,-276580
step02_gravity_refstate-crust.xmf,1483,1.90099e-06,2.0823e-06,0,-8.1e-06,-7.89471e+08,-7.89459e+08,-7.89602e+08,-555660,0.0256316,-0.121878,0,0.124544,-5862.2,-28752.4,-0,29343.9,-555660
step02_gravity_refstate-crust.xmf,1484,1.88153e-06,2.19642e-06,0,-9.19358e-06,-8.22559e+08,-8.22537e+08,-8.22688e+08,-630680,0.0229618,-0.142053,0,0.143897,-5018.43,-29957.1,-0,30374.5,-630680
step02_gravity_refstate-crust.xmf,1485,1.99113e-06,1.99801e-06,0,-8.52435e-06,-8.0785e+08,-8.0785e+08,-8.07987e+08,-584770,0.0242862,-0.130866,0,0.1331,-5478.17,-29421.8,-0,29927.4,-584770
step02_gravity_refstate-crust.xmf,1486,1.21334e-06,-4.03564e-06,0,-1.49817e-05,-9.37407e+08,-9.37767e+08,-9.3749e+08,-1.02775e+06,-0.0058611,-0.19195,-0,0.192039,-3422.5,-34125.9,-0,34297.1,-1.02775e+06
step02_gravity_refstate-crust.xmf,1487,1.72904e-06,1.2158e-06,0,-9.26074e-06,-8.51508e+08,-8.51543e+08,-8.51626e+08,-635287,0.0172298,-0.146493,0,0.147503,-4910.59,-31008.9,-0,31395.3,-635287
step02_gravity_refstate-crust.xmf,1488,1.36024e-06,1.02365e-06,0,-1.00588e-05,-8.66946e+08,-8.6697e+08,-8.6704e+08,-690036,0.0138072,-0.15587,0,0.15648,-4580.11,-31569.1,-0,31899.7,-690036
step02_gravity_refstate-crust.xmf,1489,9.58964e-07,7.30455e-07,0,-1.12495e-05,-8.81731e+08,-8.81747e+08,-8.81797e+08,-771714,0.0100719,-0.167002,0,0.167305,-4214.95,-32105.3,-0,32380.8,-771714
step02_gravity_refstate-crust.xmf,1490,6.5194e-07,2.15301e-07,0,-1.28013e-05,-8.95631e+08,-8.95661e+08,-8.95676e+08,-878169,0.00624946,-0.179267,0,0.179375,-3843.1,-32609.3,-0,32835,-878169
step02_gravity_refstate-crust.xmf,1491,8.92367e-07,-2.31464e-06,0,-1.35647e-05,-9.22588e+08,-9.22808e+08,-9.22649e+08,-930536,-0.0017873,-0.182233,-0,0.182242,-3731.18,-33587.8,-0,33794.4,-930536
step02_gravity_refstate-crust.xmf,1492,2.01317e-06,-1.26674e-05,0,-1.3403e-05,-1.01506e+09,-1.01606e+09,-1.01519e+09,-919447,-0.0253355,-0.177114,-0,0.178917,-3169.6,-36942.7,-0,37078.4,-919447
step02_gravity_refstate-crust.xmf,1493,2.30542e-06,-1.73594e-05,0,-1.41137e-05,-1.04317e+09,-1.04452e+09,-1.04333e+09,-968202,-0.0280556,-0.179416,-0,0.181596,-2612.73,-37960.2,-0,38050,-968202
step02_gravity_refstate-crust.xmf,1494,2.8162e-06,-2.02053e-05,0,-1.4777e-05,-1.0567e+09,-1.05828e+09,-1.0569e+09,-1.0137e+06,-0.0275586,-0.17846,-0,0.180575,-2331.54,-38450.5,-0,38521.1,-1.0137e+06
step02_gravity_refstate-crust.xmf,1495,4.14146e-06,-2.36703e-05,0,-1.51464e-05,-1.06918e+09,-1.07109e+09,-1.06946e+09,-1.03904e+06,-0.0251105,-0.175997,-0,0.177779,-2051.81,-38904.6,-0,38958.7,-1.03904e+06
step02_gravity_refstate-crust.xmf,1496,1.16177e-05,-3.71137e-05,0,-9.43191e-06,-1.08556e+09,-1.0889e+09,-1.08635e+09,-647029,-0.0113287,-0.181244,-0,0.181597,-867.607,-39510.3,-0,39519.8,-647029
step02_gravity_refstate-crust.xmf,1497,1.31572e-05,-3.97552e-05,0,-4.85985e-06,-1.08714e+09,-1.09077e+09,-1.08805e+09,-333386,-0.0056946,-0.18303,-0,0.183119,-430.872,-39570.2,-0,39572.6,-333386
step02_gravity_refstate-crust.xmf,1498,-1.36812e-07,6.19172e-08,0,-2.09934e-08,-12570.7,1062.09,-3185.42,-1440.15,0.0393496,0.00840428,0,0.0402371,-17380,0,-0,17380,-1440.15
step02_gravity_refstate-crust.xmf,1499,-1.70975e-07,4.7153e-07,0,-1.53331e-06,-1.55197e+08,-1.55153e+08,-1.55185e+08,-105185,0.0235789,0.00367047,0,0.0238628,-16680.3,-5650.14,-0,17611.3,-105185
step02_gravity_refstate-crust.xmf,1500,-2.04315e-07,3.42945e-06,0,-5.64496e-06,-6.32165e+08,-6.31916e+08,-6.32151e+08,-387244,0.0250122,-0.0822038,0,0.0859249,-7422.16,-23019.1,-0,24186.1,-387244
step02_gravity_refstate-crust.xmf,1501,1.82456e-07,3.49216e-06,0,-6.50527e-06,-6.80677e+08,-6.8045e+08,-6.80689e+08,-446261,0.0266275,-0.0942469,0,0.0979362,-6894.78,-24786.9,-0,25727.9,-446261
step02_gravity_refstate-crust.xmf,1502,1.70506e-06,2.22007e-06,0,-7.72288e-06,-7.70552e+08,-7.70517e+08,-7.70669e+08,-529790,0.0264762,-0.113916,0,0.116952,-6220.39,-28063.1,-0,28744.2,-529790
step02_gravity_refstate-crust.xmf,1503,-3.29625e-07,2.31432e-06,0,-3.93586e-06,-5.00839e+08,-5.00658e+08,-5.00817e+08,-270000,0.0208067,-0.0505234,0,0.05464,-9575.33,-18235.8,-0,20596.9,-270000
step02_gravity_refstate-crust.xmf,1504,-2.44129e-07,3.18583e-06,0,-5.21792e-06,-6.06944e+08,-6.06709e+08,-6.06928e+08,-357949,0.0241444,-0.0748251,0,0.078624,-7866.77,-22100.4,-0,23458.7,-357949
step02_gravity_refstate-crust.xmf,1505,-2.53731e-07,2.93644e-06,0,-4.85318e-06,-5.82515e+08,-5.82296e+08,-5.82497e+08,-332928,0.0233285,-0.0680192,0,0.0719085,-8321.42,-21210.5,-0,22784.5,-332928
step02_gravity_refstate-crust.xmf,1506,-2.52132e-07,2.68409e-06,0,-4.51924e-06,-5.56963e+08,-5.56762e+08,-5.56946e+08,-310020,0.0225112,-0.0613837,0,0.0653813,-8804.77,-20279.9,-0,22108.8,-310020
step02_gravity_refstate-crust.xmf,1507,-2.65277e-07,2.46292e-06,0,-4.21767e-06,-5.30291e+08,-5.30104e+08,-5.30273e+08,-289332,0.0216935,-0.0553689,0,0.059467,-9258.96,-19308.5,-0,21413.7,-289332
step02_gravity_refstate-crust.xmf,1508,1.96873e-06,1.35637e-06,0,-8.81102e-06,-8.37626e+08,-8.37668e+08,-8.37761e+08,-604436,0.0198321,-0.139382,0,0.140786,-5176.24,-30504.7,-0,30940.7,-604436
step02_gravity_refstate-crust.xmf,1509,8.27605e-07,-1.08538e-06,0,-1.2448e-05,-9.0887e+08,-9.09001e+08,-9.08927e+08,-853932,0.00215417,-0.174309,0,0.174323,-3984.87,-33090,-0,33329.1,-853932
step02_gravity_refstate-crust.xmf,1510,1.30574e-06,-5.21622e-06,0,-1.34874e-05,-9.52599e+08,-9.53046e+08,-9.52688e+08,-925237,-0.0106313,-0.179086,-0,0.179401,-3703.93,-34677.5,-0,34874.8,-925237
step02_gravity_refstate-crust.xmf,1511,1.66407e-06,-1.04192e-05,0,-1.29736e-05,-1.00115e+09,-1.00197e+09,-1.00126e+09,-889986,-0.0229697,-0.173472,-0,0.174986,-3461,-36438.3,-0,36602.3,-889986
step02_gravity_refstate-crust.xmf,1512,1.32451e-06,-8.1866e-06,0,-1.25247e-05,-9.84446e+08,-9.85098e+08,-9.84537e+08,-859193,-0.0193911,-0.170052,-0,0.171154,-3739.71,-35832.4,-0,36027,-859193
step02_gravity_refstate-crust.xmf,1513,1.11551e-06,-1.23357e-05,0,-1.25111e-05,-1.02832e+09,-1.02925e+09,-1.0284e+09,-858265,-0.0278036,-0.165735,-0,0.168051,-3345.43,-37422.6,-0,37571.8,-858265
step02_gravity_refstate-crust.xmf,1514,1.01018e-06,-1.3941e-05,0,-1.27904e-05,-1.04149e+09,-1.04252e+09,-1.04156e+09,-877424,-0.0288755,-0.165105,-0,0.167611,-3143.42,-37899,-0,38029.1,-877424
step02_gravity_refstate-crust.xmf,1515,5.89615e-06,-2.68809e-05,0,-1.47308e-05,-1.07728e+09,-1.07953e+09,-1.07768e+09,-1.01054e+06,-0.0218339,-0.174766,-0,0.176124,-1785.33,-39201.7,-0,39242.3,-1.01054e+06
step02_gravity_refstate-crust.xmf,1516,7.4662e-06,-2.98542e-05,0,-1.33933e-05,-1.08515e+09,-1.08771e+09,-1.08566e+09,-918781,-0.0172851,-0.172618,-0,0.173481,-1477.13,-39490,-0,39517.6,-918781
step02_gravity_refstate-crust.xmf,1517,-3.70779e-07,2.17167e-06,0,-3.70303e-06,-4.746e+08,-4.74425e+08,-4.74574e+08,-254028,0.0200843,-0.0464869,0,0.05064,-9854.31,-17280.1,-0,19892.5,-254028
step02_gravity_refstate-crust.xmf,1518,-2.50798e-07,1.25282e-06,0,-2.8391e-06,-3.49965e+08,-3.49862e+08,-3.49948e+08,-194763,0.0184415,-0.0229547,0,0.029445,-12535.2,-12741.7,-0,17874.1,-194763
step02_gravity_refstate-crust.xmf,1519,-2.49632e-07,1.45018e-06,0,-3.06464e-06,-3.86132e+08,-3.86016e+08,-3.86115e+08,-210234,0.0186747,-0.0285131,0,0.0340843,-11856.2,-14058.8,-0,18390.7,-210234
step02_gravity_refstate-crust.xmf,1520,-2.50238e-07,1.65795e-06,0,-3.29323e-06,-4.20514e+08,-4.20384e+08,-4.20497e+08,-225915,0.019127,-0.0341442,0,0.0391365,-11224.5,-15310.8,-0,18984.5,-225915
step02_gravity_refstate-crust.xmf,1521,-2.42272e-07,1.87409e-06,0,-3.5552e-06,-4.56368e+08,-4.56223e+08,-4.56351e+08,-243887,0.0198108,-0.0401834,0,0.0448015,-10620,-16616.4,-0,19720.3,-243887
step02_gravity_refstate-crust.xmf,1522,-2.2266e-07,5.98654e-07,0,-1.81994e-06,-1.91114e+08,-1.91057e+08,-1.91098e+08,-124848,0.0216035,-0.00112613,0,0.0216328,-15812.9,-6957.71,-0,17275.9,-124848
step02_gravity_refstate-crust.xmf,1523,-2.43225e-07,7.4471e-07,0,-2.11774e-06,-2.33467e+08,-2.334e+08,-2.33451e+08,-145277,0.0199573,-0.00652233,0,0.020996,-14913.5,-8499.78,-0,17165.6,-145277
step02_gravity_refstate-crust.xmf,1524,-2.44106e-07,8.99845e-07,0,-2.38432e-06,-2.75084e+08,-2.75005e+08,-2.75067e+08,-163565,0.0189674,-0.0119324,0,0.0224085,-14079.6,-10015.1,-0,17278.2,-163565
step02_gravity_refstate-crust.xmf,1525,-2.50722e-07,1.07121e-06,0,-2.61665e-06,-3.13031e+08,-3.1294e+08,-3.13014e+08,-179502,0.0185104,-0.0175022,0,0.0254747,-13263.5,-11396.8,-0,17487.4,-179502
step02_gravity_refstate-crust.xmf,1526,3.04307e-08,1.82169e-07,0,-7.74112e-07,-6.97935e+07,-6.97831e+07,-6.97956e+07,-53104.1,0.0305614,0.0122776,0,0.0329353,-18357,-2541.31,-0,18532.1,-53104.1
step02_gravity_refstate-crust.xmf,1527,2.37936e-08,3.41643e-07,0,-1.36568e-06,-1.40282e+08,-1.40261e+08,-1.40284e+08,-93685.4,0.0246182,0.010422,0,0.0267333,-18093.5,-5107.75,-0,18800.6,-93685.4
step02_gravity_refstate-crust.xmf,1528,1.40861e-06,2.45926e-06,0,-7.41489e-06,-7.50027e+08,-7.49955e+08,-7.50124e+08,-508662,0.0270278,-0.107459,0,0.110806,-6503.97,-27315,-0,28078.7,-508662
step02_gravity_refstate-crust.xmf,1529,4.03466e-07,2.70937e-06,0,-5.74107e-06,-6.54481e+08,-6.54323e+08,-6.54509e+08,-393837,0.0256602,-0.0790307,0,0.0830921,-7961.13,-23832.9,-0,25127.4,-393837
step02_gravity_refstate-crust.xmf,1530,7.40258e-07,2.85427e-06,0,-6.63676e-06,-7.01798e+08,-7.01652e+08,-7.01848e+08,-455281,0.0269097,-0.0939773,0,0.0977541,-7110.33,-25557.1,-0,26527.7,-455281
step02_gravity_refstate-crust.xmf,1531,5.75077e-07,2.75916e-06,0,-6.14728e-06,-6.78451e+08,-6.78301e+08,-6.78491e+08,-421703,0.0263194,-0.0857632,0,0.0897109,-7578.23,-24706.3,-0,25842.4,-421703
step02_gravity_refstate-crust.xmf,1532,1.13324e-06,2.60278e-06,0,-7.05193e-06,-7.29735e+08,-7.29634e+08,-7.29812e+08,-483762,0.0271237,-0.100918,0,0.1045,-6810.6,-26575.3,-0,27434.2,-483762
step02_gravity_refstate-crust.xmf,1533,2.13067e-06,1.22882e-06,0,-7.14712e-06,-7.88309e+08,-7.88371e+08,-7.88455e+08,-490292,0.0242206,-0.108163,0,0.110842,-6620.26,-28709.7,-0,29463.1,-490292
step02_gravity_refstate-crust.xmf,1534,2.23327e-06,1.03381e-06,0,-7.42018e-06,-8.07918e+08,-8.08e+08,-8.08071e+08,-509024,0.0226585,-0.115737,0,0.117934,-6245.03,-29423.7,-0,30079.1,-509024
step02_gravity_refstate-crust.xmf,1535,2.18987e-06,8.93508e-07,0,-7.85834e-06,-8.28172e+08,-8.28261e+08,-8.28322e+08,-539082,0.0204238,-0.125683,0,0.127332,-5779.66,-30160.7,-0,30709.4,-539082
step02_gravity_refstate-crust.xmf,1536,2.01021e-06,4.81934e-07,0,-8.02234e-06,-8.49075e+08,-8.4918e+08,-8.49213e+08,-550333,0.016577,-0.130892,0,0.131937,-5565.13,-30920.3,-0,31417.1,-550333
step02_gravity_refstate-crust.xmf,1537,9.89469e-07,-3.57301e-06,0,-1.22873e-05,-9.36725e+08,-9.37038e+08,-9.36793e+08,-842910,-0.00632279,-0.170562,-0,0.170679,-4028.71,-34100.9,-0,34338,-842910
step02_gravity_refstate-crust.xmf,1538,1.71136e-06,2.01043e-07,0,-8.51633e-06,-8.66303e+08,-8.66406e+08,-8.6642e+08,-584220,0.012939,-0.138328,0,0.138932,-5257.14,-31545.9,-0,31980.9,-584220
step02_gravity_refstate-crust.xmf,1539,1.35881e-06,-1.79247e-07,0,-9.30729e-06,-8.82995e+08,-8.83101e+08,-8.83088e+08,-638480,0.00890458,-0.147262,0,0.147531,-4907.78,-32151.5,-0,32524,-638480
step02_gravity_refstate-crust.xmf,1540,1.01881e-06,-8.7051e-07,0,-1.0542e-05,-9.00862e+08,-9.00992e+08,-9.00932e+08,-723182,0.0041187,-0.158474,0,0.158528,-4498.28,-32799.6,-0,33106.6,-723182
step02_gravity_refstate-crust.xmf,1541,9.10873e-07,-2.15055e-06,0,-1.12606e-05,-9.20316e+08,-9.20526e+08,-9.20378e+08,-772475,-0.00161566,-0.163187,-0,0.163195,-4310.33,-33505.4,-0,33781.5,-772475
step02_gravity_refstate-crust.xmf,1542,1.0268e-06,-6.2186e-06,0,-1.18546e-05,-9.68345e+08,-9.68842e+08,-9.68416e+08,-813226,-0.0154721,-0.164934,-0,0.165658,-4030.99,-35248.1,-0,35477.8,-813226
step02_gravity_refstate-crust.xmf,1543,5.61488e-07,-9.98561e-06,0,-1.15066e-05,-1.0185e+09,-1.01923e+09,-1.01854e+09,-789350,-0.0267335,-0.157436,-0,0.159689,-3782.33,-37066.4,-0,37258.9,-789350
step02_gravity_refstate-crust.xmf,1544,9.66612e-08,-1.09075e-05,0,-1.1504e-05,-1.03777e+09,-1.03853e+09,-1.03778e+09,-789172,-0.0289863,-0.151136,-0,0.153891,-3742.8,-37764.7,-0,37949.7,-789172
step02_gravity_refstate-crust.xmf,1545,1.22864e-06,-1.61582e-05,0,-1.34835e-05,-1.05637e+09,-1.05756e+09,-1.05646e+09,-924970,-0.0286788,-0.164333,-0,0.166817,-2865.82,-38438.2,-0,38544.9,-924970
step02_gravity_refstate-crust.xmf,1546,2.1348e-06,-1.88351e-05,0,-1.41455e-05,-1.07069e+09,-1.07213e+09,-1.07084e+09,-970382,-0.0264867,-0.161954,-0,0.164106,-2589.35,-38959.1,-0,39045,-970382
step02_gravity_refstate-crust.xmf,1547,4.37698e-06,-2.35746e-05,0,-1.42649e-05,-1.08488e+09,-1.0868e+09,-1.08519e+09,-978570,-0.0210153,-0.161585,-0,0.162946,-2089.75,-39477.5,-0,39532.8,-978570
step02_gravity_refstate-crust.xmf,1548,-7.74299e-08,1.88046e-06,0,-3.80656e-06,-4.92224e+08,-4.9209e+08,-4.92219e+08,-261130,0.0207546,-0.0429034,0,0.0476598,-10581.2,-17922.5,-0,20812.9,-261130
step02_gravity_refstate-crust.xmf,1549,1.04645e-08,4.55499e-07,0,-1.73056e-06,-1.88992e+08,-1.88961e+08,-1.88992e+08,-118717,0.0218744,0.0069723,0,0.0229587,-17503.5,-6881.18,-0,18807.5,-118717
step02_gravity_refstate-crust.xmf,1550,4.07579e-07,-1.49536e-07,0,-1.67201e-08,38935,716.902,10975.1,-1147,0.0390744,0.0175715,0,0.0428435,-19595.1,0,-0,19595.1,-1147
step02_gravity_refstate-crust.xmf,1551,2.87075e-07,2.59073e-06,0,-5.34324e-06,-6.29865e+08,-6.29707e+08,-6.29884e+08,-366546,0.0248966,-0.0720761,0,0.0762549,-8401.92,-22936,-0,24426.5,-366546
step02_gravity_refstate-crust.xmf,1552,1.94035e-06,1.43358e-06,0,-6.89037e-06,-7.68103e+08,-7.68137e+08,-7.68236e+08,-472680,0.0252576,-0.10122,0,0.104324,-6980.37,-27973.6,-0,28831.4,-472680
step02_gravity_refstate-crust.xmf,1553,4.22305e-08,1.95517e-06,0,-4.06968e-06,-5.24738e+08,-5.24607e+08,-5.24741e+08,-279180,0.0216373,-0.0471145,0,0.0518454,-10309.6,-19106.8,-0,21710.8,-279180
step02_gravity_refstate-crust.xmf,1554,2.05014e-07,2.45062e-06,0,-4.99226e-06,-6.05651e+08,-6.05497e+08,-6.05665e+08,-342469,0.0241204,-0.0656119,0,0.0699051,-8845.89,-22053.9,-0,23761.9,-342469
step02_gravity_refstate-crust.xmf,1555,1.63078e-07,2.27029e-06,0,-4.66778e-06,-5.81223e+08,-5.81078e+08,-5.81234e+08,-320210,0.0233327,-0.0591064,0,0.0635451,-9344.11,-21164.2,-0,23135.1,-320210
step02_gravity_refstate-crust.xmf,1556,1.20058e-07,2.09277e-06,0,-4.36257e-06,-5.54903e+08,-5.54767e+08,-5.54911e+08,-299272,0.0225138,-0.0527778,0,0.0573792,-9859.73,-20205.5,-0,22482.8,-299272
step02_gravity_refstate-crust.xmf,1557,8.3389e-07,-4.32637e-06,0,-1.10248e-05,-9.51865e+08,-9.52219e+08,-9.51922e+08,-756302,-0.01109,-0.158704,-0,0.159091,-4334.94,-34650.3,-0,34920.4,-756302
step02_gravity_refstate-crust.xmf,1558,5.46015e-07,-8.06896e-06,0,-1.10599e-05,-1.00027e+09,-1.00086e+09,-1.0003e+09,-758712,-0.0234457,-0.15539,-0,0.157149,-4071.03,-36405.4,-0,36632.3,-758712
step02_gravity_refstate-crust.xmf,1559,4.50039e-07,-6.49835e-06,0,-1.04277e-05,-9.84403e+08,-9.8488e+08,-9.84434e+08,-715342,-0.0199398,-0.151054,-0,0.152364,-4375.62,-35829.9,-0,36096.1,-715342
step02_gravity_refstate-crust.xmf,1560,1.65781e-07,-1.28929e-05,0,-1.23015e-05,-1.0544e+09,-1.0553e+09,-1.05442e+09,-843880,-0.0292126,-0.151569,-0,0.154358,-3428.59,-38367.3,-0,38520.2,-843880
step02_gravity_refstate-crust.xmf,1561,-2.37912e-08,9.81367e-07,0,-2.7706e-06,-3.47454e+08,-3.47385e+08,-3.47452e+08,-190063,0.0186312,-0.0148164,0,0.0238043,-14003,-12650.8,-0,18871.3,-190063
step02_gravity_refstate-crust.xmf,1562,-1.14098e-09,1.12501e-06,0,-2.99059e-06,-3.83336e+08,-3.83258e+08,-3.83336e+08,-205155,0.0188227,-0.0200779,0,0.0275212,-13307.5,-13957.5,-0,19284.7,-205155
step02_gravity_refstate-crust.xmf,1563,2.44792e-08,1.28588e-06,0,-3.22246e-06,-4.19338e+08,-4.19251e+08,-4.1934e+08,-221061,0.0192624,-0.0257495,0,0.0321571,-12608.9,-15268.5,-0,19801.8,-221061
step02_gravity_refstate-crust.xmf,1564,5.36772e-08,1.44192e-06,0,-3.45005e-06,-4.52344e+08,-4.52248e+08,-4.52347e+08,-236673,0.0198492,-0.0312282,0,0.0370026,-11986.8,-16470.5,-0,20370.6,-236673
step02_gravity_refstate-crust.xmf,1565,-6.57782e-09,5.7002e-07,0,-2.03342e-06,-2.3204e+08,-2.32e+08,-2.32039e+08,-139493,0.0202168,0.00220947,0,0.0203372,-16680.1,-8448.49,-0,18697.7,-139493
step02_gravity_refstate-crust.xmf,1566,-6.38066e-09,6.92821e-07,0,-2.31301e-06,-2.74789e+08,-2.74741e+08,-2.74789e+08,-158673,0.0191875,-0.00309834,0,0.019436,-15811.7,-10005,-0,18711.3,-158673
step02_gravity_refstate-crust.xmf,1567,-1.61396e-08,8.35254e-07,0,-2.55975e-06,-3.13204e+08,-3.13146e+08,-3.13203e+08,-175599,0.0187227,-0.00918205,0,0.0208531,-14841.9,-11403.7,-0,18717,-175599
step02_gravity_refstate-crust.xmf,1568,4.88616e-07,-1.86501e-08,0,-6.24279e-07,-6.1287e+07,-6.13218e+07,-6.13205e+07,-42825.5,0.0308154,0.0226045,0,0.0382172,-20776.9,-2233.16,-0,20896.6,-42825.5
step02_gravity_refstate-crust.xmf,1569,2.88705e-07,1.90556e-07,0,-1.15419e-06,-1.22854e+08,-1.22861e+08,-1.22874e+08,-79177.7,0.0255714,0.0187716,0,0.0317218,-19922,-4474.08,-0,20418.2,-79177.7
step02_gravity_refstate-crust.xmf,1570,2.2445e-07,3.24022e-07,0,-1.57734e-06,-1.80519e+08,-1.80512e+08,-1.80534e+08,-108206,0.0220872,0.0150999,0,0.0267554,-19222.4,-6573.38,-0,20315.3,-108206
step02_gravity_refstate-crust.xmf,1571,9.04962e-07,-3.39902e-07,0,-1.34344e-08,86113.5,715.812,24033.1,-921.598,0.0376008,0.0265772,0,0.0460453,-21869,0,-0,21869,-921.598
step02_gravity_refstate-crust.xmf,1572,1.69755e-06,1.63726e-06,0,-6.63018e-06,-7.46935e+08,-7.46939e+08,-7.47051e+08,-454830,0.025874,-0.0947542,0,0.0982233,-7326.9,-27202.3,-0,28171.8,-454830
step02_gravity_refstate-crust.xmf,1573,7.9963e-07,1.95756e-06,0,-5.32032e-06,-6.52475e+08,-6.52395e+08,-6.5253e+08,-364974,0.0250374,-0.0685038,0,0.0729359,-8939.11,-23760.3,-0,25386.2,-364974
step02_gravity_refstate-crust.xmf,1574,9.73617e-07,1.96337e-06,0,-5.65251e-06,-6.76465e+08,-6.76397e+08,-6.76531e+08,-387762,0.0255776,-0.0748423,0,0.0790923,-8510.89,-24634.3,-0,26063.1,-387762
step02_gravity_refstate-crust.xmf,1575,1.18097e-06,1.92666e-06,0,-6e-06,-7.00318e+08,-7.00267e+08,-7.00399e+08,-411600,0.0259723,-0.0815284,0,0.0855654,-8085.82,-25503.5,-0,26754.6,-411600
step02_gravity_refstate-crust.xmf,1576,1.42502e-06,1.82318e-06,0,-6.33968e-06,-7.23989e+08,-7.23962e+08,-7.24087e+08,-434902,0.026115,-0.0883018,0,0.0920826,-7684.04,-26366.1,-0,27463,-434902
step02_gravity_refstate-crust.xmf,1577,2.23944e-06,6.02329e-07,0,-6.27363e-06,-7.86858e+08,-7.8697e+08,-7.87012e+08,-430371,0.0226127,-0.0949081,0,0.0975648,-7427.46,-28656.3,-0,29603.3,-430371
step02_gravity_refstate-crust.xmf,1578,2.32403e-06,3.90644e-07,0,-6.44352e-06,-8.06956e+08,-8.07089e+08,-8.07116e+08,-442025,0.0209575,-0.101379,0,0.103522,-7051.98,-29388.1,-0,30222.3,-442025
step02_gravity_refstate-crust.xmf,1579,2.30372e-06,1.78181e-07,0,-6.63391e-06,-8.26612e+08,-8.26758e+08,-8.2677e+08,-455086,0.0186859,-0.108134,0,0.109737,-6679.35,-30103.2,-0,30835.4,-455086
step02_gravity_refstate-crust.xmf,1580,2.15344e-06,-4.27172e-08,0,-6.8939e-06,-8.46012e+08,-8.46162e+08,-8.46159e+08,-472921,0.015716,-0.115317,0,0.116383,-6304.81,-30808.5,-0,31447.1,-472921
step02_gravity_refstate-crust.xmf,1581,1.89029e-06,-3.22534e-07,0,-7.20703e-06,-8.64641e+08,-8.64793e+08,-8.6477e+08,-494402,0.0120595,-0.12187,0,0.122465,-5981.17,-31485.3,-0,32048.3,-494402
step02_gravity_refstate-crust.xmf,1582,7.96096e-07,-3.09804e-06,0,-1.00313e-05,-9.35432e+08,-9.35699e+08,-9.35487e+08,-688150,-0.00650781,-0.150913,-0,0.151054,-4675.8,-34053.8,-0,34373.3,-688150
step02_gravity_refstate-crust.xmf,1583,1.55825e-06,-6.65237e-07,0,-7.71453e-06,-8.82289e+08,-8.82442e+08,-8.82396e+08,-529216,0.00803983,-0.129228,0,0.129477,-5636.92,-32125.9,-0,32616.7,-529216
step02_gravity_refstate-crust.xmf,1584,1.21661e-06,-1.17976e-06,0,-8.42947e-06,-8.99699e+08,-8.99864e+08,-8.99783e+08,-578262,0.00358485,-0.137179,0,0.137226,-5284.02,-32757.5,-0,33181,-578262
step02_gravity_refstate-crust.xmf,1585,9.37703e-07,-1.96909e-06,0,-9.23882e-06,-9.17397e+08,-9.17597e+08,-9.17462e+08,-633783,-0.00133181,-0.144628,-0,0.144634,-4960.33,-33399.5,-0,33765.8,-633783
step02_gravity_refstate-crust.xmf,1586,4.23218e-07,-4.97575e-06,0,-9.79684e-06,-9.67767e+08,-9.68137e+08,-9.67796e+08,-672063,-0.0157819,-0.146092,-0,0.146942,-4680.92,-35226.5,-0,35536.2,-672063
step02_gravity_refstate-crust.xmf,1587,-1.87494e-07,-7.96243e-06,0,-1.01909e-05,-1.01483e+09,-1.01537e+09,-1.01482e+09,-699094,-0.0262527,-0.144186,-0,0.146556,-4333.05,-36933,-0,37186.3,-699094
step02_gravity_refstate-crust.xmf,1588,-5.85037e-07,-8.66884e-06,0,-1.0332e-05,-1.03362e+09,-1.03418e+09,-1.03358e+09,-708775,-0.0285475,-0.139225,-0,0.142122,-4303.28,-37614.3,-0,37859.6,-708775
step02_gravity_refstate-crust.xmf,1589,-4.93447e-07,-1.02971e-05,0,-1.12056e-05,-1.05207e+09,-1.05274e+09,-1.05204e+09,-768701,-0.0292228,-0.139468,-0,0.142497,-4007.85,-38283.8,-0,38493,-768701
step02_gravity_refstate-crust.xmf,1590,8.02535e-07,-1.52166e-05,0,-1.32142e-05,-1.06998e+09,-1.07108e+09,-1.07003e+09,-906492,-0.0274014,-0.150723,-0,0.153194,-3113.52,-38933.2,-0,39057.5,-906492
step02_gravity_refstate-crust.xmf,1591,2.13468e-06,-1.8205e-05,0,-1.40219e-05,-1.08534e+09,-1.08674e+09,-1.08549e+09,-961904,-0.022929,-0.148903,-0,0.150659,-2739.67,-39493.5,-0,39588.4,-961904
step02_gravity_refstate-crust.xmf,1592,1.00268e-07,1.55495e-06,0,-3.6546e-06,-4.80823e+08,-4.80723e+08,-4.8083e+08,-250705,0.0204659,-0.0356922,0,0.0411435,-11540,-17507.7,-0,20968.8,-250705
step02_gravity_refstate-crust.xmf,1593,3.22541e-07,1.47102e-06,0,-3.84682e-06,-5.15976e+08,-5.15897e+08,-5.15998e+08,-263892,0.0211956,-0.0372986,0,0.0429003,-11588,-18788.2,-0,22074.4,-263892
step02_gravity_refstate-crust.xmf,1594,1.47387e-07,7.76735e-07,0,-2.67471e-06,-3.4584e+08,-3.45797e+08,-3.4585e+08,-183485,0.0185528,-0.00771877,0,0.0200944,-15294.8,-12592.4,-0,19811.6,-183485
step02_gravity_refstate-crust.xmf,1595,2.03402e-07,4.23091e-07,0,-1.89933e-06,-2.28324e+08,-2.28309e+08,-2.28338e+08,-130294,0.0201627,0.0108961,0,0.0229185,-18461.2,-8313.85,-0,20246.9,-130294
step02_gravity_refstate-crust.xmf,1596,8.81582e-07,-1.79077e-07,0,-5.14721e-07,-5.69343e+07,-5.70071e+07,-5.69948e+07,-35309.9,0.029728,0.0315181,0,0.043326,-23020.5,-2076.04,-0,23113.9,-35309.9
step02_gravity_refstate-crust.xmf,1597,1.34881e-06,-5.08802e-07,0,-1.21388e-08,128256,823.394,35727.2,-832.722,0.0349781,0.035163,0,0.0495974,-24208.2,0,-0,24208.2,-832.722
step02_gravity_refstate-crust.xmf,1598,6.53737e-07,1.93291e-06,0,-5.0203e-06,-6.28638e+08,-6.28551e+08,-6.28683e+08,-344392,0.0244248,-0.062718,0,0.0673062,-9349.63,-22891.9,-0,24727.6,-344392
step02_gravity_refstate-crust.xmf,1599,2.07974e-06,8.11408e-07,0,-6.09793e-06,-7.65988e+08,-7.66075e+08,-7.66131e+08,-418318,0.0237586,-0.0886587,0,0.0917869,-7806.73,-27896.2,-0,28968,-418318
step02_gravity_refstate-crust.xmf,1600,4.3873e-07,1.55937e-06,0,-4.13908e-06,-5.52648e+08,-5.52571e+08,-5.52678e+08,-283941,0.0221336,-0.0435199,0,0.048825,-11022.2,-20123.9,-0,22944.7,-283941
step02_gravity_refstate-crust.xmf,1601,5.54309e-07,1.86403e-06,0,-4.73825e-06,-6.04648e+08,-6.04558e+08,-6.04686e+08,-325044,0.0237409,-0.0569163,0,0.0616692,-9797.26,-22017.9,-0,24099.3,-325044
step02_gravity_refstate-crust.xmf,1602,5.26721e-07,1.67248e-06,0,-4.42679e-06,-5.81737e+08,-5.81659e+08,-5.81774e+08,-303678,0.0229619,-0.0497998,0,0.0548386,-10452.2,-21183.5,-0,23621.7,-303678
step02_gravity_refstate-crust.xmf,1603,4.07408e-07,-3.59067e-06,0,-8.78286e-06,-9.52346e+08,-9.52621e+08,-9.52374e+08,-602504,-0.0116997,-0.13751,-0,0.138007,-5097.74,-34667.2,-0,35040,-602504
step02_gravity_refstate-crust.xmf,1604,-2.08667e-07,-6.49242e-06,0,-9.58673e-06,-1.00153e+09,-1.00196e+09,-1.00152e+09,-657649,-0.0238045,-0.13979,-0,0.141802,-4650.69,-36450.9,-0,36746.4,-657649
step02_gravity_refstate-crust.xmf,1605,-2.23254e-07,-4.99517e-06,0,-8.71099e-06,-9.85505e+08,-9.85832e+08,-9.85489e+08,-597574,-0.0202798,-0.132953,-0,0.13449,-5070.67,-35869.6,-0,36226.3,-597574
step02_gravity_refstate-crust.xmf,1606,-1.27412e-07,-1.21746e-05,0,-1.21741e-05,-1.06863e+09,-1.06945e+09,-1.06862e+09,-835143,-0.0278599,-0.139191,-0,0.141951,-3698.15,-38885.1,-0,39060.6,-835143
step02_gravity_refstate-crust.xmf,1607,1.98844e-07,8.53472e-07,0,-2.85995e-06,-3.78772e+08,-3.78727e+08,-3.78785e+08,-196193,0.0186483,-0.0115233,0,0.0219213,-14784,-13791.7,-0,20218.3,-196193
step02_gravity_refstate-crust.xmf,1608,2.56213e-07,9.61901e-07,0,-3.08814e-06,-4.17181e+08,-4.17133e+08,-4.17199e+08,-211847,0.0190298,-0.0168512,0,0.0254184,-14081.7,-15190.4,-0,20713.3,-211847
step02_gravity_refstate-crust.xmf,1609,3.09265e-07,1.08435e-06,0,-3.32239e-06,-4.53717e+08,-4.53664e+08,-4.53738e+08,-227916,0.0196256,-0.0227308,0,0.0300309,-13340.4,-16521,-0,21234.6,-227916
step02_gravity_refstate-crust.xmf,1610,3.59825e-07,1.20798e-06,0,-3.55417e-06,-4.86425e+08,-4.86367e+08,-4.8645e+08,-243816,0.0203181,-0.028595,0,0.0350785,-12644,-17712.1,-0,21762.1,-243816
step02_gravity_refstate-crust.xmf,1611,2.06321e-07,5.15692e-07,0,-2.18548e-06,-2.7377e+08,-2.73748e+08,-2.73784e+08,-149924,0.0190262,0.00600027,0,0.0199499,-17614.2,-9968.49,-0,20239.4,-149924
step02_gravity_refstate-crust.xmf,1612,2.28405e-07,6.16629e-07,0,-2.47157e-06,-3.2128e+08,-3.21253e+08,-3.21296e+08,-169549,0.0184651,1.6557e-05,0,0.0184651,-16631.3,-11698.4,-0,20333.5,-169549
step02_gravity_refstate-crust.xmf,1613,5.89314e-07,5.12438e-08,0,-9.87177e-07,-1.14571e+08,-1.14608e+08,-1.14612e+08,-67720.3,0.0253107,0.0274185,0,0.0373149,-21952.7,-4173.55,-0,22346,-67720.3
step02_gravity_refstate-crust.xmf,1614,4.4656e-07,2.01483e-07,0,-1.39289e-06,-1.70237e+08,-1.70254e+08,-1.70268e+08,-95552.6,0.0220229,0.023444,0,0.0321657,-21071.7,-6199.77,-0,21964.8,-95552.6
step02_gravity_refstate-crust.xmf,1615,3.92818e-07,3.01574e-07,0,-1.7274e-06,-2.22022e+08,-2.22029e+08,-2.22049e+08,-118500,0.0198583,0.0194279,0,0.0277812,-20274.1,-8085.01,-0,21826.7,-118500
step02_gravity_refstate-crust.xmf,1616,1.23148e-06,-3.13382e-07,0,-4.32136e-07,-5.66517e+07,-5.67577e+07,-5.67362e+07,-29644.6,0.0272952,0.0399548,0,0.0483881,-25351.9,-2066.96,-0,25436,-29644.6
step02_gravity_refstate-crust.xmf,1617,1.8765e-06,1.00381e-06,0,-5.90366e-06,-7.44315e+08,-7.44375e+08,-7.44444e+08,-404991,0.024465,-0.0825948,0,0.086142,-8190.15,-27106.7,-0,28317,-404991
step02_gravity_refstate-crust.xmf,1618,1.06952e-06,1.38952e-06,0,-4.91223e-06,-6.50833e+08,-6.50811e+08,-6.50906e+08,-336979,0.0241486,-0.0588999,0,0.0636581,-9881.3,-23700.7,-0,25678.1,-336979
step02_gravity_refstate-crust.xmf,1619,1.25908e-06,1.32593e-06,0,-5.15203e-06,-6.75359e+08,-6.75354e+08,-6.75445e+08,-353429,0.024499,-0.0642224,0,0.0687366,-9479.68,-24594.2,-0,26357.9,-353429
step02_gravity_refstate-crust.xmf,1620,1.45381e-06,1.25932e-06,0,-5.41787e-06,-6.991e+08,-6.99113e+08,-6.992e+08,-371666,0.0247455,-0.0702928,0,0.0745212,-9030.44,-25459.3,-0,27013.4,-371666
step02_gravity_refstate-crust.xmf,1621,1.66327e-06,1.15126e-06,0,-5.67108e-06,-7.22124e+08,-7.22159e+08,-7.22238e+08,-389036,0.0247551,-0.0764242,0,0.0803335,-8600.98,-26298.2,-0,27668.9,-389036
step02_gravity_refstate-crust.xmf,1622,2.26072e-06,1.51823e-07,0,-5.49822e-06,-7.85973e+08,-7.86117e+08,-7.86128e+08,-377178,0.0208402,-0.0825503,0,0.0851403,-8259.66,-28623.5,-0,29791.4,-377178
step02_gravity_refstate-crust.xmf,1623,2.31893e-06,-4.75329e-08,0,-5.6002e-06,-8.06404e+08,-8.06566e+08,-8.06563e+08,-384174,0.0191381,-0.088308,0,0.0903581,-7870.42,-29367.3,-0,30403.6,-384174
step02_gravity_refstate-crust.xmf,1624,2.28942e-06,-2.36045e-07,0,-5.72725e-06,-8.25957e+08,-8.2613e+08,-8.26114e+08,-392889,0.0169678,-0.0943834,0,0.0958965,-7478.47,-30078.7,-0,30994.4,-392889
step02_gravity_refstate-crust.xmf,1625,2.1631e-06,-4.1077e-07,0,-5.91641e-06,-8.44636e+08,-8.44812e+08,-8.44784e+08,-405866,0.0143307,-0.100891,0,0.101903,-7081.15,-30757.9,-0,31562.5,-405866
step02_gravity_refstate-crust.xmf,1626,1.93369e-06,-6.41935e-07,0,-6.14181e-06,-8.6333e+08,-8.63506e+08,-8.63462e+08,-421328,0.0109606,-0.107052,0,0.107612,-6723.19,-31437.2,-0,32148.1,-421328
step02_gravity_refstate-crust.xmf,1627,1.61166e-06,-9.42223e-07,0,-6.43219e-06,-8.81663e+08,-8.81838e+08,-8.81773e+08,-441248,0.00700544,-0.112905,0,0.113123,-6396.54,-32102.9,-0,32733.9,-441248
step02_gravity_refstate-crust.xmf,1628,6.27513e-07,-2.61413e-06,0,-8.17416e-06,-9.33924e+08,-9.34146e+08,-9.33967e+08,-560748,-0.00656301,-0.132626,-0,0.132788,-5375.43,-33998.9,-0,34421.2,-560748
step02_gravity_refstate-crust.xmf,1629,1.25775e-06,-1.33081e-06,0,-6.8992e-06,-8.99407e+08,-8.99584e+08,-8.99493e+08,-473285,0.0027299,-0.11956,0,0.119591,-6043.76,-32746.8,-0,33299.9,-473285
step02_gravity_refstate-crust.xmf,1630,9.10564e-07,-1.87759e-06,0,-7.46775e-06,-9.16932e+08,-9.17123e+08,-9.16994e+08,-512288,-0.00189168,-0.12594,-0,0.125954,-5713.72,-33382.6,-0,33868,-512288
step02_gravity_refstate-crust.xmf,1631,4.04462e-08,-4.13197e-06,0,-8.44108e-06,-9.68686e+08,-9.68972e+08,-9.68689e+08,-579058,-0.0161513,-0.131947,-0,0.132932,-5229.73,-35259.7,-0,35645.5,-579058
step02_gravity_refstate-crust.xmf,1632,-8.11985e-07,-6.6993e-06,0,-9.23126e-06,-1.02046e+09,-1.02087e+09,-1.02041e+09,-633264,-0.0268112,-0.130636,-0,0.133359,-4847.5,-37137.4,-0,37452.4,-633264
step02_gravity_refstate-crust.xmf,1633,-1.03281e-06,-8.16676e-06,0,-1.01678e-05,-1.05108e+09,-1.05157e+09,-1.05101e+09,-697513,-0.0287759,-0.126997,-0,0.130216,-4626.87,-38248.9,-0,38527.7,-697513
step02_gravity_refstate-crust.xmf,1634,-6.42286e-07,-9.74862e-06,0,-1.11783e-05,-1.06734e+09,-1.06796e+09,-1.06729e+09,-766831,-0.0278297,-0.127852,-0,0.130846,-4307.28,-38839.8,-0,39077.9,-766831
step02_gravity_refstate-crust.xmf,1635,8.54687e-07,-1.44849e-05,0,-1.31658e-05,-1.08438e+09,-1.08543e+09,-1.08444e+09,-903174,-0.024187,-0.137953,-0,0.140057,-3363.23,-39459,-0,39602.1,-903174
step02_gravity_refstate-crust.xmf,1636,6.93588e-07,1.11434e-06,0,-3.88095e-06,-5.51836e+08,-5.51807e+08,-5.51883e+08,-266233,0.0214364,-0.0342817,0,0.0404321,-12233.4,-20094.7,-0,23525.5,-266233
step02_gravity_refstate-crust.xmf,1637,3.27269e-07,6.50147e-07,0,-2.67413e-06,-3.65716e+08,-3.65694e+08,-3.65739e+08,-183445,0.0182634,-0.00300955,0,0.0185097,-16256.7,-13316.6,-0,21014.6,-183445
step02_gravity_refstate-crust.xmf,1638,3.84939e-07,3.7727e-07,0,-2.0149e-06,-2.7049e+08,-2.7049e+08,-2.70516e+08,-138222,0.0185643,0.014966,0,0.0238456,-19443.8,-9849.58,-0,21796.2,-138222
step02_gravity_refstate-crust.xmf,1639,8.632e-07,-6.70521e-08,0,-8.38394e-07,-1.093e+08,-1.09364e+08,-1.09359e+08,-57513.8,0.0242514,0.0353321,0,0.0428543,-23964.4,-3982.57,-0,24293.1,-57513.8
step02_gravity_refstate-crust.xmf,1640,1.72955e-06,-6.51421e-07,0,-1.44933e-08,164502,1167.42,45854.9,-994.24,0.0312674,0.0430772,0,0.0532287,-26619.5,0,-0,26619.5,-994.24
step02_gravity_refstate-crust.xmf,1641,9.11627e-07,1.43941e-06,0,-4.71882e-06,-6.29038e+08,-6.29002e+08,-6.291e+08,-323711,0.0237783,-0.0548551,0,0.0597871,-10186,-22906.7,-0,25069.3,-323711
step02_gravity_refstate-crust.xmf,1642,2.13789e-06,3.37401e-07,0,-5.37149e-06,-7.64992e+08,-7.65116e+08,-7.65139e+08,-368484,0.0220136,-0.0766929,0,0.0797897,-8673.91,-27859.5,-0,29178.5,-368484
step02_gravity_refstate-crust.xmf,1643,8.20495e-07,1.1434e-06,0,-4.11472e-06,-5.8283e+08,-5.82808e+08,-5.82886e+08,-282270,0.0221583,-0.039929,0,0.0456652,-11668,-21223.6,-0,24219.5,-282270
step02_gravity_refstate-crust.xmf,1644,9.66275e-07,1.1617e-06,0,-4.387e-06,-6.14043e+08,-6.1403e+08,-6.1411e+08,-300948,0.0228978,-0.0464177,0,0.0517581,-11047.9,-22360.6,-0,24941,-300948
step02_gravity_refstate-crust.xmf,1645,-5.00308e-08,-3.36084e-06,0,-7.42484e-06,-9.62477e+08,-9.62705e+08,-9.62474e+08,-509344,-0.0145426,-0.121647,-0,0.122513,-5714.45,-35034.5,-0,35497.5,-509344
step02_gravity_refstate-crust.xmf,1646,-7.0671e-07,-5.41638e-06,0,-8.52174e-06,-1.004e+09,-1.00432e+09,-1.00395e+09,-584592,-0.0240174,-0.126678,-0,0.128934,-5191.24,-36540.2,-0,36907.2,-584592
step02_gravity_refstate-crust.xmf,1647,-3.49018e-07,-3.97483e-06,0,-7.65568e-06,-9.77439e+08,-9.77688e+08,-9.77415e+08,-525179,-0.018255,-0.122496,-0,0.123849,-5585.75,-35577.1,-0,36012.9,-525179
step02_gravity_refstate-crust.xmf,1648,-1.1918e-06,-6.67831e-06,0,-9.19787e-06,-1.03582e+09,-1.03619e+09,-1.03574e+09,-630974,-0.0280634,-0.123373,-0,0.126524,-5016.09,-37694.8,-0,38027.1,-630974
step02_gravity_refstate-crust.xmf,1649,6.93194e-08,-1.16062e-05,0,-1.22e-05,-1.0835e+09,-1.0843e+09,-1.0835e+09,-836919,-0.024771,-0.127189,-0,0.129578,-3994.71,-39428.1,-0,39630,-836919
step02_gravity_refstate-crust.xmf,1650,5.89657e-07,1.07428e-06,0,-3.67104e-06,-5.21533e+08,-5.215e+08,-5.21574e+08,-251833,0.0207537,-0.0292448,0,0.0358604,-12762.8,-18991,-0,22881.1,-251833
step02_gravity_refstate-crust.xmf,1651,4.5162e-07,6.79324e-07,0,-2.87776e-06,-4.1081e+08,-4.10795e+08,-4.10841e+08,-197414,0.0183823,-0.00649936,0,0.0194975,-15826.6,-14958.8,-0,21777.2,-197414
step02_gravity_refstate-crust.xmf,1652,5.12219e-07,7.76367e-07,0,-3.12637e-06,-4.52168e+08,-4.5215e+08,-4.52203e+08,-214469,0.0189996,-0.0134498,0,0.0232784,-14831.8,-16464.9,-0,22160.2,-214469
step02_gravity_refstate-crust.xmf,1653,6.09421e-07,8.39339e-07,0,-3.36549e-06,-4.93002e+08,-4.92986e+08,-4.93044e+08,-230873,0.0197288,-0.0197803,0,0.0279372,-14017.7,-17952,-0,22776.5,-230873
step02_gravity_refstate-crust.xmf,1654,4.08004e-07,4.37654e-07,0,-2.26206e-06,-3.14959e+08,-3.14957e+08,-3.14987e+08,-155177,0.0179167,0.0103171,0,0.0206749,-18624.6,-11468.7,-0,21872.5,-155177
step02_gravity_refstate-crust.xmf,1655,4.63981e-07,4.80896e-07,0,-2.47347e-06,-3.57953e+08,-3.57952e+08,-3.57985e+08,-169680,0.0176483,0.00608858,0,0.018669,-17935.2,-13034.3,-0,22171.2,-169680
step02_gravity_refstate-crust.xmf,1656,6.65873e-07,9.63605e-08,0,-1.21713e-06,-1.63931e+08,-1.6397e+08,-1.63977e+08,-83495,0.0213154,0.0314993,0,0.0380336,-22989.2,-5970.91,-0,23751.9,-83495
step02_gravity_refstate-crust.xmf,1657,5.7182e-07,2.02027e-07,0,-1.53927e-06,-2.15841e+08,-2.15866e+08,-2.1588e+08,-105594,0.0192112,0.0277144,0,0.0337218,-22143.5,-7860.53,-0,23497.3,-105594
step02_gravity_refstate-crust.xmf,1658,5.35887e-07,2.73491e-07,0,-1.81768e-06,-2.64703e+08,-2.64721e+08,-2.6474e+08,-124693,0.0178845,0.0235261,0,0.0295522,-21281.1,-9639.38,-0,23362.4,-124693
step02_gravity_refstate-crust.xmf,1659,1.07251e-06,-1.57362e-07,0,-7.12336e-07,-1.05049e+08,-1.05133e+08,-1.05123e+08,-48866.2,0.0229315,0.0413987,0,0.0473256,-25652.9,-3828.51,-0,25937,-48866.2
step02_gravity_refstate-crust.xmf,1660,1.42249e-06,-3.50854e-07,0,-4.56182e-07,-7.30444e+07,-7.31661e+07,-7.3142e+07,-31294.1,0.022899,0.0474068,0,0.0526476,-27614,-2664.47,-0,27742.2,-31294.1
step02_gravity_refstate-crust.xmf,1661,1.23229e-06,9.62981e-07,0,-4.5052e-06,-6.47031e+08,-6.47049e+08,-6.47115e+08,-309057,0.0230458,-0.0494628,0,0.0545681,-10853.7,-23562.3,-0,25941.9,-309057
step02_gravity_refstate-crust.xmf,1662,1.97963e-06,5.03171e-07,0,-5.22717e-06,-7.4369e+08,-7.43791e+08,-7.43826e+08,-358584,0.0227603,-0.0710145,0,0.0745728,-9093.75,-27083.6,-0,28569.5,-358584
step02_gravity_refstate-crust.xmf,1663,1.42892e-06,8.55492e-07,0,-4.67229e-06,-6.73216e+08,-6.73255e+08,-6.73314e+08,-320519,0.0232004,-0.0540312,0,0.0588016,-10468.5,-24516.2,-0,26657.7,-320519
step02_gravity_refstate-crust.xmf,1664,1.62287e-06,7.47572e-07,0,-4.85959e-06,-6.98514e+08,-6.98574e+08,-6.98625e+08,-333368,0.0232493,-0.059454,0,0.0638381,-10012.8,-25437.8,-0,27337.5,-333368
step02_gravity_refstate-crust.xmf,1665,1.80722e-06,6.35211e-07,0,-5.05199e-06,-7.21925e+08,-7.22005e+08,-7.22049e+08,-346567,0.0231307,-0.0652475,0,0.0692262,-9541.57,-26290.7,-0,27968.6,-346567
step02_gravity_refstate-crust.xmf,1666,2.21191e-06,-1.59163e-07,0,-4.79965e-06,-7.8538e+08,-7.85543e+08,-7.85532e+08,-329256,0.0189303,-0.0706637,0,0.0731554,-9144.6,-28601.3,-0,30027.6,-329256
step02_gravity_refstate-crust.xmf,1667,2.64605e-07,-2.78319e-06,0,-7.4236e-06,-9.46899e+08,-9.47108e+08,-9.46917e+08,-509259,-0.0103995,-0.123186,-0,0.123624,-5723.62,-34469.6,-0,34941.5,-509259
step02_gravity_refstate-crust.xmf,1668,2.24372e-06,-3.37212e-07,0,-4.86012e-06,-8.06365e+08,-8.06542e+08,-8.06518e+08,-333404,0.0171976,-0.0760374,0,0.0779579,-8724.56,-29365.1,-0,30633.7,-333404
step02_gravity_refstate-crust.xmf,1669,2.19515e-06,-5.14725e-07,0,-4.92372e-06,-8.26891e+08,-8.27077e+08,-8.27042e+08,-337767,0.0149408,-0.0815472,0,0.0829046,-8312.25,-30111.9,-0,31238.1,-337767
step02_gravity_refstate-crust.xmf,1670,2.07368e-06,-6.49037e-07,0,-5.05721e-06,-8.44671e+08,-8.44858e+08,-8.44814e+08,-346924,0.01259,-0.0873953,0,0.0882975,-7899.34,-30758.5,-0,31756.6,-346924
step02_gravity_refstate-crust.xmf,1671,1.89861e-06,-7.56013e-07,0,-5.37661e-06,-8.61429e+08,-8.61611e+08,-8.61559e+08,-368835,0.0100851,-0.0949398,0,0.0954739,-7406.9,-31367.7,-0,32230.3,-368835
step02_gravity_refstate-crust.xmf,1672,1.57274e-06,-1.07223e-06,0,-5.45681e-06,-8.81703e+08,-8.81884e+08,-8.81811e+08,-374337,0.00582453,-0.0989586,0,0.0991298,-7136.31,-32104,-0,32887.6,-374337
step02_gravity_refstate-crust.xmf,1673,1.21721e-06,-1.34322e-06,0,-5.6657e-06,-8.98889e+08,-8.99065e+08,-8.98973e+08,-388667,0.00185834,-0.103182,0,0.103199,-6863.83,-32727.8,-0,33439.8,-388667
step02_gravity_refstate-crust.xmf,1674,4.6289e-07,-2.26009e-06,0,-6.64806e-06,-9.34392e+08,-9.34579e+08,-9.34424e+08,-456057,-0.00711189,-0.115438,-0,0.115657,-6132.98,-34015.9,-0,34564.3,-456057
step02_gravity_refstate-crust.xmf,1675,8.20098e-07,-1.73304e-06,0,-6.0836e-06,-9.17163e+08,-9.17338e+08,-9.17219e+08,-417335,-0.00264364,-0.109007,-0,0.109039,-6508.48,-33390.9,-0,34019.3,-417335
step02_gravity_refstate-crust.xmf,1676,-1.16879e-06,-5.30146e-06,0,-8.23253e-06,-1.0187e+09,-1.01898e+09,-1.01861e+09,-564752,-0.0260017,-0.118606,-0,0.121423,-5440.56,-37073.7,-0,37470.8,-564752
step02_gravity_refstate-crust.xmf,1677,-9.0017e-07,-4.2864e-06,0,-7.50926e-06,-9.97804e+08,-9.98037e+08,-9.97743e+08,-515135,-0.0224588,-0.116355,-0,0.118503,-5732.96,-36315.8,-0,36765.5,-515135
step02_gravity_refstate-crust.xmf,1678,-1.37348e-06,-6.38215e-06,0,-9.17343e-06,-1.05199e+09,-1.05234e+09,-1.0519e+09,-629297,-0.0279038,-0.113603,-0,0.11698,-5331.56,-38283.4,-0,38652.9,-629297
step02_gravity_refstate-crust.xmf,1679,-1.02736e-06,-7.72325e-06,0,-1.01665e-05,-1.06714e+09,-1.06759e+09,-1.06707e+09,-697424,-0.0272847,-0.115796,-0,0.118967,-4982.72,-38834,-0,39152.4,-697424
step02_gravity_refstate-crust.xmf,1680,-3.22906e-07,-9.27958e-06,0,-1.11982e-05,-1.08312e+09,-1.08374e+09,-1.0831e+09,-768196,-0.0247943,-0.116041,-0,0.11866,-4670.48,-39416.5,-0,39692.3,-768196
step02_gravity_refstate-crust.xmf,1681,8.77811e-07,7.68797e-07,0,-3.61239e-06,-5.52652e+08,-5.52659e+08,-5.52712e+08,-247810,0.0204973,-0.0255219,0,0.0327339,-13436.8,-20124.6,-0,24198.1,-247810
step02_gravity_refstate-crust.xmf,1682,1.00515e-06,7.55137e-07,0,-3.78042e-06,-5.81992e+08,-5.8201e+08,-5.82061e+08,-259337,0.0210174,-0.0301879,0,0.0367837,-12914.7,-21193.3,-0,24818.2,-259337
step02_gravity_refstate-crust.xmf,1683,5.02864e-07,5.29208e-07,0,-2.64749e-06,-3.89072e+08,-3.8907e+08,-3.89106e+08,-181618,0.0177662,0.00171428,0,0.0178487,-17218.8,-14167.4,-0,22298,-181618
step02_gravity_refstate-crust.xmf,1684,5.45665e-07,3.20562e-07,0,-2.05618e-06,-3.11267e+08,-3.11283e+08,-3.11305e+08,-141054,0.0171077,0.0192935,0,0.0257859,-20468,-11334.7,-0,23396.9,-141054
step02_gravity_refstate-crust.xmf,1685,8.75734e-07,-4.51611e-11,0,-1.02951e-06,-1.55893e+08,-1.55953e+08,-1.55953e+08,-70624.2,0.0202761,0.0390147,0,0.0439689,-24941.4,-5678.99,-0,25579.8,-70624.2
step02_gravity_refstate-crust.xmf,1686,2.05245e-06,-7.75888e-07,0,-9.53033e-09,195093,1068.91,54294.8,-653.781,0.0265704,0.0500812,0,0.0566932,-29109.7,0,-0,29109.7,-653.781
step02_gravity_refstate-crust.xmf,1687,2.12474e-06,7.93126e-09,0,-4.73147e-06,-7.64588e+08,-7.64733e+08,-7.64734e+08,-324579,0.0201593,-0.0655439,0,0.0685741,-9561.32,-27844.2,-0,29440.1,-324579
step02_gravity_refstate-crust.xmf,1688,1.15958e-06,7.11865e-07,0,-3.95491e-06,-6.12503e+08,-6.12534e+08,-6.12583e+08,-271307,0.0214799,-0.0351753,0,0.0412151,-12384,-22304.6,-0,25511.9,-271307
step02_gravity_refstate-crust.xmf,1689,-1.56282e-07,-2.58816e-06,0,-6.19373e-06,-9.56706e+08,-9.56873e+08,-9.56695e+08,-424890,-0.0130092,-0.107552,-0,0.108336,-6427.95,-34825.2,-0,35413.5,-424890
step02_gravity_refstate-crust.xmf,1690,-6.49699e-07,-3.32051e-06,0,-6.72984e-06,-9.80195e+08,-9.80379e+08,-9.80151e+08,-461667,-0.0185937,-0.110351,-0,0.111907,-6156.38,-35677.2,-0,36204.5,-461667
step02_gravity_refstate-crust.xmf,1691,-1.4934e-06,-5.1703e-06,0,-8.20994e-06,-1.03612e+09,-1.03638e+09,-1.03602e+09,-563202,-0.0271402,-0.110087,-0,0.113383,-5717.07,-37707.1,-0,38138,-563202
step02_gravity_refstate-crust.xmf,1692,7.89156e-07,7.46956e-07,0,-3.45046e-06,-5.27704e+08,-5.27706e+08,-5.27758e+08,-236702,0.019971,-0.021119,0,0.0290664,-13968.9,-19215.9,-0,23756.7,-236702
step02_gravity_refstate-crust.xmf,1693,6.73257e-07,5.38232e-07,0,-2.90537e-06,-4.53591e+08,-4.536e+08,-4.53637e+08,-199308,0.0180842,-0.00421751,0,0.0185695,-16386.3,-16517,-0,23266.3,-199308
step02_gravity_refstate-crust.xmf,1694,7.49328e-07,5.78681e-07,0,-3.1016e-06,-4.88298e+08,-4.8831e+08,-4.8835e+08,-212770,0.0186832,-0.0100623,0,0.0212206,-15529.9,-17780.9,-0,23608,-212770
step02_gravity_refstate-crust.xmf,1695,6.40568e-07,4.69236e-07,0,-2.69969e-06,-4.24188e+08,-4.242e+08,-4.24232e+08,-185199,0.0174872,0.00221617,0,0.0176271,-17426.9,-15446.3,-0,23287,-185199
step02_gravity_refstate-crust.xmf,1696,5.83575e-07,3.52645e-07,0,-2.26554e-06,-3.54996e+08,-3.55012e+08,-3.55036e+08,-155416,0.0167824,0.0148476,0,0.0224076,-19655.1,-12926.9,-0,23525,-155416
step02_gravity_refstate-crust.xmf,1697,6.39772e-07,3.7775e-07,0,-2.46856e-06,-3.97255e+08,-3.97273e+08,-3.97299e+08,-169343,0.0168299,0.00973465,0,0.0194424,-18755.5,-14465.6,-0,23685.9,-169343
step02_gravity_refstate-crust.xmf,1698,7.40207e-07,1.2095e-07,0,-1.34396e-06,-2.11397e+08,-2.1144e+08,-2.11448e+08,-92195.4,0.0181165,0.0357202,0,0.0400517,-24102.3,-7699.32,-0,25302.2,-92195.4
step02_gravity_refstate-crust.xmf,1699,6.75926e-07,1.94949e-07,0,-1.6101e-06,-2.61381e+08,-2.61414e+08,-2.61428e+08,-110453,0.0168151,0.031893,0,0.0360543,-23219.5,-9518.89,-0,25095,-110453
step02_gravity_refstate-crust.xmf,1700,6.60712e-07,2.39906e-07,0,-1.84112e-06,-3.09126e+08,-3.09154e+08,-3.09171e+08,-126301,0.0160243,0.027807,0,0.0320937,-22344.6,-11257.1,-0,25020,-126301
step02_gravity_refstate-crust.xmf,1701,1.08533e-06,-9.44513e-08,0,-8.33429e-07,-1.44905e+08,-1.44986e+08,-1.44979e+08,-57173.2,0.0189131,0.0459811,0,0.0497189,-26972.9,-5279.65,-0,27484.8,-57173.2
step02_gravity_refstate-crust.xmf,1702,1.69777e-06,-4.6022e-07,0,-3.31369e-07,-7.00512e+07,-7.01993e+07,-7.01677e+07,-22731.9,0.0187902,0.0547714,0,0.0579049,-30377.4,-2556.44,-0,30484.8,-22731.9
step02_gravity_refstate-crust.xmf,1703,2.25994e-06,-8.66426e-07,0,-2.08514e-09,214301,-167.819,59269,-143.041,0.0209686,0.0559383,0,0.0597392,-31685.6,0,-0,31685.6,-143.041
step02_gravity_refstate-crust.xmf,1704,1.89939e-06,-5.60616e-07,0,-2.08988e-07,-6.32337e+07,-6.34024e+07,-6.3364e+07,-14336.6,0.0143937,0.0600551,0,0.061756,-33011.1,-2308.9,-0,33091.8,-14336.6
step02_gravity_refstate-crust.xmf,1705,2.4862e-06,-9.43944e-07,0,-8.03224e-09,236149,840.666,65595.3,-551.012,0.014576,0.0604158,0,0.0621493,-34354.5,0,-0,34354.5,-551.012
step02_gravity_refstate-crust.xmf,1706,1.35284e-06,5.95619e-07,0,-4.07611e-06,-6.44072e+08,-6.44124e+08,-6.44165e+08,-279621,0.0216222,-0.0393072,0,0.0448617,-11981.5,-23454.5,-0,26337.6,-279621
step02_gravity_refstate-crust.xmf,1707,1.5297e-06,4.91571e-07,0,-4.20987e-06,-6.71692e+08,-6.71763e+08,-6.71797e+08,-288797,0.0216868,-0.044019,0,0.0490713,-11515.5,-24460.6,-0,27035.6,-288797
step02_gravity_refstate-crust.xmf,1708,2.00737e-06,1.41741e-07,0,-4.61824e-06,-7.44463e+08,-7.44591e+08,-7.44601e+08,-316812,0.0208667,-0.0601862,0,0.0637008,-10016.5,-27111.3,-0,28902.4,-316812
step02_gravity_refstate-crust.xmf,1709,1.70396e-06,3.74307e-07,0,-4.33956e-06,-6.97994e+08,-6.98085e+08,-6.98111e+08,-297693,0.0215743,-0.0490508,0,0.0535858,-11031.1,-25418.6,-0,27709,-297693
step02_gravity_refstate-crust.xmf,1710,1.86887e-06,2.52054e-07,0,-4.47382e-06,-7.22807e+08,-7.22917e+08,-7.22935e+08,-306904,0.0212805,-0.0545109,0,0.0585175,-10523,-26322.4,-0,28347.9,-306904
step02_gravity_refstate-crust.xmf,1711,2.11836e-06,-3.45243e-07,0,-4.20897e-06,-7.84381e+08,-7.8455e+08,-7.84526e+08,-288735,0.0170999,-0.0597381,0,0.0621373,-10044.3,-28564.2,-0,30278.7,-288735
step02_gravity_refstate-crust.xmf,1712,2.12333e-06,-5.0002e-07,0,-4.23254e-06,-8.06002e+08,-8.06182e+08,-8.06148e+08,-290353,0.0153312,-0.0646736,0,0.0664659,-9603.79,-29351.1,-0,30882.4,-290353
step02_gravity_refstate-crust.xmf,1713,2.05031e-06,-6.59144e-07,0,-4.24777e-06,-8.27785e+08,-8.27971e+08,-8.27926e+08,-291397,0.0129604,-0.0696358,0,0.0708316,-9176.49,-30143.6,-0,31509.4,-291397
step02_gravity_refstate-crust.xmf,1714,1.62884e-06,-1.00344e-06,0,-4.55062e-06,-8.71663e+08,-8.71843e+08,-8.71775e+08,-312172,0.00659384,-0.0833789,0,0.0836392,-8109.23,-31738.8,-0,32758.4,-312172
step02_gravity_refstate-crust.xmf,1715,1.87709e-06,-8.25354e-07,0,-4.29652e-06,-8.50188e+08,-8.50373e+08,-8.50316e+08,-294741,0.00989766,-0.0751344,0,0.0757835,-8724.2,-30958.2,-0,32164,-294741
step02_gravity_refstate-crust.xmf,1716,1.16107e-06,-1.24502e-06,0,-4.69858e-06,-8.96506e+08,-8.96671e+08,-8.96585e+08,-322322,0.00141683,-0.088199,0,0.0882104,-7738.33,-32641,-0,33545.7,-322322
step02_gravity_refstate-crust.xmf,1717,7.1539e-07,-1.52475e-06,0,-5.00067e-06,-9.16903e+08,-9.17056e+08,-9.16952e+08,-343046,-0.00322772,-0.0934612,-0,0.0935169,-7359.55,-33381.3,-0,34182.9,-343046
step02_gravity_refstate-crust.xmf,1718,2.69148e-07,-1.93242e-06,0,-5.46892e-06,-9.36582e+08,-9.36733e+08,-9.36601e+08,-375168,-0.00798508,-0.0995905,-0,0.0999101,-6940.54,-34095.3,-0,34794.6,-375168
step02_gravity_refstate-crust.xmf,1719,-1.41467e-06,-4.09668e-06,0,-7.27494e-06,-1.01811e+09,-1.0183e+09,-1.01801e+09,-499061,-0.0250539,-0.105886,-0,0.10881,-6122.88,-37053.3,-0,37555.8,-499061
step02_gravity_refstate-crust.xmf,1720,-1.18083e-06,-3.21581e-06,0,-6.44061e-06,-9.99377e+08,-9.99517e+08,-9.99296e+08,-441826,-0.0219021,-0.101115,-0,0.10346,-6534.3,-36373.6,-0,36955.8,-441826
step02_gravity_refstate-crust.xmf,1721,-1.5127e-06,-5.04881e-06,0,-8.31825e-06,-1.05437e+09,-1.05461e+09,-1.05426e+09,-570632,-0.0267943,-0.101105,-0,0.104595,-6050.62,-38371.3,-0,38845.5,-570632
step02_gravity_refstate-crust.xmf,1722,-1.2328e-06,-6.12687e-06,0,-9.21423e-06,-1.06737e+09,-1.06771e+09,-1.06729e+09,-632096,-0.0264625,-0.104236,-0,0.107543,-5683.71,-38844.3,-0,39257.9,-632096
step02_gravity_refstate-crust.xmf,1723,-6.29152e-07,-7.42538e-06,0,-1.01725e-05,-1.08285e+09,-1.08331e+09,-1.08281e+09,-697833,-0.0245087,-0.105225,-0,0.108041,-5370.2,-39408.1,-0,39772.4,-697833
step02_gravity_refstate-crust.xmf,1724,8.62277e-07,5.62077e-07,0,-3.23303e-06,-5.21172e+08,-5.21193e+08,-5.21231e+08,-221786,0.019071,-0.0138128,0,0.0235477,-15046.1,-18978.2,-0,24218.9,-221786
step02_gravity_refstate-crust.xmf,1725,9.89857e-07,5.18817e-07,0,-3.34043e-06,-5.52353e+08,-5.52386e+08,-5.52421e+08,-229154,0.0193789,-0.0171669,0,0.0258891,-14634.5,-20113.8,-0,24874.3,-229154
step02_gravity_refstate-crust.xmf,1726,1.11126e-06,4.81808e-07,0,-3.45845e-06,-5.80754e+08,-5.80797e+08,-5.8083e+08,-237250,0.0197177,-0.0210814,0,0.0288655,-14148.2,-21148.2,-0,25444.4,-237250
step02_gravity_refstate-crust.xmf,1727,1.2528e-06,4.21766e-07,0,-3.57642e-06,-6.10881e+08,-6.10938e+08,-6.10967e+08,-245342,0.0199876,-0.0253594,0,0.0322894,-13635,-22245.5,-0,26091.6,-245342
step02_gravity_refstate-crust.xmf,1728,6.76873e-07,2.64582e-07,0,-2.0403e-06,-3.53235e+08,-3.53264e+08,-3.53282e+08,-139965,0.0156677,0.0234752,0,0.0282234,-21465.6,-12863,-0,25024.6,-139965
step02_gravity_refstate-crust.xmf,1729,9.03098e-07,4.76669e-08,0,-1.12887e-06,-2.02469e+08,-2.02527e+08,-2.02531e+08,-77440.3,0.0168366,0.043228,0,0.0463911,-26136.7,-7374.8,-0,27157.3,-77440.3
step02_gravity_refstate-crust.xmf,1730,1.29904e-06,-1.85222e-07,0,-6.46778e-07,-1.35434e+08,-1.35536e+08,-1.35523e+08,-44369,0.016739,0.0526066,0,0.0552055,-29226.2,-4935.58,-0,29640,-44369
step02_gravity_refstate-crust.xmf,1731,2.02133e-06,-5.88224e-07,0,-1.3754e-07,-6.76475e+07,-6.78265e+07,-6.77861e+07,-9435.25,0.00882432,0.0639841,0,0.0645897,-35740.4,-2470.04,-0,35825.6,-9435.25
step02_gravity_refstate-crust.xmf,1732,2.06971e-06,-1.86436e-07,0,-4.21944e-06,-7.64603e+08,-7.64757e+08,-7.64745e+08,-289454,0.0183984,-0.0558815,0,0.0588323,-10402,-27844.2,-0,29723.7,-289454
step02_gravity_refstate-crust.xmf,1733,1.40796e-06,3.35885e-07,0,-3.68326e-06,-6.41201e+08,-6.41274e+08,-6.41297e+08,-252672,0.0201058,-0.0297898,0,0.0359399,-13121.1,-23349.8,-0,26783.9,-252672
step02_gravity_refstate-crust.xmf,1734,-8.16009e-07,-2.50765e-06,0,-5.70312e-06,-9.79289e+08,-9.79405e+08,-9.79233e+08,-391234,-0.0178319,-0.0961281,-0,0.097768,-6943.96,-35644.8,-0,36314.9,-391234
step02_gravity_refstate-crust.xmf,1735,-1.62773e-06,-3.9769e-06,0,-7.33304e-06,-1.03748e+09,-1.03764e+09,-1.03737e+09,-503047,-0.0260254,-0.0972219,-0,0.100645,-6470.72,-37757.8,-0,38308.3,-503047
step02_gravity_refstate-crust.xmf,1736,7.96124e-07,3.72592e-07,0,-2.70373e-06,-4.63033e+08,-4.63062e+08,-4.63088e+08,-185476,0.017037,0.00350584,0,0.017394,-17766.7,-16861,-0,24493.8,-185476
step02_gravity_refstate-crust.xmf,1737,8.55884e-07,3.92394e-07,0,-2.85986e-06,-4.91179e+08,-4.91211e+08,-4.91238e+08,-196186,0.0175445,-0.00160857,0,0.0176181,-16941.3,-17885.9,-0,24635.6,-196186
step02_gravity_refstate-crust.xmf,1738,9.48895e-07,3.81553e-07,0,-2.98883e-06,-5.22123e+08,-5.22162e+08,-5.22188e+08,-205034,0.017929,-0.00587905,0,0.0188683,-16304,-19012.8,-0,25046.1,-205034
step02_gravity_refstate-crust.xmf,1739,7.54046e-07,3.42946e-07,0,-2.54788e-06,-4.39577e+08,-4.39605e+08,-4.39628e+08,-174784,0.0165605,0.00841728,0,0.0185769,-18611.5,-16006.8,-0,24548,-174784
step02_gravity_refstate-crust.xmf,1740,7.2376e-07,2.73724e-07,0,-2.21365e-06,-3.94691e+08,-3.94722e+08,-3.94741e+08,-151856,0.0155814,0.0191445,0,0.0246838,-20630.6,-14372.5,-0,25143.4,-151856
step02_gravity_refstate-crust.xmf,1741,7.99004e-07,1.38329e-07,0,-1.39322e-06,-2.58975e+08,-2.59021e+08,-2.5903e+08,-95575.2,0.0153995,0.0398372,0,0.04271,-25245.4,-9431.7,-0,26949.7,-95575.2
step02_gravity_refstate-crust.xmf,1742,7.57151e-07,1.87942e-07,0,-1.61854e-06,-3.0889e+08,-3.08929e+08,-3.08942e+08,-111032,0.0146441,0.0359195,0,0.0387899,-24299.3,-11248.8,-0,26776.7,-111032
step02_gravity_refstate-crust.xmf,1743,7.53346e-07,2.13089e-07,0,-1.82093e-06,-3.543e+08,-3.54337e+08,-3.54352e+08,-124916,0.0143586,0.0313763,0,0.0345057,-23266.1,-12902,-0,26604,-124916
step02_gravity_refstate-crust.xmf,1744,7.74422e-07,2.20534e-07,0,-1.98414e-06,-3.9371e+08,-3.93748e+08,-3.93763e+08,-136112,0.014315,0.0270698,0,0.0306217,-22341.8,-14336.9,-0,26546.2,-136112
step02_gravity_refstate-crust.xmf,1745,1.05169e-06,-9.37282e-09,0,-9.27233e-07,-1.97531e+08,-1.97604e+08,-1.97604e+08,-63608.2,0.0149643,0.0500891,0,0.0522766,-28266.2,-7195.57,-0,29167.7,-63608.2
step02_gravity_refstate-crust.xmf,1746,1.46694e-06,-2.4874e-07,0,-4.81655e-07,-1.32437e+08,-1.32554e+08,-1.32537e+08,-33041.5,0.0134918,0.0584815,0,0.0600176,-31672.5,-4827.04,-0,32038.2,-33041.5
step02_gravity_refstate-crust.xmf,1747,1.61521e-06,-3.19682e-07,0,-3.11773e-07,-1.24203e+08,-1.24336e+08,-1.24314e+08,-21387.7,0.00997535,0.0628599,0,0.0636465,-34142.6,-4527.79,-0,34441.5,-21387.7
step02_gravity_refstate-crust.xmf,1748,2.60191e-06,-9.90402e-07,0,-1.62106e-09,247032,599.224,68540.8,-111.205,0.00753873,0.0632771,0,0.0637246,-37123.5,0,-0,37123.5,-111.205
step02_gravity_refstate-crust.xmf,1749,1.56853e-06,2.24125e-07,0,-3.76911e-06,-6.70759e+08,-6.70851e+08,-6.70866e+08,-258561,0.0199982,-0.0342101,0,0.0396265,-12624,-24426.3,-0,27495.7,-258561
step02_gravity_refstate-crust.xmf,1750,1.72033e-06,1.04186e-07,0,-3.85075e-06,-6.98329e+08,-6.9844e+08,-6.98447e+08,-264161,0.0197179,-0.0389264,0,0.0436356,-12106.7,-25430.5,-0,28165.3,-264161
step02_gravity_refstate-crust.xmf,1751,1.98146e-06,-1.33433e-07,0,-4.0388e-06,-7.49179e+08,-7.49324e+08,-7.49315e+08,-277062,0.0185835,-0.04983,0,0.0531824,-10977.7,-27282.4,-0,29408.2,-277062
step02_gravity_refstate-crust.xmf,1752,1.86179e-06,-2.28891e-08,0,-3.93187e-06,-7.24801e+08,-7.2493e+08,-7.24928e+08,-269726,0.0192263,-0.0440839,0,0.0480941,-11560,-26394.6,-0,28815.1,-269726
step02_gravity_refstate-crust.xmf,1753,1.99147e-06,-4.09432e-07,0,-3.71314e-06,-7.77944e+08,-7.78109e+08,-7.78081e+08,-254721,0.0157121,-0.0486326,0,0.0511078,-11066.8,-28329.3,-0,30414.2,-254721
step02_gravity_refstate-crust.xmf,1754,1.97376e-06,-5.68352e-07,0,-3.68926e-06,-8.04478e+08,-8.04652e+08,-8.04613e+08,-253083,0.0135907,-0.0536505,0,0.0553451,-10554.7,-29294.9,-0,31138.3,-253083
step02_gravity_refstate-crust.xmf,1755,1.88845e-06,-7.00288e-07,0,-3.68892e-06,-8.27499e+08,-8.27676e+08,-8.27628e+08,-253060,0.0112349,-0.0585476,0,0.0596158,-10077.1,-30132.5,-0,31772.8,-253060
step02_gravity_refstate-crust.xmf,1756,-3.47497e-07,-1.94346e-06,0,-5.04437e-06,-9.57829e+08,-9.57939e+08,-9.57805e+08,-346044,-0.0130337,-0.0904428,-0,0.0913771,-7388.62,-34866.3,-0,35640.6,-346044
step02_gravity_refstate-crust.xmf,1757,1.71251e-06,-8.25719e-07,0,-3.70251e-06,-8.49941e+08,-8.50115e+08,-8.50059e+08,-253992,0.00833184,-0.0633791,0,0.0639244,-9623.61,-30948.6,-0,32410.3,-253992
step02_gravity_refstate-crust.xmf,1758,1.43113e-06,-9.55822e-07,0,-3.76351e-06,-8.72661e+08,-8.72825e+08,-8.72759e+08,-258177,0.00476965,-0.0684442,0,0.0686102,-9167.93,-31774.4,-0,33070.6,-258177
step02_gravity_refstate-crust.xmf,1759,1.06432e-06,-1.10221e-06,0,-3.92437e-06,-8.94541e+08,-8.9469e+08,-8.94614e+08,-269212,0.000806276,-0.0740705,0,0.0740749,-8690.77,-32569.3,-0,33708.9,-269212
step02_gravity_refstate-crust.xmf,1760,6.16481e-07,-1.28796e-06,0,-4.16624e-06,-9.16163e+08,-9.16294e+08,-9.16205e+08,-285804,-0.00365024,-0.0793045,-0,0.0793885,-8259.92,-33354.3,-0,34361.9,-285804
step02_gravity_refstate-crust.xmf,1761,1.45872e-07,-1.54692e-06,0,-4.52681e-06,-9.36686e+08,-9.36802e+08,-9.36696e+08,-310539,-0.0081969,-0.084676,-0,0.0850718,-7834.74,-34099.2,-0,34987.7,-310539
step02_gravity_refstate-crust.xmf,1762,-1.53668e-06,-3.09649e-06,0,-6.40886e-06,-1.01934e+09,-1.01944e+09,-1.01923e+09,-439648,-0.0240329,-0.0927064,-0,0.0957708,-6905.58,-37098.9,-0,37736.2,-439648
step02_gravity_refstate-crust.xmf,1763,-1.28687e-06,-2.40197e-06,0,-5.59101e-06,-1.00051e+09,-1.00058e+09,-1.00042e+09,-383543,-0.0210712,-0.0876891,-0,0.0901852,-7351.83,-36415.5,-0,37150.2,-383543
step02_gravity_refstate-crust.xmf,1764,-1.51772e-06,-3.99039e-06,0,-7.52242e-06,-1.05701e+09,-1.05718e+09,-1.05691e+09,-516038,-0.0255527,-0.0893067,-0,0.0928905,-6811.06,-38469.3,-0,39067.6,-516038
step02_gravity_refstate-crust.xmf,1765,-1.34808e-06,-4.88194e-06,0,-8.30937e-06,-1.06738e+09,-1.06762e+09,-1.06729e+09,-570023,-0.0255623,-0.0936963,-0,0.0971207,-6385.95,-38846.1,-0,39367.5,-570023
step02_gravity_refstate-crust.xmf,1766,-8.3503e-07,-5.87349e-06,0,-9.14129e-06,-1.08219e+09,-1.08254e+09,-1.08213e+09,-627093,-0.024071,-0.094592,-0,0.0976067,-6116.81,-39385.7,-0,39857.9,-627093
step02_gravity_refstate-crust.xmf,1767,1.05731e-06,3.44513e-07,0,-3.08422e-06,-5.52565e+08,-5.52614e+08,-5.52637e+08,-211577,0.0181779,-0.00942,0,0.0204737,-15806.4,-20121.5,-0,25587.4,-211577
step02_gravity_refstate-crust.xmf,1768,1.16264e-06,2.92323e-07,0,-3.15065e-06,-5.79483e+08,-5.79542e+08,-5.79562e+08,-216135,0.0183034,-0.0123779,0,0.0220958,-15404.4,-21101.8,-0,26126.2,-216135
step02_gravity_refstate-crust.xmf,1769,1.28655e-06,2.28797e-07,0,-3.23215e-06,-6.09377e+08,-6.0945e+08,-6.09466e+08,-221725,0.0184338,-0.0162744,0,0.0245898,-14879.2,-22190.5,-0,26717.2,-221725
step02_gravity_refstate-crust.xmf,1770,1.41865e-06,1.49286e-07,0,-3.30866e-06,-6.39588e+08,-6.39676e+08,-6.39686e+08,-226974,0.0184452,-0.0204925,0,0.0275711,-14325.6,-23290.8,-0,27343.9,-226974
step02_gravity_refstate-crust.xmf,1771,7.94404e-07,2.64505e-07,0,-2.34697e-06,-4.35436e+08,-4.35472e+08,-4.3549e+08,-161002,0.0155588,0.0154406,0,0.0219201,-19959.7,-15856.1,-0,25491.3,-161002
step02_gravity_refstate-crust.xmf,1772,8.02042e-07,1.96346e-07,0,-1.78715e-06,-3.93969e+08,-3.94011e+08,-3.94024e+08,-122599,0.0131497,0.0333572,0,0.0358555,-23815.1,-14346.4,-0,27802.4,-122599
step02_gravity_refstate-crust.xmf,1773,9.07361e-07,9.73385e-08,0,-1.16865e-06,-2.55353e+08,-2.55408e+08,-2.55415e+08,-80169.4,0.0137263,0.0471316,0,0.0490897,-27345.5,-9300.19,-0,28883.7,-80169.4
step02_gravity_refstate-crust.xmf,1774,1.17103e-06,-4.72766e-08,0,-7.3905e-07,-1.96934e+08,-1.97017e+08,-1.97014e+08,-50698.8,0.0125386,0.0560679,0,0.0574528,-30468.5,-7174.23,-0,31301.8,-50698.8
step02_gravity_refstate-crust.xmf,1775,1.7129e-06,-3.61929e-07,0,-2.13596e-07,-1.1885e+08,-1.18992e+08,-1.18967e+08,-14652.7,0.00736537,0.0649227,0,0.0653392,-35794.5,-4333.21,-0,36055.9,-14652.7
step02_gravity_refstate-crust.xmf,1776,2.19233e-06,-6.92539e-07,0,-4.5304e-08,-5.19743e+07,-5.21722e+07,-5.21247e+07,-3107.85,0.00418619,0.0654404,0,0.0655742,-38100.9,-1899.97,-0,38148.2,-3107.85
step02_gravity_refstate-crust.xmf,1777,2.61328e-06,-9.92325e-07,0,5.77573e-09,248213,868.878,68942.3,396.215,8.61219e-19,0.0642863,0,0.0642863,-40000,0,-0,40000,-396.215
step02_gravity_refstate-crust.xmf,1778,1.55214e-06,5.07947e-08,0,-3.36825e-06,-6.69411e+08,-6.69514e+08,-6.69517e+08,-231062,0.0182497,-0.0247999,0,0.030791,-13776.6,-24376.9,-0,28000.5,-231062
step02_gravity_refstate-crust.xmf,1779,-9.02561e-07,-1.86973e-06,0,-4.87589e-06,-9.80058e+08,-9.80124e+08,-9.79996e+08,-334486,-0.0172434,-0.0825063,-0,0.084289,-7802.55,-35673.4,-0,36516.8,-334486
step02_gravity_refstate-crust.xmf,1780,-1.63539e-06,-3.08517e-06,0,-6.58992e-06,-1.03934e+09,-1.03944e+09,-1.03923e+09,-452069,-0.0248561,-0.0856373,-0,0.0891716,-7230.49,-37826.8,-0,38511.6,-452069
step02_gravity_refstate-crust.xmf,1781,9.13265e-07,2.80663e-07,0,-2.66318e-06,-4.95579e+08,-4.95622e+08,-4.95641e+08,-182694,0.0165199,0.00477014,0,0.0171948,-18062.6,-18046.2,-0,25532.7,-182694
step02_gravity_refstate-crust.xmf,1782,8.9042e-07,2.50114e-07,0,-2.49149e-06,-4.77972e+08,-4.78016e+08,-4.78033e+08,-170916,0.0157366,0.010857,0,0.0191184,-19148.8,-17405,-0,25876.9,-170916
step02_gravity_refstate-crust.xmf,1783,1.00368e-06,2.5e-07,0,-2.74663e-06,-5.26417e+08,-5.26468e+08,-5.26486e+08,-188419,0.0166712,0.00154603,0,0.0167427,-17551.5,-19169.2,-0,25990.6,-188419
step02_gravity_refstate-crust.xmf,1784,1.10717e-06,2.08852e-07,0,-2.82705e-06,-5.58665e+08,-5.58727e+08,-5.58741e+08,-193935,0.0168136,-0.00204505,0,0.0169375,-16994.3,-20343.6,-0,26507.9,-193935
step02_gravity_refstate-crust.xmf,1785,8.25907e-07,2.09127e-07,0,-2.10808e-06,-4.34205e+08,-4.34247e+08,-4.34261e+08,-144614,0.014244,0.0233959,0,0.0273908,-21603.4,-15811.3,-0,26771.3,-144614
step02_gravity_refstate-crust.xmf,1786,8.37991e-07,1.90279e-07,0,-1.87972e-06,-4.31858e+08,-4.31902e+08,-4.31916e+08,-128949,0.012919,0.0307133,0,0.0333197,-23246,-15725.9,-0,28065.7,-128949
step02_gravity_refstate-crust.xmf,1787,8.31702e-07,1.59171e-07,0,-1.3834e-06,-3.12041e+08,-3.12087e+08,-3.12098e+08,-94901.2,0.012905,0.0436367,0,0.0455049,-26384.1,-11363.8,-0,28727.3,-94901.2
step02_gravity_refstate-crust.xmf,1788,8.07569e-07,1.8616e-07,0,-1.5796e-06,-3.66577e+08,-3.66619e+08,-3.66632e+08,-108360,0.0125085,0.0393802,0,0.0413191,-25302.1,-13349.2,-0,28607.6,-108360
step02_gravity_refstate-crust.xmf,1789,1.00004e-06,7.02121e-08,0,-9.47885e-07,-2.52431e+08,-2.52495e+08,-2.525e+08,-65024.9,0.011759,0.0535462,0,0.0548221,-29503,-9194.16,-0,30902.4,-65024.9
step02_gravity_refstate-crust.xmf,1790,1.29272e-06,-8.28687e-08,0,-5.08299e-07,-1.941e+08,-1.94194e+08,-1.94188e+08,-34869.3,0.00920164,0.0619083,0,0.0625884,-33248.7,-7071.49,-0,33992.4,-34869.3
step02_gravity_refstate-crust.xmf,1791,1.75689e-06,-3.7267e-07,0,-1.21511e-07,-1.17716e+08,-1.17863e+08,-1.17837e+08,-8335.68,0.00420132,0.0664554,0,0.0665881,-37628.9,-4292.12,-0,37872.9,-8335.68
step02_gravity_refstate-crust.xmf,1792,1.46064e-06,-1.76766e-07,0,-2.94575e-07,-1.69398e+08,-1.69511e+08,-1.69499e+08,-20207.8,0.00648876,0.0652531,0,0.0655749,-35650.7,-6172.75,-0,36181.2,-20207.8
step02_gravity_refstate-crust.xmf,1793,2.01997e-06,-5.58532e-07,0,3.23816e-09,-7.76372e+07,-7.78141e+07,-7.77758e+07,222.138,8.5512e-19,0.0664859,0,0.0664859,-40000,-2833.77,-0,40100.3,-222.138
step02_gravity_refstate-crust.xmf,1794,1.67796e-06,-6.24662e-08,0,-3.41087e-06,-6.98202e+08,-6.98321e+08,-6.98317e+08,-233985,0.0178129,-0.0291981,0,0.0342028,-13231.7,-25425.4,-0,28662.3,-233985
step02_gravity_refstate-crust.xmf,1795,1.78927e-06,-1.92868e-07,0,-3.43159e-06,-7.26942e+08,-7.27078e+08,-7.27065e+08,-235407,0.017035,-0.0337595,0,0.037814,-12682.7,-26472,-0,29353.3,-235407
step02_gravity_refstate-crust.xmf,1796,1.88151e-06,-3.40858e-07,0,-3.45304e-06,-7.57042e+08,-7.57194e+08,-7.57171e+08,-236879,0.0158685,-0.0393544,0,0.0424332,-12035.7,-27568,-0,30080.7,-236879
step02_gravity_refstate-crust.xmf,1797,1.80843e-06,-5.82505e-07,0,-3.23496e-06,-8.04823e+08,-8.04987e+08,-8.04947e+08,-221918,0.011778,-0.0438492,0,0.0454034,-11490.3,-29306.8,-0,31478.8,-221918
step02_gravity_refstate-crust.xmf,1798,1.71119e-06,-6.80367e-07,0,-3.21177e-06,-8.27103e+08,-8.27267e+08,-8.27221e+08,-220328,0.00958068,-0.048046,0,0.0489919,-11029.8,-30117.4,-0,32073.6,-220328
step02_gravity_refstate-crust.xmf,1799,1.54383e-06,-7.69683e-07,0,-3.22839e-06,-8.49632e+08,-8.4979e+08,-8.49738e+08,-221468,0.00691657,-0.0528712,0,0.0533217,-10525.8,-30936.7,-0,32678.4,-221468
step02_gravity_refstate-crust.xmf,1800,-4.3706e-07,-1.48895e-06,0,-4.29254e-06,-9.58796e+08,-9.58868e+08,-9.58766e+08,-294468,-0.0128999,-0.0772321,-0,0.078302,-8256.65,-34901.9,-0,35865.2,-294468
step02_gravity_refstate-crust.xmf,1801,1.29022e-06,-8.58714e-07,0,-3.26416e-06,-8.71824e+08,-8.71971e+08,-8.71912e+08,-223921,0.00369998,-0.0573298,0,0.057449,-10074.2,-31743.5,-0,33303.8,-223921
step02_gravity_refstate-crust.xmf,1802,9.45358e-07,-9.49471e-07,0,-3.34851e-06,-8.93727e+08,-8.93857e+08,-8.93792e+08,-229708,2.67545e-05,-0.061814,0,0.061814,-9636.93,-32539.4,-0,33936.4,-229708
step02_gravity_refstate-crust.xmf,1803,5.24347e-07,-1.0643e-06,0,-3.53992e-06,-9.15638e+08,-9.15747e+08,-9.15674e+08,-242838,-0.00405813,-0.0667871,-0,0.0669103,-9175.49,-33335.2,-0,34574.9,-242838
step02_gravity_refstate-crust.xmf,1804,5.37845e-08,-1.23058e-06,0,-3.84655e-06,-9.37266e+08,-9.37355e+08,-9.3727e+08,-263873,-0.00841359,-0.0718905,-0,0.0723812,-8719.56,-34120.4,-0,35217,-263873
step02_gravity_refstate-crust.xmf,1805,-1.53812e-06,-2.32409e-06,0,-5.66403e-06,-1.02086e+09,-1.02092e+09,-1.02076e+09,-388553,-0.0229119,-0.080479,-0,0.0836769,-7729.32,-37155.7,-0,37951.1,-388553
step02_gravity_refstate-crust.xmf,1806,-1.28991e-06,-1.77753e-06,0,-4.89939e-06,-1.00187e+09,-1.0019e+09,-1.00178e+09,-336098,-0.0201629,-0.0754359,-0,0.078084,-8204.04,-36466.1,-0,37377.5,-336098
step02_gravity_refstate-crust.xmf,1807,-1.05416e-06,-4.44715e-06,0,-8.01274e-06,-1.07779e+09,-1.07802e+09,-1.07772e+09,-549674,-0.0238798,-0.0844187,-0,0.0877312,-6936.34,-39226.8,-0,39835.4,-549674
step02_gravity_refstate-crust.xmf,1808,-1.4392e-06,-3.26752e-06,0,-6.91258e-06,-1.06059e+09,-1.06071e+09,-1.06049e+09,-474203,-0.0244011,-0.0795042,-0,0.0831645,-7503.67,-38600.8,-0,39323.4,-474203
step02_gravity_refstate-crust.xmf,1809,1.18797e-06,1.81473e-07,0,-2.90947e-06,-5.81598e+08,-5.81667e+08,-5.81679e+08,-199590,0.0170352,-0.00555778,0,0.0179189,-16454.9,-21178.7,-0,26819.8,-199590
step02_gravity_refstate-crust.xmf,1810,1.27731e-06,1.08772e-07,0,-2.91486e-06,-6.07588e+08,-6.07668e+08,-6.07676e+08,-199959,0.0168449,-0.00765624,0,0.0185032,-16150.5,-22125.2,-0,27392.8,-199959
step02_gravity_refstate-crust.xmf,1811,1.38843e-06,3.44291e-08,0,-2.96488e-06,-6.38144e+08,-6.38237e+08,-6.38239e+08,-203391,0.0167393,-0.0116056,0,0.020369,-15572.8,-23237.9,-0,27973.4,-203391
step02_gravity_refstate-crust.xmf,1812,1.49813e-06,-5.23811e-08,0,-3.00334e-06,-6.68302e+08,-6.68409e+08,-6.68405e+08,-206029,0.0164628,-0.0157798,0,0.0228041,-14978.2,-24336.2,-0,28576.2,-206029
step02_gravity_refstate-crust.xmf,1813,1.00492e-06,1.80311e-07,0,-2.52077e-06,-5.23535e+08,-5.23592e+08,-5.23604e+08,-172925,0.0154672,0.00856352,0,0.0176796,-18790.4,-19064.2,-0,26767.9,-172925
step02_gravity_refstate-crust.xmf,1814,8.97609e-07,1.84493e-07,0,-2.21415e-06,-4.75927e+08,-4.75976e+08,-4.75989e+08,-151891,0.0142341,0.0195814,0,0.0242083,-20864.9,-17330.5,-0,27123.6,-151891
step02_gravity_refstate-crust.xmf,1815,8.28768e-07,1.89033e-07,0,-1.65186e-06,-4.23402e+08,-4.23446e+08,-4.23459e+08,-113317,0.0116852,0.0375312,0,0.0393082,-24919.3,-15418,-0,29303.3,-113317
step02_gravity_refstate-crust.xmf,1816,8.93087e-07,1.45316e-07,0,-1.13747e-06,-3.077e+08,-3.07751e+08,-3.07761e+08,-78030.4,0.0111515,0.0506049,0,0.051819,-28543.8,-11205.9,-0,30664.7,-78030.4
step02_gravity_refstate-crust.xmf,1817,1.07573e-06,5.30745e-08,0,-7.35359e-07,-2.50202e+08,-2.50272e+08,-2.50276e+08,-50445.6,0.00954148,0.0588986,0,0.0596665,-31698.6,-9113.29,-0,32982.6,-50445.6
step02_gravity_refstate-crust.xmf,1818,1.84027e-06,-4.90355e-07,0,-3.24332e-06,-7.84979e+08,-7.85139e+08,-7.85105e+08,-222492,0.0133002,-0.03993,0,0.0420868,-11931.8,-28584.6,-0,30975,-222492
step02_gravity_refstate-crust.xmf,1819,1.59697e-06,-1.48476e-07,0,-3.02536e-06,-6.97301e+08,-6.9742e+08,-6.9741e+08,-207540,0.0159572,-0.0199941,0,0.0255811,-14394.8,-25392.2,-0,29188.5,-207540
step02_gravity_refstate-crust.xmf,1820,-9.13619e-07,-1.38696e-06,0,-4.24508e-06,-9.80962e+08,-9.80994e+08,-9.80899e+08,-291212,-0.0166169,-0.0705634,-0,0.0724936,-8665,-35707.1,-0,36743.4,-291212
step02_gravity_refstate-crust.xmf,1821,-1.5698e-06,-2.40244e-06,0,-5.92753e-06,-1.04006e+09,-1.04011e+09,-1.03995e+09,-406628,-0.0236855,-0.0755601,-0,0.0791854,-7975.95,-37854.2,-0,38685.3,-406628
step02_gravity_refstate-crust.xmf,1822,1.2217e-06,6.52253e-08,0,-2.65918e-06,-5.97992e+08,-5.98071e+08,-5.98075e+08,-182420,0.015534,0.000189259,0,0.0155352,-17396.5,-21775.5,-0,27871.3,-182420
step02_gravity_refstate-crust.xmf,1823,1.11348e-06,1.22661e-07,0,-2.57397e-06,-5.62964e+08,-5.63032e+08,-5.63041e+08,-176575,0.015396,0.00504507,0,0.0162015,-18201.5,-20500,-0,27414.3,-176575
step02_gravity_refstate-crust.xmf,1824,9.88851e-07,1.49354e-07,0,-2.29136e-06,-5.18225e+08,-5.18283e+08,-5.18293e+08,-157187,0.0141564,0.0160073,0,0.0213691,-20197.8,-18870.7,-0,27641.5,-157187
step02_gravity_refstate-crust.xmf,1825,8.8619e-07,1.67147e-07,0,-1.96584e-06,-4.7369e+08,-4.73739e+08,-4.73751e+08,-134856,0.0127867,0.0273285,0,0.030172,-22529.9,-17249,-0,28374.7,-134856
step02_gravity_refstate-crust.xmf,1826,8.64265e-07,1.80296e-07,0,-1.7319e-06,-4.69426e+08,-4.69473e+08,-4.69485e+08,-118809,0.0113772,0.0345436,0,0.036369,-24236.5,-17093.7,-0,29658.1,-118809
step02_gravity_refstate-crust.xmf,1827,8.38726e-07,1.86125e-07,0,-1.29851e-06,-3.6109e+08,-3.61135e+08,-3.61148e+08,-89078,0.0107298,0.047391,0,0.0485905,-27604.3,-13149.5,-0,30576.3,-89078
step02_gravity_refstate-crust.xmf,1828,8.21744e-07,2.03502e-07,0,-1.41367e-06,-4.12131e+08,-4.12174e+08,-4.12188e+08,-96978.1,0.0103476,0.044407,0,0.0455967,-26806.1,-15007.7,-0,30721.3,-96978.1
step02_gravity_refstate-crust.xmf,1829,9.43031e-07,1.41636e-07,0,-9.00988e-07,-3.04579e+08,-3.04634e+08,-3.04643e+08,-61807.8,0.00921945,0.0564806,0,0.0572281,-30727.7,-11092.5,-0,32668.6,-61807.8
step02_gravity_refstate-crust.xmf,1830,1.11392e-06,5.24857e-08,0,-5.4471e-07,-2.53763e+08,-2.53835e+08,-2.53839e+08,-37367.1,0.00719691,0.0628151,0,0.063226,-33766.3,-9243.07,-0,35008.6,-37367.1
step02_gravity_refstate-crust.xmf,1831,1.22585e-06,-5.52887e-09,0,-3.61071e-07,-2.28798e+08,-2.28882e+08,-2.28882e+08,-24769.5,0.00549143,0.0653988,0,0.0656289,-35606.3,-8334.55,-0,36568.8,-24769.5
step02_gravity_refstate-crust.xmf,1832,1.39025e-06,-1.08646e-07,0,-1.63099e-07,-1.9322e+08,-1.93323e+08,-1.93315e+08,-11188.6,0.00310724,0.0672055,0,0.0672773,-37779.7,-7039.83,-0,38430,-11188.6
step02_gravity_refstate-crust.xmf,1833,1.58023e-06,-2.41351e-07,0,1.18591e-09,-1.53387e+08,-1.53512e+08,-1.53496e+08,81.3532,6.30118e-19,0.0675899,0,0.0675899,-40000,-5590.24,-0,40388.7,-81.3532
step02_gravity_refstate-crust.xmf,1834,1.67708e-06,-2.54688e-07,0,-3.02525e-06,-7.25902e+08,-7.26034e+08,-7.26017e+08,-207532,0.0151271,-0.0242226,0,0.028558,-13825.2,-26433.6,-0,29830.7,-207532
step02_gravity_refstate-crust.xmf,1835,1.72762e-06,-3.66465e-07,0,-3.00949e-06,-7.54105e+08,-7.54249e+08,-7.54224e+08,-206451,0.0139379,-0.0286352,0,0.0318472,-13248.5,-27460.4,-0,30489.2,-206451
step02_gravity_refstate-crust.xmf,1836,1.71398e-06,-4.72584e-07,0,-2.93581e-06,-7.81776e+08,-7.81926e+08,-7.81894e+08,-201397,0.0121091,-0.0321143,0,0.0343214,-12794.7,-28467.6,-0,31210.7,-201397
step02_gravity_refstate-crust.xmf,1837,1.64151e-06,-5.60555e-07,0,-2.85997e-06,-8.0696e+08,-8.07111e+08,-8.07073e+08,-196194,0.00998437,-0.0353634,0,0.0367458,-12378.6,-29384,-0,31884.9,-196194
step02_gravity_refstate-crust.xmf,1838,1.50992e-06,-6.29826e-07,0,-2.80605e-06,-8.30516e+08,-8.30663e+08,-8.3062e+08,-192495,0.00762274,-0.038875,0,0.0396153,-11945.4,-30240.9,-0,32514.7,-192495
step02_gravity_refstate-crust.xmf,1839,1.3371e-06,-6.83751e-07,0,-2.80411e-06,-8.52074e+08,-8.52213e+08,-8.52166e+08,-192362,0.00516579,-0.0429622,0,0.0432717,-11469.5,-31025,-0,33077.2,-192362
step02_gravity_refstate-crust.xmf,1840,1.18311e-06,-7.44928e-07,0,-2.93214e-06,-8.699e+08,-8.70032e+08,-8.69981e+08,-201145,0.00306891,-0.048739,0,0.0488356,-10857.4,-31673.2,-0,33482.5,-201145
step02_gravity_refstate-crust.xmf,1841,-4.67644e-07,-1.12232e-06,0,-3.71584e-06,-9.59441e+08,-9.59486e+08,-9.59409e+08,-254907,-0.0126234,-0.0654746,-0,0.0666804,-9143.51,-34925.8,-0,36102.8,-254907
step02_gravity_refstate-crust.xmf,1842,8.54042e-07,-7.90754e-07,0,-2.91261e-06,-8.91986e+08,-8.92099e+08,-8.92045e+08,-199805,-0.000501486,-0.0509481,-0,0.0509505,-10592.2,-32475.9,-0,34159.6,-199805
step02_gravity_refstate-crust.xmf,1843,4.45069e-07,-8.52382e-07,0,-3.05239e-06,-9.15073e+08,-9.15162e+08,-9.15103e+08,-209394,-0.0044088,-0.055367,-0,0.0555423,-10129,-33314.6,-0,34820.4,-209394
step02_gravity_refstate-crust.xmf,1844,4.01507e-09,-9.55445e-07,0,-3.31909e-06,-9.37191e+08,-9.37257e+08,-9.37191e+08,-227690,-0.00842675,-0.0604017,-0,0.0609867,-9630.73,-34117.9,-0,35451.1,-227690
step02_gravity_refstate-crust.xmf,1845,-1.47056e-06,-1.72615e-06,0,-5.03804e-06,-1.02399e+09,-1.024e+09,-1.02389e+09,-345610,-0.021842,-0.0688472,-0,0.0722288,-8610.85,-37270.7,-0,38252.4,-345610
step02_gravity_refstate-crust.xmf,1846,-1.23452e-06,-1.30225e-06,0,-4.34011e-06,-1.00376e+09,-1.00376e+09,-1.00368e+09,-297732,-0.0192928,-0.0643534,-0,0.0671831,-9077.75,-36535.9,-0,37646.7,-297732
step02_gravity_refstate-crust.xmf,1847,-1.37652e-06,-2.52999e-06,0,-6.1599e-06,-1.05955e+09,-1.05963e+09,-1.05945e+09,-422569,-0.0233282,-0.0700329,-0,0.0738161,-8284.74,-38564.4,-0,39444.2,-422569
step02_gravity_refstate-crust.xmf,1848,-1.00829e-06,-3.47288e-06,0,-7.10718e-06,-1.07949e+09,-1.07966e+09,-1.07942e+09,-487552,-0.0227959,-0.0733788,-0,0.0768381,-7814.23,-39290.5,-0,40060.1,-487552
step02_gravity_refstate-crust.xmf,1849,1.48953e-06,-1.79268e-07,0,-2.67376e-06,-6.96909e+08,-6.97023e+08,-6.97011e+08,-183420,0.0140682,-0.0110509,0,0.0178896,-15632.9,-25377.4,-0,29806.1,-183420
step02_gravity_refstate-crust.xmf,1850,1.32615e-06,-2.0897e-08,0,-2.65462e-06,-6.35888e+08,-6.3598e+08,-6.35979e+08,-182107,0.0150658,-0.00314455,0,0.0153905,-16862.7,-23155.5,-0,28644.8,-182107
step02_gravity_refstate-crust.xmf,1851,1.41631e-06,-9.99654e-08,0,-2.66968e-06,-6.67829e+08,-6.67933e+08,-6.67926e+08,-183140,0.0146507,-0.00712043,0,0.0162894,-16236.2,-24318.6,-0,29240.5,-183140
step02_gravity_refstate-crust.xmf,1852,1.07513e-06,9.12384e-08,0,-2.32441e-06,-5.60354e+08,-5.60422e+08,-5.60428e+08,-159454,0.0139517,0.0125807,0,0.0187862,-19572.4,-20404.7,-0,28274.2,-159454
step02_gravity_refstate-crust.xmf,1853,9.49442e-07,1.35254e-07,0,-2.03613e-06,-5.15292e+08,-5.15348e+08,-5.15357e+08,-139678,0.0126792,0.0237139,0,0.0268907,-21784.5,-18763.8,-0,28751.4,-139678
step02_gravity_refstate-crust.xmf,1854,8.27363e-07,2.05129e-07,0,-1.49516e-06,-4.63948e+08,-4.63991e+08,-4.64005e+08,-102568,0.00997255,0.041331,0,0.0425171,-26029.3,-16894.2,-0,31031.2,-102568
step02_gravity_refstate-crust.xmf,1855,8.59809e-07,1.9761e-07,0,-1.05104e-06,-3.57541e+08,-3.57587e+08,-3.576e+08,-72101.5,0.00898561,0.0536576,0,0.0544047,-29744,-13020.4,-0,32469,-72101.5
step02_gravity_refstate-crust.xmf,1856,9.82726e-07,1.43847e-07,0,-6.66488e-07,-3.02236e+08,-3.02293e+08,-3.02303e+08,-45721,0.00707204,0.0613231,0,0.0617295,-33006.6,-11007.4,-0,34793.7,-45721
step02_gravity_refstate-crust.xmf,1857,1.54688e-06,-2.63629e-07,0,-2.66945e-06,-7.25393e+08,-7.25518e+08,-7.255e+08,-183125,0.0132536,-0.0152384,0,0.0201958,-15009.3,-26414.5,-0,30381,-183125
step02_gravity_refstate-crust.xmf,1858,-8.70404e-07,-1.0127e-06,0,-3.74381e-06,-9.81365e+08,-9.81374e+08,-9.81305e+08,-256825,-0.0159066,-0.059974,-0,0.0620476,-9534.06,-35722.5,-0,36972.9,-256825
step02_gravity_refstate-crust.xmf,1859,-1.48324e-06,-1.94816e-06,0,-5.46055e-06,-1.04251e+09,-1.04254e+09,-1.04241e+09,-374594,-0.0227577,-0.0673281,-0,0.0710703,-8634.1,-37944.6,-0,38914.5,-374594
step02_gravity_refstate-crust.xmf,1860,1.16645e-06,2.91724e-08,0,-2.35244e-06,-6.00103e+08,-6.00181e+08,-6.00183e+08,-161377,0.0137043,0.00874607,0,0.0162574,-18879.9,-21852.1,-0,28878.5,-161377
step02_gravity_refstate-crust.xmf,1861,1.02589e-06,9.83134e-08,0,-2.09161e-06,-5.55784e+08,-5.55848e+08,-5.55855e+08,-143484,0.012531,0.0199708,0,0.0235767,-21031.3,-20238.2,-0,29187.4,-143484
step02_gravity_refstate-crust.xmf,1862,9.02235e-07,1.54051e-07,0,-1.7897e-06,-5.13287e+08,-5.13339e+08,-5.13349e+08,-122773,0.01116,0.0311424,0,0.0330817,-23470.4,-18690.6,-0,30003.3,-122773
step02_gravity_refstate-crust.xmf,1863,8.52116e-07,1.9674e-07,0,-1.55817e-06,-5.10376e+08,-5.10421e+08,-5.10435e+08,-106890,0.00968907,0.0380696,0,0.0392833,-25224.2,-18584.5,-0,31331.2,-106890
step02_gravity_refstate-crust.xmf,1864,8.14308e-07,2.2889e-07,0,-1.17364e-06,-4.09005e+08,-4.09045e+08,-4.09061e+08,-80511.9,0.00877513,0.050652,0,0.0514065,-28801.7,-14893.9,-0,32424.7,-80511.9
step02_gravity_refstate-crust.xmf,1865,7.94067e-07,2.43586e-07,0,-1.26328e-06,-4.58725e+08,-4.58763e+08,-4.5878e+08,-86661.1,0.00853521,0.04763,0,0.0483887,-27927.7,-16703.9,-0,32542,-86661.1
step02_gravity_refstate-crust.xmf,1866,8.75818e-07,2.13564e-07,0,-8.12171e-07,-3.54559e+08,-3.54604e+08,-3.54619e+08,-55715,0.00715146,0.0588465,0,0.0592794,-31921,-12911.9,-0,34433.6,-55715
step02_gravity_refstate-crust.xmf,1867,1.02292e-06,1.41708e-07,0,-4.26981e-07,-2.97068e+08,-2.97128e+08,-2.97138e+08,-29290.9,0.00472587,0.0650158,0,0.0651873,-35428,-10819.4,-0,37043.3,-29290.9
step02_gravity_refstate-crust.xmf,1868,1.13688e-06,7.35721e-08,0,-1.95192e-07,-2.62708e+08,-2.62781e+08,-2.62786e+08,-13390.2,0.00253584,0.0672496,0,0.0672974,-37780.4,-9568.86,-0,38973.3,-13390.2
step02_gravity_refstate-crust.xmf,1869,1.26422e-06,-1.4381e-08,0,5.07794e-10,-2.27209e+08,-2.27296e+08,-2.27295e+08,34.8347,5.11114e-19,0.0679332,0,0.0679332,-40000,-8276.85,-0,40847.4,-34.8347
step02_gravity_refstate-crust.xmf,1870,1.57274e-06,-3.49814e-07,0,-2.64274e-06,-7.53498e+08,-7.5363e+08,-7.53606e+08,-181292,0.0120621,-0.0193267,0,0.0227819,-14416.7,-27437.7,-0,30994.6,-181292
step02_gravity_refstate-crust.xmf,1871,1.55417e-06,-4.29085e-07,0,-2.599e-06,-7.80695e+08,-7.80831e+08,-7.80801e+08,-178291,0.0104776,-0.0232619,0,0.0255126,-13860.6,-28427.6,-0,31626.7,-178291
step02_gravity_refstate-crust.xmf,1872,1.47162e-06,-4.94455e-07,0,-2.53553e-06,-8.07694e+08,-8.07829e+08,-8.07795e+08,-173938,0.00837035,-0.0268588,0,0.0281329,-13360.5,-29410.1,-0,32302.6,-173938
step02_gravity_refstate-crust.xmf,1873,1.30157e-06,-5.43046e-07,0,-2.46865e-06,-8.36254e+08,-8.3638e+08,-8.36343e+08,-169349,0.00556048,-0.0305044,0,0.0310071,-12863.3,-30449.1,-0,33054.7,-169349
step02_gravity_refstate-crust.xmf,1874,1.08534e-06,-5.78927e-07,0,-2.45637e-06,-8.61331e+08,-8.61445e+08,-8.61405e+08,-168507,0.00271906,-0.0345296,0,0.0346365,-12345.3,-31361.1,-0,33703.5,-168507
step02_gravity_refstate-crust.xmf,1875,8.49265e-07,-6.40027e-07,0,-2.55789e-06,-8.83989e+08,-8.84091e+08,-8.84047e+08,-175472,-3.2287e-05,-0.0406839,-0,0.0406839,-11625.4,-32185,-0,34220.2,-175472
step02_gravity_refstate-crust.xmf,1876,-4.66801e-07,-8.26799e-07,0,-3.25835e-06,-9.5996e+08,-9.59985e+08,-9.59928e+08,-223523,-0.0122957,-0.0549797,-0,0.0563378,-10042.5,-34945.1,-0,36359.5,-223523
step02_gravity_refstate-crust.xmf,1877,3.87224e-07,-6.55027e-07,0,-2.66527e-06,-9.13984e+08,-9.14056e+08,-9.14011e+08,-182837,-0.00463173,-0.044841,-0,0.0450796,-11127.6,-33275.1,-0,35086.4,-182837
step02_gravity_refstate-crust.xmf,1878,-3.964e-08,-7.08508e-07,0,-2.8937e-06,-9.37909e+08,-9.37955e+08,-9.37906e+08,-198508,-0.00853718,-0.0495098,-0,0.0502405,-10611.2,-34144.3,-0,35755.1,-198508
step02_gravity_refstate-crust.xmf,1879,-1.13275e-06,-9.04526e-07,0,-3.81069e-06,-1.00387e+09,-1.00385e+09,-1.00379e+09,-261413,-0.0182056,-0.053939,-0,0.0569286,-10012.8,-36540.8,-0,37887.8,-261413
step02_gravity_refstate-crust.xmf,1880,-1.37673e-06,-1.3366e-06,0,-4.64616e-06,-1.03065e+09,-1.03065e+09,-1.03055e+09,-318726,-0.021105,-0.0589888,-0,0.0626507,-9437.98,-37514.2,-0,38683.2,-318726
step02_gravity_refstate-crust.xmf,1881,-1.30745e-06,-1.8815e-06,0,-5.41909e-06,-1.05704e+09,-1.05708e+09,-1.05695e+09,-371749,-0.0222271,-0.0607572,-0,0.0646953,-9130.93,-38474.4,-0,39543.1,-371749
step02_gravity_refstate-crust.xmf,1882,-9.93963e-07,-2.65579e-06,0,-6.25362e-06,-1.07847e+09,-1.07859e+09,-1.0784e+09,-428998,-0.0219969,-0.0637121,-0,0.0674025,-8690.1,-39254.7,-0,40205.1,-428998
step02_gravity_refstate-crust.xmf,1883,1.24347e-06,-3.21874e-08,0,-2.36717e-06,-6.34144e+08,-6.34232e+08,-6.34229e+08,-162388,0.0133745,0.0050638,0,0.014301,-18227.8,-23091.6,-0,29419,-162388
step02_gravity_refstate-crust.xmf,1884,1.40048e-06,-2.31554e-07,0,-2.346e-06,-7.26e+08,-7.26112e+08,-7.26096e+08,-160936,0.0113529,-0.0065477,0,0.0131058,-16271.2,-26436.1,-0,31042.2,-160936
step02_gravity_refstate-crust.xmf,1885,1.36197e-06,-1.65151e-07,0,-2.3501e-06,-6.97947e+08,-6.98052e+08,-6.98041e+08,-161217,0.0121321,-0.00239564,0,0.0123664,-16950.1,-25414.7,-0,30548.5,-161217
step02_gravity_refstate-crust.xmf,1886,1.31053e-06,-9.90722e-08,0,-2.36176e-06,-6.67352e+08,-6.67449e+08,-6.67442e+08,-162017,0.0128274,0.00138356,0,0.0129018,-17589.6,-24300.8,-0,29998.7,-162017
step02_gravity_refstate-crust.xmf,1887,1.0861e-06,4.53304e-08,0,-2.102e-06,-5.95454e+08,-5.95525e+08,-5.95528e+08,-144197,0.012189,0.0164869,0,0.0205034,-20347.7,-21682.5,-0,29734.8,-144197
step02_gravity_refstate-crust.xmf,1888,9.49932e-07,1.22824e-07,0,-1.83319e-06,-5.54254e+08,-5.54311e+08,-5.5432e+08,-125757,0.0109381,0.0275877,0,0.0296769,-22687.4,-20182.2,-0,30365.1,-125757
step02_gravity_refstate-crust.xmf,1889,7.89347e-07,2.46672e-07,0,-1.32626e-06,-5.07177e+08,-5.07215e+08,-5.07232e+08,-90981.2,0.0082559,0.0444616,0,0.0452216,-27059.6,-18467.9,-0,32761,-90981.2
step02_gravity_refstate-crust.xmf,1890,8.0492e-07,2.59897e-07,0,-9.34285e-07,-4.06152e+08,-4.06189e+08,-4.06207e+08,-64092,0.00712466,0.0561413,0,0.0565916,-30903.1,-14790,-0,34260,-64092
step02_gravity_refstate-crust.xmf,1891,8.86618e-07,2.29589e-07,0,-5.8746e-07,-3.52519e+08,-3.52564e+08,-3.5258e+08,-40299.7,0.00528839,0.0627729,0,0.0629952,-34069.9,-12837.8,-0,36408.3,-40299.7
step02_gravity_refstate-crust.xmf,1892,1.41198e-06,-2.9627e-07,0,-2.32712e-06,-7.53572e+08,-7.53689e+08,-7.53669e+08,-159641,0.0102605,-0.0106548,0,0.014792,-15620,-27439.8,-0,31574.2,-159641
step02_gravity_refstate-crust.xmf,1893,-7.85522e-07,-7.53798e-07,0,-3.3697e-06,-9.79734e+08,-9.79732e+08,-9.79681e+08,-231161,-0.0150657,-0.0518759,-0,0.0540193,-10279.5,-35663.9,-0,37115.7,-231161
step02_gravity_refstate-crust.xmf,1894,1.14508e-06,-6.79846e-09,0,-2.09867e-06,-6.32908e+08,-6.32987e+08,-6.32986e+08,-143969,0.0116925,0.0129993,0,0.0174841,-19674.8,-23046.3,-0,30302.3,-143969
step02_gravity_refstate-crust.xmf,1895,1.0046e-06,9.03203e-08,0,-1.86132e-06,-5.93434e+08,-5.93496e+08,-5.93503e+08,-127686,0.0106141,0.0240027,0,0.0262448,-21917.5,-21608.8,-0,30778.5,-127686
step02_gravity_refstate-crust.xmf,1896,8.73287e-07,1.74369e-07,0,-1.59396e-06,-5.53736e+08,-5.53784e+08,-5.53796e+08,-109346,0.00939037,0.0346411,0,0.0358913,-24399.4,-20163.1,-0,31652.5,-109346
step02_gravity_refstate-crust.xmf,1897,7.99063e-07,2.44177e-07,0,-1.37032e-06,-5.53104e+08,-5.53143e+08,-5.53159e+08,-94003.7,0.00791485,0.0411597,0,0.0419138,-26189.1,-20139.9,-0,33037.7,-94003.7
step02_gravity_refstate-crust.xmf,1898,7.60566e-07,2.88752e-07,0,-1.03218e-06,-4.56258e+08,-4.5629e+08,-4.5631e+08,-70807.7,0.00703213,0.0532336,0,0.0536961,-29919.5,-16614,-0,34222.9,-70807.7
step02_gravity_refstate-crust.xmf,1899,7.33185e-07,3.0611e-07,0,-1.10352e-06,-5.04932e+08,-5.04961e+08,-5.04982e+08,-75701.8,0.00684478,0.0501953,0,0.0506598,-28972.5,-18386,-0,34314,-75701.8
step02_gravity_refstate-crust.xmf,1900,7.95062e-07,2.91227e-07,0,-6.98942e-07,-4.04324e+08,-4.04358e+08,-4.04378e+08,-47947.4,0.00541523,0.0606249,0,0.0608663,-33074.8,-14723.5,-0,36203.9,-47947.4
step02_gravity_refstate-crust.xmf,1901,8.94404e-07,2.40276e-07,0,-3.93591e-07,-3.50675e+08,-3.5072e+08,-3.50736e+08,-27000.3,0.00361151,0.0652587,0,0.0653586,-35975.9,-12770.7,-0,38175.3,-27000.3
step02_gravity_refstate-crust.xmf,1902,9.45931e-07,2.12777e-07,0,-2.04215e-07,-3.30572e+08,-3.30623e+08,-3.30637e+08,-14009.2,0.00202084,0.0669461,0,0.0669766,-37869,-12039,-0,39736.6,-14009.2
step02_gravity_refstate-crust.xmf,1903,1.03147e-06,1.53777e-07,0,-2.33111e-10,-2.99306e+08,-2.99366e+08,-2.99377e+08,-15.9914,4.05349e-19,0.0677491,0,0.0677491,-40000,-10900.9,-0,41458.8,-15.9914
step02_gravity_refstate-crust.xmf,1904,1.38361e-06,-3.53074e-07,0,-2.29036e-06,-7.80157e+08,-7.80276e+08,-7.80252e+08,-157119,0.00880277,-0.0144318,0,0.0169046,-15036.2,-28407.4,-0,32141.4,-157119
step02_gravity_refstate-crust.xmf,1905,1.30967e-06,-4.016e-07,0,-2.25048e-06,-8.06655e+08,-8.06773e+08,-8.06745e+08,-154383,0.00696348,-0.0183068,0,0.0195865,-14455.5,-29371.8,-0,32736.3,-154383
step02_gravity_refstate-crust.xmf,1906,1.17143e-06,-4.35416e-07,0,-2.21166e-06,-8.33496e+08,-8.33606e+08,-8.33576e+08,-151720,0.00463615,-0.0221809,0,0.0226603,-13892,-30348.3,-0,33376.8,-151720
step02_gravity_refstate-crust.xmf,1907,9.62827e-07,-4.52319e-07,0,-2.195e-06,-8.60113e+08,-8.6021e+08,-8.60179e+08,-150577,0.00186594,-0.0260761,0,0.0261427,-13345.1,-31316.5,-0,34041.3,-150577
step02_gravity_refstate-crust.xmf,1908,6.85591e-07,-4.61557e-07,0,-2.23305e-06,-8.8643e+08,-8.86508e+08,-8.86477e+08,-153187,-0.00127878,-0.0303742,-0,0.0304011,-12770.5,-32273.4,-0,34708.2,-153187
step02_gravity_refstate-crust.xmf,1909,3.45358e-07,-4.6894e-07,0,-2.34175e-06,-9.1212e+08,-9.12176e+08,-9.12144e+08,-160644,-0.00473191,-0.0348214,-0,0.0351414,-12203.6,-33207.3,-0,35378.7,-160644
step02_gravity_refstate-crust.xmf,1910,-4.94569e-07,-5.5702e-07,0,-2.90047e-06,-9.64372e+08,-9.64376e+08,-9.64338e+08,-198972,-0.0124647,-0.044376,-0,0.0460934,-11063.9,-35106.1,-0,36808.2,-198972
step02_gravity_refstate-crust.xmf,1911,-3.77097e-08,-4.9039e-07,0,-2.54027e-06,-9.36922e+08,-9.36953e+08,-9.3692e+08,-174262,-0.00834176,-0.0393232,-0,0.0401982,-11655.5,-34108.7,-0,36045.2,-174262
step02_gravity_refstate-crust.xmf,1912,-9.12712e-07,-6.08813e-07,0,-3.29594e-06,-9.93933e+08,-9.93912e+08,-9.9387e+08,-226102,-0.0162859,-0.0455881,-0,0.0484098,-10873.3,-36180.5,-0,37779,-226102
step02_gravity_refstate-crust.xmf,1913,-1.2425e-06,-9.67328e-07,0,-4.08318e-06,-1.02632e+09,-1.0263e+09,-1.02623e+09,-280106,-0.0198183,-0.0509608,-0,0.0546788,-10229.8,-37357.6,-0,38732.9,-280106
step02_gravity_refstate-crust.xmf,1914,-1.20045e-06,-1.28812e-06,0,-4.63772e-06,-1.05158e+09,-1.05158e+09,-1.05149e+09,-318147,-0.0209737,-0.0511489,-0,0.0552821,-10105.6,-38276.8,-0,39588.4,-318147
step02_gravity_refstate-crust.xmf,1915,-9.58892e-07,-1.99299e-06,0,-5.48483e-06,-1.07696e+09,-1.07703e+09,-1.07689e+09,-376259,-0.0211993,-0.0546409,-0,0.0586092,-9592.56,-39200.7,-0,40357.3,-376259
step02_gravity_refstate-crust.xmf,1916,1.19073e-06,-6.01599e-08,0,-2.08178e-06,-6.67842e+08,-6.67928e+08,-6.67923e+08,-142810,0.0110341,0.00946608,0,0.0145382,-19005.7,-24318.2,-0,30864.1,-142810
step02_gravity_refstate-crust.xmf,1917,1.23854e-06,-2.11281e-07,0,-2.03566e-06,-7.55972e+08,-7.56072e+08,-7.56057e+08,-139646,0.00836498,-0.00225351,0,0.0086632,-16909.4,-27526.6,-0,32305.4,-139646
step02_gravity_refstate-crust.xmf,1918,1.23594e-06,-1.61829e-07,0,-2.04209e-06,-7.2955e+08,-7.29646e+08,-7.29635e+08,-140087,0.00932883,0.00190346,0,0.00952104,-17627.8,-26564.7,-0,31881.4,-140087
step02_gravity_refstate-crust.xmf,1919,1.22022e-06,-1.12242e-07,0,-2.05733e-06,-7.00203e+08,-7.00294e+08,-7.00287e+08,-141133,0.0102189,0.00584239,0,0.0117711,-18334.8,-25496.3,-0,31404.3,-141133
step02_gravity_refstate-crust.xmf,1920,1.03842e-06,4.69972e-08,0,-1.85778e-06,-6.31031e+08,-6.31099e+08,-6.31103e+08,-127444,0.0101273,0.0204462,0,0.0228169,-21171.9,-22977.6,-0,31244.5,-127444
step02_gravity_refstate-crust.xmf,1921,9.01058e-07,1.49908e-07,0,-1.61815e-06,-5.938e+08,-5.93852e+08,-5.93862e+08,-111005,0.00903492,0.0311016,0,0.0323874,-23569.3,-21621.8,-0,31984.5,-111005
step02_gravity_refstate-crust.xmf,1922,7.13704e-07,3.17333e-07,0,-1.14725e-06,-5.52627e+08,-5.52654e+08,-5.52676e+08,-78701.6,0.00651437,0.0470759,0,0.0475244,-28062.8,-20122.3,-0,34531.5,-78701.6
step02_gravity_refstate-crust.xmf,1923,7.27571e-07,3.36432e-07,0,-8.00923e-07,-4.5545e+08,-4.55477e+08,-4.555e+08,-54943.3,0.00548038,0.0580392,0,0.0582974,-32022.2,-16584.6,-0,36062,-54943.3
step02_gravity_refstate-crust.xmf,1924,7.87997e-07,3.17065e-07,0,-4.68339e-07,-4.02534e+08,-4.02566e+08,-4.02588e+08,-32128.1,0.00367605,0.0639672,0,0.0640727,-35299,-14658.3,-0,38221.5,-32128.1
step02_gravity_refstate-crust.xmf,1925,1.21442e-06,-2.54725e-07,0,-2.02548e-06,-7.80963e+08,-7.81063e+08,-7.81046e+08,-138948,0.00717466,-0.0063042,0,0.00955085,-16233.8,-28436.2,-0,32743.8,-138948
step02_gravity_refstate-crust.xmf,1926,-1.10721e-06,-7.39517e-07,0,-3.67037e-06,-1.01431e+09,-1.01428e+09,-1.01423e+09,-251788,-0.0184261,-0.046957,-0,0.0504428,-10678.5,-36921.3,-0,38434.5,-251788
step02_gravity_refstate-crust.xmf,1927,1.06619e-06,7.13896e-09,0,-1.83676e-06,-6.68359e+08,-6.68432e+08,-6.68432e+08,-126002,0.00938541,0.0169051,0,0.0193357,-20446.3,-24336.6,-0,31785.5,-126002
step02_gravity_refstate-crust.xmf,1928,9.33529e-07,1.25273e-07,0,-1.63355e-06,-6.30675e+08,-6.30731e+08,-6.30739e+08,-112062,0.0085862,0.0275299,0,0.0288378,-22753.5,-22964.3,-0,32327.8,-112062
step02_gravity_refstate-crust.xmf,1929,7.9984e-07,2.30638e-07,0,-1.38848e-06,-5.96347e+08,-5.96386e+08,-5.96402e+08,-95250,0.00748637,0.0376908,0,0.0384271,-25302.6,-21714.2,-0,33342.6,-95250
step02_gravity_refstate-crust.xmf,1930,7.02845e-07,3.27354e-07,0,-1.17227e-06,-5.98638e+08,-5.98664e+08,-5.98686e+08,-80417.8,0.00602956,0.0438484,0,0.0442611,-27165.8,-21797.4,-0,34829.7,-80417.8
step02_gravity_refstate-crust.xmf,1931,6.79292e-07,3.6857e-07,0,-8.78671e-07,-5.03828e+08,-5.03849e+08,-5.03874e+08,-60276.9,0.00541693,0.0552951,0,0.0555598,-31022.3,-18345.7,-0,36040.9,-60276.9
step02_gravity_refstate-crust.xmf,1932,6.40832e-07,3.93718e-07,0,-9.36474e-07,-5.51517e+08,-5.51534e+08,-5.51561e+08,-64242.1,0.00521368,0.0522965,0,0.0525557,-30017.3,-20081.7,-0,36115.3,-64242.1
step02_gravity_refstate-crust.xmf,1933,7.01397e-07,3.77914e-07,0,-5.69917e-07,-4.5373e+08,-4.53752e+08,-4.53778e+08,-39096.3,0.00392181,0.0618993,0,0.0620234,-34235.2,-16521.9,-0,38013.5,-39096.3
step02_gravity_refstate-crust.xmf,1934,7.83556e-07,3.34772e-07,0,-2.16758e-07,-4.01354e+08,-4.01385e+08,-4.01408e+08,-14869.6,0.00171993,0.0662003,0,0.0662226,-37800.5,-14615.4,-0,40527.6,-14869.6
step02_gravity_refstate-crust.xmf,1935,8.51137e-07,2.86982e-07,0,-7.47951e-10,-3.69882e+08,-3.69921e+08,-3.6994e+08,-51.3094,3.45141e-19,0.0671819,0,0.0671819,-40000,-13469.8,-0,42207.1,-51.3094
step02_gravity_refstate-crust.xmf,1936,1.15016e-06,-2.87768e-07,0,-2.00005e-06,-8.05446e+08,-8.05544e+08,-8.05525e+08,-137204,0.00562493,-0.00993222,0,0.0114144,-15645.1,-29327.3,-0,33239.4,-137204
step02_gravity_refstate-crust.xmf,1937,1.02488e-06,-3.06746e-07,0,-1.96713e-06,-8.31812e+08,-8.31903e+08,-8.31882e+08,-134945,0.00353776,-0.0135768,0,0.0140301,-15069.2,-30286.6,-0,33828.4,-134945
step02_gravity_refstate-crust.xmf,1938,8.40708e-07,-3.14325e-07,0,-1.95936e-06,-8.58669e+08,-8.58748e+08,-8.58727e+08,-134412,0.0010411,-0.0175727,0,0.0176035,-14462.8,-31263.6,-0,34446.9,-134412
step02_gravity_refstate-crust.xmf,1939,5.89008e-07,-3.07576e-07,0,-1.99074e-06,-8.85749e+08,-8.8581e+08,-8.85789e+08,-136564,-0.00188685,-0.0216369,-0,0.021719,-13870.5,-32248.5,-0,35104.9,-136564
step02_gravity_refstate-crust.xmf,1940,2.93475e-07,-2.96318e-07,0,-2.08052e-06,-9.11379e+08,-9.11419e+08,-9.11399e+08,-142724,-0.00498232,-0.0256198,-0,0.0260997,-13314.9,-33180.4,-0,35752.3,-142724
step02_gravity_refstate-crust.xmf,1941,-3.35857e-08,-2.94296e-07,0,-2.2438e-06,-9.36007e+08,-9.36025e+08,-9.36005e+08,-153925,-0.00817399,-0.0296361,-0,0.0307427,-12778.4,-34075.7,-0,36392.8,-153925
step02_gravity_refstate-crust.xmf,1942,-3.92021e-07,-3.19205e-07,0,-2.50914e-06,-9.61267e+08,-9.61262e+08,-9.6124e+08,-172127,-0.0115381,-0.0338167,-0,0.0357309,-12240.5,-34993.8,-0,37072.9,-172127
step02_gravity_refstate-crust.xmf,1943,-7.3529e-07,-3.80611e-07,0,-2.86937e-06,-9.87153e+08,-9.87129e+08,-9.87103e+08,-196839,-0.0147945,-0.0372445,-0,0.0400753,-11802.4,-35934.7,-0,37823.3,-196839
step02_gravity_refstate-crust.xmf,1944,-1.00509e-06,-5.28403e-07,0,-3.35398e-06,-1.01449e+09,-1.01445e+09,-1.01442e+09,-230083,-0.0176679,-0.0402165,-0,0.0439263,-11411.9,-36928.5,-0,38651.6,-230083
step02_gravity_refstate-crust.xmf,1945,-1.13962e-06,-8.20972e-07,0,-3.92278e-06,-1.03612e+09,-1.0361e+09,-1.03604e+09,-269102,-0.0195888,-0.0445251,-0,0.0486436,-10872.9,-37715,-0,39251,-269102
step02_gravity_refstate-crust.xmf,1946,-8.78018e-07,-1.49915e-06,0,-4.83238e-06,-1.07674e+09,-1.07678e+09,-1.07668e+09,-331501,-0.0203702,-0.0462141,-0,0.0505044,-10500.5,-39193.9,-0,40576.2,-331501
step02_gravity_refstate-crust.xmf,1947,1.04499e-06,-1.41705e-07,0,-1.78904e-06,-7.84673e+08,-7.84755e+08,-7.84745e+08,-122728,0.00550644,0.00107989,0,0.00561133,-17435.1,-28570.8,-0,33470.5,-122728
step02_gravity_refstate-crust.xmf,1948,1.07155e-06,-2.72867e-08,0,-1.79817e-06,-7.03244e+08,-7.03319e+08,-7.03317e+08,-123355,0.00840258,0.0135641,0,0.0159558,-19775.9,-25606.6,-0,32354,-123355
step02_gravity_refstate-crust.xmf,1949,1.06224e-06,-1.00996e-07,0,-1.78077e-06,-7.60894e+08,-7.60974e+08,-7.60967e+08,-122161,0.00649282,0.00543606,0,0.00846803,-18219.8,-27705.2,-0,33159.4,-122161
step02_gravity_refstate-crust.xmf,1950,1.05607e-06,-5.68578e-08,0,-1.75768e-06,-7.36287e+08,-7.36364e+08,-7.3636e+08,-120577,0.00723032,0.0100213,0,0.0123574,-19081.6,-26809.5,-0,32906.7,-120577
step02_gravity_refstate-crust.xmf,1951,9.40512e-07,9.46651e-08,0,-1.61893e-06,-6.66996e+08,-6.67054e+08,-6.6706e+08,-111059,0.00791741,0.023989,0,0.0252618,-21968.6,-24286.6,-0,32748.4,-111059
step02_gravity_refstate-crust.xmf,1952,8.12899e-07,2.12404e-07,0,-1.41491e-06,-6.32401e+08,-6.32443e+08,-6.32457e+08,-97062.7,0.00711447,0.0340028,0,0.0347391,-24376.8,-23026.8,-0,33533,-97062.7
step02_gravity_refstate-crust.xmf,1953,6.02762e-07,4.18455e-07,0,-9.66569e-07,-5.99016e+08,-5.99029e+08,-5.99058e+08,-66306.6,0.00478432,0.0492178,0,0.0494497,-29068.6,-21810.9,-0,36341.4,-66306.6
step02_gravity_refstate-crust.xmf,1954,6.31545e-07,4.26969e-07,0,-6.57193e-07,-5.03746e+08,-5.0376e+08,-5.0379e+08,-45083.5,0.00402085,0.0594629,0,0.0595987,-33153.4,-18342.6,-0,37889.3,-45083.5
step02_gravity_refstate-crust.xmf,1955,6.91269e-07,4.00909e-07,0,-3.72455e-07,-4.50257e+08,-4.50276e+08,-4.50304e+08,-25550.4,0.00258634,0.0643222,0,0.0643741,-36202.3,-16395.5,-0,39741.9,-25550.4
step02_gravity_refstate-crust.xmf,1956,1.01834e-06,-1.73374e-07,0,-1.8133e-06,-8.03985e+08,-8.04067e+08,-8.04055e+08,-124393,0.00456372,-0.00288415,0,0.00539869,-16751.1,-29273.7,-0,33727.6,-124393
step02_gravity_refstate-crust.xmf,1957,-1.05155e-06,-9.99193e-07,0,-4.22495e-06,-1.05706e+09,-1.05705e+09,-1.05699e+09,-289832,-0.0200725,-0.0429643,-0,0.0474219,-10969.9,-38477.4,-0,40010.6,-289832
step02_gravity_refstate-crust.xmf,1958,9.29904e-07,7.52542e-08,0,-1.58119e-06,-7.04204e+08,-7.04263e+08,-7.04268e+08,-108470,0.00687991,0.0206403,0,0.0217567,-21248,-25641.1,-0,33300.8,-108470
step02_gravity_refstate-crust.xmf,1959,8.27085e-07,1.94194e-07,0,-1.4261e-06,-6.66396e+08,-6.66439e+08,-6.66453e+08,-97830.7,0.00657919,0.0304424,0,0.0311452,-23517.2,-24264.5,-0,33790.9,-97830.7
step02_gravity_refstate-crust.xmf,1960,6.82917e-07,3.31397e-07,0,-1.17841e-06,-6.46136e+08,-6.4616e+08,-6.46183e+08,-80839,0.00534069,0.0400691,0,0.0404235,-26150,-23526.5,-0,35175.5,-80839
step02_gravity_refstate-crust.xmf,1961,5.64594e-07,4.48756e-07,0,-9.72776e-07,-6.44604e+08,-6.44612e+08,-6.44643e+08,-66732.5,0.00410988,0.0462536,0,0.0464359,-28221.7,-23470.4,-0,36705.9,-66732.5
step02_gravity_refstate-crust.xmf,1962,5.75015e-07,4.67165e-07,0,-7.2445e-07,-5.50956e+08,-5.50963e+08,-5.50995e+08,-49697.3,0.00395082,0.0568207,0,0.0569579,-32110.8,-20061.1,-0,37862.3,-49697.3
step02_gravity_refstate-crust.xmf,1963,5.22536e-07,5.04454e-07,0,-7.73025e-07,-5.9788e+08,-5.97881e+08,-5.97916e+08,-53029.5,0.00368667,0.0538951,0,0.0540211,-31062.4,-21769.3,-0,37931.2,-53029.5
step02_gravity_refstate-crust.xmf,1964,5.89319e-07,4.80827e-07,0,-4.03215e-07,-5.04954e+08,-5.04961e+08,-5.04994e+08,-27660.6,0.00244164,0.06296,0,0.0630074,-35722.2,-18386.5,-0,40176.3,-27660.6
step02_gravity_refstate-crust.xmf,1965,6.11605e-07,4.73335e-07,0,-1.81099e-07,-4.83222e+08,-4.83232e+08,-4.83264e+08,-12423.4,0.00115918,0.0651509,0,0.0651612,-38096.4,-17595.4,-0,41963.5,-12423.4
step02_gravity_refstate-crust.xmf,1966,6.98426e-07,4.04582e-07,0,-1.48647e-09,-4.39136e+08,-4.39157e+08,-4.39184e+08,-101.972,2.36057e-19,0.0663099,0,0.0663099,-40000,-15990.7,-0,43077.8,-101.972
step02_gravity_refstate-crust.xmf,1967,8.98915e-07,-1.76602e-07,0,-1.76477e-06,-8.29095e+08,-8.29169e+08,-8.29157e+08,-121063,0.00264953,-0.00558375,0,0.00618047,-16287.5,-30187.4,-0,34301.1,-121063
step02_gravity_refstate-crust.xmf,1968,7.20713e-07,-1.67977e-07,0,-1.74845e-06,-8.57395e+08,-8.57456e+08,-8.57444e+08,-119944,0.00023134,-0.00922482,0,0.00922772,-15686.7,-31217,-0,34936.7,-119944
step02_gravity_refstate-crust.xmf,1969,4.93414e-07,-1.50698e-07,0,-1.77561e-06,-8.8536e+08,-8.85404e+08,-8.85394e+08,-121807,-0.00248667,-0.0131494,-0,0.0133825,-15066.3,-32234.2,-0,35581.4,-121807
step02_gravity_refstate-crust.xmf,1970,2.45572e-07,-1.36506e-07,0,-1.85979e-06,-9.10567e+08,-9.10594e+08,-9.10584e+08,-127581,-0.00519082,-0.0171549,-0,0.017923,-14462,-33150.9,-0,36168.1,-127581
step02_gravity_refstate-crust.xmf,1971,-1.92658e-08,-1.24977e-07,0,-1.99668e-06,-9.34208e+08,-9.34215e+08,-9.34207e+08,-136972,-0.00792037,-0.0208517,-0,0.0223053,-13926.2,-34010.5,-0,36751.2,-136972
step02_gravity_refstate-crust.xmf,1972,8.15578e-07,-5.6121e-08,0,-1.60062e-06,-8.19589e+08,-8.19649e+08,-8.19645e+08,-109803,0.00238512,0.00227682,0,0.00329738,-17622.8,-29841.2,-0,34656.3,-109803
step02_gravity_refstate-crust.xmf,1973,-3.19532e-07,-1.24975e-07,0,-2.20369e-06,-9.59316e+08,-9.59303e+08,-9.59294e+08,-151173,-0.0108885,-0.024416,-0,0.0267339,-13426.2,-34923.4,-0,37415.3,-151173
step02_gravity_refstate-crust.xmf,1974,-6.1442e-07,-1.66985e-07,0,-2.51246e-06,-9.85082e+08,-9.85052e+08,-9.8504e+08,-172355,-0.01383,-0.0281141,-0,0.0313316,-12921.6,-35860.2,-0,38117.2,-172355
step02_gravity_refstate-crust.xmf,1975,-8.62051e-07,-2.86983e-07,0,-2.94686e-06,-1.01262e+09,-1.01259e+09,-1.01257e+09,-202155,-0.0165787,-0.031749,-0,0.0358169,-12428.5,-36861.7,-0,38900.5,-202155
step02_gravity_refstate-crust.xmf,1976,-9.94276e-07,-5.90891e-07,0,-3.59395e-06,-1.04358e+09,-1.04356e+09,-1.04351e+09,-246545,-0.0188706,-0.0360805,-0,0.0407173,-11830.6,-37987.8,-0,39787.3,-246545
step02_gravity_refstate-crust.xmf,1977,-8.23102e-07,-1.02768e-06,0,-4.18411e-06,-1.07499e+09,-1.07501e+09,-1.07494e+09,-287030,-0.0195327,-0.0376055,-0,0.0423757,-11530,-39131.2,-0,40794.5,-287030
step02_gravity_refstate-crust.xmf,1978,9.02913e-07,-3.50924e-08,0,-1.61182e-06,-7.89834e+08,-7.89898e+08,-7.89896e+08,-110571,0.00408915,0.00688347,0,0.00800646,-18473.1,-28758.3,-0,34180.3,-110571
step02_gravity_refstate-crust.xmf,1979,8.92517e-07,6.27314e-08,0,-1.53311e-06,-7.41453e+08,-7.4151e+08,-7.41514e+08,-105172,0.00552299,0.0171262,0,0.0179947,-20510.2,-26997,-0,33904.4,-105172
step02_gravity_refstate-crust.xmf,1980,8.44095e-07,4.23847e-08,0,-1.50855e-06,-7.76606e+08,-7.76661e+08,-7.76664e+08,-103486,0.00407454,0.012638,0,0.0132786,-19593.6,-28276.6,-0,34401.7,-103486
step02_gravity_refstate-crust.xmf,1981,7.97202e-07,1.86426e-07,0,-1.39116e-06,-7.03654e+08,-7.03696e+08,-7.03709e+08,-95433.4,0.00558651,0.0272217,0,0.0277891,-22777,-25620.7,-0,34281.4,-95433.4
step02_gravity_refstate-crust.xmf,1982,7.22939e-07,2.82409e-07,0,-1.26539e-06,-6.69082e+08,-6.69113e+08,-6.69132e+08,-86805.9,0.00546116,0.0353548,0,0.0357741,-24837.6,-24362,-0,34791,-86805.9
step02_gravity_refstate-crust.xmf,1983,4.65899e-07,5.45245e-07,0,-7.92498e-07,-6.43286e+08,-6.4328e+08,-6.43318e+08,-54365.4,0.00315729,0.0510459,0,0.0511434,-30148.9,-23422.2,-0,38177.9,-54365.4
step02_gravity_refstate-crust.xmf,1984,5.20074e-07,5.3099e-07,0,-5.16482e-07,-5.51757e+08,-5.51757e+08,-5.51793e+08,-35430.7,0.00275385,0.0603418,0,0.0604046,-34275.9,-20090.2,-0,39729.7,-35430.7
step02_gravity_refstate-crust.xmf,1985,7.50366e-07,1.88913e-07,0,-1.34983e-06,-7.41244e+08,-7.41283e+08,-7.41296e+08,-92598.2,0.00428632,0.0238806,0,0.0242622,-22030.6,-26989.1,-0,34839,-92598.2
step02_gravity_refstate-crust.xmf,1986,6.84605e-07,2.98151e-07,0,-1.22859e-06,-7.02736e+08,-7.02762e+08,-7.02783e+08,-84281.2,0.00450581,0.0330638,0,0.0333694,-24297.7,-25587,-0,35285.6,-84281.2
step02_gravity_refstate-crust.xmf,1987,5.85508e-07,3.97552e-07,0,-1.08462e-06,-6.97744e+08,-6.97757e+08,-6.97784e+08,-74405.3,0.00373216,0.0384056,0,0.0385865,-25846.4,-25405.1,-0,36241.6,-74405.3
step02_gravity_refstate-crust.xmf,1988,4.95106e-07,4.94437e-07,0,-9.43835e-07,-6.9139e+08,-6.9139e+08,-6.91424e+08,-64747.1,0.0030664,0.0434922,0,0.0436001,-27509.7,-25173.5,-0,37289.3,-64747.1
step02_gravity_refstate-crust.xmf,1989,4.00042e-07,5.97225e-07,0,-7.90018e-07,-6.88904e+08,-6.88891e+08,-6.88932e+08,-54195.2,0.00233309,0.048235,0,0.0482913,-29337.6,-25082.8,-0,38598.4,-54195.2
step02_gravity_refstate-crust.xmf,1990,4.54477e-07,5.80533e-07,0,-5.80384e-07,-5.97292e+08,-5.97283e+08,-5.97323e+08,-39814.3,0.00267118,0.0577692,0,0.057831,-33161.8,-21747.7,-0,39656.9,-39814.3
step02_gravity_refstate-crust.xmf,1991,3.87919e-07,6.32e-07,0,-6.18708e-07,-6.4178e+08,-6.41764e+08,-6.41807e+08,-42443.4,0.00232662,0.0551209,0,0.05517,-32169.1,-23367.2,-0,39760.3,-42443.4
step02_gravity_refstate-crust.xmf,1992,4.82289e-07,5.77197e-07,0,-3.41351e-07,-5.54018e+08,-5.54012e+08,-5.54051e+08,-23416.7,0.00177898,0.0624594,0,0.0624847,-36174.1,-20172.4,-0,41418.5,-23416.7
step02_gravity_refstate-crust.xmf,1993,4.98019e-07,5.6848e-07,0,-1.84631e-07,-5.38232e+08,-5.38227e+08,-5.38266e+08,-12665.7,0.00101195,0.0640352,0,0.0640432,-37946.3,-19597.8,-0,42708.3,-12665.7
step02_gravity_refstate-crust.xmf,1994,5.56111e-07,5.21181e-07,0,-1.61213e-09,-5.07267e+08,-5.07269e+08,-5.07305e+08,-110.592,2.06186e-19,0.0651621,0,0.0651621,-40000,-18470.6,-0,44058.6,-110.592
step02_gravity_refstate-crust.xmf,1995,6.16182e-07,-2.39877e-08,0,-1.56559e-06,-8.55068e+08,-8.55112e+08,-8.5511e+08,-107400,-0.000399625,-0.00130227,-0,0.00136221,-16985.4,-31132,-0,35464.2,-107400
step02_gravity_refstate-crust.xmf,1996,3.97823e-07,5.92095e-09,0,-1.58833e-06,-8.85843e+08,-8.8587e+08,-8.8587e+08,-108960,-0.00309984,-0.00517126,-0,0.00602917,-16325.7,-32251.6,-0,36148.2,-108960
step02_gravity_refstate-crust.xmf,1997,1.56071e-07,2.79061e-08,0,-1.67217e-06,-9.14312e+08,-9.1432e+08,-9.14322e+08,-114711,-0.00584325,-0.00941771,-0,0.0110832,-15633.7,-33287.1,-0,36775.6,-114711
step02_gravity_refstate-crust.xmf,1998,-1.76949e-08,1.24148e-08,0,-1.80556e-06,-9.32043e+08,-9.32041e+08,-9.32042e+08,-123862,-0.0076651,-0.0137605,-0,0.0157514,-14956.5,-33931.9,-0,37081.9,-123862
step02_gravity_refstate-crust.xmf,1999,-2.51186e-07,3.29891e-08,0,-1.95057e-06,-9.56165e+08,-9.56146e+08,-9.56148e+08,-133809,-0.0102217,-0.0161517,-0,0.0191144,-14597.9,-34809.2,-0,37746.2,-133809
step02_gravity_refstate-crust.xmf,2000,6.90742e-07,8.23523e-08,0,-1.4297e-06,-8.1659e+08,-8.16632e+08,-8.16637e+08,-98077.7,0.00156788,0.009782,0,0.00990685,-19038.1,-29731.7,-0,35304.7,-98077.7
step02_gravity_refstate-crust.xmf,2001,-5.1202e-07,1.56371e-08,0,-2.2058e-06,-9.82938e+08,-9.82902e+08,-9.82903e+08,-151318,-0.0129717,-0.0195924,-0,0.0234974,-14093.7,-35782.8,-0,38458.3,-151318
step02_gravity_refstate-crust.xmf,2002,-7.28236e-07,-7.04819e-08,0,-2.56582e-06,-1.01e+09,-1.00995e+09,-1.00995e+09,-176015,-0.0154897,-0.0232883,-0,0.0279693,-13560.7,-36766.9,-0,39187.9,-176015
step02_gravity_refstate-crust.xmf,2003,-8.48954e-07,-2.74266e-07,0,-3.05855e-06,-1.04046e+09,-1.04042e+09,-1.04041e+09,-209816,-0.0176377,-0.0268271,-0,0.0321058,-13041.8,-37875.3,-0,40057.8,-209816
step02_gravity_refstate-crust.xmf,2004,-7.83253e-07,-6.18225e-07,0,-3.59276e-06,-1.06899e+09,-1.06897e+09,-1.06893e+09,-246463,-0.0187268,-0.0299145,-0,0.0352926,-12556.3,-38913.4,-0,40889,-246463
step02_gravity_refstate-crust.xmf,2005,6.78062e-07,1.97819e-07,0,-1.31109e-06,-7.78142e+08,-7.78175e+08,-7.78189e+08,-89940.8,0.00271639,0.0202751,0,0.0204562,-21246.4,-28332.1,-0,35413.5,-89940.8
step02_gravity_refstate-crust.xmf,2006,6.20796e-07,3.14791e-07,0,-1.18652e-06,-7.40437e+08,-7.40458e+08,-7.4048e+08,-81395.2,0.00325423,0.0300732,0,0.0302488,-23597.1,-26959.3,-0,35827.8,-81395.2
step02_gravity_refstate-crust.xmf,2007,3.129e-07,6.90642e-07,0,-6.33227e-07,-6.86238e+08,-6.86212e+08,-6.86259e+08,-43439.4,0.00170817,0.0524466,0,0.0524744,-31293.5,-24985.5,-0,40044.5,-43439.4
step02_gravity_refstate-crust.xmf,2008,3.96999e-07,6.45933e-07,0,-3.89107e-07,-5.99577e+08,-5.9956e+08,-5.99605e+08,-26692.7,0.00171676,0.06061,0,0.0606343,-35332.9,-21830.8,-0,41533.1,-26692.7
step02_gravity_refstate-crust.xmf,2009,5.14303e-07,1.20202e-07,0,-1.40234e-06,-8.5282e+08,-8.52847e+08,-8.52855e+08,-96200.4,-0.000970671,0.00618174,-0,0.00625748,-18356.3,-31050,-0,36070.2,-96200.4
step02_gravity_refstate-crust.xmf,2010,5.66352e-07,2.22523e-07,0,-1.27495e-06,-8.14956e+08,-8.1498e+08,-8.14995e+08,-87461.3,0.000774926,0.0166666,0,0.0166846,-20490.9,-29671.9,-0,36059.6,-87461.3
step02_gravity_refstate-crust.xmf,2011,5.42671e-07,3.37897e-07,0,-1.15224e-06,-7.78499e+08,-7.78514e+08,-7.78537e+08,-79043.6,0.00173792,0.02667,0,0.0267266,-22815.7,-28344.8,-0,36386.6,-79043.6
step02_gravity_refstate-crust.xmf,2012,5.09156e-07,4.38478e-07,0,-1.04078e-06,-7.39199e+08,-7.39204e+08,-7.39234e+08,-71397.7,0.00240722,0.0357005,0,0.0357816,-25205.5,-26914,-0,36873.9,-71397.7
step02_gravity_refstate-crust.xmf,2013,4.04479e-07,5.53104e-07,0,-9.02278e-07,-7.36943e+08,-7.36933e+08,-7.36971e+08,-61896.3,0.00174705,0.0408207,0,0.0408581,-26869.4,-26831.6,-0,37972.4,-61896.3
step02_gravity_refstate-crust.xmf,2014,3.10533e-07,6.61121e-07,0,-7.67181e-07,-7.34012e+08,-7.33988e+08,-7.34033e+08,-52628.6,0.0012263,0.0455235,0,0.04554,-28633.4,-26724.7,-0,39167.3,-52628.6
step02_gravity_refstate-crust.xmf,2015,2.31528e-07,7.56329e-07,0,-6.35275e-07,-7.29921e+08,-7.29885e+08,-7.29937e+08,-43579.9,0.000852847,0.0497067,0,0.049714,-30478.3,-26575.6,-0,40437.5,-43579.9
step02_gravity_refstate-crust.xmf,2016,2.41473e-07,7.7247e-07,0,-4.82439e-07,-6.86038e+08,-6.86001e+08,-6.86054e+08,-33095.3,0.00116803,0.0557334,0,0.0557456,-33252.7,-24978.1,-0,41589,-33095.3
step02_gravity_refstate-crust.xmf,2017,3.16431e-07,7.12571e-07,0,-4.4131e-07,-6.44587e+08,-6.4456e+08,-6.44609e+08,-30273.8,0.00153299,0.0582715,0,0.0582917,-34291.3,-23469.2,-0,41553.6,-30273.8
step02_gravity_refstate-crust.xmf,2018,3.52378e-07,6.94684e-07,0,-1.89082e-07,-6.04364e+08,-6.0434e+08,-6.04388e+08,-12971,0.000803242,0.0623731,0,0.0623783,-37672.2,-22005,-0,43628.1,-12971
step02_gravity_refstate-crust.xmf,2019,4.08957e-07,6.47896e-07,0,-2.17034e-09,-5.74469e+08,-5.74453e+08,-5.74497e+08,-148.885,1.67324e-19,0.0637332,0,0.0637332,-40000,-20916.8,-0,45138.8,-148.885
step02_gravity_refstate-crust.xmf,2020,3.07444e-07,1.61221e-07,0,-1.42135e-06,-8.86525e+08,-8.86535e+08,-8.86546e+08,-97504.6,-0.00363706,0.00238533,-0,0.00434948,-17664.9,-32276.3,-0,36794.2,-97504.6
step02_gravity_refstate-crust.xmf,2021,8.32278e-08,1.87057e-07,0,-1.50645e-06,-9.1783e+08,-9.17823e+08,-9.17836e+08,-103342,-0.00634039,-0.00201742,-0,0.00665361,-16892.5,-33415.2,-0,37442.3,-103342
step02_gravity_refstate-crust.xmf,2022,-1.62842e-07,1.67358e-07,0,-1.70512e-06,-9.48242e+08,-9.48219e+08,-9.4823e+08,-116971,-0.00919864,-0.00817014,-0,0.0123031,-15858.6,-34521.3,-0,37989.7,-116971
step02_gravity_refstate-crust.xmf,2023,-4.28336e-07,1.76685e-07,0,-1.93725e-06,-9.80454e+08,-9.80412e+08,-9.80424e+08,-132895,-0.0121853,-0.0116396,-0,0.0168511,-15319,-35692.9,-0,38841.4,-132895
step02_gravity_refstate-crust.xmf,2024,4.11265e-07,2.64384e-07,0,-1.25454e-06,-8.51595e+08,-8.51606e+08,-8.51624e+08,-86061.7,-0.0015307,0.0131186,-0,0.0132076,-19779.7,-31005.3,-0,36777.2,-86061.7
step02_gravity_refstate-crust.xmf,2025,-6.26669e-07,1.13538e-07,0,-2.25143e-06,-1.00956e+09,-1.00951e+09,-1.00952e+09,-154448,-0.0146578,-0.0153571,-0,0.0212294,-14746.9,-36751.9,-0,39600.1,-154448
step02_gravity_refstate-crust.xmf,2026,-7.34847e-07,-3.96087e-08,0,-2.65109e-06,-1.03948e+09,-1.03943e+09,-1.03943e+09,-181864,-0.0166696,-0.0188209,-0,0.0251416,-14212.9,-37840.4,-0,40421.5,-181864
step02_gravity_refstate-crust.xmf,2027,-6.97727e-07,-3.23535e-07,0,-3.11676e-06,-1.06888e+09,-1.06886e+09,-1.06883e+09,-213810,-0.0178997,-0.0221825,-0,0.0285037,-13670.3,-38910.4,-0,41241.9,-213810
step02_gravity_refstate-crust.xmf,2028,4.38388e-07,3.69422e-07,0,-1.12632e-06,-8.15645e+08,-8.1565e+08,-8.15675e+08,-77265.6,-4.2818e-05,0.0231277,-0,0.0231278,-22029,-29696.7,-0,36975.3,-77265.6
step02_gravity_refstate-crust.xmf,2029,4.19059e-07,4.74847e-07,0,-1.00728e-06,-7.7861e+08,-7.78606e+08,-7.78639e+08,-69099.4,0.000949098,0.0325224,0,0.0325362,-24444.8,-28348.5,-0,37432.4,-69099.4
step02_gravity_refstate-crust.xmf,2030,1.59575e-07,8.40722e-07,0,-5.01984e-07,-7.27498e+08,-7.27451e+08,-7.27509e+08,-34436.1,0.000542862,0.0531789,0,0.0531817,-32374.3,-26487.2,-0,41829.1,-34436.1
step02_gravity_refstate-crust.xmf,2031,2.74274e-07,7.63545e-07,0,-2.89048e-07,-6.45161e+08,-6.45127e+08,-6.4518e+08,-19828.7,0.000954334,0.060297,0,0.0603046,-36227.7,-23490,-0,43176.7,-19828.7
step02_gravity_refstate-crust.xmf,2032,2.25723e-07,3.11591e-07,0,-1.27131e-06,-8.86714e+08,-8.86708e+08,-8.8673e+08,-87211.7,-0.00402748,0.00944065,-0,0.0102638,-19070.1,-32283.1,-0,37494.9,-87211.7
step02_gravity_refstate-crust.xmf,2033,3.07725e-07,4.08818e-07,0,-1.11759e-06,-8.51416e+08,-8.5141e+08,-8.51438e+08,-76666.4,-0.00205091,0.0195411,-0,0.0196485,-21262.3,-30998.5,-0,37589.8,-76666.4
step02_gravity_refstate-crust.xmf,2034,3.17163e-07,5.1647e-07,0,-9.86686e-07,-8.16556e+08,-8.16543e+08,-8.16578e+08,-67686.6,-0.000711765,0.0291594,-0,0.0291681,-23660.8,-29729.6,-0,37995.9,-67686.6
step02_gravity_refstate-crust.xmf,2035,3.1174e-07,6.05726e-07,0,-8.75912e-07,-7.78634e+08,-7.78614e+08,-7.78656e+08,-60087.5,0.000342634,0.0377543,0,0.0377558,-26110.8,-28349.2,-0,38541.5,-60087.5
step02_gravity_refstate-crust.xmf,2036,2.13934e-07,7.2493e-07,0,-7.49633e-07,-7.77414e+08,-7.77379e+08,-7.77428e+08,-51424.9,-5.98798e-05,0.0424965,-0,0.0424966,-27848.4,-28304.5,-0,39707.4,-51424.9
step02_gravity_refstate-crust.xmf,2037,1.30886e-07,8.31579e-07,0,-6.26715e-07,-7.74551e+08,-7.74503e+08,-7.7456e+08,-42992.7,-0.000276574,0.046802,-0,0.0468029,-29688.8,-28200.1,-0,40947.2,-42992.7
step02_gravity_refstate-crust.xmf,2038,6.21273e-08,9.23116e-07,0,-5.04946e-07,-7.70846e+08,-7.70787e+08,-7.7085e+08,-34639.3,-0.000356835,0.0505469,-0,0.0505482,-31614.5,-28065.1,-0,42274.4,-34639.3
step02_gravity_refstate-crust.xmf,2039,1.07082e-07,9.0828e-07,0,-3.84415e-07,-7.26646e+08,-7.26591e+08,-7.26654e+08,-26370.9,0.000324704,0.0556537,0,0.0556547,-34122.4,-26456.1,-0,43177.2,-26370.9
step02_gravity_refstate-crust.xmf,2040,1.50623e-07,8.7237e-07,0,-3.00837e-07,-6.97878e+08,-6.97828e+08,-6.97888e+08,-20637.4,0.000535099,0.0581686,0,0.058171,-35596.1,-25408.9,-0,43734.4,-20637.4
step02_gravity_refstate-crust.xmf,2041,1.74302e-07,8.60408e-07,0,-1.44307e-07,-6.75247e+08,-6.752e+08,-6.75259e+08,-9899.48,0.000344069,0.0605097,0,0.0605107,-37963.9,-24585.1,-0,45229.2,-9899.48
step02_gravity_refstate-crust.xmf,2042,2.52253e-07,7.89712e-07,0,-1.80215e-09,-6.40916e+08,-6.4088e+08,-6.40934e+08,-123.628,7.87193e-20,0.061994,0,0.061994,-40000,-23335.4,-0,46309.2,-123.628
step02_gravity_refstate-crust.xmf,2043,1.54208e-08,3.53305e-07,0,-1.34205e-06,-9.21016e+08,-9.20993e+08,-9.21017e+08,-92064.5,-0.00668647,0.00543656,-0,0.00861772,-18325.5,-33531.1,-0,38212,-92064.5
step02_gravity_refstate-crust.xmf,2044,-1.84998e-07,3.66084e-07,0,-1.47562e-06,-9.51037e+08,-9.50999e+08,-9.51024e+08,-101227,-0.00914801,0.00110935,-0,0.00921503,-17541.2,-34623.3,-0,38813.2,-101227
step02_gravity_refstate-crust.xmf,2045,-3.73348e-07,3.31623e-07,0,-1.70067e-06,-9.79014e+08,-9.78966e+08,-9.78989e+08,-116666,-0.0115473,-0.00403073,-0,0.0122306,-16635.3,-35641,-0,39332.1,-116666
step02_gravity_refstate-crust.xmf,2046,-5.44868e-07,2.81585e-07,0,-1.96733e-06,-1.00851e+09,-1.00845e+09,-1.00847e+09,-134959,-0.0138601,-0.00790725,-0,0.015957,-15995,-36714,-0,40046.9,-134959
step02_gravity_refstate-crust.xmf,2047,1.49064e-07,4.55573e-07,0,-1.13522e-06,-8.86625e+08,-8.86604e+08,-8.86635e+08,-77875.9,-0.00429282,0.0159214,-0,0.01649,-20522,-32279.8,-0,38251,-77875.9
step02_gravity_refstate-crust.xmf,2048,-6.46571e-07,1.62511e-07,0,-2.30298e-06,-1.03887e+09,-1.03881e+09,-1.03882e+09,-157984,-0.0158109,-0.0114499,-0,0.0195214,-15418.7,-37818.6,-0,40840.9,-157984
step02_gravity_refstate-crust.xmf,2049,-6.29553e-07,-6.50698e-08,0,-2.69608e-06,-1.0689e+09,-1.06886e+09,-1.06886e+09,-184951,-0.0171203,-0.0148693,-0,0.0226761,-14844.4,-38911.8,-0,41647.1,-184951
step02_gravity_refstate-crust.xmf,2050,2.01122e-07,5.5723e-07,0,-9.8567e-07,-8.52661e+08,-8.52637e+08,-8.52675e+08,-67617,-0.00253062,0.0255607,-0,0.0256857,-22840.6,-31043.7,-0,38540.9,-67617
step02_gravity_refstate-crust.xmf,2051,2.06202e-07,6.56419e-07,0,-8.58833e-07,-8.18103e+08,-8.18072e+08,-8.18118e+08,-58915.9,-0.00122143,0.0344664,-0,0.034488,-25309.5,-29785.7,-0,39086.6,-58915.9
step02_gravity_refstate-crust.xmf,2052,1.00201e-09,1.00133e-06,0,-3.8325e-07,-7.6915e+08,-7.69081e+08,-7.6915e+08,-26291,-0.000379835,0.0534818,-0,0.0534831,-33562,-28003.2,-0,43710.3,-26291
step02_gravity_refstate-crust.xmf,2053,-3.43198e-08,5.01992e-07,0,-1.19568e-06,-9.22193e+08,-9.22156e+08,-9.2219e+08,-82023.5,-0.00676143,0.01209,-0,0.0138523,-19770.4,-33574,-0,38962.6,-82023.5
step02_gravity_refstate-crust.xmf,2054,6.77073e-08,6.00745e-07,0,-1.00629e-06,-8.87468e+08,-8.87432e+08,-8.87473e+08,-69031.5,-0.00451437,0.0219566,-0,0.0224159,-22053.7,-32310.4,-0,39119.4,-69031.5
step02_gravity_refstate-crust.xmf,2055,9.13338e-08,7.1022e-07,0,-8.56835e-07,-8.55818e+08,-8.55776e+08,-8.55824e+08,-58778.9,-0.0029494,0.0311234,-0,0.0312628,-24525.2,-31158.4,-0,39652.6,-58778.9
step02_gravity_refstate-crust.xmf,2056,1.08895e-07,7.87947e-07,0,-7.40426e-07,-8.19228e+08,-8.19182e+08,-8.19236e+08,-50793.2,-0.001537,0.0392034,-0,0.0392335,-27008.4,-29826.5,-0,40237.7,-50793.2
step02_gravity_refstate-crust.xmf,2057,2.27548e-08,9.06992e-07,0,-6.23739e-07,-8.18478e+08,-8.18417e+08,-8.18479e+08,-42788.5,-0.00162618,0.043571,-0,0.0436014,-28827,-29799,-0,41460.5,-42788.5
step02_gravity_refstate-crust.xmf,2058,-5.13994e-08,1.01265e-06,0,-5.09089e-07,-8.17027e+08,-8.16954e+08,-8.17023e+08,-34923.5,-0.00155216,0.0474031,-0,0.0474285,-30736.7,-29746,-0,42773.5,-34923.5
step02_gravity_refstate-crust.xmf,2059,-1.12787e-07,1.10128e-06,0,-3.96966e-07,-8.15572e+08,-8.15489e+08,-8.15564e+08,-27231.9,-0.0013544,0.0505468,-0,0.0505649,-32690.4,-29693,-0,44162.6,-27231.9
step02_gravity_refstate-crust.xmf,2060,-4.71127e-08,1.06285e-06,0,-2.50054e-07,-7.67401e+08,-7.67325e+08,-7.67398e+08,-17153.7,-0.000303661,0.0558536,-0,0.0558544,-35746.8,-27939.5,-0,45370.1,-17153.7
step02_gravity_refstate-crust.xmf,2061,1.44467e-09,1.02604e-06,0,-1.26876e-07,-7.39538e+08,-7.39468e+08,-7.39538e+08,-8703.7,-7.16621e-06,0.0582918,-0,0.0582918,-37938.4,-26925.2,-0,46521.9,-8703.7
step02_gravity_refstate-crust.xmf,2062,8.17448e-08,9.5124e-07,0,-2.04171e-09,-7.06791e+08,-7.06731e+08,-7.06797e+08,-140.061,1.11116e-20,0.0599071,0,0.0599071,-40000,-25733.2,-0,47562.6,-140.061
step02_gravity_refstate-crust.xmf,2063,-3.58475e-07,4.61507e-07,0,-1.53285e-06,-9.80611e+08,-9.80555e+08,-9.80587e+08,-105153,-0.011237,0.00192561,-0,0.0114008,-17792.8,-35699.4,-0,39887.7,-105153
step02_gravity_refstate-crust.xmf,2064,-2.68833e-07,5.40714e-07,0,-1.33181e-06,-9.61685e+08,-9.61629e+08,-9.61666e+08,-91362,-0.00962299,0.00758599,-0,0.0122535,-18922.3,-35010.8,-0,39797.2,-91362
step02_gravity_refstate-crust.xmf,2065,-4.8811e-07,4.34835e-07,0,-1.72238e-06,-1.00774e+09,-1.00768e+09,-1.00771e+09,-118155,-0.0131555,-0.00110845,-0,0.0132021,-17271.5,-36686.6,-0,40548.9,-118155
step02_gravity_refstate-crust.xmf,2066,-5.8091e-07,3.44708e-07,0,-1.99778e-06,-1.03781e+09,-1.03775e+09,-1.03777e+09,-137048,-0.0150031,-0.00464837,-0,0.0157067,-16661.9,-37780.8,-0,41291.7,-137048
step02_gravity_refstate-crust.xmf,2067,-7.86026e-08,6.39062e-07,0,-1.06132e-06,-9.21623e+08,-9.21574e+08,-9.21617e+08,-72806.7,-0.00664011,0.0181472,-0,0.0193239,-21249.1,-33553.3,-0,39715.8,-72806.7
step02_gravity_refstate-crust.xmf,2068,-5.80397e-07,1.65825e-07,0,-2.32643e-06,-1.06861e+09,-1.06855e+09,-1.06857e+09,-159593,-0.0163761,-0.00806693,-0,0.0182552,-16064.2,-38901.6,-0,42087.9,-159593
step02_gravity_refstate-crust.xmf,2069,-2.31204e-08,7.5214e-07,0,-8.80228e-07,-8.90425e+08,-8.90372e+08,-8.90424e+08,-60383.6,-0.00472075,0.027555,-0,0.0279564,-23690.6,-32417.9,-0,40151.8,-60383.6
step02_gravity_refstate-crust.xmf,2070,-1.11171e-08,8.55221e-07,0,-7.3778e-07,-8.60144e+08,-8.60085e+08,-8.60143e+08,-50611.7,-0.00322126,0.0358819,-0,0.0360262,-26213.1,-31315.7,-0,40838.7,-50611.7
step02_gravity_refstate-crust.xmf,2071,-1.65888e-07,1.17405e-06,0,-2.87163e-07,-8.16156e+08,-8.16064e+08,-8.16144e+08,-19699.4,-0.001094,0.0528405,-0,0.0528518,-34632.4,-29714.1,-0,45632.5,-19699.4
step02_gravity_refstate-crust.xmf,2072,-2.44701e-07,6.79421e-07,0,-1.15449e-06,-9.5789e+08,-9.57827e+08,-9.57873e+08,-79198.1,-0.00898572,0.0144802,-0,0.0170417,-20532.4,-34873,-0,40468.6,-79198.1
step02_gravity_refstate-crust.xmf,2073,-1.3446e-07,7.77372e-07,0,-9.35385e-07,-9.22423e+08,-9.2236e+08,-9.22413e+08,-64167.4,-0.00652377,0.0236734,-0,0.0245558,-22786,-33582.4,-0,40583,-64167.4
step02_gravity_refstate-crust.xmf,2074,-1.29305e-07,9.18688e-07,0,-7.51646e-07,-8.97343e+08,-8.97271e+08,-8.97334e+08,-51562.9,-0.00492342,0.0327405,-0,0.0331086,-25498.2,-32669.6,-0,41442.3,-51562.9
step02_gravity_refstate-crust.xmf,2075,-1.01501e-07,9.89403e-07,0,-6.26718e-07,-8.6345e+08,-8.63375e+08,-8.63443e+08,-42992.8,-0.00325685,0.0400949,-0,0.040227,-27962.5,-31435.9,-0,42072.7,-42992.8
step02_gravity_refstate-crust.xmf,2076,-2.3454e-07,1.20278e-06,0,-4.14187e-07,-8.63188e+08,-8.63089e+08,-8.63171e+08,-28413.2,-0.00260978,0.0471659,-0,0.0472381,-31728.5,-31426.1,-0,44657.6,-28413.2
step02_gravity_refstate-crust.xmf,2077,-1.72847e-07,1.10322e-06,0,-5.1965e-07,-8.63626e+08,-8.63538e+08,-8.63614e+08,-35648,-0.00301248,0.0438986,-0,0.0440018,-29801.1,-31442.2,-0,43321.1,-35648
step02_gravity_refstate-crust.xmf,2078,-2.85579e-07,1.28467e-06,0,-3.11987e-07,-8.63111e+08,-8.63003e+08,-8.63091e+08,-21402.3,-0.00210212,0.049726,-0,0.0497704,-33681,-31423.2,-0,46063.3,-21402.3
step02_gravity_refstate-crust.xmf,2079,-2.17513e-07,1.24293e-06,0,-1.93025e-07,-8.22848e+08,-8.22748e+08,-8.22833e+08,-13241.5,-0.000853056,0.0539868,-0,0.0539935,-36352,-29957.7,-0,47105.5,-13241.5
step02_gravity_refstate-crust.xmf,2080,-1.71394e-07,1.19916e-06,0,-1.08046e-07,-8.00314e+08,-8.0022e+08,-8.00303e+08,-7411.93,-0.000352201,0.055852,-0,0.0558531,-37993,-29137.4,-0,47879.6,-7411.93
step02_gravity_refstate-crust.xmf,2081,-9.95615e-08,1.12986e-06,0,-1.55142e-09,-7.72286e+08,-7.72202e+08,-7.7228e+08,-106.427,-5.68833e-20,0.0574265,-0,0.0574265,-40000,-28117.2,-0,48893.5,-106.427
step02_gravity_refstate-crust.xmf,2082,-4.49214e-07,5.80119e-07,0,-1.50019e-06,-1.0047e+09,-1.00463e+09,-1.00467e+09,-102913,-0.0123731,0.00519144,-0,0.0134181,-18586.1,-36576.4,-0,41027.7,-102913
step02_gravity_refstate-crust.xmf,2083,-5.35945e-07,5.17025e-07,0,-1.72419e-06,-1.03634e+09,-1.03626e+09,-1.0363e+09,-118280,-0.0142071,0.00178451,-0,0.0143188,-17976.8,-37727.5,-0,41791.5,-118280
step02_gravity_refstate-crust.xmf,2084,-5.48679e-07,3.77289e-07,0,-2.00027e-06,-1.06822e+09,-1.06816e+09,-1.06819e+09,-137218,-0.015645,-0.0016924,-0,0.0157363,-17343.3,-38888.1,-0,42580.2,-137218
step02_gravity_refstate-crust.xmf,2085,-4.13781e-07,7.04468e-07,0,-1.29072e-06,-9.94318e+08,-9.94241e+08,-9.94289e+08,-88543.1,-0.01126,0.0110423,-0,0.0157709,-19902.5,-36198.6,-0,41309.2,-88543.1
step02_gravity_refstate-crust.xmf,2086,-2.68288e-07,8.148e-07,0,-1.01085e-06,-9.57166e+08,-9.57091e+08,-9.57147e+08,-69344.1,-0.00855666,0.0201255,-0,0.021869,-22046.3,-34846.7,-0,41235.1,-69344.1
step02_gravity_refstate-crust.xmf,2087,-2.08831e-07,9.27722e-07,0,-8.13135e-07,-9.26836e+08,-9.26758e+08,-9.26822e+08,-55781.1,-0.00646535,0.0287457,-0,0.0294638,-24439.7,-33743,-0,41664,-55781.1
step02_gravity_refstate-crust.xmf,2088,-2.39555e-07,1.07472e-06,0,-6.43885e-07,-9.09701e+08,-9.0961e+08,-9.09684e+08,-44170.5,-0.00514737,0.0363609,-0,0.0367235,-27097.1,-33119.3,-0,42791.8,-44170.5
step02_gravity_refstate-crust.xmf,2089,-3.24854e-07,1.34685e-06,0,-2.14454e-07,-8.6391e+08,-8.63795e+08,-8.63887e+08,-14711.6,-0.0015289,0.0515111,-0,0.0515338,-35601.7,-31452.3,-0,47505,-14711.6
step02_gravity_refstate-crust.xmf,2090,-3.97885e-07,8.40317e-07,0,-1.12067e-06,-9.93454e+08,-9.93369e+08,-9.93427e+08,-76878.1,-0.0106274,0.0166986,-0,0.0197936,-21385.2,-36167.4,-0,42016.7,-76878.1
step02_gravity_refstate-crust.xmf,2091,-3.07654e-07,9.49131e-07,0,-8.82716e-07,-9.58385e+08,-9.58299e+08,-9.58364e+08,-60554.3,-0.00817642,0.0250933,-0,0.0263918,-23579.1,-34891.2,-0,42111.4,-60554.3
step02_gravity_refstate-crust.xmf,2092,-2.74988e-07,1.05336e-06,0,-7.14445e-07,-9.30991e+08,-9.309e+08,-9.30973e+08,-49010.9,-0.0063017,0.0325659,-0,0.03317,-25886.8,-33894.2,-0,42649.1,-49010.9
step02_gravity_refstate-crust.xmf,2093,-2.98598e-07,1.19293e-06,0,-5.39893e-07,-9.10089e+08,-9.09987e+08,-9.10068e+08,-37036.7,-0.00468357,0.0402162,-0,0.040488,-28895,-33133.3,-0,43962.9,-37036.7
step02_gravity_refstate-crust.xmf,2094,-4.06264e-07,1.3929e-06,0,-3.38479e-07,-9.10533e+08,-9.1041e+08,-9.10506e+08,-23219.7,-0.0033521,0.046267,-0,0.0463882,-32707.8,-33149.4,-0,46569.1,-23219.7
step02_gravity_refstate-crust.xmf,2095,-3.60038e-07,1.30316e-06,0,-4.39013e-07,-9.1159e+08,-9.11476e+08,-9.11565e+08,-30116.3,-0.00412722,0.043418,-0,0.0436137,-30732.2,-33187.9,-0,45231.7,-30116.3
step02_gravity_refstate-crust.xmf,2096,-4.43376e-07,1.46292e-06,0,-2.42556e-07,-9.09657e+08,-9.09526e+08,-9.09627e+08,-16639.4,-0.00249858,0.0484174,-0,0.0484818,-34693.2,-33117.5,-0,47962.3,-16639.4
step02_gravity_refstate-crust.xmf,2097,-3.60304e-07,1.39619e-06,0,-1.04744e-07,-8.6646e+08,-8.6634e+08,-8.66435e+08,-7185.45,-0.000805411,0.0526492,-0,0.0526554,-37786.3,-31545.1,-0,49222.9,-7185.45
step02_gravity_refstate-crust.xmf,2098,-2.8654e-07,1.3227e-06,0,-1.84266e-09,-8.37595e+08,-8.37484e+08,-8.37575e+08,-126.407,-1.43715e-19,0.0545122,-0,0.0545122,-40000,-30494.4,-0,50298.2,-126.407
step02_gravity_refstate-crust.xmf,2099,-5.0731e-07,6.79001e-07,0,-1.48016e-06,-1.03295e+09,-1.03286e+09,-1.03291e+09,-101539,-0.0133556,0.00778024,-0,0.0154565,-19341.1,-37604.4,-0,42286.8,-101539
step02_gravity_refstate-crust.xmf,2100,-5.33417e-07,5.76831e-07,0,-1.70825e-06,-1.06663e+09,-1.06655e+09,-1.06659e+09,-117186,-0.0148741,0.00430771,-0,0.0154853,-18690.2,-38830.5,-0,43094.5,-117186
step02_gravity_refstate-crust.xmf,2101,-5.09307e-07,8.39546e-07,0,-1.26465e-06,-1.03036e+09,-1.03027e+09,-1.03033e+09,-86754.6,-0.0125243,0.0134377,-0,0.0183692,-20792.2,-37510.7,-0,42887.9,-86754.6
step02_gravity_refstate-crust.xmf,2102,-4.17789e-07,9.80062e-07,0,-9.6916e-07,-9.94042e+08,-9.93946e+08,-9.94013e+08,-66484.4,-0.0100308,0.0217816,-0,0.0239803,-22913.3,-36188.9,-0,42832.9,-66484.4
step02_gravity_refstate-crust.xmf,2103,-3.59932e-07,1.08809e-06,0,-7.62088e-07,-9.61714e+08,-9.61614e+08,-9.61689e+08,-52279.3,-0.00778115,0.029577,-0,0.0305834,-25198.6,-35012.4,-0,43137.4,-52279.3
step02_gravity_refstate-crust.xmf,2104,-3.95857e-07,1.1993e-06,0,-6.51559e-07,-9.57939e+08,-9.5783e+08,-9.57912e+08,-44696.9,-0.00703139,0.0337085,-0,0.034434,-26813.4,-34875,-0,43991.2,-44696.9
step02_gravity_refstate-crust.xmf,2105,-4.57351e-07,1.49607e-06,0,-1.60944e-07,-9.05951e+08,-9.05817e+08,-9.05919e+08,-11040.7,-0.00167322,0.0499054,-0,0.0499335,-36434,-32982.5,-0,49145.5,-11040.7
step02_gravity_refstate-crust.xmf,2106,-5.01092e-07,9.79551e-07,0,-1.0875e-06,-1.02941e+09,-1.02931e+09,-1.02938e+09,-74602.8,-0.0117669,0.0183885,-0,0.0218311,-22239.6,-37476.3,-0,43578.4,-74602.8
step02_gravity_refstate-crust.xmf,2107,-4.48565e-07,1.11454e-06,0,-8.3445e-07,-9.95156e+08,-9.95049e+08,-9.95125e+08,-57243.2,-0.00940553,0.026256,-0,0.0278898,-24461,-36229.6,-0,43714.1,-57243.2
step02_gravity_refstate-crust.xmf,2108,-3.98369e-07,1.26133e-06,0,-5.65851e-07,-9.4749e+08,-9.47376e+08,-9.47463e+08,-38817.4,-0.00613539,0.0371342,-0,0.0376377,-28187.2,-34494.7,-0,44546.6,-38817.4
step02_gravity_refstate-crust.xmf,2109,-4.84216e-07,1.39943e-06,0,-4.83658e-07,-9.64675e+08,-9.64546e+08,-9.64642e+08,-33178.9,-0.00602491,0.0389178,-0,0.0393814,-29590,-35120.2,-0,45923.8,-33178.9
step02_gravity_refstate-crust.xmf,2110,-5.58785e-07,1.57858e-06,0,-2.71925e-07,-9.57153e+08,-9.57006e+08,-9.57115e+08,-18654,-0.00366379,0.044963,-0,0.045112,-33807.6,-34846.3,-0,48551.2,-18654
step02_gravity_refstate-crust.xmf,2111,-5.26346e-07,1.50021e-06,0,-3.70574e-07,-9.59794e+08,-9.59655e+08,-9.59758e+08,-25421.4,-0.00481815,0.0424544,-0,0.042727,-31755.2,-34942.5,-0,47216.2,-25421.4
step02_gravity_refstate-crust.xmf,2112,-5.90232e-07,1.64406e-06,0,-1.70515e-07,-9.57159e+08,-9.57005e+08,-9.57118e+08,-11697.3,-0.00240726,0.046719,-0,0.046781,-36005.4,-34846.5,-0,50106.5,-11697.3
step02_gravity_refstate-crust.xmf,2113,-5.44574e-07,1.6046e-06,0,-8.32495e-08,-9.32558e+08,-9.32411e+08,-9.32521e+08,-5710.91,-0.00106227,0.049133,-0,0.0491445,-38052.7,-33951,-0,50996.9,-5710.91
step02_gravity_refstate-crust.xmf,2114,-4.69571e-07,1.52294e-06,0,-1.17025e-09,-9.02873e+08,-9.02737e+08,-9.02841e+08,-80.2789,-1.95616e-19,0.0511308,-0,0.0511308,-40000,-32870.5,-0,51773.2,-80.2789
step02_gravity_refstate-crust.xmf,2115,-5.31387e-07,7.62306e-07,0,-1.45435e-06,-1.06531e+09,-1.06522e+09,-1.06528e+09,-99768.3,-0.0140872,0.00987783,-0,0.0172052,-20098.9,-38782.8,-0,43681.5,-99768.3
step02_gravity_refstate-crust.xmf,2116,-5.53922e-07,9.41082e-07,0,-1.23482e-06,-1.06432e+09,-1.06422e+09,-1.06428e+09,-84708.5,-0.0132749,0.014975,-0,0.0200118,-21559.9,-38746.9,-0,44341.3,-84708.5
step02_gravity_refstate-crust.xmf,2117,-5.23214e-07,1.12713e-06,0,-9.25906e-07,-1.02998e+09,-1.02986e+09,-1.02994e+09,-63517.1,-0.0109893,0.0230041,-0,0.0254942,-23796.3,-37496.9,-0,44410.4,-63517.1
step02_gravity_refstate-crust.xmf,2118,-4.82085e-07,1.24259e-06,0,-7.07673e-07,-9.94603e+08,-9.94484e+08,-9.9457e+08,-48546.4,-0.0086264,0.0304083,-0,0.0316082,-26092.5,-36209.5,-0,44631.2,-48546.4
step02_gravity_refstate-crust.xmf,2119,-5.25907e-07,1.37075e-06,0,-5.87227e-07,-9.94149e+08,-9.94019e+08,-9.94113e+08,-40283.8,-0.00772737,0.034233,-0,0.0350943,-27854.2,-36193,-0,45670.4,-40283.8
step02_gravity_refstate-crust.xmf,2120,-5.6413e-07,1.10144e-06,0,-1.04391e-06,-1.06464e+09,-1.06452e+09,-1.0646e+09,-71612.3,-0.0124421,0.019587,-0,0.0232047,-23081.7,-38758.6,-0,45110.9,-71612.3
step02_gravity_refstate-crust.xmf,2121,-5.52683e-07,1.26443e-06,0,-7.84898e-07,-1.02988e+09,-1.02975e+09,-1.02984e+09,-53844,-0.0101432,0.0270646,-0,0.0289029,-25363.9,-37493.4,-0,45266.8,-53844
step02_gravity_refstate-crust.xmf,2122,-6.34221e-07,1.60128e-06,0,-4.0724e-07,-1.00892e+09,-1.00877e+09,-1.00888e+09,-27936.7,-0.0063042,0.0386001,-0,0.0391115,-30953.2,-36730.8,-0,48033.9,-27936.7
step02_gravity_refstate-crust.xmf,2123,-6.83489e-07,1.74442e-06,0,-2.19016e-07,-1.00127e+09,-1.0011e+09,-1.00122e+09,-15024.5,-0.0036554,0.0431635,-0,0.043318,-34803.6,-36452.2,-0,50398.9,-15024.5
step02_gravity_refstate-crust.xmf,2124,-6.62852e-07,1.68544e-06,0,-3.06631e-07,-1.0049e+09,-1.00474e+09,-1.00486e+09,-21034.9,-0.00495833,0.0412364,-0,0.0415335,-32931.1,-36584.4,-0,49222.7,-21034.9
step02_gravity_refstate-crust.xmf,2125,-7.03536e-07,1.80051e-06,0,-8.66317e-08,-9.97391e+08,-9.97219e+08,-9.97342e+08,-5942.93,-0.00150062,0.045059,-0,0.0450839,-37871.2,-36310.9,-0,52466.3,-5942.93
step02_gravity_refstate-crust.xmf,2126,-6.40041e-07,1.72533e-06,0,-1.60142e-09,-9.6815e+08,-9.67988e+08,-9.68107e+08,-109.858,-2.81425e-19,0.0472719,-0,0.0472719,-40000,-35246.6,-0,53313.4,-109.858
step02_gravity_refstate-crust.xmf,2127,-5.9779e-07,1.26471e-06,0,-8.72278e-07,-1.06543e+09,-1.0653e+09,-1.06539e+09,-59838.2,-0.0115186,0.0238326,-0,0.0264702,-24707.2,-38787.6,-0,45988.3,-59838.2
step02_gravity_refstate-crust.xmf,2128,-6.14964e-07,1.52531e-06,0,-5.0317e-07,-1.01691e+09,-1.01676e+09,-1.01687e+09,-34517.5,-0.0075091,0.0356383,-0,0.0364208,-29292,-37021.4,-0,47208.1,-34517.5
step02_gravity_refstate-crust.xmf,2129,-5.80744e-07,1.37827e-06,0,-6.64764e-07,-1.02674e+09,-1.02661e+09,-1.02671e+09,-45602.8,-0.00921409,0.0305499,-0,0.0319092,-26847.1,-37379.5,-0,46021.6,-45602.8
step02_gravity_refstate-crust.xmf,2130,-6.91641e-07,1.77617e-06,0,-1.56502e-07,-9.99468e+08,-9.99299e+08,-9.99421e+08,-10736.1,-0.00263495,0.0442359,-0,0.0443143,-36264.1,-36386.6,-0,51371.8,-10736.1
step02_gravity_refstate-crust.xmf,2131,-6.33033e-07,1.41115e-06,0,-7.22519e-07,-1.06315e+09,-1.06301e+09,-1.06311e+09,-49564.8,-0.0104458,0.0276829,-0,0.0295882,-26360.9,-38704.7,-0,46829,-49564.8
step02_gravity_refstate-crust.xmf,2132,-7.12541e-07,1.67322e-06,0,-4.57203e-07,-1.05511e+09,-1.05495e+09,-1.05506e+09,-31364.1,-0.00775853,0.0346845,-0,0.0355417,-30119.7,-38412.1,-0,48812.8,-31364.1
step02_gravity_refstate-crust.xmf,2133,-6.62434e-07,1.53105e-06,0,-5.82212e-07,-1.05068e+09,-1.05053e+09,-1.05063e+09,-39939.7,-0.00900361,0.0318177,-0,0.0330671,-28157.3,-38250.6,-0,47496.8,-39939.7
step02_gravity_refstate-crust.xmf,2134,-7.47787e-07,1.77739e-06,0,-3.481e-07,-1.05255e+09,-1.05238e+09,-1.0525e+09,-23879.7,-0.00629409,0.0373172,-0,0.0378443,-32082.2,-38318.9,-0,49976.1,-23879.7
step02_gravity_refstate-crust.xmf,2135,-7.91181e-07,1.90709e-06,0,-1.48638e-07,-1.04205e+09,-1.04187e+09,-1.042e+09,-10196.6,-0.00288565,0.0414403,-0,0.0415406,-36376.1,-37936.8,-0,52558.7,-10196.6
step02_gravity_refstate-crust.xmf,2136,-7.78233e-07,1.8621e-06,0,-2.45315e-07,-1.04972e+09,-1.04954e+09,-1.04967e+09,-16828.6,-0.00466386,0.0395014,-0,0.0397758,-34184.6,-38215.9,-0,51274.1,-16828.6
step02_gravity_refstate-crust.xmf,2137,-7.86451e-07,1.9211e-06,0,-4.09566e-10,-1.03343e+09,-1.03324e+09,-1.03337e+09,-28.0962,-2.57489e-19,0.0429381,-0,0.0429381,-40000,-37622.7,-0,54913.3,-28.0962
step02_gravity_refstate-crust.xmf,2138,-8.25601e-07,1.97369e-06,0,-6.50948e-08,-1.05357e+09,-1.05337e+09,-1.05351e+09,-4465.5,-0.00135231,0.0413302,-0,0.0413523,-38357.6,-38355.8,-0,54244.5,-4465.5
