Block Name,Point ID,cauchy_strain_0,cauchy_strain_1,cauchy_strain_2,cauchy_strain_3,cauchy_stress_0,cauchy_stress_1,cauchy_stress_2,cauchy_stress_3,displacement_0,displacement_1,displacement_2,displacement_Magnitude,Points_0,Points_1,Points_2,Points_Magnitude,stress_xy
step02_gravity_refstate-mantle.xmf,0,-1.51698e-06,9.19319e-07,0,-8.62488e-08,-1.09897e+09,-1.09865e+09,-1.09877e+09,-11527.1,-0.00335232,0.0314021,-0,0.0315805,-37797.2,-40000,-0,55033,11527.1
step02_gravity_refstate-mantle.xmf,1,-1.52684e-06,9.31965e-07,0,-1.48524e-09,-1.09897e+09,-1.09864e+09,-1.09877e+09,-198.502,4.84085e-20,0.0318986,0,0.0318986,-40000,-40000,-0,56568.5,198.502
step02_gravity_refstate-mantle.xmf,2,-1.69985e-06,1.03297e-06,0,-5.38201e-08,-1.14581e+09,-1.14544e+09,-1.14558e+09,-7193.05,-0.00246292,0.0302695,-0,0.0303695,-38553.2,-41445.8,-0,56604.8,7193.05
step02_gravity_refstate-mantle.xmf,3,-1.78452e-06,1.08978e-06,0,-1.5289e-09,-1.16711e+09,-1.16673e+09,-1.16687e+09,-204.337,5.48789e-20,0.0297733,0,0.0297733,-40000,-42103.5,-0,58075,204.337
step02_gravity_refstate-mantle.xmf,4,-1.74718e-06,1.04019e-06,0,-1.24519e-07,-1.16169e+09,-1.16132e+09,-1.16146e+09,-16641.9,-0.00586726,0.0288803,-0,0.0294702,-36658.6,-41936.3,-0,55700.2,16641.9
step02_gravity_refstate-mantle.xmf,5,-1.90512e-06,1.15943e-06,0,-5.87338e-08,-1.20227e+09,-1.20186e+09,-1.20202e+09,-7849.77,-0.00322262,0.0282858,-0,0.0284688,-38310.2,-43189,-0,57731.8,7849.77
step02_gravity_refstate-mantle.xmf,6,-1.49151e-06,8.73258e-07,0,-1.75335e-07,-1.09897e+09,-1.09865e+09,-1.09877e+09,-23433.5,-0.00650781,0.0299929,-0,0.0306908,-35698.5,-40000,-0,53613.3,23433.5
step02_gravity_refstate-mantle.xmf,7,-2.02678e-06,1.24579e-06,0,-2.39732e-09,-1.23579e+09,-1.23535e+09,-1.23552e+09,-320.402,7.48428e-20,0.0272985,0,0.0272985,-40000,-44223.8,-0,59630.1,320.402
step02_gravity_refstate-mantle.xmf,8,-1.45064e-06,8.04272e-07,0,-2.6526e-07,-1.09897e+09,-1.09867e+09,-1.09877e+09,-35452,-0.00944605,0.0277696,-0,0.0293322,-33698.8,-40000,-0,52303,35452
step02_gravity_refstate-mantle.xmf,9,-1.68586e-06,9.63272e-07,0,-2.04828e-07,-1.15375e+09,-1.15339e+09,-1.15352e+09,-27375.2,-0.00910082,0.0274661,-0,0.0289346,-34698.6,-41691,-0,54241.4,27375.2
step02_gravity_refstate-mantle.xmf,10,-1.98257e-06,1.18875e-06,0,-1.13192e-07,-1.22761e+09,-1.22718e+09,-1.22734e+09,-15128.1,-0.00651446,0.0266569,-0,0.0274413,-36726.1,-43971.1,-0,57291,15128.1
step02_gravity_refstate-mantle.xmf,11,-2.14867e-06,1.31492e-06,0,-7.06084e-08,-1.27549e+09,-1.27503e+09,-1.2752e+09,-9436.81,-0.00445175,0.0253636,-0,0.0257513,-37928.1,-45449.3,-0,59196.1,9436.81
step02_gravity_refstate-mantle.xmf,12,-1.40065e-06,7.15372e-07,0,-3.60594e-07,-1.09896e+09,-1.09868e+09,-1.09878e+09,-48193.4,-0.0121584,0.0248063,-0,0.0276257,-31793.3,-40000,-0,51096.1,48193.4
step02_gravity_refstate-mantle.xmf,13,-1.61749e-06,8.66059e-07,0,-2.9537e-07,-1.14607e+09,-1.14574e+09,-1.14585e+09,-39476.2,-0.012134,0.0252191,-0,0.0279864,-32750.4,-41454,-0,52830.1,39476.2
step02_gravity_refstate-mantle.xmf,14,-1.34471e-06,6.09781e-07,0,-4.63577e-07,-1.09896e+09,-1.0987e+09,-1.09878e+09,-61957,-0.0146448,0.0211594,-0,0.0257331,-29977.6,-40000,-0,49986.5,61957
step02_gravity_refstate-mantle.xmf,15,-1.56833e-06,7.63452e-07,0,-3.94062e-07,-1.14553e+09,-1.14522e+09,-1.14532e+09,-52666.4,-0.015064,0.0220845,-0,0.0267329,-30896.6,-41437.5,-0,51688.1,52666.4
step02_gravity_refstate-mantle.xmf,16,-1.28613e-06,4.90398e-07,0,-5.76647e-07,-1.09896e+09,-1.09872e+09,-1.09879e+09,-77068.9,-0.0169127,0.0168726,-0,0.0238898,-28247.1,-40000,-0,48968.3,77068.9
step02_gravity_refstate-mantle.xmf,17,-1.514e-06,6.4078e-07,0,-5.07904e-07,-1.14517e+09,-1.14488e+09,-1.14497e+09,-67881.4,-0.017845,0.0181852,-0,0.0254784,-29077.2,-41426.4,-0,50612.5,67881.4
step02_gravity_refstate-mantle.xmf,18,-1.9232e-06,1.11443e-06,0,-1.83499e-07,-1.21858e+09,-1.21817e+09,-1.21832e+09,-24524.7,-0.00995568,0.0255869,-0,0.0274555,-34896.4,-43692.3,-0,55917.6,24524.7
step02_gravity_refstate-mantle.xmf,19,-2.24483e-06,1.39501e-06,0,-2.47163e-09,-1.30519e+09,-1.3047e+09,-1.30489e+09,-330.334,7.38685e-20,0.0244705,0,0.0244705,-40000,-46366.4,-0,61235.9,330.334
step02_gravity_refstate-mantle.xmf,20,-1.22757e-06,3.5936e-07,0,-7.01962e-07,-1.09896e+09,-1.09874e+09,-1.09879e+09,-93817.2,-0.0189751,0.0119795,-0,0.0224403,-26597.7,-40000,-0,48035.8,93817.2
step02_gravity_refstate-mantle.xmf,21,-1.45929e-06,5.04751e-07,0,-6.356e-07,-1.14489e+09,-1.14463e+09,-1.1447e+09,-84947.9,-0.0203676,0.0136997,-0,0.0245463,-27363.6,-41417.7,-0,49640.7,84947.9
step02_gravity_refstate-mantle.xmf,22,-1.79086e-06,9.94678e-07,0,-2.44784e-07,-1.1881e+09,-1.18773e+09,-1.18786e+09,-32715.4,-0.0117762,0.0251493,-0,0.0277698,-33584.2,-42751.5,-0,54365.3,32715.4
step02_gravity_refstate-mantle.xmf,23,-2.1366e-06,1.26971e-06,0,-1.43636e-07,-1.27886e+09,-1.27841e+09,-1.27858e+09,-19197,-0.0089819,0.0241318,-0,0.0257491,-35824.5,-45553.6,-0,57952.8,19197
step02_gravity_refstate-mantle.xmf,24,-2.36039e-06,1.4689e-06,0,-6.2201e-08,-1.34988e+09,-1.34937e+09,-1.34957e+09,-8313.17,-0.00446715,0.0222232,-0,0.0226678,-38107.6,-47746.3,-0,61089.3,8313.17
step02_gravity_refstate-mantle.xmf,25,-1.17146e-06,2.18852e-07,0,-8.41945e-07,-1.09896e+09,-1.09877e+09,-1.0988e+09,-112526,-0.0208493,0.00650738,-0,0.0218413,-25025.6,-40000,-0,47183.5,112526
step02_gravity_refstate-mantle.xmf,26,-1.39698e-06,3.58854e-07,0,-7.72684e-07,-1.14204e+09,-1.14181e+09,-1.14185e+09,-103269,-0.0224203,0.00891716,-0,0.0241285,-25811.7,-41329.8,-0,48727.7,103269
step02_gravity_refstate-mantle.xmf,27,-1.76484e-06,9.08699e-07,0,-3.33767e-07,-1.19084e+09,-1.19048e+09,-1.1906e+09,-44608,-0.0149571,0.0225713,-0,0.0270773,-31833.4,-42836.1,-0,53369.4,44608
step02_gravity_refstate-mantle.xmf,28,-1.71918e-06,7.89706e-07,0,-4.42823e-07,-1.19191e+09,-1.19158e+09,-1.19168e+09,-59183.4,-0.0182082,0.0191594,-0,0.0264314,-29982.3,-42869.3,-0,52313.6,59183.4
step02_gravity_refstate-mantle.xmf,29,-1.66453e-06,6.44487e-07,0,-5.72841e-07,-1.19221e+09,-1.19191e+09,-1.19199e+09,-76560.2,-0.0212946,0.0150002,-0,0.0260474,-28158.3,-42878.5,-0,51297.7,76560.2
step02_gravity_refstate-mantle.xmf,30,-1.93612e-06,1.05289e-06,0,-2.73118e-07,-1.23469e+09,-1.23429e+09,-1.23443e+09,-36502.2,-0.0142374,0.022739,-0,0.0268284,-32849.9,-44189.7,-0,55062.2,36502.2
step02_gravity_refstate-mantle.xmf,31,-2.11408e-06,1.2035e-06,0,-2.17362e-07,-1.28441e+09,-1.28396e+09,-1.28413e+09,-29050.4,-0.0130797,0.0222873,-0,0.0258419,-33934.8,-45724.8,-0,56941.5,29050.4
step02_gravity_refstate-mantle.xmf,32,-2.27915e-06,1.38639e-06,0,-1.11782e-07,-1.32717e+09,-1.32668e+09,-1.32687e+09,-14939.6,-0.00790595,0.0226002,-0,0.0239431,-36554.7,-47045.2,-0,59577.7,14939.6
step02_gravity_refstate-mantle.xmf,33,-2.4304e-06,1.5433e-06,0,9.60666e-10,-1.37548e+09,-1.37495e+09,-1.37515e+09,128.393,-2.75867e-19,0.0212917,-0,0.0212917,-40000,-48536.8,-0,62895.3,128.393
step02_gravity_refstate-mantle.xmf,34,-2.58619e-06,1.66798e-06,0,-2.84235e-09,-1.44684e+09,-1.44627e+09,-1.4465e+09,-379.88,7.26512e-20,0.0177624,0,0.0177624,-40000,-50740.5,-0,64611.1,379.88
step02_gravity_refstate-mantle.xmf,35,-2.51929e-06,1.60629e-06,0,-5.30017e-08,-1.41841e+09,-1.41786e+09,-1.41807e+09,-7083.68,-0.00481433,0.0189744,-0,0.0195757,-38090.7,-49862.5,-0,62746.8,7083.68
step02_gravity_refstate-mantle.xmf,36,-1.1104e-06,7.27556e-08,0,-9.91851e-07,-1.09895e+09,-1.0988e+09,-1.09881e+09,-132561,-0.022554,0.000477814,-0,0.0225591,-23526.8,-40000,-0,46405.9,132561
step02_gravity_refstate-mantle.xmf,37,-1.32795e-06,1.92388e-07,0,-9.33629e-07,-1.13931e+09,-1.13911e+09,-1.13913e+09,-124780,-0.0243699,0.00329831,-0,0.0245921,-24254,-41245.5,-0,47848.2,124780
step02_gravity_refstate-mantle.xmf,38,-1.60085e-06,4.66191e-07,0,-7.35846e-07,-1.19199e+09,-1.19172e+09,-1.19178e+09,-98345.8,-0.0243212,0.00981411,-0,0.0262266,-26289.5,-42871.7,-0,50290.4,98345.8
step02_gravity_refstate-mantle.xmf,39,-2.29055e-06,1.34952e-06,0,-1.73349e-07,-1.33992e+09,-1.33944e+09,-1.33962e+09,-23168.1,-0.0118137,0.0209824,-0,0.0240796,-34906.7,-47438.8,-0,58897.6,23168.1
step02_gravity_refstate-mantle.xmf,40,-2.43622e-06,1.48801e-06,0,-1.27849e-07,-1.39113e+09,-1.39061e+09,-1.3908e+09,-17087,-0.00975728,0.0194748,-0,0.0217824,-36021,-49020,-0,60831.6,17087
step02_gravity_refstate-mantle.xmf,41,-2.64711e-06,1.71908e-06,0,-4.75477e-08,-1.48712e+09,-1.48654e+09,-1.48677e+09,-6354.75,-0.00481417,0.0154752,-0,0.0162068,-38183.3,-51984.3,-0,64500.7,6354.75
step02_gravity_refstate-mantle.xmf,42,-2.70657e-06,1.79379e-06,0,-3.44605e-09,-1.51946e+09,-1.51886e+09,-1.5191e+09,-460.564,7.65641e-20,0.0138815,0,0.0138815,-40000,-52983,-0,66386.8,460.564
step02_gravity_refstate-mantle.xmf,43,-1.2565e-06,2.90158e-08,0,-1.10158e-06,-1.13455e+09,-1.13438e+09,-1.13438e+09,-147226,-0.0259253,-0.00274952,-0,0.0260707,-22803.3,-41098.4,-0,47000.7,147226
step02_gravity_refstate-mantle.xmf,44,-1.52288e-06,2.76652e-07,0,-9.1434e-07,-1.18975e+09,-1.18951e+09,-1.18954e+09,-122202,-0.0268983,0.00408523,-0,0.0272068,-24559.4,-42802.3,-0,49347.8,122202
step02_gravity_refstate-mantle.xmf,45,-1.90418e-06,9.37232e-07,0,-3.79972e-07,-1.23872e+09,-1.23834e+09,-1.23847e+09,-50783.2,-0.0180132,0.0197113,-0,0.0267023,-30937.1,-44314.4,-0,54045,50783.2
step02_gravity_refstate-mantle.xmf,46,-1.84677e-06,7.86983e-07,0,-5.06102e-07,-1.23922e+09,-1.23887e+09,-1.23897e+09,-67640.6,-0.0215739,0.0160277,-0,0.026876,-29041.3,-44329.6,-0,52995.4,67640.6
step02_gravity_refstate-mantle.xmf,47,-1.78389e-06,6.11224e-07,0,-6.55489e-07,-1.24038e+09,-1.24006e+09,-1.24014e+09,-87606.2,-0.0249077,0.0116587,-0,0.0275013,-27222.2,-44365.5,-0,52051.4,87606.2
step02_gravity_refstate-mantle.xmf,48,-2.07148e-06,1.08947e-06,0,-3.14255e-07,-1.28711e+09,-1.28668e+09,-1.28683e+09,-42000.1,-0.0173145,0.0197661,-0,0.0262772,-31938.3,-45808.2,-0,55843,42000.1
step02_gravity_refstate-mantle.xmf,49,-2.23779e-06,1.2409e-06,0,-2.5626e-07,-1.34033e+09,-1.33986e+09,-1.34003e+09,-34249.1,-0.016306,0.0190976,-0,0.0251118,-32923.7,-47451.4,-0,57754.7,34249.1
step02_gravity_refstate-mantle.xmf,50,-2.57955e-06,1.63235e-06,0,-9.6775e-08,-1.46341e+09,-1.46284e+09,-1.46306e+09,-12934,-0.00945584,0.0161661,-0,0.0187284,-36363.8,-51252,-0,62841.8,12934
step02_gravity_refstate-mantle.xmf,51,-2.7416e-06,1.83279e-06,0,-4.14923e-08,-1.55654e+09,-1.55593e+09,-1.55618e+09,-5545.45,-0.00526476,0.0116507,-0,0.012785,-38082.9,-54128.4,-0,66183,5545.45
step02_gravity_refstate-mantle.xmf,52,-1.07656e-06,-8.97493e-08,0,-1.17378e-06,-1.09896e+09,-1.09883e+09,-1.09882e+09,-156875,-0.0241107,-0.00609162,-0,0.0248684,-22097.7,-40000,-0,45698,156875
step02_gravity_refstate-mantle.xmf,53,-1.40129e-06,1.2373e-07,0,-1.03985e-06,-1.16634e+09,-1.16614e+09,-1.16616e+09,-138976,-0.0271618,-6.94166e-05,-0,0.0271619,-23445.1,-42079.9,-0,48170.4,138976
step02_gravity_refstate-mantle.xmf,54,-1.70773e-06,4.05585e-07,0,-8.33248e-07,-1.23962e+09,-1.23934e+09,-1.23939e+09,-111364,-0.0279349,0.0066116,-0,0.0287066,-25461.8,-44342.1,-0,51132.4,111364
step02_gravity_refstate-mantle.xmf,55,-2.38354e-06,1.37642e-06,0,-2.10157e-07,-1.39194e+09,-1.39144e+09,-1.39162e+09,-28087.4,-0.0150686,0.0178966,-0,0.0233955,-33816.5,-49045.1,-0,59573.3,28087.4
step02_gravity_refstate-mantle.xmf,56,-2.67097e-06,1.73094e-06,0,-7.52726e-08,-1.52062e+09,-1.52003e+09,-1.52027e+09,-10060.2,-0.00897548,0.0133112,-0,0.0160545,-36666.8,-53019.1,-0,64463,10060.2
step02_gravity_refstate-mantle.xmf,57,-2.79298e-06,1.91568e-06,0,-3.45852e-09,-1.5935e+09,-1.59287e+09,-1.59313e+09,-462.231,7.72178e-20,0.00963957,0,0.00963957,-40000,-55270.1,-0,68225.9,462.231
step02_gravity_refstate-mantle.xmf,58,-9.86489e-07,-8.36925e-07,0,-2.12685e-06,-1.099e+09,-1.09898e+09,-1.09887e+09,-284254,-0.0292555,-0.03749,-0,0.047554,-17010.7,-40000,-0,43466.8,284254
step02_gravity_refstate-mantle.xmf,59,-9.97208e-07,-6.27257e-07,0,-1.8454e-06,-1.09899e+09,-1.09894e+09,-1.09885e+09,-246638,-0.0280966,-0.0288954,-0,0.0403034,-18194.5,-40000,-0,43943.6,246638
step02_gravity_refstate-mantle.xmf,60,-1.09405e-06,-7.69669e-07,0,-2.05565e-06,-1.12791e+09,-1.12787e+09,-1.12777e+09,-274738,-0.0314832,-0.0324699,-0,0.0452271,-17594.1,-40892.5,-0,44516.9,274738
step02_gravity_refstate-mantle.xmf,61,-9.80437e-07,-1.07129e-06,0,-2.44367e-06,-1.09902e+09,-1.09903e+09,-1.09889e+09,-326597,-0.0303516,-0.0465636,-0,0.0555822,-15880.5,-40000,-0,43037.1,326597
step02_gravity_refstate-mantle.xmf,62,-1.07568e-06,-1.03507e-06,0,-2.39131e-06,-1.12737e+09,-1.12737e+09,-1.12723e+09,-319599,-0.0327229,-0.0414323,-0,0.0527961,-16396.8,-40875.2,-0,44041.3,319599
step02_gravity_refstate-mantle.xmf,63,-9.69706e-07,-1.33972e-06,0,-2.79752e-06,-1.09904e+09,-1.09909e+09,-1.09891e+09,-373888,-0.031391,-0.0561058,-0,0.0642904,-14800.9,-40000,-0,42650.5,373888
step02_gravity_refstate-mantle.xmf,64,-1.044e-06,-1.32092e-06,0,-2.75232e-06,-1.12553e+09,-1.12557e+09,-1.12539e+09,-367848,-0.0337341,-0.0509073,-0,0.0610699,-15258.6,-40817.9,-0,43576.6,367848
step02_gravity_refstate-mantle.xmf,65,-1.04281e-06,-2.56036e-07,0,-1.37221e-06,-1.09897e+09,-1.09886e+09,-1.09883e+09,-183395,-0.0255409,-0.013185,-0,0.0287434,-20734.8,-40000,-0,45054.8,183395
step02_gravity_refstate-mantle.xmf,66,-1.22312e-06,-1.55863e-07,0,-1.31179e-06,-1.13427e+09,-1.13413e+09,-1.13411e+09,-175321,-0.027643,-0.00946,-0,0.0292169,-21395.2,-41089.6,-0,46326.2,175321
step02_gravity_refstate-mantle.xmf,67,-1.01597e-06,-4.34798e-07,0,-1.59517e-06,-1.09898e+09,-1.0989e+09,-1.09884e+09,-213194,-0.0268633,-0.0207902,-0,0.0339686,-19434.8,-40000,-0,44471.5,213194
step02_gravity_refstate-mantle.xmf,68,-1.13755e-06,-5.62305e-07,0,-1.79457e-06,-1.13053e+09,-1.13045e+09,-1.13038e+09,-239845,-0.0304038,-0.0244519,-0,0.0390165,-18776.2,-40973.6,-0,45070.9,239845
step02_gravity_refstate-mantle.xmf,69,-1.185e-06,-3.56951e-07,0,-1.55107e-06,-1.13364e+09,-1.13353e+09,-1.13348e+09,-207301,-0.0292486,-0.0169553,-0,0.0338077,-20006.7,-41069.8,-0,45683.7,207301
step02_gravity_refstate-mantle.xmf,70,-1.36306e-06,-5.06212e-08,0,-1.23028e-06,-1.16901e+09,-1.16884e+09,-1.16883e+09,-164427,-0.0291809,-0.00589254,-0,0.0297699,-22108,-42162.1,-0,47606.8,164427
step02_gravity_refstate-mantle.xmf,71,-1.49216e-06,6.05967e-08,0,-1.13635e-06,-1.20211e+09,-1.20191e+09,-1.20191e+09,-151873,-0.0300692,-0.00234561,-0,0.0301606,-22916.7,-43184,-0,48888,151873
step02_gravity_refstate-mantle.xmf,72,-1.62129e-06,1.80291e-07,0,-1.03298e-06,-1.24042e+09,-1.24018e+09,-1.2402e+09,-138058,-0.0307555,0.000917657,-0,0.0307692,-23786.1,-44366.6,-0,50340.6,138058
step02_gravity_refstate-mantle.xmf,73,-2.01789e-06,9.36211e-07,0,-4.35392e-07,-1.28852e+09,-1.28812e+09,-1.28825e+09,-58190.1,-0.0213094,0.0166184,-0,0.0270234,-29999.8,-45851.7,-0,54793.9,58190.1
step02_gravity_refstate-mantle.xmf,74,-1.94679e-06,7.53552e-07,0,-5.75418e-07,-1.28979e+09,-1.28942e+09,-1.28953e+09,-76904.6,-0.0250416,0.0128261,-0,0.0281352,-28131,-45890.9,-0,53826.8,76904.6
step02_gravity_refstate-mantle.xmf,75,-1.86026e-06,5.36965e-07,0,-7.43909e-07,-1.28894e+09,-1.28862e+09,-1.28869e+09,-99423.4,-0.0284364,0.00840922,-0,0.0296538,-26324.1,-45864.8,-0,52882.3,99423.4
step02_gravity_refstate-mantle.xmf,76,-2.1752e-06,1.09477e-06,0,-3.58605e-07,-1.34129e+09,-1.34085e+09,-1.341e+09,-47927.6,-0.0205883,0.0165871,-0,0.0264388,-30991.8,-47481.2,-0,56700.6,47927.6
step02_gravity_refstate-mantle.xmf,77,-2.31598e-06,1.24086e-06,0,-2.92597e-07,-1.39235e+09,-1.39187e+09,-1.39204e+09,-39105.7,-0.0194951,0.0159842,-0,0.0252102,-31933.8,-49057.9,-0,58535.8,39105.7
step02_gravity_refstate-mantle.xmf,78,-2.50945e-06,1.50102e-06,0,-1.72743e-07,-1.44895e+09,-1.44842e+09,-1.44862e+09,-23087,-0.014343,0.0158082,-0,0.0213453,-34393.4,-50805.8,-0,61352.5,23087
step02_gravity_refstate-mantle.xmf,79,-2.61672e-06,1.63412e-06,0,-1.26197e-07,-1.51404e+09,-1.51347e+09,-1.51369e+09,-16866.2,-0.0137625,0.0129271,-0,0.0188816,-34841.3,-52815.8,-0,63272.7,16866.2
step02_gravity_refstate-mantle.xmf,80,-2.72906e-06,1.79506e-06,0,-7.78925e-08,-1.58395e+09,-1.58334e+09,-1.58358e+09,-10410.3,-0.0112238,0.00964856,-0,0.0148009,-35935.1,-54975,-0,65677.9,10410.3
step02_gravity_refstate-mantle.xmf,81,-2.81062e-06,1.95015e-06,0,-2.8827e-08,-1.62906e+09,-1.62843e+09,-1.62869e+09,-3852.74,-0.00545079,0.00741263,-0,0.00920099,-38062.5,-56368.5,-0,68015.8,3852.74
step02_gravity_refstate-mantle.xmf,82,-2.84379e-06,2.03582e-06,0,-1.59445e-09,-1.66916e+09,-1.66851e+09,-1.66878e+09,-213.098,6.64901e-20,0.00502009,0,0.00502009,-40000,-57607.2,-0,70132.6,213.098
step02_gravity_refstate-mantle.xmf,83,-9.44886e-07,-1.64024e-06,0,-3.18079e-06,-1.09906e+09,-1.09915e+09,-1.09893e+09,-425113,-0.0323738,-0.0661045,-0,0.0736062,-13769.1,-40000,-0,42303.5,425113
step02_gravity_refstate-mantle.xmf,84,-9.91664e-07,-1.58346e-06,0,-3.07034e-06,-1.12013e+09,-1.12021e+09,-1.12e+09,-410351,-0.0341299,-0.0595741,-0,0.068658,-14328.8,-40650.8,-0,43102.2,410351
step02_gravity_refstate-mantle.xmf,85,-1.18423e-06,-7.05931e-07,0,-1.97004e-06,-1.1535e+09,-1.15343e+09,-1.15334e+09,-263295,-0.032983,-0.0276459,-0,0.0430369,-18214.5,-41682.3,-0,45488.3,263295
step02_gravity_refstate-mantle.xmf,86,-1.13828e-06,-9.67825e-07,0,-2.2826e-06,-1.15473e+09,-1.15471e+09,-1.15458e+09,-305070,-0.0344758,-0.0359133,-0,0.049783,-17013.8,-41720,-0,45055.9,305070
step02_gravity_refstate-mantle.xmf,87,-1.75285e-06,2.88218e-07,0,-9.38761e-07,-1.28498e+09,-1.28471e+09,-1.28475e+09,-125465,-0.0313608,0.00343736,-0,0.0315486,-24613.4,-45742.6,-0,51944.3,125465
step02_gravity_refstate-mantle.xmf,88,-2.4254e-06,1.36244e-06,0,-2.40242e-07,-1.4368e+09,-1.43629e+09,-1.43647e+09,-32108.3,-0.0182561,0.0150427,-0,0.0236552,-32747.2,-50430.5,-0,60130,32108.3
step02_gravity_refstate-mantle.xmf,89,-2.8416e-06,2.05974e-06,0,-7.37819e-09,-1.69315e+09,-1.6925e+09,-1.69277e+09,-986.095,-0.00479167,0.00346498,-0,0.00591323,-38317.2,-58348.2,-0,69804.9,986.095
step02_gravity_refstate-mantle.xmf,90,-2.86431e-06,2.16955e-06,0,8.35545e-12,-1.74662e+09,-1.74595e+09,-1.74624e+09,1.11671,-4.4528e-19,-4.02034e-20,-0,4.47091e-19,-40000,-60000,-0,72111,1.11671
step02_gravity_refstate-mantle.xmf,91,-6.39688e-07,-3.56452e-06,0,-5.18202e-06,-1.09915e+09,-1.09954e+09,-1.09907e+09,-692577,-0.0355031,-0.110334,-0,0.115905,-10064.5,-40000,-0,41246.8,692577
step02_gravity_refstate-mantle.xmf,92,-7.88774e-07,-2.94662e-06,0,-4.62877e-06,-1.09913e+09,-1.09942e+09,-1.09903e+09,-618636,-0.0348865,-0.0986854,-0,0.10467,-10932.8,-40000,-0,41467.2,618636
step02_gravity_refstate-mantle.xmf,93,-6.18554e-07,-3.4496e-06,0,-4.97342e-06,-1.11583e+09,-1.11621e+09,-1.11575e+09,-664698,-0.0369352,-0.102521,-0,0.108972,-10510.5,-40515.6,-0,41856.8,664698
step02_gravity_refstate-mantle.xmf,94,-8.85968e-07,-2.43131e-06,0,-4.11185e-06,-1.09911e+09,-1.09932e+09,-1.09899e+09,-549549,-0.0341398,-0.0874128,-0,0.0938431,-11837.8,-40000,-0,41714.9,549549
step02_gravity_refstate-mantle.xmf,95,-7.4467e-07,-2.96619e-06,0,-4.52857e-06,-1.12045e+09,-1.12075e+09,-1.12035e+09,-605243,-0.036862,-0.0923223,-0,0.0994094,-11284.3,-40658.8,-0,42195.7,605243
step02_gravity_refstate-mantle.xmf,96,-9.43778e-07,-1.95218e-06,0,-3.47546e-06,-1.12613e+09,-1.12626e+09,-1.126e+09,-464495,-0.0356286,-0.0683273,-0,0.0770585,-13402,-40835.3,-0,42978.4,464495
step02_gravity_refstate-mantle.xmf,97,-1.08424e-06,-1.3185e-06,0,-2.68241e-06,-1.15545e+09,-1.15548e+09,-1.1553e+09,-358504,-0.0359377,-0.0456032,-0,0.0580618,-15745.9,-41741.6,-0,44612.8,358504
step02_gravity_refstate-mantle.xmf,98,-9.99445e-07,-1.72843e-06,0,-3.15225e-06,-1.1509e+09,-1.15099e+09,-1.15076e+09,-421299,-0.036927,-0.0572173,-0,0.0680987,-14413.2,-41600.6,-0,44026.7,421299
step02_gravity_refstate-mantle.xmf,99,-1.32207e-06,-2.85658e-07,0,-1.4902e-06,-1.17049e+09,-1.17035e+09,-1.17032e+09,-199166,-0.0312707,-0.0132135,-0,0.0339478,-20621,-42207.5,-0,46975.5,199166
step02_gravity_refstate-mantle.xmf,100,-1.25929e-06,-5.57243e-07,0,-1.8018e-06,-1.16803e+09,-1.16794e+09,-1.16787e+09,-240810,-0.0330673,-0.0219314,-0,0.0396791,-19077.5,-42131.3,-0,46249.3,240810
step02_gravity_refstate-mantle.xmf,101,-1.20809e-06,-8.86548e-07,0,-2.1531e-06,-1.18055e+09,-1.1805e+09,-1.18038e+09,-287761,-0.0356598,-0.030274,-0,0.0467775,-17716.8,-42517.2,-0,46060.8,287761
step02_gravity_refstate-mantle.xmf,102,-1.42887e-06,-1.78939e-07,0,-1.37949e-06,-1.20466e+09,-1.20449e+09,-1.20446e+09,-184369,-0.0324278,-0.00905087,-0,0.0336672,-21404.2,-43262.3,-0,48267.7,184369
step02_gravity_refstate-mantle.xmf,103,-1.53753e-06,-7.90406e-08,0,-1.27001e-06,-1.2425e+09,-1.2423e+09,-1.24229e+09,-169737,-0.0333695,-0.00534019,-0,0.0337941,-22197.3,-44430.8,-0,49667,169737
step02_gravity_refstate-mantle.xmf,104,-1.63912e-06,2.98613e-08,0,-1.14966e-06,-1.28141e+09,-1.28119e+09,-1.28119e+09,-153653,-0.033913,-0.00205068,-0,0.033975,-23017,-45632.5,-0,51108.8,153653
step02_gravity_refstate-mantle.xmf,105,-2.09933e-06,9.03416e-07,0,-4.90178e-07,-1.34217e+09,-1.34177e+09,-1.34189e+09,-65512.3,-0.0247013,0.0134083,-0,0.0281058,-29075.2,-47508.3,-0,55699.2,65512.3
step02_gravity_refstate-mantle.xmf,106,-1.85723e-06,3.59352e-07,0,-8.61869e-07,-1.3409e+09,-1.34061e+09,-1.34066e+09,-115189,-0.0325212,0.00435423,-0,0.0328114,-25106.2,-47469.6,-0,53699.9,115189
step02_gravity_refstate-mantle.xmf,107,-1.99877e-06,6.7269e-07,0,-6.45417e-07,-1.34274e+09,-1.34239e+09,-1.34248e+09,-86260,-0.028564,0.00955577,-0,0.03012,-27193.4,-47526.3,-0,54756.1,86260
step02_gravity_refstate-mantle.xmf,108,-2.23669e-06,1.06385e-06,0,-3.97845e-07,-1.39561e+09,-1.39517e+09,-1.39531e+09,-53172,-0.0238573,0.0133938,-0,0.0273599,-30044.9,-49158.7,-0,57613.2,53172
step02_gravity_refstate-mantle.xmf,109,-2.36828e-06,1.22802e-06,0,-3.10545e-07,-1.44812e+09,-1.44764e+09,-1.4478e+09,-41504.4,-0.0224206,0.0128832,-0,0.0258585,-31078.7,-50780.3,-0,59535.9,41504.4
step02_gravity_refstate-mantle.xmf,110,-2.50732e-06,1.4351e-06,0,-2.15044e-07,-1.4964e+09,-1.49587e+09,-1.49606e+09,-28740.6,-0.0194189,0.0123231,-0,0.0229989,-32570.4,-52271.2,-0,61588.2,28740.6
step02_gravity_refstate-mantle.xmf,111,-2.62772e-06,1.62019e-06,0,-1.35418e-07,-1.56812e+09,-1.56756e+09,-1.56777e+09,-18098.7,-0.0173984,0.00960363,-0,0.019873,-33598.2,-54486.5,-0,64012.6,18098.7
step02_gravity_refstate-mantle.xmf,112,-2.79162e-06,1.94647e-06,0,-3.30435e-08,-1.67428e+09,-1.67365e+09,-1.67391e+09,-4416.26,-0.0110287,0.00446646,-0,0.0118988,-36095.9,-57765.4,-0,68115.7,4416.26
step02_gravity_refstate-mantle.xmf,113,-2.83905e-06,2.12078e-06,0,-1.26362e-09,-1.74662e+09,-1.74596e+09,-1.74624e+09,-168.883,-0.00733276,-4.52369e-20,-0,0.00733276,-37427.7,-60000,-0,70716.5,168.883
step02_gravity_refstate-mantle.xmf,114,-4.24816e-07,-4.30848e-06,0,-5.76662e-06,-1.09917e+09,-1.09969e+09,-1.09911e+09,-770709,-0.0359455,-0.12231,-0,0.127482,-9230.72,-40000,-0,41051.3,770709
step02_gravity_refstate-mantle.xmf,115,-3.56137e-07,-4.17206e-06,0,-5.47045e-06,-1.12241e+09,-1.12292e+09,-1.12236e+09,-731126,-0.0378934,-0.111891,-0,0.118134,-9749.19,-40718.7,-0,41869.5,731126
step02_gravity_refstate-mantle.xmf,116,-9.36096e-07,-2.00149e-06,0,-3.6272e-06,-1.09909e+09,-1.09923e+09,-1.09896e+09,-484776,-0.0332943,-0.0765457,-0,0.0834731,-12782.4,-40000,-0,41992.7,484776
step02_gravity_refstate-mantle.xmf,117,-8.33164e-07,-2.48824e-06,0,-4.01236e-06,-1.12998e+09,-1.1302e+09,-1.12986e+09,-536252,-0.0369783,-0.0797536,-0,0.0879092,-12298.9,-40953.6,-0,42760.4,536252
step02_gravity_refstate-mantle.xmf,118,-1.11706e-06,-1.24226e-06,0,-2.5264e-06,-1.1836e+09,-1.18362e+09,-1.18345e+09,-337654,-0.0373899,-0.0393132,-0,0.0542543,-16414.9,-42611.3,-0,45663.6,337654
step02_gravity_refstate-mantle.xmf,119,-1.72693e-06,1.34336e-07,0,-1.03599e-06,-1.31645e+09,-1.3162e+09,-1.31622e+09,-138460,-0.0340562,0.000500928,-0,0.0340599,-23770.8,-46714.4,-0,52414.6,138460
step02_gravity_refstate-mantle.xmf,120,-2.70328e-06,1.7612e-06,0,-8.11218e-08,-1.62716e+09,-1.62656e+09,-1.62679e+09,-10841.9,-0.0156281,0.00682653,-0,0.017054,-34376.4,-56309.8,-0,65973.7,10841.9
step02_gravity_refstate-mantle.xmf,121,-2.45867e-09,-5.10796e-06,0,-6.07046e-06,-1.12107e+09,-1.12175e+09,-1.12107e+09,-811317,-0.0379535,-0.125019,-0,0.130653,-8828.85,-40677.2,-0,41624.3,811317
step02_gravity_refstate-mantle.xmf,122,-4.44414e-07,-3.72168e-06,0,-5.00917e-06,-1.138e+09,-1.13844e+09,-1.13794e+09,-669475,-0.0388355,-0.0999196,-0,0.107201,-10521.8,-41200.8,-0,42523.1,669475
step02_gravity_refstate-mantle.xmf,123,-6.35464e-07,-3.0772e-06,0,-4.4492e-06,-1.14432e+09,-1.14465e+09,-1.14423e+09,-594635,-0.0387812,-0.0870947,-0,0.0953387,-11538,-41396.4,-0,42974.3,594635
step02_gravity_refstate-mantle.xmf,124,-8.38398e-07,-2.32376e-06,0,-3.70234e-06,-1.15871e+09,-1.15891e+09,-1.1586e+09,-494817,-0.0387332,-0.0688293,-0,0.0789793,-13137.5,-41841.5,-0,43855.5,494817
step02_gravity_refstate-mantle.xmf,125,-1.0062e-06,-1.67314e-06,0,-2.96083e-06,-1.18429e+09,-1.18438e+09,-1.18416e+09,-395714,-0.0387955,-0.0492548,-0,0.0626987,-15133,-42632.3,-0,45238.5,395714
step02_gravity_refstate-mantle.xmf,126,-1.36274e-06,-4.65402e-07,0,-1.67379e-06,-1.20708e+09,-1.20696e+09,-1.20689e+09,-223702,-0.0346475,-0.0165349,-0,0.0383907,-19916.3,-43336.8,-0,47694.2,223702
step02_gravity_refstate-mantle.xmf,127,-1.15919e-06,-1.17243e-06,0,-2.36697e-06,-1.21405e+09,-1.21405e+09,-1.2139e+09,-316345,-0.0386106,-0.0331982,-0,0.0509206,-17120.4,-43551.8,-0,46796,316345
step02_gravity_refstate-mantle.xmf,128,-1.27286e-06,-7.92784e-07,0,-2.00412e-06,-1.2099e+09,-1.20983e+09,-1.20973e+09,-267850,-0.0367143,-0.0246994,-0,0.0442493,-18474.2,-43423.7,-0,47190.2,267850
step02_gravity_refstate-mantle.xmf,129,-1.44163e-06,-3.69189e-07,0,-1.53789e-06,-1.24401e+09,-1.24386e+09,-1.24381e+09,-205539,-0.0356881,-0.0121012,-0,0.0376839,-20693.6,-44477.3,-0,49055.6,205539
step02_gravity_refstate-mantle.xmf,130,-1.52316e-06,-2.70349e-07,0,-1.39859e-06,-1.28208e+09,-1.28191e+09,-1.28187e+09,-186921,-0.0363648,-0.00813834,-0,0.0372644,-21484.9,-45653,-0,50455.9,186921
step02_gravity_refstate-mantle.xmf,131,-1.60898e-06,-1.46919e-07,0,-1.24372e-06,-1.31995e+09,-1.31976e+09,-1.31974e+09,-166223,-0.0365755,-0.00449415,-0,0.0368506,-22338.8,-46822.7,-0,51878.5,166223
step02_gravity_refstate-mantle.xmf,132,-1.70804e-06,1.13368e-08,0,-1.07492e-06,-1.35716e+09,-1.35693e+09,-1.35693e+09,-143663,-0.0362672,-0.00111711,-0,0.0362844,-23296.9,-47971.8,-0,53329.5,143663
step02_gravity_refstate-mantle.xmf,133,-2.13021e-06,8.26835e-07,0,-5.37289e-07,-1.39609e+09,-1.39569e+09,-1.3958e+09,-71808.7,-0.0280398,0.0102379,-0,0.0298503,-28132.6,-49173.5,-0,56652.3,71808.7
step02_gravity_refstate-mantle.xmf,134,-1.98925e-06,5.36404e-07,0,-7.07085e-07,-1.39522e+09,-1.39488e+09,-1.39496e+09,-94501.9,-0.031976,0.00636518,-0,0.0326034,-26208.3,-49147,-0,55698.3,94501.9
step02_gravity_refstate-mantle.xmf,135,-2.25432e-06,9.9889e-07,0,-4.22388e-07,-1.45042e+09,-1.44998e+09,-1.45012e+09,-56452.2,-0.0269973,0.0103075,-0,0.028898,-29115,-50851.4,-0,58596.5,56452.2
step02_gravity_refstate-mantle.xmf,136,-2.37553e-06,1.17637e-06,0,-3.16088e-07,-1.50551e+09,-1.50503e+09,-1.50519e+09,-42245.2,-0.0255003,0.00971347,-0,0.0272877,-30124.5,-52552.8,-0,60574.6,42245.2
step02_gravity_refstate-mantle.xmf,137,-2.50526e-06,1.39296e-06,0,-2.0846e-07,-1.563e+09,-1.56248e+09,-1.56267e+09,-27860.7,-0.0230421,0.00853757,-0,0.0245729,-31384.1,-54328.4,-0,62741.9,27860.7
step02_gravity_refstate-mantle.xmf,138,-2.60986e-06,1.59064e-06,0,-1.19921e-07,-1.62419e+09,-1.62363e+09,-1.62385e+09,-16027.4,-0.0206482,0.00632688,-0,0.0215958,-32482,-56218.5,-0,64927.6,16027.4
step02_gravity_refstate-mantle.xmf,139,-2.70465e-06,1.79955e-06,0,-4.93527e-08,-1.68355e+09,-1.68295e+09,-1.68319e+09,-6595.98,-0.0174437,0.00358826,-0,0.0178089,-33767.5,-58051.9,-0,67158.5,6595.98
step02_gravity_refstate-mantle.xmf,140,-2.76645e-06,1.99018e-06,0,-5.61317e-10,-1.74661e+09,-1.74598e+09,-1.74624e+09,-75.02,-0.0142593,-3.3414e-20,-0,0.0142593,-34956.1,-60000,-0,69440.1,75.02
step02_gravity_refstate-mantle.xmf,141,-1.04026e-07,-5.2142e-06,0,-6.35918e-06,-1.09917e+09,-1.09986e+09,-1.09916e+09,-849904,-0.0361578,-0.134551,-0,0.139324,-8429.03,-40000,-0,40878.5,849904
step02_gravity_refstate-mantle.xmf,142,9.2049e-07,-7.56709e-06,0,-7.4311e-06,-1.09915e+09,-1.10028e+09,-1.09927e+09,-993166,-0.0356156,-0.159494,-0,0.163422,-6909.43,-40000,-0,40592.4,993166
step02_gravity_refstate-mantle.xmf,143,3.34965e-07,-6.29239e-06,0,-6.92895e-06,-1.09917e+09,-1.10005e+09,-1.09921e+09,-926054,-0.0360749,-0.146979,-0,0.151341,-7656.37,-40000,-0,40726.2,926054
step02_gravity_refstate-mantle.xmf,144,9.67704e-07,-7.24674e-06,0,-7.03629e-06,-1.11964e+09,-1.12074e+09,-1.11977e+09,-940401,-0.0371732,-0.148687,-0,0.153263,-7282.9,-40634.3,-0,41281.8,940401
step02_gravity_refstate-mantle.xmf,145,4.67733e-07,-6.15248e-06,0,-6.58448e-06,-1.12162e+09,-1.12251e+09,-1.12168e+09,-880016,-0.0378067,-0.136981,-0,0.142102,-8015.59,-40694.8,-0,41476.7,880016
step02_gravity_refstate-mantle.xmf,146,9.90058e-08,-4.99721e-06,0,-5.76768e-06,-1.14214e+09,-1.14282e+09,-1.14216e+09,-770851,-0.0393706,-0.116341,-0,0.122822,-9214.12,-41329.2,-0,42343.8,770851
step02_gravity_refstate-mantle.xmf,147,-1.91654e-07,-4.33161e-06,0,-5.38958e-06,-1.14144e+09,-1.14199e+09,-1.14141e+09,-720317,-0.0392893,-0.107729,-0,0.11467,-9874.14,-41307.2,-0,42471,720317
step02_gravity_refstate-mantle.xmf,148,-6.46286e-07,-2.9033e-06,0,-4.18945e-06,-1.16199e+09,-1.16229e+09,-1.16191e+09,-559920,-0.0397387,-0.0791325,-0,0.0885501,-12110.2,-41942.7,-0,43656.1,559920
step02_gravity_refstate-mantle.xmf,149,-8.4631e-07,-2.18116e-06,0,-3.43067e-06,-1.1853e+09,-1.18548e+09,-1.18519e+09,-458509,-0.0400052,-0.0598151,-0,0.0719602,-13895.3,-42663.2,-0,44869,458509
step02_gravity_refstate-mantle.xmf,150,-1.01288e-06,-1.5985e-06,0,-2.75975e-06,-1.21523e+09,-1.21531e+09,-1.2151e+09,-368840,-0.0400917,-0.0423409,-0,0.0583103,-15818.2,-43588.2,-0,46369.6,368840
step02_gravity_refstate-mantle.xmf,151,-1.82001e-06,1.89716e-07,0,-8.97861e-07,-1.40169e+09,-1.40142e+09,-1.40145e+09,-119999,-0.0356863,0.0017842,-0,0.0357309,-24345.3,-49347,-0,55025.7,119999
step02_gravity_refstate-mantle.xmf,152,1.66223e-06,-9.04677e-06,0,-7.81367e-06,-1.09911e+09,-1.10054e+09,-1.09933e+09,-1.0443e+06,-0.0346944,-0.17196,-0,0.175425,-6184.51,-40000,-0,40475.3,1.0443e+06
step02_gravity_refstate-mantle.xmf,153,1.64378e-06,-8.56265e-06,0,-7.39081e-06,-1.11825e+09,-1.11961e+09,-1.11846e+09,-987781,-0.0361515,-0.160794,-0,0.164808,-6541.6,-40592.2,-0,41115.9,987781
step02_gravity_refstate-mantle.xmf,154,5.36808e-07,-5.93257e-06,0,-6.19367e-06,-1.14582e+09,-1.14668e+09,-1.14589e+09,-827784,-0.0393296,-0.125945,-0,0.131943,-8465.42,-41443.2,-0,42299,827784
step02_gravity_refstate-mantle.xmf,155,-3.67035e-07,-3.6249e-06,0,-4.71094e-06,-1.16494e+09,-1.16538e+09,-1.1649e+09,-629617,-0.0404641,-0.090275,-0,0.0989288,-11073.1,-42033.9,-0,43468,629617
step02_gravity_refstate-mantle.xmf,156,-1.26428e-09,-4.50695e-06,0,-5.2859e-06,-1.16287e+09,-1.16347e+09,-1.16287e+09,-706460,-0.0405574,-0.103458,-0,0.111124,-9980.32,-41970.1,-0,43140.4,706460
step02_gravity_refstate-mantle.xmf,157,-6.2473e-07,-2.78254e-06,0,-3.90534e-06,-1.18925e+09,-1.18954e+09,-1.18917e+09,-521949,-0.0410813,-0.0700767,-0,0.0812306,-12764.5,-42785.2,-0,44648.7,521949
step02_gravity_refstate-mantle.xmf,158,-8.28318e-07,-2.10886e-06,0,-3.19079e-06,-1.21718e+09,-1.21735e+09,-1.21707e+09,-426449,-0.0413453,-0.0518864,-0,0.0663448,-14574.8,-43648.4,-0,46017.4,426449
step02_gravity_refstate-mantle.xmf,159,-1.33219e-06,-7.11294e-07,0,-1.8525e-06,-1.24536e+09,-1.24528e+09,-1.24518e+09,-247586,-0.0377887,-0.0195571,-0,0.0425496,-19227.5,-44518.9,-0,48493.6,247586
step02_gravity_refstate-mantle.xmf,160,-1.02284e-06,-1.53627e-06,0,-2.56204e-06,-1.24861e+09,-1.24868e+09,-1.24847e+09,-342417,-0.0411858,-0.0359298,-0,0.0546555,-16497.2,-44619.3,-0,47571.4,342417
step02_gravity_refstate-mantle.xmf,161,-1.19318e-06,-1.09673e-06,0,-2.193e-06,-1.24721e+09,-1.2472e+09,-1.24705e+09,-293095,-0.0396434,-0.0275063,-0,0.0482514,-17830.1,-44576.2,-0,48009.9,293095
step02_gravity_refstate-mantle.xmf,162,-1.38607e-06,-6.16778e-07,0,-1.68346e-06,-1.28307e+09,-1.28297e+09,-1.28289e+09,-224994,-0.0385814,-0.0148744,-0,0.0413494,-19991.4,-45683.8,-0,49866.5,224994
step02_gravity_refstate-mantle.xmf,163,-1.45213e-06,-5.03574e-07,0,-1.50392e-06,-1.32178e+09,-1.32165e+09,-1.32158e+09,-200999,-0.0389894,-0.0105284,-0,0.0403859,-20805.9,-46879.2,-0,51288.9,200999
step02_gravity_refstate-mantle.xmf,164,-1.52807e-06,-3.67159e-07,0,-1.31633e-06,-1.36082e+09,-1.36066e+09,-1.36061e+09,-175928,-0.0390334,-0.00666397,-0,0.0395982,-21657.3,-48085,-0,52737.1,175928
step02_gravity_refstate-mantle.xmf,165,-1.61911e-06,-2.00997e-07,0,-1.11644e-06,-1.40303e+09,-1.40284e+09,-1.40282e+09,-149212,-0.0387464,-0.00319183,-0,0.0388777,-22585.2,-49388.9,-0,54307.9,149212
step02_gravity_refstate-mantle.xmf,166,-2.10782e-06,7.05699e-07,0,-5.65969e-07,-1.45041e+09,-1.45003e+09,-1.45012e+09,-75641.7,-0.0312298,0.0072327,-0,0.0320564,-27173.5,-50851.3,-0,57656.3,75641.7
step02_gravity_refstate-mantle.xmf,167,-1.9261e-06,3.60883e-07,0,-7.31225e-07,-1.45073e+09,-1.45042e+09,-1.45047e+09,-97728.2,-0.0350369,0.00359667,-0,0.035221,-25287.9,-50861.5,-0,56801.1,97728.2
step02_gravity_refstate-mantle.xmf,168,-2.22457e-06,8.95853e-07,0,-4.24395e-07,-1.5064e+09,-1.50599e+09,-1.50611e+09,-56720.3,-0.0300403,0.00736067,-0,0.0309289,-28155.9,-52580.7,-0,59644.6,56720.3
step02_gravity_refstate-mantle.xmf,169,-2.34611e-06,1.10536e-06,0,-2.9318e-07,-1.56323e+09,-1.56277e+09,-1.56292e+09,-39183.6,-0.028286,0.00679805,-0,0.0290914,-29223,-54335.9,-0,61695.9,39183.6
step02_gravity_refstate-mantle.xmf,170,-2.46264e-06,1.3278e-06,0,-1.76268e-07,-1.62166e+09,-1.62115e+09,-1.62133e+09,-23558.2,-0.0260852,0.0054181,-0,0.0266419,-30332.6,-56140.5,-0,63810.9,23558.2
step02_gravity_refstate-mantle.xmf,171,-2.56583e-06,1.55589e-06,0,-7.57728e-08,-1.68394e+09,-1.68339e+09,-1.6836e+09,-10127,-0.0235564,0.00309062,-0,0.0237583,-31448.2,-58064.2,-0,66033.6,10127
step02_gravity_refstate-mantle.xmf,172,-2.64778e-06,1.77963e-06,0,-5.48502e-12,-1.74661e+09,-1.74601e+09,-1.74625e+09,-0.733073,-0.0206951,-2.35352e-20,-0,0.0206951,-32578.9,-60000,-0,68274.3,0.733073
step02_gravity_refstate-mantle.xmf,173,2.55337e-06,-1.07067e-05,0,-8.00252e-06,-1.09905e+09,-1.10083e+09,-1.0994e+09,-1.06954e+06,-0.0332215,-0.184201,-0,0.187173,-5477.46,-40000,-0,40373.3,1.06954e+06
step02_gravity_refstate-mantle.xmf,174,2.49027e-06,-1.01203e-05,0,-7.60187e-06,-1.11731e+09,-1.11899e+09,-1.11764e+09,-1.01599e+06,-0.034577,-0.173179,-0,0.176597,-5786.68,-40564.9,-0,40975.6,1.01599e+06
step02_gravity_refstate-mantle.xmf,175,1.56521e-06,-8.09176e-06,0,-7.02789e-06,-1.13402e+09,-1.13531e+09,-1.13423e+09,-939277,-0.0372873,-0.151061,-0,0.155595,-6906.17,-41080.2,-0,41656.7,939277
step02_gravity_refstate-mantle.xmf,176,1.27796e-06,-7.34892e-06,0,-6.67513e-06,-1.14487e+09,-1.14603e+09,-1.14504e+09,-892131,-0.0383826,-0.140588,-0,0.145733,-7442.12,-41415.4,-0,42078.7,892131
step02_gravity_refstate-mantle.xmf,177,5.6391e-07,-5.62123e-06,0,-5.77268e-06,-1.16824e+09,-1.16907e+09,-1.16831e+09,-771519,-0.0405291,-0.115298,-0,0.122214,-8966.02,-42136.8,-0,43080.2,771519
step02_gravity_refstate-mantle.xmf,178,-3.33077e-07,-3.47819e-06,0,-4.39486e-06,-1.19079e+09,-1.19121e+09,-1.19075e+09,-587373,-0.0416916,-0.0809265,-0,0.0910345,-11670.2,-42833,-0,44394.4,587373
step02_gravity_refstate-mantle.xmf,179,-5.87544e-07,-2.69671e-06,0,-3.63772e-06,-1.21858e+09,-1.21886e+09,-1.2185e+09,-486181,-0.0422627,-0.0618869,-0,0.0749408,-13380.9,-43691.7,-0,45694.8,486181
step02_gravity_refstate-mantle.xmf,180,-8.13874e-07,-2.03437e-06,0,-2.95128e-06,-1.2496e+09,-1.24976e+09,-1.24949e+09,-394438,-0.0424001,-0.0448008,-0,0.0616838,-15222.8,-44650,-0,47173.7,394438
step02_gravity_refstate-mantle.xmf,181,-1.71152e-06,-3.46138e-08,0,-9.21244e-07,-1.45e+09,-1.44977e+09,-1.44977e+09,-123124,-0.0382956,-0.000519646,-0,0.0382992,-23488.3,-50839.4,-0,56003.1,123124
step02_gravity_refstate-mantle.xmf,182,3.51985e-06,-1.25192e-05,0,-7.96064e-06,-1.099e+09,-1.10114e+09,-1.09947e+09,-1.06394e+06,-0.0311179,-0.195994,-0,0.198449,-4783.65,-40000,-0,40285,1.06394e+06
step02_gravity_refstate-mantle.xmf,183,3.42882e-06,-1.17694e-05,0,-7.57669e-06,-1.11649e+09,-1.11852e+09,-1.11695e+09,-1.01262e+06,-0.032439,-0.184897,-0,0.187721,-5064.3,-40541.8,-0,40856.9,1.01262e+06
step02_gravity_refstate-mantle.xmf,184,2.36225e-06,-9.51206e-06,0,-7.22332e-06,-1.13463e+09,-1.13622e+09,-1.13495e+09,-965396,-0.0358121,-0.162412,-0,0.166314,-6141.27,-41100.8,-0,41557,965396
step02_gravity_refstate-mantle.xmf,185,1.19656e-06,-6.8586e-06,0,-6.19518e-06,-1.17044e+09,-1.17152e+09,-1.1706e+09,-827985,-0.0397561,-0.127295,-0,0.133359,-8003.2,-42205.9,-0,42958,827985
step02_gravity_refstate-mantle.xmf,186,4.97078e-08,-4.30551e-06,0,-4.8817e-06,-1.19226e+09,-1.19284e+09,-1.19227e+09,-652439,-0.0419186,-0.0922149,-0,0.101295,-10601.8,-42878.8,-0,44170,652439
step02_gravity_refstate-mantle.xmf,187,5.32868e-07,-5.26442e-06,0,-5.33433e-06,-1.1932e+09,-1.19398e+09,-1.19327e+09,-712933,-0.0416638,-0.103755,-0,0.111808,-9570.41,-42908.7,-0,43963,712933
step02_gravity_refstate-mantle.xmf,188,-2.88594e-07,-3.37399e-06,0,-4.08817e-06,-1.21997e+09,-1.22038e+09,-1.21993e+09,-546383,-0.0428212,-0.072104,-0,0.0838609,-12247.6,-43734.8,-0,45417.3,546383
step02_gravity_refstate-mantle.xmf,189,-5.5346e-07,-2.6168e-06,0,-3.36413e-06,-1.25044e+09,-1.25072e+09,-1.25037e+09,-449616,-0.0432761,-0.054122,-0,0.0692965,-13994.8,-44676.2,-0,46816.9,449616
step02_gravity_refstate-mantle.xmf,190,-1.22225e-06,-1.02414e-06,0,-2.00992e-06,-1.28409e+09,-1.28406e+09,-1.28392e+09,-268626,-0.0405263,-0.0222772,-0,0.0462456,-18532.7,-45715.2,-0,49328.9,268626
step02_gravity_refstate-mantle.xmf,191,-7.98587e-07,-1.97108e-06,0,-2.71238e-06,-1.2845e+09,-1.28466e+09,-1.28439e+09,-362510,-0.0432748,-0.0382292,-0,0.0577423,-15857.2,-45728.3,-0,48399.7,362510
step02_gravity_refstate-mantle.xmf,192,-1.02812e-06,-1.47037e-06,0,-2.35101e-06,-1.2847e+09,-1.28476e+09,-1.28456e+09,-314213,-0.0420879,-0.0300198,-0,0.051697,-17165.3,-45734.3,-0,48849.5,314213
step02_gravity_refstate-mantle.xmf,193,-1.2634e-06,-9.16639e-07,0,-1.79958e-06,-1.32254e+09,-1.3225e+09,-1.32238e+09,-240514,-0.0410629,-0.0172389,-0,0.0445347,-19299,-46903.1,-0,50718.4,240514
step02_gravity_refstate-mantle.xmf,194,-1.31729e-06,-7.93695e-07,0,-1.58571e-06,-1.36209e+09,-1.36202e+09,-1.36192e+09,-211931,-0.0413064,-0.0127067,-0,0.0432167,-20086.3,-48124.7,-0,52148.3,211931
step02_gravity_refstate-mantle.xmf,195,-1.38823e-06,-6.4076e-07,0,-1.36147e-06,-1.40338e+09,-1.40328e+09,-1.4032e+09,-181960,-0.0412484,-0.00859589,-0,0.0421346,-20926.6,-49400.1,-0,53649.7,181960
step02_gravity_refstate-mantle.xmf,196,-1.46434e-06,-4.78646e-07,0,-1.13211e-06,-1.44936e+09,-1.44923e+09,-1.44916e+09,-151306,-0.0410252,-0.00513598,-0,0.0413455,-21762.6,-50820.2,-0,55283.9,151306
step02_gravity_refstate-mantle.xmf,197,-1.80552e-06,1.3795e-07,0,-7.29821e-07,-1.50061e+09,-1.50035e+09,-1.50037e+09,-97540.5,-0.0376917,0.00127912,-0,0.0377134,-24336.4,-52402.6,-0,57777.9,97540.5
step02_gravity_refstate-mantle.xmf,198,-2.03179e-06,5.39771e-07,0,-5.65276e-07,-1.50575e+09,-1.5054e+09,-1.50548e+09,-75549.1,-0.0342246,0.0045015,-0,0.0345194,-26184.4,-52560.9,-0,58721.9,75549.1
step02_gravity_refstate-mantle.xmf,199,-2.1424e-06,7.47144e-07,0,-3.97354e-07,-1.56312e+09,-1.56274e+09,-1.56284e+09,-53106.3,-0.0330114,0.00465031,-0,0.0333373,-27116.9,-54332.9,-0,60723.9,53106.3
step02_gravity_refstate-mantle.xmf,200,-2.26663e-06,9.88944e-07,0,-2.42375e-07,-1.62238e+09,-1.62195e+09,-1.62208e+09,-32393.4,-0.0311752,0.00404929,-0,0.0314371,-28181.9,-56163.3,-0,62837.4,32393.4
step02_gravity_refstate-mantle.xmf,201,-2.38122e-06,1.2377e-06,0,-1.08785e-07,-1.68356e+09,-1.68307e+09,-1.68324e+09,-14539.2,-0.0290423,0.00248573,-0,0.0291485,-29229.9,-58052.8,-0,64996.3,14539.2
step02_gravity_refstate-mantle.xmf,202,-2.4814e-06,1.49119e-06,0,5.0014e-10,-1.74659e+09,-1.74606e+09,-1.74626e+09,66.8438,-0.0265669,-1.24238e-20,-0,0.0265669,-30289.7,-60000,-0,67212.1,66.8438
step02_gravity_refstate-mantle.xmf,203,4.23041e-06,-1.32178e-05,0,-7.3952e-06,-1.11399e+09,-1.11632e+09,-1.11456e+09,-988369,-0.0301016,-0.195127,-0,0.197435,-4460.08,-40466.2,-0,40711.3,988369
step02_gravity_refstate-mantle.xmf,204,4.61329e-06,-1.43083e-05,0,-7.53388e-06,-1.09891e+09,-1.10144e+09,-1.09952e+09,-1.0069e+06,-0.028331,-0.20708,-0,0.209009,-4097.91,-40000,-0,40209.4,1.0069e+06
step02_gravity_refstate-mantle.xmf,205,3.32614e-06,-1.1153e-05,0,-7.20783e-06,-1.13501e+09,-1.13694e+09,-1.13545e+09,-963326,-0.0335521,-0.174162,-0,0.177365,-5340.52,-41114.6,-0,41460,963326
step02_gravity_refstate-mantle.xmf,206,2.17302e-06,-8.85041e-06,0,-6.85667e-06,-1.15127e+09,-1.15275e+09,-1.15156e+09,-916394,-0.0370488,-0.151385,-0,0.155852,-6573.73,-41615.2,-0,42131.2,916394
step02_gravity_refstate-mantle.xmf,207,1.15719e-06,-6.39972e-06,0,-5.71043e-06,-1.19522e+09,-1.19623e+09,-1.19538e+09,-763199,-0.040868,-0.115359,-0,0.122384,-8553.3,-42972.3,-0,43815.3,763199
step02_gravity_refstate-mantle.xmf,208,9.40553e-08,-4.14672e-06,0,-4.52419e-06,-1.2206e+09,-1.22117e+09,-1.22061e+09,-604659,-0.0429545,-0.0826314,-0,0.0931291,-11159.7,-43754.8,-0,45155.6,604659
step02_gravity_refstate-mantle.xmf,209,-2.38972e-07,-3.27169e-06,0,-3.7763e-06,-1.2507e+09,-1.2511e+09,-1.25067e+09,-504702,-0.0437545,-0.0637724,-0,0.0773394,-12822.5,-44684.6,-0,46488,504702
step02_gravity_refstate-mantle.xmf,210,-5.28134e-07,-2.53407e-06,0,-3.08609e-06,-1.284e+09,-1.28427e+09,-1.28393e+09,-412456,-0.0440924,-0.0468721,-0,0.0643517,-14601,-45713.2,-0,47988.4,412456
step02_gravity_refstate-mantle.xmf,211,-1.55705e-06,-2.91646e-07,0,-9.16853e-07,-1.49322e+09,-1.49305e+09,-1.49302e+09,-122537,-0.0404707,-0.00239135,-0,0.0405413,-22618.1,-52175,-0,56866.6,122537
step02_gravity_refstate-mantle.xmf,212,5.61256e-06,-1.601e-05,0,-6.79729e-06,-1.09883e+09,-1.10172e+09,-1.09958e+09,-908458,-0.0248466,-0.217168,-0,0.218585,-3414.86,-40000,-0,40145.5,908458
step02_gravity_refstate-mantle.xmf,213,5.13941e-06,-1.44629e-05,0,-6.72335e-06,-1.12203e+09,-1.12465e+09,-1.12271e+09,-898576,-0.0273888,-0.199943,-0,0.20181,-3877.21,-40717.3,-0,40901.5,898576
step02_gravity_refstate-mantle.xmf,214,4.29692e-06,-1.27911e-05,0,-6.97162e-06,-1.13327e+09,-1.13556e+09,-1.13385e+09,-931758,-0.0306721,-0.185603,-0,0.188121,-4581.97,-41063.3,-0,41318.1,931758
step02_gravity_refstate-mantle.xmf,215,3.07511e-06,-1.03909e-05,0,-6.91156e-06,-1.15081e+09,-1.15261e+09,-1.15122e+09,-923730,-0.0348513,-0.163351,-0,0.167027,-5730.4,-41603.1,-0,41995.9,923730
step02_gravity_refstate-mantle.xmf,216,2.00173e-06,-8.19993e-06,0,-6.42239e-06,-1.17222e+09,-1.17358e+09,-1.17248e+09,-858353,-0.0383012,-0.139107,-0,0.144284,-7069.99,-42262.7,-0,42850,858353
step02_gravity_refstate-mantle.xmf,217,1.84846e-06,-7.65025e-06,0,-5.99375e-06,-1.19623e+09,-1.1975e+09,-1.19648e+09,-801065,-0.0394411,-0.126684,-0,0.132682,-7591.06,-43005,-0,43669.8,801065
step02_gravity_refstate-mantle.xmf,218,5.56304e-07,-5.03331e-06,0,-4.93419e-06,-1.22075e+09,-1.2215e+09,-1.22083e+09,-659455,-0.0426272,-0.0934645,-0,0.102726,-10104.4,-43760.5,-0,44911.9,659455
step02_gravity_refstate-mantle.xmf,219,1.11739e-06,-6.03822e-06,0,-5.27703e-06,-1.22133e+09,-1.22228e+09,-1.22148e+09,-705275,-0.0417993,-0.104263,-0,0.11233,-9086.83,-43779.4,-0,44712.5,705275
step02_gravity_refstate-mantle.xmf,220,1.31429e-07,-4.0147e-06,0,-4.18234e-06,-1.25053e+09,-1.25108e+09,-1.25055e+09,-558970,-0.043814,-0.07372,-0,0.0857572,-11696.9,-44680,-0,46185.7,558970
step02_gravity_refstate-mantle.xmf,221,-1.97907e-07,-3.17551e-06,0,-3.46069e-06,-1.28389e+09,-1.28429e+09,-1.28386e+09,-462521,-0.0445311,-0.0558182,-0,0.0714051,-13395.1,-45710.4,-0,47632.6,462521
step02_gravity_refstate-mantle.xmf,222,-1.0415e-06,-1.38707e-06,0,-2.12471e-06,-1.32264e+09,-1.32269e+09,-1.3225e+09,-283967,-0.0427346,-0.0244791,-0,0.0492491,-17851.6,-46906.4,-0,50188.5,283967
step02_gravity_refstate-mantle.xmf,223,-5.09769e-07,-2.44627e-06,0,-2.80849e-06,-1.31861e+09,-1.31887e+09,-1.31854e+09,-375355,-0.0447119,-0.0401462,-0,0.0600905,-15201.5,-46782.7,-0,49190.5,375355
step02_gravity_refstate-mantle.xmf,224,-7.87935e-07,-1.89965e-06,0,-2.46181e-06,-1.32176e+09,-1.32191e+09,-1.32166e+09,-329021,-0.043961,-0.0321218,-0,0.0544461,-16482.8,-46879.6,-0,49692.8,329021
step02_gravity_refstate-mantle.xmf,225,-1.07197e-06,-1.27375e-06,0,-1.88106e-06,-1.36211e+09,-1.36213e+09,-1.36196e+09,-251403,-0.0431158,-0.0192908,-0,0.0472346,-18572.3,-48125.6,-0,51584.9,251403
step02_gravity_refstate-mantle.xmf,226,-1.12138e-06,-1.13432e-06,0,-1.62948e-06,-1.40311e+09,-1.40311e+09,-1.40296e+09,-217780,-0.0432387,-0.0145004,-0,0.0456054,-19335.7,-49392.1,-0,53041.9,217780
step02_gravity_refstate-mantle.xmf,227,-1.18458e-06,-9.7441e-07,0,-1.3721e-06,-1.44668e+09,-1.44666e+09,-1.44653e+09,-183382,-0.0431581,-0.0102535,-0,0.0443594,-20117.1,-50738.2,-0,54580.8,183382
step02_gravity_refstate-mantle.xmf,228,-1.26903e-06,-7.8466e-07,0,-1.11653e-06,-1.49112e+09,-1.49106e+09,-1.49095e+09,-149224,-0.042828,-0.0066213,-0,0.0433368,-20930.6,-52110.8,-0,56157.1,149224
step02_gravity_refstate-mantle.xmf,229,-1.65038e-06,-1.06409e-07,0,-7.27144e-07,-1.53356e+09,-1.53336e+09,-1.53334e+09,-97182.8,-0.0397705,-0.000527024,-0,0.039774,-23394.4,-53421,-0,58318.9,97182.8
step02_gravity_refstate-mantle.xmf,230,-1.86288e-06,2.5776e-07,0,-5.45863e-07,-1.56098e+09,-1.5607e+09,-1.56073e+09,-72954.6,-0.037528,0.00178285,-0,0.0375704,-24849.8,-54267.5,-0,59686.4,72954.6
step02_gravity_refstate-mantle.xmf,231,-2.01738e-06,5.66439e-07,0,-3.27107e-07,-1.62172e+09,-1.62138e+09,-1.62145e+09,-43717.8,-0.0357078,0.0024054,-0,0.0357887,-26063.4,-56143.5,-0,61898.3,43717.8
step02_gravity_refstate-mantle.xmf,232,-2.14533e-06,8.42377e-07,0,-1.47805e-07,-1.68376e+09,-1.68336e+09,-1.68347e+09,-19754.1,-0.0339151,0.00170538,-0,0.0339579,-27077.3,-58059.6,-0,64063.3,19754.1
step02_gravity_refstate-mantle.xmf,233,-2.2644e-06,1.12486e-06,0,1.05739e-09,-1.74658e+09,-1.74612e+09,-1.74627e+09,141.32,-0.0318063,8.70726e-22,-0,0.0318063,-28082.3,-60000,-0,66246.6,141.32
step02_gravity_refstate-mantle.xmf,234,6.49976e-06,-1.75456e-05,0,-5.79421e-06,-1.09877e+09,-1.10198e+09,-1.09964e+09,-774397,-0.0207065,-0.225932,-0,0.226879,-2731.89,-40000,-0,40093.2,774397
step02_gravity_refstate-mantle.xmf,235,6.12653e-06,-1.6193e-05,0,-5.90182e-06,-1.11838e+09,-1.12137e+09,-1.1192e+09,-788779,-0.0230442,-0.211372,-0,0.212624,-3103.07,-40606.9,-0,40725.3,788779
step02_gravity_refstate-mantle.xmf,236,4.03353e-06,-1.19622e-05,0,-6.69996e-06,-1.15117e+09,-1.15331e+09,-1.15171e+09,-895450,-0.031979,-0.174196,-0,0.177107,-4919.65,-41616.7,-0,41906.4,895450
step02_gravity_refstate-mantle.xmf,237,2.87771e-06,-9.65084e-06,0,-6.48722e-06,-1.17347e+09,-1.17514e+09,-1.17385e+09,-867017,-0.0361351,-0.150423,-0,0.154703,-6172.97,-42303.6,-0,42751.6,867017
step02_gravity_refstate-mantle.xmf,238,1.77096e-06,-7.14995e-06,0,-5.52171e-06,-1.22188e+09,-1.22308e+09,-1.22212e+09,-737976,-0.0403969,-0.114935,-0,0.121827,-8102.27,-43798.1,-0,44541.2,737976
step02_gravity_refstate-mantle.xmf,239,5.91037e-07,-4.85077e-06,0,-4.5547e-06,-1.24982e+09,-1.25055e+09,-1.2499e+09,-608735,-0.0434124,-0.0839974,-0,0.0945526,-10604.9,-44659.1,-0,45901,608735
step02_gravity_refstate-mantle.xmf,240,1.6985e-07,-3.87406e-06,0,-3.83623e-06,-1.28126e+09,-1.2818e+09,-1.28128e+09,-512712,-0.0445019,-0.0653079,-0,0.0790287,-12236.4,-45629.9,-0,47242.1,512712
step02_gravity_refstate-mantle.xmf,241,-1.89441e-07,-3.05055e-06,0,-3.14684e-06,-1.31687e+09,-1.31725e+09,-1.31684e+09,-420576,-0.0451017,-0.0483422,-0,0.0661145,-13986.3,-46729.5,-0,48777.7,420576
step02_gravity_refstate-mantle.xmf,242,-1.37964e-06,-5.52725e-07,0,-8.71605e-07,-1.53429e+09,-1.53418e+09,-1.53411e+09,-116490,-0.0421678,-0.00361243,-0,0.0423222,-21820.9,-53444.1,-0,57727.1,116490
step02_gravity_refstate-mantle.xmf,243,6.86297e-06,-1.74265e-05,0,-4.90754e-06,-1.11777e+09,-1.12102e+09,-1.11869e+09,-655892,-0.0187461,-0.218726,-0,0.219528,-2440.75,-40589.8,-0,40663.1,655892
step02_gravity_refstate-mantle.xmf,244,5.85153e-06,-1.51134e-05,0,-5.76137e-06,-1.13987e+09,-1.14267e+09,-1.14065e+09,-770008,-0.0245074,-0.197814,-0,0.199327,-3380.31,-41271.6,-0,41409.8,770008
step02_gravity_refstate-mantle.xmf,245,5.06813e-06,-1.35808e-05,0,-6.18526e-06,-1.15166e+09,-1.15416e+09,-1.15234e+09,-826659,-0.0281952,-0.184443,-0,0.186585,-4087.03,-41634.6,-0,41834.7,826659
step02_gravity_refstate-mantle.xmf,246,3.79457e-06,-1.1139e-05,0,-6.35076e-06,-1.17304e+09,-1.17504e+09,-1.17355e+09,-848779,-0.0332746,-0.161433,-0,0.164827,-5309.51,-42292.7,-0,42624.7,848779
step02_gravity_refstate-mantle.xmf,247,2.68258e-06,-8.96591e-06,0,-6.06352e-06,-1.19705e+09,-1.19861e+09,-1.19741e+09,-810389,-0.0373119,-0.137769,-0,0.142732,-6648.02,-43032.5,-0,43543,810389
step02_gravity_refstate-mantle.xmf,248,2.49111e-06,-8.37635e-06,0,-5.66136e-06,-1.22229e+09,-1.22375e+09,-1.22263e+09,-756640,-0.0383597,-0.125371,-0,0.131108,-7143.5,-43812.4,-0,44390.9,756640
step02_gravity_refstate-mantle.xmf,249,1.10567e-06,-5.76446e-06,0,-4.87576e-06,-1.24854e+09,-1.24946e+09,-1.24869e+09,-651645,-0.0425321,-0.094282,-0,0.103432,-9569.75,-44620.7,-0,45635.4,651645
step02_gravity_refstate-mantle.xmf,250,1.69313e-06,-6.74868e-06,0,-5.10189e-06,-1.24822e+09,-1.24934e+09,-1.24844e+09,-681868,-0.0411824,-0.104069,-0,0.111921,-8596.7,-44612,-0,45432.7,681868
step02_gravity_refstate-mantle.xmf,251,6.18111e-07,-4.70093e-06,0,-4.20257e-06,-1.27946e+09,-1.28017e+09,-1.27954e+09,-561673,-0.0440254,-0.075374,-0,0.0872896,-11071.5,-45575.2,-0,46900.7,561673
step02_gravity_refstate-mantle.xmf,252,1.83109e-07,-3.72203e-06,0,-3.48677e-06,-1.31383e+09,-1.31436e+09,-1.31386e+09,-466007,-0.0450642,-0.0570782,-0,0.0727234,-12802.6,-46636.6,-0,48361.9,466007
step02_gravity_refstate-mantle.xmf,253,-7.8714e-07,-1.81093e-06,0,-2.19565e-06,-1.36145e+09,-1.36158e+09,-1.36134e+09,-293449,-0.0444491,-0.0263438,-0,0.0516693,-17123.5,-48105.7,-0,51062.5,293449
step02_gravity_refstate-mantle.xmf,254,-1.68684e-07,-2.95885e-06,0,-2.85647e-06,-1.35056e+09,-1.35093e+09,-1.35054e+09,-381767,-0.0455404,-0.041838,-0,0.0618413,-14505.1,-47770.6,-0,49924.2,381767
step02_gravity_refstate-mantle.xmf,255,-4.68794e-07,-2.39889e-06,0,-2.5265e-06,-1.35869e+09,-1.35895e+09,-1.35863e+09,-337666,-0.0452772,-0.0340162,-0,0.0566315,-15723.2,-48021.1,-0,50529.7,337666
step02_gravity_refstate-mantle.xmf,256,-8.15567e-07,-1.68209e-06,0,-1.91171e-06,-1.40273e+09,-1.40284e+09,-1.40262e+09,-255500,-0.0447055,-0.0208382,-0,0.0493235,-17814.3,-49381,-0,52496,255500
step02_gravity_refstate-mantle.xmf,257,-8.66751e-07,-1.5228e-06,0,-1.62469e-06,-1.4449e+09,-1.44498e+09,-1.44478e+09,-217140,-0.0447465,-0.0158075,-0,0.0474566,-18542.4,-50683.7,-0,53969,217140
step02_gravity_refstate-mantle.xmf,258,-9.41092e-07,-1.33227e-06,0,-1.33467e-06,-1.48876e+09,-1.48882e+09,-1.48864e+09,-178378,-0.0445956,-0.011308,-0,0.0460069,-19306,-52038.7,-0,55504.5,178378
step02_gravity_refstate-mantle.xmf,259,-1.04606e-06,-1.10099e-06,0,-1.05014e-06,-1.53309e+09,-1.5331e+09,-1.53295e+09,-140351,-0.0442135,-0.00741932,-0,0.0448317,-20128.4,-53407.8,-0,57074.9,140351
step02_gravity_refstate-mantle.xmf,260,-1.52749e-06,-2.6744e-07,0,-6.39537e-07,-1.57666e+09,-1.57649e+09,-1.57646e+09,-85474.1,-0.0410913,-0.00121866,-0,0.0411093,-22841.1,-54752.7,-0,59326,85474.1
step02_gravity_refstate-mantle.xmf,261,-1.71292e-06,7.04014e-08,0,-4.10705e-07,-1.62543e+09,-1.62519e+09,-1.6252e+09,-54890.7,-0.0395553,0.000434891,-0,0.0395577,-24011.7,-56258.7,-0,61168.7,54890.7
step02_gravity_refstate-mantle.xmf,262,-1.85045e-06,3.63379e-07,0,-1.90675e-07,-1.68503e+09,-1.68474e+09,-1.68478e+09,-25483.7,-0.0381369,0.000754877,-0,0.0381444,-24966.3,-58099.7,-0,63236.8,25483.7
step02_gravity_refstate-mantle.xmf,263,-1.99366e-06,6.80568e-07,0,1.59367e-09,-1.74656e+09,-1.7462e+09,-1.74629e+09,212.994,-0.036346,1.68983e-20,-0,0.036346,-25950.7,-60000,-0,65371.5,212.994
step02_gravity_refstate-mantle.xmf,264,7.2156e-06,-1.87512e-05,0,-4.52199e-06,-1.09871e+09,-1.10218e+09,-1.09968e+09,-604364,-0.016017,-0.233052,-0,0.233602,-2048.93,-40000,-0,40052.4,604364
step02_gravity_refstate-mantle.xmf,265,6.49456e-06,-1.63071e-05,0,-5.11824e-06,-1.13418e+09,-1.13723e+09,-1.13505e+09,-684053,-0.0209301,-0.206776,-0,0.207832,-2789.32,-41097.2,-0,41191.7,684053
step02_gravity_refstate-mantle.xmf,266,4.52592e-06,-1.23628e-05,0,-6.12418e-06,-1.16994e+09,-1.17219e+09,-1.17054e+09,-818497,-0.0304717,-0.170794,-0,0.173491,-4623.51,-42198.5,-0,42451.1,818497
step02_gravity_refstate-mantle.xmf,267,3.57511e-06,-1.0389e-05,0,-5.96247e-06,-1.19718e+09,-1.19904e+09,-1.19766e+09,-796884,-0.0343944,-0.148652,-0,0.152579,-5711.05,-43038.7,-0,43415.9,796884
step02_gravity_refstate-mantle.xmf,268,2.36449e-06,-7.82795e-06,0,-5.21382e-06,-1.24871e+09,-1.25007e+09,-1.24903e+09,-696827,-0.0392293,-0.113676,-0,0.120255,-7629.78,-44629,-0,45276.5,696827
step02_gravity_refstate-mantle.xmf,269,1.1485e-06,-5.60825e-06,0,-4.51481e-06,-1.27681e+09,-1.27771e+09,-1.27696e+09,-603405,-0.0430242,-0.0857505,-0,0.0959387,-9946.11,-45494.4,-0,46568.9,603405
step02_gravity_refstate-mantle.xmf,270,6.34502e-07,-4.51446e-06,0,-3.82889e-06,-1.31042e+09,-1.31111e+09,-1.31051e+09,-511731,-0.0445466,-0.0667673,-0,0.0802638,-11581.4,-46532.1,-0,47951.7,511731
step02_gravity_refstate-mantle.xmf,271,1.78604e-07,-3.57669e-06,0,-3.16179e-06,-1.3459e+09,-1.3464e+09,-1.34592e+09,-422574,-0.0454846,-0.0496988,-0,0.0673708,-13342.8,-47627.3,-0,49461,422574
step02_gravity_refstate-mantle.xmf,272,-1.17234e-06,-8.33343e-07,0,-7.76759e-07,-1.57808e+09,-1.57803e+09,-1.57792e+09,-103814,-0.0435832,-0.00423677,-0,0.0437887,-21012.8,-54797.3,-0,58688,103814
step02_gravity_refstate-mantle.xmf,273,7.46131e-06,-1.83462e-05,0,-3.63961e-06,-1.11909e+09,-1.12254e+09,-1.12008e+09,-486433,-0.013833,-0.223701,-0,0.224128,-1755.99,-40632.1,-0,40670,486433
step02_gravity_refstate-mantle.xmf,274,7.04552e-06,-1.70733e-05,0,-4.1699e-06,-1.13754e+09,-1.14077e+09,-1.13848e+09,-557307,-0.017004,-0.210136,-0,0.210823,-2215.31,-41202.6,-0,41262.1,557307
step02_gravity_refstate-mantle.xmf,275,7.74762e-06,-1.96226e-05,0,-3.0801e-06,-1.09867e+09,-1.10233e+09,-1.0997e+09,-411655,-0.01091,-0.238293,-0,0.238543,-1365.96,-40000,-0,40023.3,411655
step02_gravity_refstate-mantle.xmf,276,8.03588e-06,-2.01407e-05,0,1.55727e-06,-1.09865e+09,-1.10241e+09,-1.09972e+09,208129,0.00552322,-0.241496,0,0.241559,682.988,-40000,0,40005.8,208129
step02_gravity_refstate-mantle.xmf,277,8.14008e-06,-2.03183e-05,0,6.11578e-09,-1.09864e+09,-1.10244e+09,-1.09973e+09,817.374,-6.3978e-07,-0.242574,-0,0.242574,0,-40000,0,40000,817.374
step02_gravity_refstate-mantle.xmf,278,8.09654e-06,-1.96628e-05,0,8.08486e-07,-1.11188e+09,-1.11559e+09,-1.11296e+09,108054,0.00291829,-0.234088,0,0.234106,360.036,-40410.2,0,40411.8,108054
step02_gravity_refstate-mantle.xmf,279,8.04566e-06,-2.01428e-05,0,-1.54968e-06,-1.09865e+09,-1.10241e+09,-1.09972e+09,-207115,-0.00552406,-0.241497,-0,0.24156,-682.988,-40000,-0,40005.8,207115
step02_gravity_refstate-mantle.xmf,280,8.12025e-06,-1.95547e-05,0,-4.8794e-07,-1.11536e+09,-1.11906e+09,-1.11645e+09,-65213.2,-0.00190261,-0.232129,-0,0.232137,-234.796,-40518.3,-0,40519,65213.2
step02_gravity_refstate-mantle.xmf,281,7.89753e-06,-1.89211e-05,0,-2.01295e-06,-1.12237e+09,-1.12595e+09,-1.12343e+09,-269031,-0.00775289,-0.226133,-0,0.226266,-967.162,-40734.9,-0,40746.4,269031
step02_gravity_refstate-mantle.xmf,282,6.5183e-06,-1.58084e-05,0,-4.68713e-06,-1.15351e+09,-1.1565e+09,-1.15438e+09,-626435,-0.0204227,-0.197501,-0,0.198554,-2753.46,-41695.7,-0,41786.5,626435
step02_gravity_refstate-mantle.xmf,283,5.85705e-06,-1.43925e-05,0,-5.12549e-06,-1.17137e+09,-1.17408e+09,-1.17216e+09,-685022,-0.0241505,-0.18312,-0,0.184706,-3411.74,-42246.6,-0,42384.1,685022
step02_gravity_refstate-mantle.xmf,284,5.18421e-06,-1.32344e-05,0,-5.55751e-06,-1.1781e+09,-1.18056e+09,-1.17879e+09,-742761,-0.0275346,-0.173876,-0,0.176043,-4051.02,-42452.8,-0,42645.6,742761
step02_gravity_refstate-mantle.xmf,285,4.5532e-06,-1.19807e-05,0,-5.66484e-06,-1.19476e+09,-1.19697e+09,-1.19537e+09,-757106,-0.0304548,-0.16031,-0,0.163177,-4726.92,-42966.6,-0,43225.8,757106
step02_gravity_refstate-mantle.xmf,286,3.31442e-06,-9.62087e-06,0,-5.57748e-06,-1.22264e+09,-1.22437e+09,-1.22308e+09,-745430,-0.0356182,-0.135435,-0,0.140041,-6198.7,-43825.4,-0,44261.6,745430
step02_gravity_refstate-mantle.xmf,287,3.08441e-06,-8.99533e-06,0,-5.21993e-06,-1.24856e+09,-1.25017e+09,-1.24897e+09,-697644,-0.0366277,-0.123191,-0,0.128521,-6672.04,-44626.1,-0,45122.1,697644
step02_gravity_refstate-mantle.xmf,288,1.58831e-06,-6.40006e-06,0,-4.7726e-06,-1.27063e+09,-1.27169e+09,-1.27084e+09,-637858,-0.0418293,-0.0950314,-0,0.10383,-9059.41,-45304.4,-0,46201.3,637858
step02_gravity_refstate-mantle.xmf,289,2.20446e-06,-7.31942e-06,0,-4.81126e-06,-1.27544e+09,-1.27671e+09,-1.27573e+09,-643025,-0.0400862,-0.102315,-0,0.109887,-8162.57,-45454.7,-0,46181.8,643025
step02_gravity_refstate-mantle.xmf,290,1.21383e-06,-5.51134e-06,0,-4.15646e-06,-1.30767e+09,-1.30856e+09,-1.30783e+09,-555511,-0.0433501,-0.0776243,-0,0.0889087,-10275.1,-46448.3,-0,47571.3,555511
step02_gravity_refstate-mantle.xmf,291,6.07382e-07,-4.29556e-06,0,-3.45449e-06,-1.34255e+09,-1.34321e+09,-1.34264e+09,-461692,-0.0450066,-0.058149,-0,0.0735316,-12155.9,-47525.1,-0,49055.1,461692
step02_gravity_refstate-mantle.xmf,292,1.69309e-07,-3.44372e-06,0,-2.8739e-06,-1.3752e+09,-1.37569e+09,-1.37523e+09,-384097,-0.0457788,-0.043488,-0,0.0631419,-13827.9,-48532.9,-0,50464.4,384097
step02_gravity_refstate-mantle.xmf,293,-4.62975e-07,-2.29077e-06,0,-2.21054e-06,-1.40075e+09,-1.401e+09,-1.40069e+09,-295438,-0.0456236,-0.0277495,-0,0.0533999,-16339.3,-49320.8,-0,51956.8,295438
step02_gravity_refstate-mantle.xmf,294,-4.07933e-08,-3.01023e-06,0,-2.54832e-06,-1.39568e+09,-1.39608e+09,-1.39568e+09,-340582,-0.0459752,-0.0360417,-0,0.0584185,-14788.9,-49165.2,-0,51341.3,340582
step02_gravity_refstate-mantle.xmf,295,-5.06767e-07,-2.12645e-06,0,-1.88337e-06,-1.44347e+09,-1.44369e+09,-1.4434e+09,-251712,-0.0457703,-0.0217624,-0,0.0506806,-17028.6,-50640.4,-0,53426.8,251712
step02_gravity_refstate-mantle.xmf,296,-5.67701e-07,-1.9403e-06,0,-1.56317e-06,-1.48669e+09,-1.48688e+09,-1.48662e+09,-208918,-0.0457711,-0.0164571,-0,0.0486398,-17723.8,-51975.7,-0,54914.6,208918
step02_gravity_refstate-mantle.xmf,297,-6.56895e-07,-1.72138e-06,0,-1.24808e-06,-1.53067e+09,-1.53081e+09,-1.53058e+09,-166806,-0.0456225,-0.0117585,-0,0.0471135,-18454,-53334.2,-0,56436.6,166806
step02_gravity_refstate-mantle.xmf,298,-7.85207e-07,-1.45005e-06,0,-9.39671e-07,-1.5752e+09,-1.57529e+09,-1.57509e+09,-125587,-0.0452777,-0.00764964,-0,0.0459194,-19270.9,-54709.4,-0,58004.2,125587
step02_gravity_refstate-mantle.xmf,299,-1.33182e-06,-5.18837e-07,0,-5.03513e-07,-1.62865e+09,-1.62854e+09,-1.62847e+09,-67294.5,-0.0426597,-0.00174703,-0,0.0426955,-21988.2,-56359.3,-0,60496.7,67294.5
step02_gravity_refstate-mantle.xmf,300,-1.49552e-06,-1.96833e-07,0,-2.39172e-07,-1.68594e+09,-1.68577e+09,-1.68574e+09,-31965.3,-0.0415705,-0.000310735,-0,0.0415717,-22915.6,-58128.8,-0,62482.6,31965.3
step02_gravity_refstate-mantle.xmf,301,-1.66594e-06,1.57871e-07,0,2.24551e-09,-1.74653e+09,-1.74628e+09,-1.7463e+09,300.113,-0.0401197,3.50325e-20,-0,0.0401197,-23888.9,-60000,-0,64580.8,300.113
step02_gravity_refstate-mantle.xmf,302,7.73753e-06,-1.9602e-05,0,3.08718e-06,-1.09867e+09,-1.10232e+09,-1.0997e+09,412602,0.01091,-0.238292,0,0.238542,1365.96,-40000,0,40023.3,412602
step02_gravity_refstate-mantle.xmf,303,7.93119e-06,-1.92473e-05,0,2.0506e-06,-1.11548e+09,-1.11912e+09,-1.11654e+09,274063,0.00771912,-0.230232,0,0.230362,959.96,-40521.6,0,40533,274063
step02_gravity_refstate-mantle.xmf,304,8.02822e-06,-1.88362e-05,0,7.9961e-07,-1.13128e+09,-1.13487e+09,-1.13235e+09,106868,0.00314734,-0.222475,0,0.222497,392.029,-41011.2,0,41013.1,106868
step02_gravity_refstate-mantle.xmf,305,4.16403e-06,-1.09303e-05,0,-5.32092e-06,-1.22246e+09,-1.22448e+09,-1.22302e+09,-711142,-0.032102,-0.145144,-0,0.148652,-5254.67,-43822.3,-0,44136.2,711142
step02_gravity_refstate-mantle.xmf,306,2.88885e-06,-8.38411e-06,0,-4.8288e-06,-1.2747e+09,-1.2762e+09,-1.27508e+09,-645369,-0.0375549,-0.111606,-0,0.117755,-7160.68,-45433.7,-0,45994.6,645369
step02_gravity_refstate-mantle.xmf,307,1.86635e-06,-6.56694e-06,0,-4.40731e-06,-1.3015e+09,-1.30262e+09,-1.30175e+09,-589037,-0.0414674,-0.0892593,-0,0.0984214,-9011.62,-46259.4,-0,47129,589037
step02_gravity_refstate-mantle.xmf,308,1.10665e-06,-5.13005e-06,0,-3.74671e-06,-1.33738e+09,-1.33822e+09,-1.33753e+09,-500748,-0.0439715,-0.067703,-0,0.0807292,-10926.1,-47366.6,-0,48610.4,500748
step02_gravity_refstate-mantle.xmf,309,5.53864e-07,-4.07726e-06,0,-3.10301e-06,-1.37459e+09,-1.37521e+09,-1.37466e+09,-414717,-0.0453838,-0.0501677,-0,0.0676497,-12738.8,-48514.9,-0,50159.5,414717
step02_gravity_refstate-mantle.xmf,310,-9.39376e-07,-1.13478e-06,0,-6.30335e-07,-1.62389e+09,-1.62392e+09,-1.62377e+09,-84244.3,-0.0447139,-0.00417248,-0,0.0449082,-20170,-56213.4,-0,59722.4,84244.3
step02_gravity_refstate-mantle.xmf,311,7.50852e-06,-1.84321e-05,0,3.56449e-06,-1.11781e+09,-1.12128e+09,-1.11881e+09,476395,0.0134064,-0.224833,0,0.225232,1697.94,-40592.7,0,40628.2,476395
step02_gravity_refstate-mantle.xmf,312,7.54808e-06,-1.77578e-05,0,-2.89121e-06,-1.14067e+09,-1.14405e+09,-1.14168e+09,-386410,-0.0118214,-0.213178,-0,0.213505,-1509.64,-41300.7,-0,41328.3,386410
step02_gravity_refstate-mantle.xmf,313,7.07794e-06,-1.64841e-05,0,-3.54983e-06,-1.16067e+09,-1.16382e+09,-1.16162e+09,-474434,-0.0155971,-0.199245,-0,0.199855,-2060.65,-41918.8,-0,41969.4,474434
step02_gravity_refstate-mantle.xmf,314,7.99676e-06,-1.86633e-05,0,-7.6157e-07,-1.13513e+09,-1.1387e+09,-1.1362e+09,-101784,-0.00302789,-0.220259,-0,0.220279,-378.335,-41130.6,-0,41132.3,101784
step02_gravity_refstate-mantle.xmf,315,5.42277e-06,-1.32118e-05,0,-4.95608e-06,-1.1984e+09,-1.20089e+09,-1.19913e+09,-662379,-0.0259784,-0.167561,-0,0.169562,-3846.51,-43081.6,-0,43253,662379
step02_gravity_refstate-mantle.xmf,316,6.54311e-06,-1.52621e-05,0,-4.0829e-06,-1.17873e+09,-1.18165e+09,-1.17961e+09,-545679,-0.0192483,-0.186263,-0,0.187255,-2645.12,-42476.3,-0,42558.5,545679
step02_gravity_refstate-mantle.xmf,317,4.99081e-06,-1.22024e-05,0,-4.86428e-06,-1.2227e+09,-1.225e+09,-1.22337e+09,-650111,-0.0278869,-0.15367,-0,0.15618,-4334.29,-43831.8,-0,44045.6,650111
step02_gravity_refstate-mantle.xmf,318,3.85433e-06,-1.01265e-05,0,-5.00903e-06,-1.24863e+09,-1.25049e+09,-1.24914e+09,-669457,-0.0333924,-0.13202,-0,0.136177,-5739.32,-44630.4,-0,44998,669457
step02_gravity_refstate-mantle.xmf,319,3.56282e-06,-9.44043e-06,0,-4.73322e-06,-1.2737e+09,-1.27544e+09,-1.27418e+09,-632595,-0.0345863,-0.120058,-0,0.124941,-6232.57,-45404.9,-0,45830.7,632595
step02_gravity_refstate-mantle.xmf,320,2.76983e-06,-7.94173e-06,0,-4.42182e-06,-1.30588e+09,-1.30731e+09,-1.30625e+09,-590977,-0.0381346,-0.100017,-0,0.10704,-7597.21,-46397.4,-0,47015.3,590977
step02_gravity_refstate-mantle.xmf,321,1.7293e-06,-6.14909e-06,0,-3.96259e-06,-1.33662e+09,-1.33767e+09,-1.33685e+09,-529600,-0.042163,-0.0773724,-0,0.0881147,-9640.48,-47344.6,-0,48316.1,529600
step02_gravity_refstate-mantle.xmf,322,1.04156e-06,-4.84555e-06,0,-3.33912e-06,-1.37181e+09,-1.37259e+09,-1.37194e+09,-446274,-0.0444295,-0.0582623,-0,0.0732699,-11524.5,-48430.2,-0,49782.5,446274
step02_gravity_refstate-mantle.xmf,323,4.54596e-07,-3.79854e-06,0,-2.75925e-06,-1.40484e+09,-1.40541e+09,-1.4049e+09,-368773,-0.0457324,-0.0425677,-0,0.0624777,-13409.2,-49449.4,-0,51235.2,368773
step02_gravity_refstate-mantle.xmf,324,-9.88859e-08,-2.78545e-06,0,-2.14788e-06,-1.44061e+09,-1.44097e+09,-1.44059e+09,-287065,-0.0462002,-0.0282507,-0,0.0541531,-15558.6,-50553.1,-0,52893.1,287065
step02_gravity_refstate-mantle.xmf,325,-1.67455e-07,-2.57922e-06,0,-1.79094e-06,-1.48383e+09,-1.48415e+09,-1.4838e+09,-239359,-0.0463007,-0.021891,-0,0.051215,-16239.7,-51888.2,-0,54370.1,239359
step02_gravity_refstate-mantle.xmf,326,-2.15358e-07,-2.40691e-06,0,-1.44612e-06,-1.52904e+09,-1.52933e+09,-1.52901e+09,-193274,-0.0463325,-0.0164922,-0,0.0491803,-16814.3,-53285,-0,55875,193274
step02_gravity_refstate-mantle.xmf,327,-3.46791e-07,-2.12276e-06,0,-1.10237e-06,-1.5732e+09,-1.57343e+09,-1.57315e+09,-147331,-0.0462225,-0.0113707,-0,0.0476005,-17590.7,-54648.8,-0,57410.1,147331
step02_gravity_refstate-mantle.xmf,328,-5.07432e-07,-1.8038e-06,0,-7.79264e-07,-1.61725e+09,-1.61742e+09,-1.61718e+09,-104149,-0.0459697,-0.00709654,-0,0.0465143,-18415.3,-56009.4,-0,58959.1,104149
step02_gravity_refstate-mantle.xmf,329,-1.02957e-06,-9.2248e-07,0,-3.16457e-07,-1.68345e+09,-1.68344e+09,-1.68331e+09,-42294.5,-0.0443603,-0.00172659,-0,0.0443939,-20703.2,-58053,-0,61634.2,42294.5
step02_gravity_refstate-mantle.xmf,330,-1.27984e-06,-4.40632e-07,0,3.28608e-09,-1.74649e+09,-1.74638e+09,-1.74632e+09,439.185,-0.0430622,7.19565e-20,-0,0.0430622,-21891.2,-60000,-0,63868.8,439.185
step02_gravity_refstate-mantle.xmf,331,7.71812e-06,-1.82222e-05,0,2.45538e-06,-1.13511e+09,-1.13857e+09,-1.13614e+09,328161,0.00983788,-0.217624,0,0.217846,1243.38,-41128.9,0,41147.7,328161
step02_gravity_refstate-mantle.xmf,332,7.22424e-06,-1.87356e-05,0,4.50399e-06,-1.09871e+09,-1.10218e+09,-1.09967e+09,601958,0.0160177,-0.233051,0,0.233601,2048.93,-40000,0,40052.4,601958
step02_gravity_refstate-mantle.xmf,333,7.80394e-06,-1.79154e-05,0,-1.58773e-06,-1.14911e+09,-1.15255e+09,-1.15015e+09,-212200,-0.00663392,-0.211317,-0,0.211421,-842.431,-41562.8,-0,41571.4,212200
step02_gravity_refstate-mantle.xmf,334,7.90368e-06,-1.79831e-05,0,-6.96861e-08,-1.15291e+09,-1.15637e+09,-1.15397e+09,-9313.55,-0.000273356,-0.210446,-0,0.210446,-34.7148,-41680.9,-0,41680.9,9313.55
step02_gravity_refstate-mantle.xmf,335,6.08329e-06,-1.41856e-05,0,-4.24002e-06,-1.20007e+09,-1.20278e+09,-1.20088e+09,-566679,-0.0216642,-0.173093,-0,0.174444,-3103.51,-43135.1,-0,43246.6,566679
step02_gravity_refstate-mantle.xmf,336,4.61466e-06,-1.12596e-05,0,-4.63664e-06,-1.24869e+09,-1.25082e+09,-1.24931e+09,-619687,-0.0294715,-0.140153,-0,0.143218,-4812.93,-44634.8,-0,44893.5,619687
step02_gravity_refstate-mantle.xmf,337,3.32939e-06,-8.86473e-06,0,-4.46935e-06,-1.29571e+09,-1.29734e+09,-1.29615e+09,-597328,-0.035572,-0.110115,-0,0.115718,-6678.65,-46084.5,-0,46565.9,597328
step02_gravity_refstate-mantle.xmf,338,1.60734e-06,-5.73356e-06,0,-3.53775e-06,-1.36896e+09,-1.36994e+09,-1.36917e+09,-472820,-0.0427967,-0.0670467,-0,0.0795413,-10262.1,-48343.7,-0,49420.9,472820
step02_gravity_refstate-mantle.xmf,339,3.52372e-07,-3.50133e-06,0,-2.38826e-06,-1.43941e+09,-1.43992e+09,-1.43945e+09,-319190,-0.046028,-0.0349107,-0,0.0577697,-14141.3,-50517.2,-0,52459.2,319190
step02_gravity_refstate-mantle.xmf,340,9.43497e-07,-4.56956e-06,0,-2.98162e-06,-1.4039e+09,-1.40463e+09,-1.40402e+09,-398494,-0.0448392,-0.0499184,-0,0.0670999,-12126,-49421.5,-0,50887.4,398494
step02_gravity_refstate-mantle.xmf,341,-6.64546e-07,-1.50778e-06,0,-5.21601e-07,-1.65551e+09,-1.65562e+09,-1.65542e+09,-69712,-0.0456087,-0.00412724,-0,0.0457951,-19164.7,-57190.8,-0,60316.4,69712
step02_gravity_refstate-mantle.xmf,342,5.61441e-06,-1.6015e-05,0,6.80679e-06,-1.09883e+09,-1.10172e+09,-1.09958e+09,909727,0.0248444,-0.217169,0,0.218585,3414.86,-40000,0,40145.5,909727
step02_gravity_refstate-mantle.xmf,343,6.51262e-06,-1.7524e-05,0,5.78054e-06,-1.09876e+09,-1.10197e+09,-1.09963e+09,772569,0.0207054,-0.225931,0,0.226878,2731.89,-40000,0,40093.2,772569
step02_gravity_refstate-mantle.xmf,344,5.93972e-06,-1.59489e-05,0,6.16212e-06,-1.1167e+09,-1.11962e+09,-1.11749e+09,823567,0.023914,-0.21051,0,0.211864,3246.31,-40554.2,0,40683.9,823567
step02_gravity_refstate-mantle.xmf,345,6.78439e-06,-1.71189e-05,0,4.96117e-06,-1.12221e+09,-1.1254e+09,-1.12312e+09,663060,0.0191884,-0.215689,0,0.21654,2509.67,-40727.2,0,40804.4,663060
step02_gravity_refstate-mantle.xmf,346,7.19683e-06,-1.73016e-05,0,3.87885e-06,-1.1375e+09,-1.14077e+09,-1.13846e+09,518408,0.0156927,-0.211563,0,0.212144,2030.98,-41201.8,0,41251.8,518408
step02_gravity_refstate-mantle.xmf,347,7.47856e-06,-1.69197e-05,0,-2.25829e-06,-1.16767e+09,-1.17093e+09,-1.16867e+09,-301821,-0.0100489,-0.199642,-0,0.199895,-1311.25,-42136.4,-0,42156.8,301821
step02_gravity_refstate-mantle.xmf,348,7.03988e-06,-1.58208e-05,0,-2.89991e-06,-1.187e+09,-1.19005e+09,-1.18794e+09,-387573,-0.0138362,-0.187211,-0,0.187721,-1870.93,-42733.5,-0,42774.5,387573
step02_gravity_refstate-mantle.xmf,349,7.41735e-06,-1.71765e-05,0,2.86044e-06,-1.15478e+09,-1.15807e+09,-1.15577e+09,382297,0.0122422,-0.205139,0,0.205504,1586.17,-41737.3,0,41767.5,382297
step02_gravity_refstate-mantle.xmf,350,7.77721e-06,-1.77623e-05,0,1.46528e-06,-1.15383e+09,-1.15724e+09,-1.15487e+09,195835,0.00622145,-0.208856,0,0.208949,793.178,-41708.8,0,41716.4,195835
step02_gravity_refstate-mantle.xmf,351,5.73043e-06,-1.32522e-05,0,-4.14626e-06,-1.22353e+09,-1.22607e+09,-1.22429e+09,-554148,-0.0231291,-0.160536,-0,0.162193,-3451.13,-43859.7,-0,43995.3,554148
step02_gravity_refstate-mantle.xmf,352,6.58256e-06,-1.48586e-05,0,-3.44192e-06,-1.20165e+09,-1.20452e+09,-1.20253e+09,-460012,-0.0174358,-0.176988,-0,0.177845,-2440.65,-43185.5,-0,43254.5,460012
step02_gravity_refstate-mantle.xmf,353,5.33559e-06,-1.23331e-05,0,-4.08713e-06,-1.24917e+09,-1.25153e+09,-1.24988e+09,-546245,-0.0248798,-0.147178,-0,0.149266,-3892.56,-44651.5,-0,44820.9,546245
step02_gravity_refstate-mantle.xmf,354,4.25341e-06,-1.04269e-05,0,-4.42175e-06,-1.27478e+09,-1.27675e+09,-1.27535e+09,-590967,-0.0310106,-0.127242,-0,0.130966,-5325.24,-45440.4,-0,45751.3,590967
step02_gravity_refstate-mantle.xmf,355,3.90415e-06,-9.68076e-06,0,-4.2344e-06,-1.29962e+09,-1.30143e+09,-1.30014e+09,-565927,-0.0325635,-0.11528,-0,0.119791,-5875.75,-46207,-0,46579.1,565927
step02_gravity_refstate-mantle.xmf,356,2.43759e-06,-7.18508e-06,0,-4.00496e-06,-1.33744e+09,-1.33872e+09,-1.33776e+09,-535263,-0.0395718,-0.0864349,-0,0.0950627,-8400.43,-47371.9,-0,48111,535263
step02_gravity_refstate-mantle.xmf,357,3.44762e-06,-8.81716e-06,0,-4.08816e-06,-1.32199e+09,-1.32363e+09,-1.32245e+09,-546383,-0.03481,-0.10315,-0,0.108865,-6650.92,-46897.2,-0,47366.5,546383
step02_gravity_refstate-mantle.xmf,358,2.23528e-06,-6.71026e-06,0,-3.63537e-06,-1.3692e+09,-1.37039e+09,-1.3695e+09,-485867,-0.0403972,-0.0753432,-0,0.08549,-9011.92,-48352.8,-0,49185.5,485867
step02_gravity_refstate-mantle.xmf,359,1.48768e-06,-5.37055e-06,0,-3.11804e-06,-1.40488e+09,-1.40579e+09,-1.40508e+09,-416725,-0.0433427,-0.0569183,-0,0.0715422,-10895.6,-49453.4,-0,50639.4,416725
step02_gravity_refstate-mantle.xmf,360,8.15293e-07,-4.23249e-06,0,-2.58828e-06,-1.43918e+09,-1.43985e+09,-1.43929e+09,-345923,-0.0452742,-0.0412869,-0,0.0612729,-12841.5,-50511.3,-0,52118.1,345923
step02_gravity_refstate-mantle.xmf,361,2.72663e-07,-3.26136e-06,0,-2.01604e-06,-1.47989e+09,-1.48037e+09,-1.47993e+09,-269443,-0.0462234,-0.0277498,-0,0.0539134,-14809.3,-51767.9,-0,53844.5,269443
step02_gravity_refstate-mantle.xmf,362,2.60262e-07,-3.13249e-06,0,-1.63871e-06,-1.52677e+09,-1.52723e+09,-1.52681e+09,-219013,-0.0462975,-0.0215287,-0,0.0510583,-15249.1,-53216.3,-0,55358,219013
step02_gravity_refstate-mantle.xmf,363,1.49581e-07,-2.86659e-06,0,-1.26097e-06,-1.57171e+09,-1.57212e+09,-1.57173e+09,-168529,-0.0463879,-0.0154576,-0,0.0488956,-15918.3,-54604.4,-0,56877.3,168529
step02_gravity_refstate-mantle.xmf,364,-2.48482e-08,-2.5209e-06,0,-8.96544e-07,-1.61631e+09,-1.61665e+09,-1.61631e+09,-119823,-0.0464191,-0.0100236,-0,0.047489,-16728.4,-55981.8,-0,58427.8,119823
step02_gravity_refstate-mantle.xmf,365,-2.48979e-07,-2.11828e-06,0,-5.71136e-07,-1.65842e+09,-1.65867e+09,-1.65839e+09,-76332.4,-0.0463043,-0.00566252,-0,0.0466492,-17649.1,-57282.1,-0,59939.4,76332.4
step02_gravity_refstate-mantle.xmf,366,-5.19346e-07,-1.65223e-06,0,-2.73062e-07,-1.70087e+09,-1.70102e+09,-1.7008e+09,-36494.7,-0.0459248,-0.00228719,-0,0.0459817,-18714.3,-58592.8,-0,61508.8,36494.7
step02_gravity_refstate-mantle.xmf,367,-8.36425e-07,-1.10885e-06,0,2.76692e-09,-1.74645e+09,-1.74649e+09,-1.74634e+09,369.799,-0.0451087,7.25959e-20,-0,0.0451087,-19951.6,-60000,-0,63230.3,369.799
step02_gravity_refstate-mantle.xmf,368,4.60864e-06,-1.42554e-05,0,7.56176e-06,-1.0989e+09,-1.10142e+09,-1.09952e+09,1.01063e+06,0.0283304,-0.207079,0,0.209008,4097.91,-40000,0,40209.4,1.01063e+06
step02_gravity_refstate-mantle.xmf,369,5.16047e-06,-1.47873e-05,0,6.93313e-06,-1.1125e+09,-1.11517e+09,-1.11319e+09,926612,0.0270335,-0.205202,0,0.206975,3808.09,-40422.3,0,40601.3,926612
step02_gravity_refstate-mantle.xmf,370,7.69125e-06,-1.7113e-05,0,-8.80554e-07,-1.17304e+09,-1.17636e+09,-1.17407e+09,-117686,-0.00397316,-0.199095,-0,0.199135,-515.893,-42303.4,-0,42306.6,117686
step02_gravity_refstate-mantle.xmf,371,7.06151e-06,-1.66584e-05,0,3.71816e-06,-1.15374e+09,-1.15691e+09,-1.15469e+09,496933,0.0159687,-0.202544,0,0.203172,2098.66,-41704.2,0,41757,496933
step02_gravity_refstate-mantle.xmf,372,7.6927e-06,-1.70996e-05,0,5.53754e-07,-1.17476e+09,-1.17807e+09,-1.17579e+09,74009.3,0.00251992,-0.198436,0,0.198452,327.455,-42356.5,0,42357.7,74009.3
step02_gravity_refstate-mantle.xmf,373,6.3407e-06,-1.41542e-05,0,-3.32808e-06,-1.22429e+09,-1.22703e+09,-1.22514e+09,-444798,-0.0180115,-0.165854,-0,0.166829,-2606.31,-43885,-0,43962.3,444798
step02_gravity_refstate-mantle.xmf,374,4.94525e-06,-1.14236e-05,0,-3.94786e-06,-1.27565e+09,-1.27784e+09,-1.27631e+09,-527631,-0.0266032,-0.134064,-0,0.136678,-4372.68,-45469.3,-0,45679.1,527631
step02_gravity_refstate-mantle.xmf,375,3.10154e-06,-8.16244e-06,0,-3.91299e-06,-1.34139e+09,-1.3429e+09,-1.34181e+09,-522971,-0.0364537,-0.0934081,-0,0.100269,-7303.1,-47496,-0,48054.2,522971
step02_gravity_refstate-mantle.xmf,376,2.08319e-06,-6.2637e-06,0,-3.22325e-06,-1.40339e+09,-1.40451e+09,-1.40367e+09,-430787,-0.0410789,-0.0647571,-0,0.0766874,-9608.92,-49409.2,-0,50334.9,430787
step02_gravity_refstate-mantle.xmf,377,7.55247e-07,-4.00486e-06,0,-2.21771e-06,-1.47686e+09,-1.4775e+09,-1.47697e+09,-296396,-0.0455091,-0.033957,-0,0.0567817,-13389.8,-51675.6,-0,53382.2,296396
step02_gravity_refstate-mantle.xmf,378,1.31235e-06,-4.97695e-06,0,-2.72484e-06,-1.44071e+09,-1.44155e+09,-1.44088e+09,-364174,-0.0439617,-0.0472333,-0,0.0645261,-11620,-50560,-0,51878.1,364174
step02_gravity_refstate-mantle.xmf,379,4.33542e-06,-1.33019e-05,0,7.3364e-06,-1.11599e+09,-1.11835e+09,-1.11657e+09,980510,0.029874,-0.19515,0,0.197423,4403.27,-40528.4,0,40766.9,980510
step02_gravity_refstate-mantle.xmf,380,5.19238e-06,-1.42514e-05,0,6.51174e-06,-1.13209e+09,-1.13469e+09,-1.13279e+09,870294,0.0273415,-0.195446,0,0.19735,3878.12,-41029.1,0,41212,870294
step02_gravity_refstate-mantle.xmf,381,6.11657e-06,-1.56533e-05,0,5.56651e-06,-1.13594e+09,-1.13885e+09,-1.13676e+09,743963,0.0231468,-0.202265,0,0.203585,3143.84,-41150.5,0,41270.4,743963
step02_gravity_refstate-mantle.xmf,382,6.59765e-06,-1.59974e-05,0,4.66039e-06,-1.15013e+09,-1.15314e+09,-1.15101e+09,622861,0.0199178,-0.199919,0,0.200909,2667.83,-41591.1,0,41676.6,622861
step02_gravity_refstate-mantle.xmf,383,7.35199e-06,-1.61189e-05,0,-1.61634e-06,-1.1952e+09,-1.19833e+09,-1.19618e+09,-216024,-0.00781314,-0.1865,-0,0.186663,-1049.27,-42988.1,-0,43000.9,216024
step02_gravity_refstate-mantle.xmf,384,6.89982e-06,-1.50405e-05,0,-2.32921e-06,-1.21814e+09,-1.22107e+09,-1.21906e+09,-311299,-0.0121912,-0.173136,-0,0.173565,-1707.89,-43696.5,-0,43729.9,311299
step02_gravity_refstate-mantle.xmf,385,6.97449e-06,-1.60609e-05,0,3.43513e-06,-1.17257e+09,-1.17565e+09,-1.1735e+09,459105,0.0157491,-0.192944,0,0.193586,2109.66,-42286.8,0,42339.4,459105
step02_gravity_refstate-mantle.xmf,386,7.45522e-06,-1.67269e-05,0,2.0073e-06,-1.17546e+09,-1.17869e+09,-1.17645e+09,268275,0.00915012,-0.196019,0,0.196232,1202.04,-42377.4,0,42394.5,268275
step02_gravity_refstate-mantle.xmf,387,5.95711e-06,-1.32022e-05,0,-3.32328e-06,-1.24952e+09,-1.25208e+09,-1.25031e+09,-444156,-0.0197639,-0.15297,-0,0.154241,-2988.55,-44664.1,-0,44764,444156
step02_gravity_refstate-mantle.xmf,388,5.58106e-06,-1.23438e-05,0,-3.31417e-06,-1.27648e+09,-1.27888e+09,-1.27723e+09,-442938,-0.0215208,-0.139893,-0,0.141539,-3411.53,-45496.8,-0,45624.5,442938
step02_gravity_refstate-mantle.xmf,389,4.55467e-06,-1.0583e-05,0,-3.81918e-06,-1.30243e+09,-1.30445e+09,-1.30303e+09,-510434,-0.0284318,-0.121236,-0,0.124525,-4918.17,-46295.8,-0,46556.3,510434
step02_gravity_refstate-mantle.xmf,390,4.15867e-06,-9.7891e-06,0,-3.70731e-06,-1.32832e+09,-1.33018e+09,-1.32887e+09,-495483,-0.0304404,-0.108949,-0,0.113122,-5547.22,-47095,-0,47420.6,495483
step02_gravity_refstate-mantle.xmf,391,2.88896e-06,-7.63561e-06,0,-3.58502e-06,-1.36967e+09,-1.37107e+09,-1.37005e+09,-479138,-0.0373843,-0.0829268,-0,0.090964,-7837.94,-48369.3,-0,49000.2,479138
step02_gravity_refstate-mantle.xmf,392,3.75394e-06,-9.01106e-06,0,-3.57149e-06,-1.35292e+09,-1.35462e+09,-1.35342e+09,-477329,-0.0325665,-0.0973074,-0,0.102612,-6255.66,-47854.2,-0,48261.4,477329
step02_gravity_refstate-mantle.xmf,393,2.70639e-06,-7.21927e-06,0,-3.27263e-06,-1.39974e+09,-1.40106e+09,-1.4001e+09,-437387,-0.0381004,-0.073005,-0,0.0823491,-8333.17,-49298.1,-0,49997.4,437387
step02_gravity_refstate-mantle.xmf,394,1.93732e-06,-5.85243e-06,0,-2.75416e-06,-1.44742e+09,-1.44846e+09,-1.44768e+09,-368094,-0.0416646,-0.0529949,-0,0.0674122,-10257.3,-50769.3,-0,51795.1,368094
step02_gravity_refstate-mantle.xmf,395,1.11892e-06,-4.5757e-06,0,-2.39838e-06,-1.46851e+09,-1.46927e+09,-1.46866e+09,-320543,-0.044595,-0.039612,-0,0.0596475,-12353.4,-51418.6,-0,52881.8,320543
step02_gravity_refstate-mantle.xmf,396,8.68664e-07,-4.04106e-06,0,-1.83287e-06,-1.52455e+09,-1.52521e+09,-1.52467e+09,-244963,-0.0453059,-0.0277127,-0,0.0531095,-13471.9,-53149.3,-0,54830.1,244963
step02_gravity_refstate-mantle.xmf,397,6.85073e-07,-3.65439e-06,0,-1.40616e-06,-1.56995e+09,-1.57053e+09,-1.57004e+09,-187933,-0.0457149,-0.0198159,-0,0.0498249,-14293,-54551.4,-0,56392.8,187933
step02_gravity_refstate-mantle.xmf,398,5.03716e-07,-3.29166e-06,0,-1.01272e-06,-1.6145e+09,-1.615e+09,-1.61456e+09,-135349,-0.0460244,-0.013272,-0,0.0478998,-15064.5,-55927.2,-0,57920.6,135349
step02_gravity_refstate-mantle.xmf,399,2.73101e-07,-2.87445e-06,0,-6.44926e-07,-1.65836e+09,-1.65878e+09,-1.6584e+09,-86194.4,-0.0462848,-0.00771325,-0,0.0469231,-15938.5,-57281.8,-0,59457.9,86194.4
step02_gravity_refstate-mantle.xmf,400,-1.6439e-08,-2.38177e-06,0,-3.05207e-07,-1.70207e+09,-1.70239e+09,-1.70207e+09,-40791,-0.0463934,-0.00322432,-0,0.0465053,-16966.9,-58631.3,-0,61036.9,40791
step02_gravity_refstate-mantle.xmf,401,-3.30775e-07,-1.85276e-06,0,3.29354e-09,-1.74641e+09,-1.74661e+09,-1.74636e+09,440.181,-0.0462074,8.20564e-20,-0,0.0462074,-18064.5,-60000,-0,62660.4,440.181
step02_gravity_refstate-mantle.xmf,402,3.55377e-06,-1.24843e-05,0,7.92429e-06,-1.09899e+09,-1.10113e+09,-1.09946e+09,1.05908e+06,0.0311182,-0.195994,0,0.198449,4783.65,-40000,0,40285,1.05908e+06
step02_gravity_refstate-mantle.xmf,403,7.49435e-06,-1.62724e-05,0,-2.44367e-07,-1.19787e+09,-1.20105e+09,-1.19887e+09,-32659.6,-0.0012152,-0.186641,-0,0.186645,-162.529,-43071.2,-0,43071.5,32659.6
step02_gravity_refstate-mantle.xmf,404,7.39201e-06,-1.61285e-05,0,1.0974e-06,-1.19901e+09,-1.20215e+09,-1.2e+09,146668,0.00537214,-0.185396,0,0.185474,722.13,-43106.1,0,43112.2,146668
step02_gravity_refstate-mantle.xmf,405,6.46639e-06,-1.39755e-05,0,-2.48372e-06,-1.24766e+09,-1.25039e+09,-1.24853e+09,-331949,-0.0142982,-0.158269,-0,0.158913,-2102.65,-44608.3,-0,44657.8,331949
step02_gravity_refstate-mantle.xmf,406,5.16964e-06,-1.14406e-05,0,-3.26769e-06,-1.30423e+09,-1.30645e+09,-1.30492e+09,-436727,-0.0235522,-0.126779,-0,0.128948,-3925.97,-46353.4,-0,46519.4,436727
step02_gravity_refstate-mantle.xmf,407,3.43084e-06,-8.39887e-06,0,-3.42973e-06,-1.37269e+09,-1.37427e+09,-1.37315e+09,-458383,-0.0342724,-0.0881896,-0,0.0946151,-6874.67,-48464.5,-0,48949.6,458383
step02_gravity_refstate-mantle.xmf,408,2.51271e-06,-6.73351e-06,0,-2.89063e-06,-1.43483e+09,-1.43606e+09,-1.43516e+09,-386332,-0.0389324,-0.0621951,-0,0.0733755,-8927.35,-50381.9,-0,51166.7,386332
step02_gravity_refstate-mantle.xmf,409,1.1436e-06,-4.50847e-06,0,-2.11724e-06,-1.49932e+09,-1.50008e+09,-1.49947e+09,-282969,-0.0445689,-0.0344188,-0,0.056312,-12558.8,-52370.6,-0,53855.4,282969
step02_gravity_refstate-mantle.xmf,410,1.58881e-06,-5.18899e-06,0,-2.31444e-06,-1.48649e+09,-1.4874e+09,-1.4867e+09,-309325,-0.0430632,-0.0412659,-0,0.0596432,-11356.9,-51975.6,-0,53201.9,309325
step02_gravity_refstate-mantle.xmf,411,2.53673e-06,-1.06654e-05,0,8.02556e-06,-1.09905e+09,-1.10082e+09,-1.09939e+09,1.07262e+06,0.0332215,-0.184199,0,0.187171,5477.46,-40000,0,40373.3,1.07262e+06
step02_gravity_refstate-mantle.xmf,412,3.35461e-06,-1.16193e-05,0,7.56565e-06,-1.11758e+09,-1.11958e+09,-1.11803e+09,1.01115e+06,0.0326692,-0.183514,0,0.186399,5127.75,-40575.3,0,40898,1.01115e+06
step02_gravity_refstate-mantle.xmf,413,5.75772e-06,-1.46288e-05,0,5.56625e-06,-1.15374e+09,-1.15647e+09,-1.15451e+09,743930,0.0249302,-0.19026,0,0.191886,3488.55,-41700.7,0,41846.3,743930
step02_gravity_refstate-mantle.xmf,414,4.1083e-06,-1.24261e-05,0,7.01946e-06,-1.13524e+09,-1.13745e+09,-1.13579e+09,938150,0.0312608,-0.182873,0,0.185526,4723.41,-41123.7,0,41394.1,938150
step02_gravity_refstate-mantle.xmf,415,6.21176e-06,-1.48071e-05,0,4.62707e-06,-1.17541e+09,-1.17822e+09,-1.17624e+09,618408,0.0217502,-0.184756,0,0.186032,3027.36,-42372.6,0,42480.6,618408
step02_gravity_refstate-mantle.xmf,416,7.19244e-06,-1.53925e-05,0,-9.47526e-07,-1.22183e+09,-1.22485e+09,-1.22279e+09,-126637,-0.0049753,-0.174352,-0,0.174423,-689.596,-43811.5,-0,43816.9,126637
step02_gravity_refstate-mantle.xmf,417,7.06674e-06,-1.56459e-05,0,2.42035e-06,-1.19911e+09,-1.20215e+09,-1.20005e+09,323480,0.0119583,-0.182469,0,0.18286,1631.59,-43108.3,0,43139.1,323480
step02_gravity_refstate-mantle.xmf,418,6.09126e-06,-1.30534e-05,0,-2.55119e-06,-1.27497e+09,-1.27753e+09,-1.27578e+09,-340966,-0.0162287,-0.145152,-0,0.146057,-2498.25,-45451.7,-0,45520.3,340966
step02_gravity_refstate-mantle.xmf,419,6.83102e-06,-1.44838e-05,0,-1.4379e-06,-1.24703e+09,-1.24988e+09,-1.24794e+09,-192176,-0.00818365,-0.161699,-0,0.161906,-1181.69,-44589.9,-0,44605.5,192176
step02_gravity_refstate-mantle.xmf,420,5.76856e-06,-1.22843e-05,0,-2.49257e-06,-1.30538e+09,-1.30779e+09,-1.30615e+09,-333132,-0.0173096,-0.131999,-0,0.133129,-2791.18,-46390.9,-0,46474.8,333132
step02_gravity_refstate-mantle.xmf,421,4.77696e-06,-1.06296e-05,0,-3.20866e-06,-1.332e+09,-1.33406e+09,-1.33264e+09,-428837,-0.0256089,-0.114158,-0,0.116995,-4489.54,-47210.8,-0,47423.8,428837
step02_gravity_refstate-mantle.xmf,422,4.37047e-06,-9.82779e-06,0,-3.1422e-06,-1.36093e+09,-1.36283e+09,-1.36151e+09,-419955,-0.0279354,-0.101319,-0,0.1051,-5168.19,-48103.7,-0,48380.5,419955
step02_gravity_refstate-mantle.xmf,423,3.32884e-06,-8.07905e-06,0,-3.13455e-06,-1.40037e+09,-1.4019e+09,-1.40082e+09,-418932,-0.0345155,-0.0795622,-0,0.0867264,-7149.1,-49319.6,-0,49835.1,418932
step02_gravity_refstate-mantle.xmf,424,3.92274e-06,-8.96633e-06,0,-2.99248e-06,-1.3922e+09,-1.39392e+09,-1.39273e+09,-399945,-0.0305214,-0.0879104,-0,0.093058,-5989.86,-49068.9,-0,49433.2,399945
step02_gravity_refstate-mantle.xmf,425,3.10644e-06,-7.6097e-06,0,-2.8528e-06,-1.43178e+09,-1.43321e+09,-1.43219e+09,-381277,-0.0354921,-0.0691909,-0,0.0777629,-7679.44,-50289.4,-0,50872.4,381277
step02_gravity_refstate-mantle.xmf,426,2.48067e-06,-6.52268e-06,0,-2.50672e-06,-1.47241e+09,-1.47362e+09,-1.47274e+09,-335023,-0.0388993,-0.0532164,-0,0.0659177,-9195.09,-51543.3,-0,52357,335023
step02_gravity_refstate-mantle.xmf,427,1.45763e-06,-4.875e-06,0,-1.90009e-06,-1.52947e+09,-1.53032e+09,-1.52967e+09,-253947,-0.0435034,-0.0322894,-0,0.054177,-11954.8,-53303.2,-0,54627.4,253947
step02_gravity_refstate-mantle.xmf,428,1.26533e-06,-4.48787e-06,0,-1.51422e-06,-1.56922e+09,-1.56999e+09,-1.56939e+09,-202376,-0.0441515,-0.0242764,-0,0.0503855,-12685.2,-54530.8,-0,55986.8,202376
step02_gravity_refstate-mantle.xmf,429,1.05954e-06,-4.08842e-06,0,-1.11264e-06,-1.61248e+09,-1.61316e+09,-1.61262e+09,-148705,-0.044775,-0.0167023,-0,0.0477888,-13455.2,-55866.5,-0,57464,148705
step02_gravity_refstate-mantle.xmf,430,8.24524e-07,-3.66043e-06,0,-7.15172e-07,-1.65732e+09,-1.65792e+09,-1.65743e+09,-95582.8,-0.0453792,-0.0099453,-0,0.0464563,-14283.3,-57251.3,-0,59006.1,95582.8
step02_gravity_refstate-mantle.xmf,431,5.43351e-07,-3.1802e-06,0,-3.41272e-07,-1.70201e+09,-1.7025e+09,-1.70208e+09,-45611,-0.0459315,-0.00431635,-0,0.0461338,-15211.1,-58630.9,-0,60572,45611
step02_gravity_refstate-mantle.xmf,432,2.24269e-07,-2.65256e-06,0,2.91325e-09,-1.74635e+09,-1.74674e+09,-1.74638e+09,389.356,-0.0463045,9.61738e-20,-0,0.0463045,-16224.1,-60000,-0,62154.8,389.356
step02_gravity_refstate-mantle.xmf,433,2.41057e-06,-9.96897e-06,0,7.59085e-06,-1.1182e+09,-1.11986e+09,-1.11852e+09,1.01452e+06,0.0347506,-0.171914,0,0.175391,5848.3,-40592.4,0,41011.6,1.01452e+06
step02_gravity_refstate-mantle.xmf,434,4.79152e-06,-1.30685e-05,0,6.30515e-06,-1.15467e+09,-1.15706e+09,-1.15531e+09,842683,0.0292582,-0.180507,0,0.182863,4311.92,-41727,0,41949.2,842683
step02_gravity_refstate-mantle.xmf,435,6.51395e-06,-1.48223e-05,0,3.60372e-06,-1.19931e+09,-1.20216e+09,-1.20018e+09,481637,0.0181535,-0.17741,0,0.178337,2543.19,-43112.8,0,43187.8,481637
step02_gravity_refstate-mantle.xmf,436,7.23249e-06,-1.54172e-05,0,3.24817e-07,-1.22345e+09,-1.22648e+09,-1.22442e+09,43411.8,0.00165965,-0.174091,0,0.174099,229.994,-43861.8,0,43862.4,43411.8
step02_gravity_refstate-mantle.xmf,437,7.03938e-06,-1.51595e-05,0,1.54974e-06,-1.22394e+09,-1.22691e+09,-1.22488e+09,207123,0.00821684,-0.172347,0,0.172543,1148.47,-43876.3,0,43891.3,207123
step02_gravity_refstate-mantle.xmf,438,6.49245e-06,-1.36953e-05,0,-1.76568e-06,-1.26893e+09,-1.27163e+09,-1.2698e+09,-235983,-0.0108564,-0.150927,-0,0.151317,-1627.27,-45266.3,-0,45295.5,235983
step02_gravity_refstate-mantle.xmf,439,5.35003e-06,-1.14276e-05,0,-2.58522e-06,-1.33269e+09,-1.33493e+09,-1.3334e+09,-345515,-0.0199567,-0.11947,-0,0.121125,-3378.83,-47233.8,-0,47354.5,345515
step02_gravity_refstate-mantle.xmf,440,2.86876e-06,-7.14358e-06,0,-2.6309e-06,-1.45631e+09,-1.45765e+09,-1.4567e+09,-351620,-0.0367209,-0.0608068,-0,0.0710344,-8265.26,-51047,-0,51711.8,351620
step02_gravity_refstate-mantle.xmf,441,2.10797e-06,-5.91684e-06,0,-2.31821e-06,-1.49091e+09,-1.49198e+09,-1.49119e+09,-309828,-0.0407795,-0.0455778,-0,0.061158,-10149.6,-52113.5,-0,53092.7,309828
step02_gravity_refstate-mantle.xmf,442,1.64161e-06,-9.0112e-06,0,7.8282e-06,-1.09911e+09,-1.10054e+09,-1.09933e+09,1.04624e+06,0.0346946,-0.171958,0,0.175424,6184.51,-40000,0,40475.3,1.04624e+06
step02_gravity_refstate-mantle.xmf,443,3.1491e-06,-1.08369e-05,0,7.211e-06,-1.1357e+09,-1.13757e+09,-1.13613e+09,963750,0.034044,-0.171718,0,0.175061,5491.58,-41135.8,0,41500.7,963750
step02_gravity_refstate-mantle.xmf,444,5.36174e-06,-1.35273e-05,0,5.45106e-06,-1.17624e+09,-1.17877e+09,-1.17696e+09,728534,0.02672,-0.17631,0,0.178323,3889.15,-42395.9,0,42573.9,728534
step02_gravity_refstate-mantle.xmf,445,3.81456e-06,-1.1506e-05,0,6.70454e-06,-1.15539e+09,-1.15744e+09,-1.1559e+09,896062,0.032764,-0.169931,0,0.173061,5127.84,-41746.6,0,42060.4,896062
step02_gravity_refstate-mantle.xmf,446,5.79214e-06,-1.3704e-05,0,4.59053e-06,-1.19988e+09,-1.20249e+09,-1.20066e+09,613525,0.0236575,-0.17049,0,0.172124,3438.98,-43128.6,0,43265.5,613525
step02_gravity_refstate-mantle.xmf,447,6.9792e-06,-1.46658e-05,0,-2.91772e-07,-1.24842e+09,-1.25131e+09,-1.24935e+09,-38995.3,-0.00168741,-0.162492,-0,0.162501,-242.194,-44633.3,-0,44633.9,38995.3
step02_gravity_refstate-mantle.xmf,448,6.65154e-06,-1.45909e-05,0,2.69113e-06,-1.22423e+09,-1.22706e+09,-1.22511e+09,359670,0.0144819,-0.168778,0,0.169398,2062.63,-43884,0,43932.4,359670
step02_gravity_refstate-mantle.xmf,449,6.25217e-06,-1.29835e-05,0,-1.57462e-06,-1.30008e+09,-1.30265e+09,-1.30092e+09,-210447,-0.0105859,-0.138019,-0,0.138425,-1655.87,-46228.6,-0,46258.3,210447
step02_gravity_refstate-mantle.xmf,450,6.66519e-06,-1.38609e-05,0,-7.52054e-07,-1.27495e+09,-1.27769e+09,-1.27584e+09,-100512,-0.00466887,-0.150384,-0,0.150457,-697.872,-45452.9,-0,45458.2,100512
step02_gravity_refstate-mantle.xmf,451,5.80645e-06,-1.2042e-05,0,-1.81728e-06,-1.33419e+09,-1.33657e+09,-1.33496e+09,-242880,-0.0136929,-0.123115,-0,0.123874,-2262.63,-47281.5,-0,47335.6,242880
step02_gravity_refstate-mantle.xmf,452,4.93566e-06,-1.05913e-05,0,-2.59976e-06,-1.36373e+09,-1.36581e+09,-1.36439e+09,-347458,-0.0225031,-0.106099,-0,0.108459,-4017.13,-48192.1,-0,48359.3,347458
step02_gravity_refstate-mantle.xmf,453,4.5597e-06,-9.84651e-06,0,-2.54959e-06,-1.39579e+09,-1.39771e+09,-1.39639e+09,-340753,-0.0248428,-0.0931393,-0,0.0963955,-4671.96,-49181.6,-0,49403,340753
step02_gravity_refstate-mantle.xmf,454,3.66356e-06,-8.37553e-06,0,-2.66887e-06,-1.43144e+09,-1.43305e+09,-1.43193e+09,-356695,-0.0315656,-0.074834,-0,0.0812189,-6517.33,-50280.7,-0,50701.3,356695
step02_gravity_refstate-mantle.xmf,455,3.37902e-06,-7.79015e-06,0,-2.38518e-06,-1.46834e+09,-1.46983e+09,-1.46879e+09,-318780,-0.0330566,-0.0627783,-0,0.0709496,-7172.68,-51420.2,-0,51918,318780
step02_gravity_refstate-mantle.xmf,456,2.95031e-06,-7.12147e-06,0,-2.30962e-06,-1.48614e+09,-1.48749e+09,-1.48654e+09,-308681,-0.0359117,-0.054565,-0,0.0653222,-8187.75,-51969,-0,52610,308681
step02_gravity_refstate-mantle.xmf,457,2.02843e-06,-5.67451e-06,0,-1.96802e-06,-1.52671e+09,-1.52774e+09,-1.52698e+09,-263026,-0.0410603,-0.0377041,-0,0.0557454,-10531.8,-53219.7,-0,54251.8,263026
step02_gravity_refstate-mantle.xmf,458,2.62639e-06,-6.54139e-06,0,-2.0382e-06,-1.51769e+09,-1.51891e+09,-1.51804e+09,-272405,-0.037754,-0.0446538,-0,0.058475,-9049.46,-52942.8,-0,53710.6,272405
step02_gravity_refstate-mantle.xmf,459,1.84621e-06,-5.30774e-06,0,-1.57889e-06,-1.56838e+09,-1.56934e+09,-1.56863e+09,-211019,-0.041798,-0.0286389,-0,0.0506681,-11167.1,-54506.6,-0,55638.8,211019
step02_gravity_refstate-mantle.xmf,460,1.63846e-06,-4.90277e-06,0,-1.179e-06,-1.61118e+09,-1.61205e+09,-1.6114e+09,-157573,-0.042658,-0.0201548,-0,0.0471797,-11879.4,-55828.2,-0,57078.1,157573
step02_gravity_refstate-mantle.xmf,461,1.4091e-06,-4.48096e-06,0,-7.73889e-07,-1.6558e+09,-1.65658e+09,-1.65599e+09,-103430,-0.0435476,-0.0123729,-0,0.0452712,-12637.6,-57206,-0,58585.3,103430
step02_gravity_refstate-mantle.xmf,462,1.14095e-06,-4.01908e-06,0,-3.77407e-07,-1.70102e+09,-1.70171e+09,-1.70117e+09,-50440.5,-0.0444712,-0.00557416,-0,0.0448192,-13474.5,-58602.4,-0,60131.5,50440.5
step02_gravity_refstate-mantle.xmf,463,8.20114e-07,-3.49395e-06,0,2.32915e-09,-1.74629e+09,-1.74687e+09,-1.7464e+09,311.292,-0.0453651,1.13348e-19,-0,0.0453651,-14424.9,-60000,-0,61709.6,311.292
step02_gravity_refstate-mantle.xmf,464,1.64018e-06,-8.44833e-06,0,7.27007e-06,-1.12335e+09,-1.1247e+09,-1.12357e+09,971645,0.0365099,-0.157825,0,0.161993,6644.01,-40750.2,0,41288.2,971645
step02_gravity_refstate-mantle.xmf,465,2.35281e-06,-9.49113e-06,0,7.2155e-06,-1.13479e+09,-1.13637e+09,-1.1351e+09,964351,0.035851,-0.16214,0,0.166057,6156.34,-41105.5,0,41564,964351
step02_gravity_refstate-mantle.xmf,466,4.43616e-06,-1.2072e-05,0,6.05684e-06,-1.17659e+09,-1.17879e+09,-1.17718e+09,809496,0.0308588,-0.166982,0,0.169809,4735.28,-42404,0,42667.6,809496
step02_gravity_refstate-mantle.xmf,467,6.08315e-06,-1.37572e-05,0,3.68328e-06,-1.22444e+09,-1.22709e+09,-1.22525e+09,492271,0.0202864,-0.163505,0,0.164758,2973.64,-43888.8,0,43989.5,492271
step02_gravity_refstate-mantle.xmf,468,6.92353e-06,-1.45713e-05,0,8.3681e-07,-1.24898e+09,-1.25186e+09,-1.24991e+09,111840,0.00469993,-0.161813,0,0.161881,676.808,-44650.7,0,44655.8,111840
step02_gravity_refstate-mantle.xmf,469,6.66122e-06,-1.42208e-05,0,1.89364e-06,-1.24941e+09,-1.2522e+09,-1.2503e+09,253084,0.0109169,-0.159453,0,0.159827,1591.89,-44663,0,44691.4,253084
step02_gravity_refstate-mantle.xmf,470,5.41169e-06,-1.12428e-05,0,-1.95337e-06,-1.36471e+09,-1.36693e+09,-1.36543e+09,-261068,-0.0164449,-0.110274,-0,0.111494,-2852.76,-48223.8,-0,48308.1,261068
step02_gravity_refstate-mantle.xmf,471,4.22462e-06,-9.15482e-06,0,-2.36951e-06,-1.43127e+09,-1.43306e+09,-1.43184e+09,-316684,-0.0266664,-0.0802331,-0,0.0845485,-5275.19,-50277.4,-0,50553.4,316684
step02_gravity_refstate-mantle.xmf,472,9.2782e-07,-7.5728e-06,0,7.42877e-06,-1.09915e+09,-1.10028e+09,-1.09927e+09,992855,0.0356166,-0.159493,0,0.163421,6909.43,-40000,0,40592.4,992855
step02_gravity_refstate-mantle.xmf,473,2.95195e-06,-1.01247e-05,0,6.84789e-06,-1.15442e+09,-1.15617e+09,-1.15481e+09,915220,0.0352989,-0.160178,0,0.164022,5877.38,-41714.3,0,42126.3,915220
step02_gravity_refstate-mantle.xmf,474,4.97257e-06,-1.25009e-05,0,5.27708e-06,-1.19995e+09,-1.20228e+09,-1.20061e+09,705281,0.0283978,-0.162479,0,0.164942,4319.94,-43128.2,0,43344,705281
step02_gravity_refstate-mantle.xmf,475,3.5356e-06,-1.0658e-05,0,6.363e-06,-1.17669e+09,-1.17858e+09,-1.17716e+09,850415,0.0341461,-0.157128,0,0.160795,5559.64,-42404.8,0,42767.7,850415
step02_gravity_refstate-mantle.xmf,476,5.38021e-06,-1.26916e-05,0,4.50432e-06,-1.22466e+09,-1.22708e+09,-1.22538e+09,602003,0.0254698,-0.156763,0,0.158818,3878.19,-43893.9,0,44064.9,602003
step02_gravity_refstate-mantle.xmf,477,6.72341e-06,-1.39443e-05,0,2.42786e-07,-1.27424e+09,-1.277e+09,-1.27514e+09,32448.4,0.00144287,-0.1511,0,0.151107,214.811,-45431.1,0,45431.6,32448.4
step02_gravity_refstate-mantle.xmf,478,6.24009e-06,-1.36145e-05,0,2.86229e-06,-1.24958e+09,-1.25224e+09,-1.25042e+09,382545,0.0167981,-0.155584,0,0.156489,2502.52,-44667,0,44737.1,382545
step02_gravity_refstate-mantle.xmf,479,6.42471e-06,-1.31664e-05,0,-5.0285e-07,-1.30555e+09,-1.30817e+09,-1.30641e+09,-67205.9,-0.00340184,-0.137795,-0,0.137837,-529.802,-46398.4,-0,46401.4,67205.9
step02_gravity_refstate-mantle.xmf,480,6.10077e-06,-1.24361e-05,0,-9.34352e-07,-1.33443e+09,-1.33691e+09,-1.33525e+09,-124876,-0.0069594,-0.125654,-0,0.125847,-1131.79,-47290.1,-0,47303.6,124876
step02_gravity_refstate-mantle.xmf,481,5.7645e-06,-1.17155e-05,0,-1.21154e-06,-1.36483e+09,-1.36716e+09,-1.3656e+09,-161922,-0.00998073,-0.113312,-0,0.11375,-1697.62,-48228.6,-0,48258.5,161922
step02_gravity_refstate-mantle.xmf,482,5.04615e-06,-1.05045e-05,0,-2.00917e-06,-1.39647e+09,-1.39855e+09,-1.39715e+09,-268525,-0.0190286,-0.0975706,-0,0.0994088,-3465.72,-49204.4,-0,49326.3,268525
step02_gravity_refstate-mantle.xmf,483,4.72138e-06,-9.85777e-06,0,-1.99145e-06,-1.4289e+09,-1.43085e+09,-1.42953e+09,-266157,-0.0212945,-0.0853874,-0,0.0880027,-4063.24,-50205.5,-0,50369.7,266157
step02_gravity_refstate-mantle.xmf,484,3.94416e-06,-8.60048e-06,0,-2.20308e-06,-1.46285e+09,-1.46452e+09,-1.46338e+09,-294442,-0.0283646,-0.0693186,-0,0.0748974,-5859.72,-51252.3,-0,51586.2,294442
step02_gravity_refstate-mantle.xmf,485,3.33126e-06,-7.52653e-06,0,-1.93126e-06,-1.51679e+09,-1.51824e+09,-1.51723e+09,-258113,-0.0326997,-0.0506959,-0,0.060327,-7344.71,-52917.1,-0,53424.3,258113
step02_gravity_refstate-mantle.xmf,486,2.43394e-06,-6.1155e-06,0,-1.59912e-06,-1.56561e+09,-1.56676e+09,-1.56594e+09,-213723,-0.0386406,-0.0333053,-0,0.0510132,-9675.16,-54422.9,-0,55276.2,213723
step02_gravity_refstate-mantle.xmf,487,2.22261e-06,-5.7131e-06,0,-1.20802e-06,-1.60981e+09,-1.61087e+09,-1.61011e+09,-161452,-0.0396916,-0.0236241,-0,0.0461901,-10336.7,-55787.8,-0,56737.3,161452
step02_gravity_refstate-mantle.xmf,488,1.99707e-06,-5.29289e-06,0,-8.03041e-07,-1.6549e+09,-1.65587e+09,-1.65516e+09,-107326,-0.0408363,-0.0147364,-0,0.0434139,-11042.6,-57180,-0,58236.5,107326
step02_gravity_refstate-mantle.xmf,489,1.74557e-06,-4.85338e-06,0,-3.97099e-07,-1.70063e+09,-1.70152e+09,-1.70087e+09,-53072.3,-0.042054,-0.00678265,-0,0.0425974,-11798.7,-58592.3,-0,59768.5,53072.3
step02_gravity_refstate-mantle.xmf,490,1.44244e-06,-4.3571e-06,0,1.36866e-09,-1.74623e+09,-1.747e+09,-1.74642e+09,182.922,-0.0433703,1.26862e-19,-0,0.0433703,-12661.1,-60000,-0,61321.3,182.922
step02_gravity_refstate-mantle.xmf,491,3.27837e-07,-6.28576e-06,0,6.93098e-06,-1.09917e+09,-1.10005e+09,-1.09921e+09,926326,0.0360743,-0.146978,0,0.151341,7656.37,-40000,0,40726.2,926326
step02_gravity_refstate-mantle.xmf,492,9.14247e-07,-7.17544e-06,0,7.03174e-06,-1.1173e+09,-1.11838e+09,-1.11742e+09,939792,0.0370762,-0.148779,0,0.153329,7310.33,-40561.5,0,41215,939792
step02_gravity_refstate-mantle.xmf,493,2.17032e-06,-8.88123e-06,0,6.88868e-06,-1.14956e+09,-1.15104e+09,-1.14985e+09,920672,0.0369809,-0.15214,0,0.15657,6553.55,-41562.3,0,42075.9,920672
step02_gravity_refstate-mantle.xmf,494,4.1073e-06,-1.11568e-05,0,5.7554e-06,-1.20033e+09,-1.20237e+09,-1.20088e+09,769209,0.0323113,-0.153445,0,0.15681,5183.88,-43137.6,0,43448,769209
step02_gravity_refstate-mantle.xmf,495,5.67193e-06,-1.27906e-05,0,3.68959e-06,-1.2498e+09,-1.25227e+09,-1.25056e+09,493113,0.0222404,-0.150211,0,0.151849,3415.94,-44672.1,0,44802.5,493113
step02_gravity_refstate-mantle.xmf,496,6.58753e-06,-1.37348e-05,0,1.20712e-06,-1.2757e+09,-1.27842e+09,-1.27659e+09,161332,0.00741991,-0.149363,0,0.149547,1114.24,-45475.9,0,45489.6,161332
step02_gravity_refstate-mantle.xmf,497,6.27588e-06,-1.33315e-05,0,2.14481e-06,-1.27526e+09,-1.27788e+09,-1.2761e+09,286654,0.0134678,-0.146847,0,0.147463,2052.63,-45461.1,0,45507.4,286654
step02_gravity_refstate-mantle.xmf,498,5.41944e-06,-1.10161e-05,0,-1.38473e-06,-1.39642e+09,-1.39862e+09,-1.39714e+09,-185069,-0.0127931,-0.100978,-0,0.101785,-2276.46,-49203.9,-0,49256.6,185069
step02_gravity_refstate-mantle.xmf,499,4.42392e-06,-9.26707e-06,0,-1.89645e-06,-1.461e+09,-1.46283e+09,-1.46159e+09,-253460,-0.0232563,-0.0740775,-0,0.0776424,-4630.79,-51196.7,-0,51405.7,253460
step02_gravity_refstate-mantle.xmf,500,3.72188e-06,-8.16162e-06,0,-2.01825e-06,-1.49308e+09,-1.49467e+09,-1.49358e+09,-269739,-0.0296513,-0.0597352,-0,0.0666895,-6354.56,-52185.8,-0,52571.3,269739
step02_gravity_refstate-mantle.xmf,501,3.02622e-06,-6.93884e-06,0,-1.56225e-06,-1.56262e+09,-1.56395e+09,-1.56302e+09,-208795,-0.0345196,-0.0380817,-0,0.0513986,-8149.76,-54332.2,-0,54940.1,208795
step02_gravity_refstate-mantle.xmf,502,4.91648e-07,-6.18079e-06,0,6.57435e-06,-1.12229e+09,-1.12318e+09,-1.12236e+09,878662,0.0378469,-0.136867,0,0.142003,8014.53,-40715.6,0,41496.9,878662
step02_gravity_refstate-mantle.xmf,503,1.3388e-06,-7.52564e-06,0,6.76553e-06,-1.14304e+09,-1.14422e+09,-1.14322e+09,904212,0.0381515,-0.142925,0,0.14793,7309.47,-41358.6,0,41999.6,904212
step02_gravity_refstate-mantle.xmf,504,2.695e-06,-9.34558e-06,0,6.47165e-06,-1.17435e+09,-1.17595e+09,-1.17471e+09,864936,0.0366527,-0.147759,0,0.152238,6360.13,-42330.2,0,42805.3,864936
step02_gravity_refstate-mantle.xmf,505,4.6052e-06,-1.1562e-05,0,5.05344e-06,-1.22493e+09,-1.22709e+09,-1.22555e+09,675392,0.0299359,-0.148876,0,0.151855,4774.17,-43899.9,0,44158.8,675392
step02_gravity_refstate-mantle.xmf,506,3.25899e-06,-9.84952e-06,0,6.00213e-06,-1.19948e+09,-1.20123e+09,-1.19992e+09,802185,0.035472,-0.144205,0,0.148504,6036.89,-43109.1,0,43529.8,802185
step02_gravity_refstate-mantle.xmf,507,4.99466e-06,-1.17752e-05,0,4.3641e-06,-1.25015e+09,-1.25239e+09,-1.25082e+09,583262,0.0271223,-0.143511,0,0.146052,4332.3,-44681,0,44890.6,583262
step02_gravity_refstate-mantle.xmf,508,6.42902e-06,-1.31858e-05,0,5.56972e-07,-1.304e+09,-1.30662e+09,-1.30485e+09,74439.4,0.00370676,-0.138388,0,0.138438,576.384,-46350.2,0,46353.8,74439.4
step02_gravity_refstate-mantle.xmf,509,5.84279e-06,-1.27227e-05,0,2.97059e-06,-1.27456e+09,-1.27704e+09,-1.27534e+09,397019,0.0190141,-0.14308,0,0.144338,2964.11,-45438.2,0,45534.8,397019
step02_gravity_refstate-mantle.xmf,510,6.20404e-06,-1.25804e-05,0,1.38654e-08,-1.33376e+09,-1.33627e+09,-1.33459e+09,1853.11,5.52764e-05,-0.126808,0,0.126808,8.94099,-47269.7,0,47269.7,1853.11
step02_gravity_refstate-mantle.xmf,511,5.9433e-06,-1.19583e-05,0,-3.87306e-07,-1.36429e+09,-1.36668e+09,-1.36508e+09,-51763.4,-0.00318877,-0.115068,-0,0.115113,-536.677,-48212.6,-0,48215.6,51763.4
step02_gravity_refstate-mantle.xmf,512,5.66412e-06,-1.13382e-05,0,-6.90508e-07,-1.39611e+09,-1.39838e+09,-1.39687e+09,-92286.4,-0.00628591,-0.103119,-0,0.10331,-1102.98,-49195.2,-0,49207.5,92286.4
step02_gravity_refstate-mantle.xmf,513,5.11261e-06,-1.03842e-05,0,-1.45936e-06,-1.42896e+09,-1.43103e+09,-1.42964e+09,-195043,-0.0152372,-0.0889145,-0,0.0902107,-2832.73,-50208.7,-0,50288.5,195043
step02_gravity_refstate-mantle.xmf,514,4.83477e-06,-9.82735e-06,0,-1.49555e-06,-1.45987e+09,-1.46183e+09,-1.46052e+09,-199880,-0.0176372,-0.077854,-0,0.0798268,-3413.33,-51163.1,-0,51276.9,199880
step02_gravity_refstate-mantle.xmf,515,4.15664e-06,-8.75152e-06,0,-1.77922e-06,-1.49238e+09,-1.49411e+09,-1.49294e+09,-237793,-0.025141,-0.0635796,-0,0.0683698,-5207.08,-52165.5,-0,52424.8,237793
step02_gravity_refstate-mantle.xmf,516,3.88312e-06,-8.24306e-06,0,-1.63896e-06,-1.52559e+09,-1.52721e+09,-1.52611e+09,-219048,-0.0272605,-0.0529593,-0,0.0595636,-5878.38,-53191,-0,53514.8,219048
step02_gravity_refstate-mantle.xmf,517,3.58202e-06,-7.69876e-06,0,-1.42898e-06,-1.56312e+09,-1.56462e+09,-1.5636e+09,-190983,-0.0295819,-0.0417493,-0,0.0511674,-6657.05,-54349.5,-0,54755.6,190983
step02_gravity_refstate-mantle.xmf,518,2.79195e-06,-6.48384e-06,0,-1.1904e-06,-1.60757e+09,-1.60881e+09,-1.60794e+09,-159097,-0.0359388,-0.0271657,-0,0.0450508,-8830.59,-55720.4,-0,56415.8,159097
step02_gravity_refstate-mantle.xmf,519,2.57745e-06,-6.08652e-06,0,-8.08549e-07,-1.65319e+09,-1.65435e+09,-1.65354e+09,-108063,-0.0372545,-0.0172224,-0,0.0410428,-9471.52,-57129.3,-0,57909.1,108063
step02_gravity_refstate-mantle.xmf,520,2.3483e-06,-5.67501e-06,0,-4.05691e-07,-1.69981e+09,-1.70088e+09,-1.70012e+09,-54220.5,-0.0386811,-0.00806289,-0,0.0395125,-10149.5,-58568.7,-0,59441.6,54220.5
step02_gravity_refstate-mantle.xmf,521,2.07243e-06,-5.21725e-06,0,3.40429e-10,-1.74616e+09,-1.74714e+09,-1.74644e+09,45.4983,-0.0403231,1.40835e-19,-0,0.0403231,-10927.1,-60000,-0,60986.9,45.4983
step02_gravity_refstate-mantle.xmf,522,-1.04622e-07,-5.21421e-06,0,6.35868e-06,-1.09917e+09,-1.09986e+09,-1.09916e+09,849838,0.0361578,-0.13455,0,0.139323,8429.03,-40000,0,40878.5,849838
step02_gravity_refstate-mantle.xmf,523,2.00149e-06,-8.30465e-06,0,6.53203e-06,-1.16687e+09,-1.16825e+09,-1.16714e+09,873006,0.0380668,-0.141696,0,0.14672,6977.53,-42097.3,0,42671.7,873006
step02_gravity_refstate-mantle.xmf,524,3.78837e-06,-1.03108e-05,0,5.43824e-06,-1.22497e+09,-1.22685e+09,-1.22548e+09,726821,0.0336941,-0.140175,0,0.144168,5669.99,-43898.8,0,44263.5,726821
step02_gravity_refstate-mantle.xmf,525,5.28902e-06,-1.1916e-05,0,3.63825e-06,-1.2752e+09,-1.2775e+09,-1.27591e+09,486252,0.0240343,-0.137601,0,0.139684,3868.16,-45456.3,0,45620.6,486252
step02_gravity_refstate-mantle.xmf,526,6.23237e-06,-1.29263e-05,0,1.52123e-06,-1.30291e+09,-1.30547e+09,-1.30374e+09,203313,0.0102439,-0.137018,0,0.137401,1607.29,-46315.9,0,46343.8,203313
step02_gravity_refstate-mantle.xmf,527,5.88396e-06,-1.2493e-05,0,2.36642e-06,-1.30019e+09,-1.30265e+09,-1.30098e+09,316272,0.0161779,-0.134867,0,0.135834,2578.05,-46230.8,0,46302.6,316272
step02_gravity_refstate-mantle.xmf,528,5.37765e-06,-1.07475e-05,0,-8.98402e-07,-1.42768e+09,-1.42984e+09,-1.4284e+09,-120071,-0.00919521,-0.0915967,-0,0.0920571,-1679.59,-50170,-0,50198.1,120071
step02_gravity_refstate-mantle.xmf,529,4.56966e-06,-9.31598e-06,0,-1.45669e-06,-1.49075e+09,-1.4926e+09,-1.49136e+09,-194687,-0.0197474,-0.0673856,-0,0.0702195,-3966.2,-52116.4,-0,52267.1,194687
step02_gravity_refstate-mantle.xmf,530,3.32727e-06,-7.21656e-06,0,-1.13121e-06,-1.6049e+09,-1.60631e+09,-1.60535e+09,-151187,-0.0314213,-0.0306631,-0,0.0439036,-7344.72,-55639.8,-0,56122.4,151187
step02_gravity_refstate-mantle.xmf,531,1.01379e-08,-5.13235e-06,0,6.07903e-06,-1.12077e+09,-1.12146e+09,-1.12077e+09,812462,0.0379311,-0.125416,0,0.131027,8804.67,-40668,0,41610.2,812462
step02_gravity_refstate-mantle.xmf,532,8.50952e-07,-6.49646e-06,0,6.37591e-06,-1.14853e+09,-1.14951e+09,-1.14865e+09,852140,0.0391486,-0.131258,0,0.136972,8045.6,-41527.8,0,42300,852140
step02_gravity_refstate-mantle.xmf,533,1.47036e-06,-7.315e-06,0,6.301e-06,-1.17069e+09,-1.17187e+09,-1.17089e+09,842129,0.0392894,-0.131837,0,0.137567,7651.92,-42214.4,0,42902.3,842129
step02_gravity_refstate-mantle.xmf,534,2.28205e-06,-8.36648e-06,0,6.10671e-06,-1.19393e+09,-1.19535e+09,-1.19423e+09,816162,0.0382753,-0.134034,0,0.139392,7029.63,-42934.8,0,43506.4,816162
step02_gravity_refstate-mantle.xmf,535,4.26057e-06,-1.07138e-05,0,4.80785e-06,-1.25039e+09,-1.25239e+09,-1.25096e+09,642569,0.0313712,-0.135822,0,0.139398,5251.91,-44686.2,0,44993.7,642569
step02_gravity_refstate-mantle.xmf,536,2.96722e-06,-9.05725e-06,0,5.61502e-06,-1.22399e+09,-1.22559e+09,-1.22438e+09,750448,0.0368337,-0.130853,0,0.135938,6593.74,-43866.2,0,44359,750448
step02_gravity_refstate-mantle.xmf,537,4.63336e-06,-1.09419e-05,0,4.18786e-06,-1.27635e+09,-1.27843e+09,-1.27697e+09,559707,0.0286582,-0.130709,0,0.133814,4805.76,-45490,0,45743.1,559707
step02_gravity_refstate-mantle.xmf,538,6.11846e-06,-1.24744e-05,0,9.38007e-07,-1.3322e+09,-1.33469e+09,-1.33302e+09,125365,0.00685245,-0.126543,0,0.126729,1111.06,-47221.2,0,47234.3,125365
step02_gravity_refstate-mantle.xmf,539,5.51896e-06,-1.20175e-05,0,3.02575e-06,-1.29566e+09,-1.298e+09,-1.29639e+09,404392,0.0208,-0.132917,0,0.134534,3369.69,-46089.5,0,46212.5,404392
step02_gravity_refstate-mantle.xmf,540,5.94621e-06,-1.19671e-05,0,4.55098e-07,-1.36307e+09,-1.36547e+09,-1.36387e+09,60823.9,0.0036218,-0.115467,0,0.115524,608.809,-48175,0,48178.8,60823.9
step02_gravity_refstate-mantle.xmf,541,5.73876e-06,-1.14373e-05,0,5.88266e-08,-1.39554e+09,-1.39784e+09,-1.39631e+09,7862.18,0.000475101,-0.103949,0,0.10395,82.9069,-49178,0,49178.1,7862.18
step02_gravity_refstate-mantle.xmf,542,5.53288e-06,-1.09573e-05,0,-2.71418e-07,-1.42572e+09,-1.42793e+09,-1.42646e+09,-36275,-0.00277496,-0.0934028,-0,0.093444,-501.831,-50110.1,-0,50112.6,36275
step02_gravity_refstate-mantle.xmf,543,5.14022e-06,-1.01934e-05,0,-9.08032e-07,-1.46446e+09,-1.46651e+09,-1.46515e+09,-121358,-0.0107816,-0.0791484,-0,0.0798793,-2051.61,-51306,-0,51347,121358
step02_gravity_refstate-mantle.xmf,544,4.86999e-06,-9.71755e-06,0,-1.10856e-06,-1.48907e+09,-1.49101e+09,-1.48972e+09,-148158,-0.014616,-0.0702027,-0,0.071708,-2874.03,-52065.4,-0,52144.7,148158
step02_gravity_refstate-mantle.xmf,545,4.32121e-06,-8.83103e-06,0,-1.35468e-06,-1.5254e+09,-1.52715e+09,-1.52597e+09,-181053,-0.0217034,-0.0563828,-0,0.0604158,-4524.18,-53186.3,-0,53378.4,181053
step02_gravity_refstate-mantle.xmf,546,4.06962e-06,-8.35181e-06,0,-1.21748e-06,-1.56281e+09,-1.56447e+09,-1.56335e+09,-162716,-0.0239457,-0.0450688,-0,0.0510352,-5182.68,-54341.6,-0,54588.1,162716
step02_gravity_refstate-mantle.xmf,547,3.81569e-06,-7.88008e-06,0,-1.01268e-06,-1.60312e+09,-1.60468e+09,-1.60363e+09,-135344,-0.0261923,-0.0337091,-0,0.0426889,-5875.59,-55586.2,-0,55895.9,135344
step02_gravity_refstate-mantle.xmf,548,3.09609e-06,-6.78619e-06,0,-8.01765e-07,-1.64808e+09,-1.6494e+09,-1.64849e+09,-107156,-0.0331841,-0.0202268,-0,0.0388627,-8022.35,-56972.9,-0,57535,107156
step02_gravity_refstate-mantle.xmf,549,2.95268e-06,-6.4893e-06,0,-3.94574e-07,-1.69901e+09,-1.70027e+09,-1.6994e+09,-52734.9,-0.0341721,-0.00936307,-0,0.0354316,-8447.45,-58546.1,-0,59152.3,52734.9
step02_gravity_refstate-mantle.xmf,550,2.6873e-06,-6.04555e-06,0,-7.95193e-10,-1.7461e+09,-1.74727e+09,-1.74646e+09,-106.278,-0.0362532,1.58163e-19,-0,0.0362532,-9217.14,-60000,-0,60703.8,106.278
step02_gravity_refstate-mantle.xmf,551,3.87003e-07,-5.76321e-06,0,6.24049e-06,-1.13427e+09,-1.13509e+09,-1.13432e+09,834042,0.0387367,-0.128155,0,0.133882,8456.87,-41086,0,41947.3,834042
step02_gravity_refstate-mantle.xmf,552,-4.18259e-07,-4.31738e-06,0,5.76668e-06,-1.09917e+09,-1.09969e+09,-1.09911e+09,770716,0.035945,-0.122309,0,0.127482,9230.72,-40000,0,41051.3,770716
step02_gravity_refstate-mantle.xmf,553,3.50117e-06,-9.57237e-06,0,5.11731e-06,-1.24952e+09,-1.25127e+09,-1.24999e+09,683929,0.0349362,-0.127777,0,0.132467,6165.24,-44657.1,0,45080.7,683929
step02_gravity_refstate-mantle.xmf,554,5.0054e-06,-1.11884e-05,0,3.40262e-06,-1.30637e+09,-1.30853e+09,-1.30704e+09,454761,0.0248686,-0.124469,0,0.126929,4196.11,-46419.1,0,46608.3,454761
step02_gravity_refstate-mantle.xmf,555,5.8481e-06,-1.21338e-05,0,1.8307e-06,-1.32962e+09,-1.33202e+09,-1.3304e+09,244673,0.0135412,-0.124936,0,0.125668,2223.1,-47140.6,0,47193,244673
step02_gravity_refstate-mantle.xmf,556,5.4626e-06,-1.16795e-05,0,2.62434e-06,-1.32197e+09,-1.32426e+09,-1.3227e+09,350743,0.019465,-0.1239,0,0.12542,3242.03,-46902.9,0,47014.8,350743
step02_gravity_refstate-mantle.xmf,557,5.34163e-06,-1.0544e-05,0,-5.13625e-07,-1.45105e+09,-1.45317e+09,-1.45176e+09,-68646,-0.00575977,-0.0846166,-0,0.0848124,-1072.51,-50892.1,-0,50903.4,68646
step02_gravity_refstate-mantle.xmf,558,4.67615e-06,-9.31674e-06,0,-1.02786e-06,-1.52258e+09,-1.52445e+09,-1.52321e+09,-137374,-0.0157906,-0.0597737,-0,0.0618243,-3204.16,-53100.5,-0,53197.1,137374
step02_gravity_refstate-mantle.xmf,559,3.57826e-06,-7.44014e-06,0,-7.49881e-07,-1.6447e+09,-1.64617e+09,-1.64518e+09,-100222,-0.0283031,-0.0228908,-0,0.0364013,-6552.43,-56870.1,-0,57246.4,100222
step02_gravity_refstate-mantle.xmf,560,2.49918e-07,-5.3118e-06,0,5.90674e-06,-1.14548e+09,-1.14622e+09,-1.14551e+09,789436,0.0395129,-0.1192,0,0.125579,8962.7,-41432.5,0,42390.8,789436
step02_gravity_refstate-mantle.xmf,561,-2.92123e-07,-4.33712e-06,0,5.57052e-06,-1.12256e+09,-1.1231e+09,-1.12252e+09,744500,0.0379586,-0.114181,0,0.120325,9580.44,-40723.2,0,41835,744500
step02_gravity_refstate-mantle.xmf,562,8.63476e-07,-6.17804e-06,0,5.95172e-06,-1.17192e+09,-1.17286e+09,-1.17203e+09,795448,0.0403306,-0.120306,0,0.126886,8520.94,-42251,0,43101.7,795448
step02_gravity_refstate-mantle.xmf,563,1.51389e-06,-7.02399e-06,0,5.85387e-06,-1.19724e+09,-1.19838e+09,-1.19744e+09,782370,0.0402149,-0.121005,0,0.127512,8045.39,-43035.3,0,43780.9,782370
step02_gravity_refstate-mantle.xmf,564,2.17872e-06,-7.81154e-06,0,5.59153e-06,-1.22381e+09,-1.22515e+09,-1.2241e+09,747307,0.0393096,-0.120495,0,0.126745,7554.87,-43858.6,0,44504.5,747307
step02_gravity_refstate-mantle.xmf,565,3.92514e-06,-9.93558e-06,0,4.56269e-06,-1.27566e+09,-1.27751e+09,-1.27619e+09,609804,0.0327886,-0.123401,0,0.127683,5766,-45466.5,0,45830.7,609804
step02_gravity_refstate-mantle.xmf,566,2.76831e-06,-8.44701e-06,0,5.20545e-06,-1.25049e+09,-1.25199e+09,-1.25086e+09,695709,0.0378326,-0.118525,0,0.124417,7095.78,-44685.1,0,45244.9,695709
step02_gravity_refstate-mantle.xmf,567,4.3051e-06,-1.0176e-05,0,3.96793e-06,-1.30442e+09,-1.30636e+09,-1.305e+09,530314,0.0300496,-0.118008,0,0.121773,5296.17,-46357,0,46658.5,530314
step02_gravity_refstate-mantle.xmf,568,5.76948e-06,-1.17355e-05,0,1.2898e-06,-1.36149e+09,-1.36383e+09,-1.36226e+09,172382,0.0104265,-0.114374,0,0.114848,1767.84,-48125.4,0,48157.9,172382
step02_gravity_refstate-mantle.xmf,569,5.65138e-06,-1.13211e-05,0,7.97479e-07,-1.39467e+09,-1.39694e+09,-1.39542e+09,106583,0.00712876,-0.103443,0,0.103688,1250.26,-49150.6,0,49166.5,106583
step02_gravity_refstate-mantle.xmf,570,5.51875e-06,-1.09306e-05,0,3.77326e-07,-1.42638e+09,-1.42858e+09,-1.42712e+09,50429.6,0.00372038,-0.0930894,0,0.0931637,673.567,-50130.3,0,50134.9,50429.6
step02_gravity_refstate-mantle.xmf,571,5.38078e-06,-1.05738e-05,0,3.17369e-08,-1.45482e+09,-1.45695e+09,-1.45554e+09,4241.64,0.000281399,-0.0838412,0,0.0838416,52.3575,-51008.7,0,51008.8,4241.64
step02_gravity_refstate-mantle.xmf,572,5.22034e-06,-1.02092e-05,0,-2.92974e-07,-1.48228e+09,-1.48434e+09,-1.48297e+09,-39155.9,-0.00372031,-0.0748445,-0,0.0749369,-712.468,-51856.8,-0,51861.7,39155.9
step02_gravity_refstate-mantle.xmf,573,4.99732e-06,-9.7725e-06,0,-6.21977e-07,-1.51236e+09,-1.51434e+09,-1.51303e+09,-83127.3,-0.00898317,-0.0647418,-0,0.065362,-1776.59,-52785.8,-0,52815.7,83127.3
step02_gravity_refstate-mantle.xmf,574,4.44928e-06,-8.8638e-06,0,-9.46407e-07,-1.56135e+09,-1.56313e+09,-1.56194e+09,-126487,-0.0179039,-0.0479914,-0,0.0512224,-3761.98,-54297.6,-0,54427.8,126487
step02_gravity_refstate-mantle.xmf,575,4.22728e-06,-8.42803e-06,0,-8.28441e-07,-1.60154e+09,-1.60323e+09,-1.60211e+09,-110721,-0.020358,-0.0363097,-0,0.0416274,-4421.08,-55538.8,-0,55714.5,110721
step02_gravity_refstate-mantle.xmf,576,4.00741e-06,-8.02598e-06,0,-6.67997e-07,-1.63982e+09,-1.64143e+09,-1.64035e+09,-89277.8,-0.0228391,-0.0257604,-0,0.034427,-5102.87,-56720.8,-0,56949.8,89277.8
step02_gravity_refstate-mantle.xmf,577,3.52734e-06,-7.24908e-06,0,-3.58524e-07,-1.69769e+09,-1.69913e+09,-1.69816e+09,-47916.8,-0.0285127,-0.0107404,-0,0.0304685,-6699.1,-58507.1,-0,58889.4,47916.8
step02_gravity_refstate-mantle.xmf,578,3.26241e-06,-6.8112e-06,0,-2.30285e-09,-1.74604e+09,-1.74738e+09,-1.74647e+09,-307.776,-0.0312204,1.78812e-19,-0,0.0312204,-7525.62,-60000,-0,60470.1,307.776
step02_gravity_refstate-mantle.xmf,579,-6.36821e-07,-3.57084e-06,0,5.18353e-06,-1.09915e+09,-1.09955e+09,-1.09907e+09,692779,0.0355027,-0.110333,0,0.115905,10064.5,-40000,0,41246.8,692779
step02_gravity_refstate-mantle.xmf,580,3.2707e-06,-9.0153e-06,0,4.84448e-06,-1.27037e+09,-1.27201e+09,-1.27081e+09,647464,0.0359354,-0.117755,0,0.123116,6603.87,-45301.1,0,45779.9,647464
step02_gravity_refstate-mantle.xmf,581,4.58031e-06,-1.03341e-05,0,3.34766e-06,-1.33354e+09,-1.33553e+09,-1.33415e+09,447415,0.0272117,-0.111667,0,0.114935,4841.16,-47257.7,0,47505,447415
step02_gravity_refstate-mantle.xmf,582,5.37498e-06,-1.12238e-05,0,2.17287e-06,-1.35685e+09,-1.35907e+09,-1.35757e+09,290405,0.0177719,-0.112249,0,0.113648,3070.02,-47980.9,0,48079,290405
step02_gravity_refstate-mantle.xmf,583,5.07749e-06,-1.10005e-05,0,2.86683e-06,-1.33616e+09,-1.33831e+09,-1.33684e+09,383152,0.0227384,-0.115704,0,0.117917,3928.48,-47340.3,0,47503,383152
step02_gravity_refstate-mantle.xmf,584,4.73568e-06,-9.25466e-06,0,-6.25192e-07,-1.5587e+09,-1.56057e+09,-1.55934e+09,-83556.9,-0.0114046,-0.0505629,-0,0.0518331,-2345.4,-54216.8,-0,54267.5,83556.9
step02_gravity_refstate-mantle.xmf,585,3.8116e-06,-7.68576e-06,0,-5.01003e-07,-1.67216e+09,-1.6737e+09,-1.67267e+09,-66959.1,-0.0251151,-0.0173073,-0,0.030501,-5739.61,-57719.4,-0,58004.1,66959.1
step02_gravity_refstate-mantle.xmf,586,-5.48956e-07,-3.58402e-06,0,5.01876e-06,-1.12309e+09,-1.1235e+09,-1.12302e+09,670757,0.0376361,-0.102433,0,0.109128,10456.6,-40740,0,42060.5,670757
step02_gravity_refstate-mantle.xmf,587,-1.52924e-07,-4.36352e-06,0,5.35549e-06,-1.14755e+09,-1.14812e+09,-1.14753e+09,715761,0.039682,-0.10639,0,0.113549,9914.35,-41496.3,0,42664.2,715761
step02_gravity_refstate-mantle.xmf,588,3.22506e-07,-5.11347e-06,0,5.51086e-06,-1.17188e+09,-1.17261e+09,-1.17192e+09,736526,0.0408909,-0.108405,0,0.115861,9468.49,-42249,0,43297,736526
step02_gravity_refstate-mantle.xmf,589,8.86487e-07,-5.89841e-06,0,5.52884e-06,-1.19782e+09,-1.19873e+09,-1.19794e+09,738929,0.0413751,-0.109533,0,0.117087,9005.29,-43052,0,43983.8,738929
step02_gravity_refstate-mantle.xmf,590,1.48895e-06,-6.66312e-06,0,5.40461e-06,-1.22445e+09,-1.22554e+09,-1.22465e+09,722326,0.0410896,-0.109747,0,0.117187,8526.09,-43876.8,0,44697.6,722326
step02_gravity_refstate-mantle.xmf,591,2.09839e-06,-7.39025e-06,0,5.1611e-06,-1.25101e+09,-1.25228e+09,-1.25129e+09,689782,0.0400529,-0.109329,0,0.116435,8010.81,-44699.4,0,45411.6,689782
step02_gravity_refstate-mantle.xmf,592,3.4221e-06,-8.94946e-06,0,4.39721e-06,-1.29934e+09,-1.30099e+09,-1.29979e+09,587687,0.0350676,-0.110094,0,0.115544,6556.22,-46197,0,46659.9,587687
step02_gravity_refstate-mantle.xmf,593,2.69932e-06,-8.08188e-06,0,4.82283e-06,-1.27685e+09,-1.27829e+09,-1.27721e+09,644571,0.0382822,-0.108583,0,0.115134,7436.09,-45499.7,0,46103.4,644571
step02_gravity_refstate-mantle.xmf,594,3.8991e-06,-9.35655e-06,0,3.79139e-06,-1.33152e+09,-1.33329e+09,-1.33204e+09,506720,0.0320346,-0.105256,0,0.110023,5965.23,-47193.3,0,47568.8,506720
step02_gravity_refstate-mantle.xmf,595,5.41592e-06,-1.10098e-05,0,1.5037e-06,-1.39258e+09,-1.39478e+09,-1.3933e+09,200970,0.013608,-0.101947,0,0.102851,2416.64,-49085.4,0,49144.8,200970
step02_gravity_refstate-mantle.xmf,596,5.36808e-06,-1.07311e-05,0,1.01069e-06,-1.42565e+09,-1.4278e+09,-1.42637e+09,135079,0.0101465,-0.0919963,0,0.0925541,1853.12,-50107.3,0,50141.5,135079
step02_gravity_refstate-mantle.xmf,597,5.29565e-06,-1.04536e-05,0,6.13823e-07,-1.45639e+09,-1.45849e+09,-1.45709e+09,82037.4,0.00683838,-0.0826908,0,0.0829731,1281.6,-51056.9,0,51073,82037.4
step02_gravity_refstate-mantle.xmf,598,5.20439e-06,-1.01682e-05,0,2.64981e-07,-1.48683e+09,-1.48888e+09,-1.48753e+09,35414.7,0.00327167,-0.0734501,0,0.0735229,628.694,-51997.5,0,52001.3,35414.7
step02_gravity_refstate-mantle.xmf,599,5.08309e-06,-9.85526e-06,0,-4.50342e-08,-1.51907e+09,-1.52107e+09,-1.51975e+09,-6018.82,-0.000738626,-0.0636022,-0,0.0636065,-145.614,-52993.5,-0,52993.7,6018.82
step02_gravity_refstate-mantle.xmf,600,4.91889e-06,-9.48968e-06,0,-2.43527e-07,-1.55632e+09,-1.55824e+09,-1.55698e+09,-32547.3,-0.00438589,-0.0522965,-0,0.0524801,-890.615,-54143.8,-0,54151.1,32547.3
step02_gravity_refstate-mantle.xmf,601,4.5313e-06,-8.83548e-06,0,-5.8296e-07,-1.60159e+09,-1.60338e+09,-1.6022e+09,-77912.6,-0.0139788,-0.0379749,-0,0.040466,-2966.55,-55541.4,-0,55620.5,77912.6
step02_gravity_refstate-mantle.xmf,602,4.34706e-06,-8.46074e-06,0,-4.97585e-07,-1.64084e+09,-1.64255e+09,-1.64142e+09,-66502.2,-0.0167607,-0.0268899,-0,0.0316857,-3650.21,-56753.4,-0,56870.6,66502.2
step02_gravity_refstate-mantle.xmf,603,4.15507e-06,-8.14443e-06,0,-4.17664e-07,-1.67041e+09,-1.67206e+09,-1.67097e+09,-55820.8,-0.0197507,-0.0187489,-0,0.0272326,-4390.98,-57666.5,-0,57833.4,55820.8
step02_gravity_refstate-mantle.xmf,604,3.98838e-06,-7.84946e-06,0,-2.56302e-07,-1.70425e+09,-1.70584e+09,-1.70479e+09,-34254.7,-0.0222421,-0.0100415,-0,0.0244038,-5036.07,-58711.5,-0,58927.1,34254.7
step02_gravity_refstate-mantle.xmf,605,3.76961e-06,-7.48139e-06,0,-2.63514e-09,-1.74598e+09,-1.74749e+09,-1.74649e+09,-352.186,-0.0253189,1.6033e-19,-0,0.0253189,-5846.82,-60000,-0,60284.2,352.186
step02_gravity_refstate-mantle.xmf,606,-7.816e-07,-2.95165e-06,0,4.62658e-06,-1.09913e+09,-1.09942e+09,-1.09903e+09,618342,0.0348866,-0.0986853,0,0.10467,10932.8,-40000,0,41467.2,618342
step02_gravity_refstate-mantle.xmf,607,4.82377e-06,-1.04435e-05,0,2.73993e-06,-1.36189e+09,-1.36393e+09,-1.36253e+09,366192,0.0237792,-0.10555,0,0.108196,4269.32,-48134.8,0,48323.7,366192
step02_gravity_refstate-mantle.xmf,608,4.23774e-06,-9.62528e-06,0,3.19876e-06,-1.36165e+09,-1.3635e+09,-1.36221e+09,427515,0.0289327,-0.099813,0,0.103922,5404.66,-48125.5,0,48428,427515
step02_gravity_refstate-mantle.xmf,609,5.0197e-06,-1.04693e-05,0,2.13026e-06,-1.39216e+09,-1.39423e+09,-1.39283e+09,284709,0.0198136,-0.0984865,0,0.10046,3604.58,-49071,0,49203.2,284709
step02_gravity_refstate-mantle.xmf,610,4.73577e-06,-9.11519e-06,0,-3.18009e-07,-1.59806e+09,-1.59991e+09,-1.59869e+09,-42501.8,-0.0073294,-0.0400138,-0,0.0406795,-1530.89,-55433,-0,55454.1,42501.8
step02_gravity_refstate-mantle.xmf,611,-7.33816e-07,-2.94196e-06,0,4.47518e-06,-1.12286e+09,-1.12315e+09,-1.12276e+09,598107,0.0370236,-0.0909555,0,0.0982021,11379.2,-40733.2,0,42292.8,598107
step02_gravity_refstate-mantle.xmf,612,-4.78499e-07,-3.53203e-06,0,4.79637e-06,-1.14646e+09,-1.14687e+09,-1.1464e+09,641035,0.0392953,-0.0942798,0,0.102141,10905.6,-41462.5,0,42872.7,641035
step02_gravity_refstate-mantle.xmf,613,-1.14239e-07,-4.18037e-06,0,5.01654e-06,-1.17091e+09,-1.17145e+09,-1.17089e+09,670460,0.0409483,-0.0966623,0,0.104978,10457.7,-42218.5,0,43494.4,670460
step02_gravity_refstate-mantle.xmf,614,3.5527e-07,-4.89247e-06,0,5.12566e-06,-1.19749e+09,-1.1982e+09,-1.19754e+09,685045,0.041982,-0.0982051,0,0.106802,9997.66,-43041,0,44186.9,685045
step02_gravity_refstate-mantle.xmf,615,8.93037e-07,-5.62789e-06,0,5.11685e-06,-1.22451e+09,-1.22538e+09,-1.22463e+09,683867,0.0422589,-0.0991604,0,0.10779,9507.9,-43877.3,0,44895.6,683867
step02_gravity_refstate-mantle.xmf,616,1.46321e-06,-6.35182e-06,0,4.99163e-06,-1.25151e+09,-1.25255e+09,-1.2517e+09,667131,0.0417898,-0.0994975,0,0.107917,8987.6,-44713.1,0,45607.4,667131
step02_gravity_refstate-mantle.xmf,617,2.06286e-06,-7.08187e-06,0,4.7704e-06,-1.27798e+09,-1.2792e+09,-1.27826e+09,637564,0.0405338,-0.0996844,0,0.10761,8388.46,-45533.1,0,46299.3,637564
step02_gravity_refstate-mantle.xmf,618,2.6927e-06,-7.80783e-06,0,4.42284e-06,-1.30564e+09,-1.30704e+09,-1.306e+09,591112,0.0383996,-0.0993027,0,0.106469,7692.21,-46389.7,0,47023.1,591112
step02_gravity_refstate-mantle.xmf,619,3.16102e-06,-8.30061e-06,0,4.0364e-06,-1.33061e+09,-1.33214e+09,-1.33103e+09,539465,0.036186,-0.0973607,0,0.103868,7133.46,-47162.9,0,47699.3,539465
step02_gravity_refstate-mantle.xmf,620,3.57473e-06,-8.6746e-06,0,3.54027e-06,-1.36077e+09,-1.36241e+09,-1.36125e+09,473157,0.0335307,-0.0931688,0,0.0990188,6575.28,-48096.5,0,48543.9,473157
step02_gravity_refstate-mantle.xmf,621,5.08878e-06,-1.03655e-05,0,1.60557e-06,-1.42318e+09,-1.42525e+09,-1.42386e+09,214585,0.0163528,-0.0902557,0,0.0917251,3033.72,-50030.1,0,50122,214585
step02_gravity_refstate-mantle.xmf,622,5.08709e-06,-1.01947e-05,0,1.18629e-06,-1.45371e+09,-1.45575e+09,-1.45439e+09,158548,0.0133699,-0.0817015,0,0.0827882,2534.42,-50973.5,0,51036.5,158548
step02_gravity_refstate-mantle.xmf,623,5.0577e-06,-9.97457e-06,0,7.9739e-07,-1.48712e+09,-1.48913e+09,-1.48779e+09,106571,0.0101329,-0.0722112,0,0.0729187,1966.06,-52005.9,0,52043,106571
step02_gravity_refstate-mantle.xmf,624,5.01138e-06,-9.7545e-06,0,4.47461e-07,-1.52066e+09,-1.52263e+09,-1.52133e+09,59803.2,0.00650006,-0.0626638,0,0.0630001,1289.21,-53042.2,0,53057.9,59803.2
step02_gravity_refstate-mantle.xmf,625,4.93342e-06,-9.5052e-06,0,1.66879e-07,-1.55626e+09,-1.55819e+09,-1.55692e+09,22303.3,0.00282197,-0.0524165,0,0.0524924,572.444,-54142.2,0,54145.2,22303.3
step02_gravity_refstate-mantle.xmf,626,4.82786e-06,-9.22889e-06,0,-2.61004e-08,-1.5952e+09,-1.59708e+09,-1.59584e+09,-3488.32,-0.000708261,-0.0412221,-0,0.0412282,-147.044,-55344.9,-0,55345.1,3488.32
step02_gravity_refstate-mantle.xmf,627,4.58765e-06,-8.74999e-06,0,-2.71659e-07,-1.64764e+09,-1.64942e+09,-1.64825e+09,-36307.3,-0.00978805,-0.0260574,-0,0.0278352,-2097.81,-56964.3,-0,57003,36307.3
step02_gravity_refstate-mantle.xmf,628,4.35988e-06,-8.34564e-06,0,-2.2442e-07,-1.69335e+09,-1.69505e+09,-1.69393e+09,-29993.8,-0.0153017,-0.0134363,-0,0.0203636,-3364.89,-58375.9,-0,58472.8,29993.8
step02_gravity_refstate-mantle.xmf,629,4.17811e-06,-8.01619e-06,0,-5.81705e-09,-1.74594e+09,-1.74757e+09,-1.7465e+09,-777.449,-0.0186725,2.09702e-19,-0,0.0186725,-4175.05,-60000,-0,60145.1,777.449
step02_gravity_refstate-mantle.xmf,630,-8.70559e-07,-2.43874e-06,0,4.10631e-06,-1.09911e+09,-1.09932e+09,-1.09899e+09,548809,0.03414,-0.0874132,0,0.0938436,11837.8,-40000,0,41714.9,548809
step02_gravity_refstate-mantle.xmf,631,4.4987e-06,-9.7723e-06,0,2.61844e-06,-1.39279e+09,-1.3947e+09,-1.39339e+09,349954,0.0255018,-0.0934753,0,0.0968915,4801.83,-49089,0,49323.3,349954
step02_gravity_refstate-mantle.xmf,632,3.91386e-06,-8.95531e-06,0,2.99302e-06,-1.39278e+09,-1.3945e+09,-1.39331e+09,400017,0.0305522,-0.0876885,0,0.0928586,6001.56,-49086.9,0,49452.4,400017
step02_gravity_refstate-mantle.xmf,633,4.68818e-06,-9.81732e-06,0,2.09537e-06,-1.42343e+09,-1.42537e+09,-1.42406e+09,280046,0.0219917,-0.0866243,0,0.0893723,4188.03,-50036.5,0,50211.4,280046
step02_gravity_refstate-mantle.xmf,634,4.72544e-06,-8.98799e-06,0,-1.19451e-07,-1.63036e+09,-1.63219e+09,-1.63099e+09,-15964.6,-0.00374675,-0.0312445,-0,0.0314683,-791.778,-56430.8,-0,56436.4,15964.6
step02_gravity_refstate-mantle.xmf,635,-6.89284e-07,-2.9155e-06,0,4.3219e-06,-1.14416e+09,-1.14446e+09,-1.14407e+09,577622,0.0386162,-0.0844543,0,0.0928641,11771.6,-41391.7,0,43033,577622
step02_gravity_refstate-mantle.xmf,636,-8.47325e-07,-2.44246e-06,0,3.98939e-06,-1.12486e+09,-1.12507e+09,-1.12475e+09,533182,0.0364815,-0.0800185,0,0.0879424,12310.1,-40795.6,0,42612.4,533182
step02_gravity_refstate-mantle.xmf,637,-4.49924e-07,-3.38792e-06,0,4.50989e-06,-1.1693e+09,-1.16969e+09,-1.16924e+09,602747,0.0405727,-0.0854005,0,0.0945483,11466.1,-42168.4,0,43699.5,602747
step02_gravity_refstate-mantle.xmf,638,-7.22916e-08,-4.02185e-06,0,4.67916e-06,-1.19671e+09,-1.19724e+09,-1.1967e+09,625369,0.042096,-0.0872068,0,0.0968355,11009.9,-43016.3,0,44402.9,625369
step02_gravity_refstate-mantle.xmf,639,9.06675e-07,-5.4019e-06,0,4.72657e-06,-1.25223e+09,-1.25308e+09,-1.25235e+09,631706,0.0429761,-0.0895554,0,0.0993334,9987.39,-44734.2,0,45835.6,631706
step02_gravity_refstate-mantle.xmf,640,3.87627e-07,-4.70078e-06,0,4.75491e-06,-1.22439e+09,-1.22507e+09,-1.22444e+09,635493,0.0429022,-0.0886274,0,0.0984653,10517.4,-43872.5,0,45115.6,635493
step02_gravity_refstate-mantle.xmf,641,1.4468e-06,-6.0912e-06,0,4.60978e-06,-1.27855e+09,-1.27956e+09,-1.27875e+09,616097,0.042329,-0.0902459,0,0.0996798,9413.68,-45549.1,0,46511.7,616097
step02_gravity_refstate-mantle.xmf,642,2.00048e-06,-6.76113e-06,0,4.40276e-06,-1.30433e+09,-1.3055e+09,-1.3046e+09,588428,0.0410026,-0.0905273,0,0.0993801,8790.4,-46347.5,0,47173.7,588428
step02_gravity_refstate-mantle.xmf,643,2.45628e-06,-7.25768e-06,0,4.10168e-06,-1.33075e+09,-1.33205e+09,-1.33108e+09,548189,0.0394322,-0.0887594,0,0.0971243,8289.34,-47165.2,0,47888,548189
step02_gravity_refstate-mantle.xmf,644,2.89123e-06,-7.70743e-06,0,3.72876e-06,-1.35862e+09,-1.36003e+09,-1.359e+09,498348,0.0373794,-0.0861376,0,0.0938983,7748.17,-48027.8,0,48648.8,498348
step02_gravity_refstate-mantle.xmf,645,3.28528e-06,-8.05636e-06,0,3.24782e-06,-1.39246e+09,-1.39398e+09,-1.3929e+09,434070,0.0348664,-0.0812664,0,0.0884301,7197.59,-49075,0,49600,434070
step02_gravity_refstate-mantle.xmf,646,4.82817e-06,-9.87903e-06,0,1.64741e-06,-1.4476e+09,-1.44957e+09,-1.44825e+09,220176,0.0185521,-0.0812035,0,0.0832957,3561.33,-50783.9,0,50908.6,220176
step02_gravity_refstate-mantle.xmf,647,4.75071e-06,-9.58468e-06,0,1.36759e-06,-1.48131e+09,-1.48323e+09,-1.48195e+09,182778,0.0174587,-0.0713533,0,0.0734581,3444.17,-51825.6,0,51939.9,182778
step02_gravity_refstate-mantle.xmf,648,4.8087e-06,-9.49095e-06,0,9.11871e-07,-1.51869e+09,-1.5206e+09,-1.51933e+09,121872,0.0134252,-0.0617088,0,0.0631523,2696.28,-52980.6,0,53049.2,121872
step02_gravity_refstate-mantle.xmf,649,4.80803e-06,-9.34184e-06,0,5.61214e-07,-1.55544e+09,-1.55733e+09,-1.55608e+09,75006.2,0.0098088,-0.0518245,0,0.0527446,2005.92,-54116.4,0,54153.5,75006.2
step02_gravity_refstate-mantle.xmf,650,4.77562e-06,-9.15431e-06,0,2.75962e-07,-1.59608e+09,-1.59795e+09,-1.59672e+09,36882.3,0.00606768,-0.0406976,0,0.0411474,1263.91,-55372,0,55386.5,36882.3
step02_gravity_refstate-mantle.xmf,651,4.73873e-06,-8.98562e-06,0,6.8468e-08,-1.63424e+09,-1.63607e+09,-1.63487e+09,9150.74,0.00184623,-0.0302268,0,0.0302831,390.25,-56550.7,0,56552.1,9150.74
step02_gravity_refstate-mantle.xmf,652,4.67403e-06,-8.81407e-06,0,-7.05695e-08,-1.66949e+09,-1.6713e+09,-1.67012e+09,-9431.62,-0.00328123,-0.0204996,-0,0.0207606,-702.569,-57639.8,-0,57644.1,9431.62
step02_gravity_refstate-mantle.xmf,653,4.5856e-06,-8.62667e-06,0,-9.83866e-08,-1.69985e+09,-1.70162e+09,-1.70046e+09,-13149.4,-0.0076619,-0.0121791,-0,0.0143887,-1658.06,-58577.5,-0,58601,13149.4
step02_gravity_refstate-mantle.xmf,654,4.47256e-06,-8.40024e-06,0,-3.95975e-09,-1.74591e+09,-1.74763e+09,-1.74651e+09,-529.22,-0.0114517,1.82775e-19,-0,0.0114517,-2505.02,-60000,-0,60052.3,529.22
step02_gravity_refstate-mantle.xmf,655,-9.22007e-07,-2.0113e-06,0,3.62708e-06,-1.09909e+09,-1.09923e+09,-1.09896e+09,484759,0.0332948,-0.0765459,0,0.0834735,12782.4,-40000,0,41992.7,484759
step02_gravity_refstate-mantle.xmf,656,3.60188e-06,-8.31331e-06,0,2.73769e-06,-1.42772e+09,-1.42932e+09,-1.4282e+09,365893,0.0321387,-0.0751679,0,0.0817503,6651.49,-50165.7,0,50604.7,365893
step02_gravity_refstate-mantle.xmf,657,4.15573e-06,-9.0749e-06,0,2.45421e-06,-1.42775e+09,-1.42952e+09,-1.4283e+09,328005,0.0274726,-0.0805179,0,0.0850757,5448.32,-50168.3,0,50463.2,328005
step02_gravity_refstate-mantle.xmf,658,4.44773e-06,-9.3099e-06,0,1.94863e-06,-1.45638e+09,-1.45821e+09,-1.45697e+09,260435,0.0232366,-0.0754849,0,0.0789805,4606.33,-51053.9,0,51261.3,260435
step02_gravity_refstate-mantle.xmf,659,-7.44827e-07,-2.63852e-06,0,3.98485e-06,-1.15855e+09,-1.1588e+09,-1.15845e+09,532575,0.0392007,-0.0750455,0,0.0846672,12526.6,-41836.3,0,43671.4,532575
step02_gravity_refstate-mantle.xmf,660,-9.30355e-07,-2.01272e-06,0,3.53322e-06,-1.12616e+09,-1.12631e+09,-1.12604e+09,472215,0.0357487,-0.0696123,0,0.078255,13275.7,-40836.3,0,42940,472215
step02_gravity_refstate-mantle.xmf,661,-4.23038e-07,-3.25307e-06,0,4.21037e-06,-1.19412e+09,-1.1945e+09,-1.19407e+09,562716,0.0417138,-0.0765666,0,0.0871922,12062.2,-42935.8,0,44598,562716
step02_gravity_refstate-mantle.xmf,662,-3.15919e-08,-3.88159e-06,0,4.3482e-06,-1.22405e+09,-1.22457e+09,-1.22405e+09,581137,0.0430769,-0.078264,0,0.0893357,11558.1,-43861.3,0,45358.6,581137
step02_gravity_refstate-mantle.xmf,663,9.38583e-07,-5.22918e-06,0,4.35365e-06,-1.28153e+09,-1.28236e+09,-1.28166e+09,581866,0.0435316,-0.0806913,0,0.0916847,10425.4,-45640,0,46815.6,581866
step02_gravity_refstate-mantle.xmf,664,4.25948e-07,-4.53964e-06,0,4.39337e-06,-1.25323e+09,-1.2539e+09,-1.25329e+09,587174,0.0436761,-0.0795826,0,0.0907799,11020.7,-44764.1,0,46100.8,587174
step02_gravity_refstate-mantle.xmf,665,1.39082e-06,-5.80639e-06,0,4.25895e-06,-1.30356e+09,-1.30452e+09,-1.30374e+09,569209,0.0428592,-0.0815771,0,0.0921506,9881.99,-46321.8,0,47364.2,569209
step02_gravity_refstate-mantle.xmf,666,1.78275e-06,-6.2562e-06,0,4.06821e-06,-1.32786e+09,-1.32893e+09,-1.3281e+09,543716,0.0419205,-0.0805771,0,0.0908295,9439.7,-47073.9,0,48011.1,543716
step02_gravity_refstate-mantle.xmf,667,2.22367e-06,-6.73232e-06,0,3.76483e-06,-1.35761e+09,-1.35881e+09,-1.35791e+09,503169,0.0404321,-0.0782881,0,0.0881123,8932.66,-47994.7,0,48818.9,503169
step02_gravity_refstate-mantle.xmf,668,2.6534e-06,-7.16168e-06,0,3.36941e-06,-1.39112e+09,-1.39243e+09,-1.39148e+09,450321,0.0384166,-0.0746274,0,0.083935,8382.44,-49031.7,0,49743.1,450321
step02_gravity_refstate-mantle.xmf,669,3.02063e-06,-7.50531e-06,0,2.95176e-06,-1.424e+09,-1.4254e+09,-1.4244e+09,394503,0.0361197,-0.0702568,0,0.0789978,7827.98,-50048.7,0,50657.2,394503
step02_gravity_refstate-mantle.xmf,670,4.46508e-06,-9.03489e-06,0,1.31534e-06,-1.5183e+09,-1.5201e+09,-1.51889e+09,175796,0.0199878,-0.0592498,0,0.0625304,4110.32,-52967.4,0,53126.7,175796
step02_gravity_refstate-mantle.xmf,671,4.55262e-06,-9.0086e-06,0,9.26267e-07,-1.55395e+09,-1.55576e+09,-1.55456e+09,123796,0.0165056,-0.050534,0,0.0531612,3433.83,-54069.3,0,54178.2,123796
step02_gravity_refstate-mantle.xmf,672,4.59735e-06,-8.92555e-06,0,5.75827e-07,-1.59496e+09,-1.59677e+09,-1.59558e+09,76959.3,0.0129602,-0.0400105,0,0.0420572,2733.45,-55336.8,0,55404.2,76959.3
step02_gravity_refstate-mantle.xmf,673,4.6091e-06,-8.80627e-06,0,2.8281e-07,-1.64195e+09,-1.64375e+09,-1.64257e+09,37797.5,0.00899188,-0.0276791,0,0.029103,1920.51,-56788.8,0,56821.2,37797.5
step02_gravity_refstate-mantle.xmf,674,4.6573e-06,-8.80066e-06,0,7.66827e-08,-1.67164e+09,-1.67344e+09,-1.67226e+09,10248.6,0.00358721,-0.019909,0,0.0202296,768.877,-57706.1,0,57711.2,10248.6
step02_gravity_refstate-mantle.xmf,675,4.65367e-06,-8.7141e-06,0,4.197e-09,-1.70493e+09,-1.70672e+09,-1.70555e+09,560.929,0.000145506,-0.0109495,0,0.0109505,31.3492,-58734.6,0,58734.6,560.929
step02_gravity_refstate-mantle.xmf,676,4.62281e-06,-8.59718e-06,0,-4.90185e-09,-1.74589e+09,-1.74766e+09,-1.74651e+09,-655.132,-0.00385977,1.57405e-19,-0,0.00385977,-835.008,-60000,-0,60005.8,655.132
step02_gravity_refstate-mantle.xmf,677,-9.47957e-07,-1.65156e-06,0,3.19062e-06,-1.09906e+09,-1.09916e+09,-1.09894e+09,426426,0.0323738,-0.0661042,0,0.0736059,13769.1,-40000,0,42303.5,426426
step02_gravity_refstate-mantle.xmf,678,3.29367e-06,-7.75092e-06,0,2.5752e-06,-1.45243e+09,-1.4539e+09,-1.45287e+09,344176,0.0339544,-0.0658864,0,0.074121,7340.6,-50928.2,0,51454.5,344176
step02_gravity_refstate-mantle.xmf,679,3.8266e-06,-8.40045e-06,0,2.17593e-06,-1.4713e+09,-1.47293e+09,-1.47181e+09,290813,0.0292303,-0.0661061,0,0.0722802,6127.83,-51513.1,0,51876.3,290813
step02_gravity_refstate-mantle.xmf,680,4.32681e-06,-8.98786e-06,0,1.68245e-06,-1.49045e+09,-1.49223e+09,-1.49103e+09,224859,0.0231892,-0.0654546,0,0.069441,4738.61,-52106.5,0,52321.5,224859
step02_gravity_refstate-mantle.xmf,681,-6.8954e-07,-2.59873e-06,0,3.7385e-06,-1.1915e+09,-1.19175e+09,-1.19141e+09,499651,0.0409624,-0.0661889,0,0.0778389,13152.2,-42854.7,0,44827.5,499651
step02_gravity_refstate-mantle.xmf,682,-9.92522e-07,-1.64575e-06,0,3.1166e-06,-1.12858e+09,-1.12867e+09,-1.12845e+09,416533,0.0350083,-0.0594891,0,0.0690256,14293.2,-40911.5,0,43336.4,416533
step02_gravity_refstate-mantle.xmf,683,-9.06203e-07,-2.07021e-06,0,3.45247e-06,-1.159e+09,-1.15916e+09,-1.15888e+09,461423,0.0382507,-0.0631596,0,0.0738394,13720.5,-41850.7,0,44042.4,461423
step02_gravity_refstate-mantle.xmf,684,-3.71559e-07,-3.16843e-06,0,3.92253e-06,-1.22351e+09,-1.22388e+09,-1.22346e+09,524246,0.0428408,-0.0682051,0,0.0805436,12628.1,-43844.1,0,45626.5,524246
step02_gravity_refstate-mantle.xmf,685,1.34165e-08,-3.76304e-06,0,4.02156e-06,-1.25369e+09,-1.25419e+09,-1.25369e+09,537481,0.0439203,-0.0697994,0,0.0824679,12092,-44777.4,0,46381.4,537481
step02_gravity_refstate-mantle.xmf,686,1.10386e-06,-5.2532e-06,0,3.98217e-06,-1.31802e+09,-1.31887e+09,-1.31816e+09,532216,0.0437208,-0.0730856,0,0.0851646,10627.3,-46768,0,47960.2,532216
step02_gravity_refstate-mantle.xmf,687,4.51039e-07,-4.37676e-06,0,4.03249e-06,-1.28359e+09,-1.28424e+09,-1.28365e+09,538943,0.0443182,-0.0707978,0,0.083525,11539.9,-45702.5,0,47136.9,538943
step02_gravity_refstate-mantle.xmf,688,1.59235e-06,-5.78644e-06,0,3.68876e-06,-1.35618e+09,-1.35717e+09,-1.3564e+09,493003,0.0427395,-0.0702251,0,0.0822085,10130.4,-47948.8,0,49007.3,493003
step02_gravity_refstate-mantle.xmf,689,2.45342e-06,-6.70239e-06,0,3.0192e-06,-1.42353e+09,-1.42476e+09,-1.42386e+09,403516,0.039278,-0.0642764,0,0.0753274,8978.05,-50032.7,0,50831.8,403516
step02_gravity_refstate-mantle.xmf,690,2.03695e-06,-6.26775e-06,0,3.37412e-06,-1.39022e+09,-1.39133e+09,-1.3905e+09,450951,0.0412349,-0.0675082,0,0.0791055,9576.33,-49002.1,0,49929.1,450951
step02_gravity_refstate-mantle.xmf,691,2.80868e-06,-7.06071e-06,0,2.66558e-06,-1.454e+09,-1.45532e+09,-1.45438e+09,356255,0.0371128,-0.0607546,0,0.0711932,8386.56,-50975.3,0,51660.6,356255
step02_gravity_refstate-mantle.xmf,692,4.0143e-06,-8.43796e-06,0,1.65918e-06,-1.5162e+09,-1.51786e+09,-1.51673e+09,221750,0.0260505,-0.0563281,0,0.0620603,5531.7,-52901,0,53189.5,221750
step02_gravity_refstate-mantle.xmf,693,4.17991e-06,-8.51861e-06,0,1.24146e-06,-1.5524e+09,-1.55409e+09,-1.55295e+09,165921,0.0227696,-0.0484233,0,0.0535095,4863.88,-54020.2,0,54238.7,165921
step02_gravity_refstate-mantle.xmf,694,4.29847e-06,-8.53982e-06,0,8.55799e-07,-1.59214e+09,-1.59386e+09,-1.59271e+09,114378,0.0194732,-0.0390849,0,0.0436673,4192.34,-55248.6,0,55407.4,114378
step02_gravity_refstate-mantle.xmf,695,4.38896e-06,-8.54359e-06,0,5.38628e-07,-1.63148e+09,-1.63321e+09,-1.63206e+09,71987.7,0.016212,-0.0294636,0,0.0336293,3511.21,-56464.3,0,56573.4,71987.7
step02_gravity_refstate-mantle.xmf,696,4.57141e-06,-8.6131e-06,0,1.23691e-07,-1.69749e+09,-1.69925e+09,-1.6981e+09,16531.3,0.00824029,-0.0127874,0,0.0152125,1784.3,-58504.5,0,58531.7,16531.3
step02_gravity_refstate-mantle.xmf,697,4.62148e-06,-8.59584e-06,0,-6.75355e-09,-1.74589e+09,-1.74766e+09,-1.74651e+09,-902.611,0.00385967,1.76463e-19,0,0.00385967,835.008,-60000,0,60005.8,902.611
step02_gravity_refstate-mantle.xmf,698,-9.60084e-07,-1.34484e-06,0,2.79598e-06,-1.09904e+09,-1.09909e+09,-1.09891e+09,373683,0.0313906,-0.0561058,0,0.0642902,14800.9,-40000,0,42650.5,373683
step02_gravity_refstate-mantle.xmf,699,3.15421e-06,-7.40736e-06,0,2.27877e-06,-1.48513e+09,-1.48654e+09,-1.48555e+09,304558,0.0344709,-0.0566862,0,0.0663443,7709.15,-51938.3,0,52507.3,304558
step02_gravity_refstate-mantle.xmf,700,4.43862e-06,-8.51629e-06,0,3.16923e-07,-1.66692e+09,-1.66865e+09,-1.66751e+09,42356.8,0.0135831,-0.0204985,0,0.0245904,2953.67,-57559.6,0,57635.3,42356.8
step02_gravity_refstate-mantle.xmf,701,-1.03722e-06,-1.31701e-06,0,2.72731e-06,-1.1289e+09,-1.12894e+09,-1.12876e+09,364505,0.0339607,-0.0499166,0,0.0603738,15357.6,-40922,0,43708.9,364505
step02_gravity_refstate-mantle.xmf,702,-6.46286e-07,-2.54308e-06,0,3.48998e-06,-1.22276e+09,-1.22301e+09,-1.22267e+09,466436,0.0422375,-0.058371,0,0.0720499,13747.5,-43820.6,0,45926.5,466436
step02_gravity_refstate-mantle.xmf,703,-8.79711e-07,-2.05703e-06,0,3.28101e-06,-1.19071e+09,-1.19087e+09,-1.19059e+09,438507,0.0400244,-0.0560173,0,0.0688469,14285.7,-42830.4,0,45150.1,438507
step02_gravity_refstate-mantle.xmf,704,-1.01192e-06,-1.63933e-06,0,3.0122e-06,-1.15929e+09,-1.15937e+09,-1.15916e+09,402580,0.0372056,-0.0530435,0,0.064791,14835.2,-41860.1,0,44411.1,402580
step02_gravity_refstate-mantle.xmf,705,-3.31678e-07,-3.07489e-06,0,3.62939e-06,-1.25401e+09,-1.25438e+09,-1.25397e+09,485068,0.0437535,-0.0602778,0,0.0744835,13198.8,-44786.9,0,46691.3,485068
step02_gravity_refstate-mantle.xmf,706,3.84237e-08,-3.62155e-06,0,3.68032e-06,-1.28536e+09,-1.28585e+09,-1.28536e+09,491875,0.0446197,-0.0613652,0,0.0758723,12665.7,-45756.2,0,47476.8,491875
step02_gravity_refstate-mantle.xmf,707,5.00531e-07,-4.25041e-06,0,3.65444e-06,-1.31927e+09,-1.31991e+09,-1.31934e+09,488416,0.0448466,-0.0621654,0,0.0766535,12026.6,-46805.3,0,48325.7,488416
step02_gravity_refstate-mantle.xmf,708,9.85824e-07,-4.8566e-06,0,3.51768e-06,-1.35396e+09,-1.35474e+09,-1.35409e+09,470138,0.0443861,-0.0618192,0,0.0761034,11393.4,-47878.6,0,49215.5,470138
step02_gravity_refstate-mantle.xmf,709,1.44026e-06,-5.38055e-06,0,3.28033e-06,-1.38942e+09,-1.39033e+09,-1.38962e+09,438416,0.0433966,-0.0599871,0,0.0740387,10812.9,-48975.6,0,50155.1,438416
step02_gravity_refstate-mantle.xmf,710,2.29343e-06,-6.32617e-06,0,2.67875e-06,-1.45595e+09,-1.4571e+09,-1.45625e+09,358015,0.0399471,-0.0550317,0,0.0680019,9511.88,-51033.9,0,51912.8,358015
step02_gravity_refstate-mantle.xmf,711,1.88673e-06,-5.87859e-06,0,2.98634e-06,-1.42441e+09,-1.42545e+09,-1.42466e+09,399124,0.0418604,-0.0575999,0,0.0712042,10174.7,-50058.2,0,51081.7,399124
step02_gravity_refstate-mantle.xmf,712,2.63669e-06,-6.70337e-06,0,2.39452e-06,-1.48186e+09,-1.4831e+09,-1.48221e+09,320027,0.0379265,-0.0526376,0,0.0648778,8881.23,-51835.5,0,52590.8,320027
step02_gravity_refstate-mantle.xmf,713,3.46448e-06,-7.72032e-06,0,1.91152e-06,-1.51345e+09,-1.51494e+09,-1.51391e+09,255475,0.0315537,-0.0526369,0,0.0613701,6989.77,-52814.3,0,53274.8,255475
step02_gravity_refstate-mantle.xmf,714,3.71062e-06,-7.89652e-06,0,1.49276e-06,-1.5507e+09,-1.55225e+09,-1.55119e+09,199507,0.0284847,-0.0455924,0,0.0537592,6305.92,-53966.2,0,54333.4,199507
step02_gravity_refstate-mantle.xmf,715,3.90058e-06,-8.01823e-06,0,1.08498e-06,-1.59012e+09,-1.59171e+09,-1.59064e+09,145008,0.0254149,-0.0373111,0,0.0451446,5636.29,-55184.9,0,55472,145008
step02_gravity_refstate-mantle.xmf,716,4.05407e-06,-8.10546e-06,0,7.24279e-07,-1.62988e+09,-1.63151e+09,-1.63042e+09,96799.8,0.0223544,-0.0283921,0,0.0361362,4963.35,-56413.9,0,56631.9,96799.8
step02_gravity_refstate-mantle.xmf,717,4.19345e-06,-8.19341e-06,0,4.32867e-07,-1.66675e+09,-1.66841e+09,-1.66731e+09,57852.7,0.0191946,-0.0197651,0,0.0275516,4253.57,-57553.6,0,57710.6,57852.7
step02_gravity_refstate-mantle.xmf,718,4.33187e-06,-8.29012e-06,0,1.88441e-07,-1.7045e+09,-1.70619e+09,-1.70508e+09,25185.1,0.0156261,-0.0105441,0,0.0188508,3446.04,-58720.3,0,58821.3,25185.1
step02_gravity_refstate-mantle.xmf,719,4.47379e-06,-8.40481e-06,0,-3.57123e-09,-1.74591e+09,-1.74763e+09,-1.74651e+09,-477.295,0.0114492,1.37048e-19,0,0.0114492,2505.02,-60000,0,60052.3,477.295
step02_gravity_refstate-mantle.xmf,720,-9.81227e-07,-1.07146e-06,0,2.44317e-06,-1.09902e+09,-1.09903e+09,-1.09889e+09,326530,0.0303514,-0.0465639,0,0.0555824,15880.5,-40000,0,43037.1,326530
step02_gravity_refstate-mantle.xmf,721,-9.7421e-07,-8.44282e-07,0,2.12579e-06,-1.099e+09,-1.09898e+09,-1.09887e+09,284111,0.0292556,-0.0374902,0,0.0475542,17010.7,-40000,0,43466.8,284111
step02_gravity_refstate-mantle.xmf,722,-1.08104e-06,-1.02148e-06,0,2.37341e-06,-1.12872e+09,-1.12872e+09,-1.12858e+09,317206,0.0327692,-0.0407868,0,0.05232,16473.7,-40917,0,44108.7,317206
step02_gravity_refstate-mantle.xmf,723,2.8793e-06,-6.92155e-06,0,2.0694e-06,-1.51163e+09,-1.51294e+09,-1.51202e+09,276575,0.0361228,-0.0481619,0,0.0602032,8419.16,-52756.3,0,53423.9,276575
step02_gravity_refstate-mantle.xmf,724,-6.19133e-07,-2.46993e-06,0,3.24155e-06,-1.2529e+09,-1.25315e+09,-1.25282e+09,433234,0.0431763,-0.0513041,0,0.0670545,14329.3,-44752.1,0,46990.2,433234
step02_gravity_refstate-mantle.xmf,725,-1.08894e-06,-1.27841e-06,0,2.62122e-06,-1.15896e+09,-1.15898e+09,-1.15881e+09,350326,0.0359979,-0.0437543,0,0.0566594,15959.8,-41850.2,0,44790.1,350326
step02_gravity_refstate-mantle.xmf,726,-8.60443e-07,-2.00821e-06,0,3.07086e-06,-1.22236e+09,-1.22251e+09,-1.22224e+09,410421,0.0413459,-0.0489271,0,0.0640573,14904,-43808.3,0,46274.1,410421
step02_gravity_refstate-mantle.xmf,727,-1.0207e-06,-1.60603e-06,0,2.86155e-06,-1.19023e+09,-1.19031e+09,-1.1901e+09,382446,0.0388983,-0.0465009,0,0.0606252,15437.7,-42815.8,0,45513.9,382446
step02_gravity_refstate-mantle.xmf,728,-1.09941e-06,-7.83446e-07,0,2.06334e-06,-1.12963e+09,-1.12958e+09,-1.12948e+09,275766,0.0316231,-0.032324,0,0.0452202,17608.9,-40945.3,0,44571.2,275766
step02_gravity_refstate-mantle.xmf,729,-3.28568e-07,-2.92976e-06,0,3.32198e-06,-1.28394e+09,-1.28429e+09,-1.28389e+09,443983,0.0444203,-0.0525465,0,0.0688062,13826,-45711.7,0,47756.8,443983
step02_gravity_refstate-mantle.xmf,730,1.53622e-08,-3.41688e-06,0,3.31926e-06,-1.31765e+09,-1.31811e+09,-1.31766e+09,443618,0.0451683,-0.0527969,0,0.0694816,13337.1,-46754.2,0,48619.3,443618
step02_gravity_refstate-mantle.xmf,731,4.43484e-07,-3.98625e-06,0,3.25792e-06,-1.35295e+09,-1.35354e+09,-1.35301e+09,435421,0.0453272,-0.0530549,0,0.0697809,12709.6,-47845.8,0,49505.1,435421
step02_gravity_refstate-mantle.xmf,732,8.82463e-07,-4.52841e-06,0,3.10799e-06,-1.38852e+09,-1.38924e+09,-1.38864e+09,415383,0.044883,-0.0523176,0,0.068932,12086.1,-48946.1,0,50416.2,415383
step02_gravity_refstate-mantle.xmf,733,1.32457e-06,-5.04457e-06,0,2.87676e-06,-1.42517e+09,-1.42602e+09,-1.42535e+09,384479,0.0438851,-0.0505795,0,0.0669641,11441,-50080,0,51370.2,384479
step02_gravity_refstate-mantle.xmf,734,2.26158e-06,-6.09463e-06,0,2.22796e-06,-1.50088e+09,-1.502e+09,-1.50118e+09,297767,0.0399138,-0.04504,0,0.0601807,9823.55,-52422.3,0,53334.8,297767
step02_gravity_refstate-mantle.xmf,735,1.7704e-06,-5.54847e-06,0,2.58609e-06,-1.4621e+09,-1.46307e+09,-1.46233e+09,345631,0.0423187,-0.0481386,0,0.0640952,10725.7,-51222.3,0,52333.2,345631
step02_gravity_refstate-mantle.xmf,736,3.1689e-06,-7.18415e-06,0,1.66429e-06,-1.54868e+09,-1.55006e+09,-1.5491e+09,222433,0.03352,-0.0421922,0,0.0538867,7760.11,-53902,0,54457.8,222433
step02_gravity_refstate-mantle.xmf,737,3.4222e-06,-7.38541e-06,0,1.26095e-06,-1.58816e+09,-1.5896e+09,-1.58861e+09,168526,0.0307482,-0.0349576,0,0.0465563,7086.34,-55122.6,0,55576.3,168526
step02_gravity_refstate-mantle.xmf,738,3.62253e-06,-7.54204e-06,0,8.9044e-07,-1.62678e+09,-1.62827e+09,-1.62727e+09,119007,0.0280854,-0.0271769,0,0.0390817,6449.17,-56316.8,0,56684.8,119007
step02_gravity_refstate-mantle.xmf,739,3.81128e-06,-7.69326e-06,0,5.49766e-07,-1.66597e+09,-1.6675e+09,-1.66647e+09,73476.2,0.0252251,-0.0187625,0,0.0314379,5759.03,-57528,0,57815.5,73476.2
step02_gravity_refstate-mantle.xmf,740,3.99306e-06,-7.84714e-06,0,2.50281e-07,-1.70555e+09,-1.70714e+09,-1.70609e+09,33450,0.0221446,-0.00973653,0,0.0241905,5012.56,-58751.7,0,58965.1,33450
step02_gravity_refstate-mantle.xmf,741,4.18e-06,-8.02174e-06,0,-3.08764e-09,-1.74594e+09,-1.74757e+09,-1.7465e+09,-412.663,0.0186739,1.23321e-19,0,0.0186739,4175.05,-60000,0,60145.1,412.663
step02_gravity_refstate-mantle.xmf,742,-9.86919e-07,-6.32608e-07,0,1.84491e-06,-1.09899e+09,-1.09894e+09,-1.09885e+09,246572,0.028097,-0.0288957,0,0.0403039,18194.5,-40000,0,43943.6,246572
step02_gravity_refstate-mantle.xmf,743,-1.15271e-06,-9.68291e-07,0,2.27806e-06,-1.1579e+09,-1.15787e+09,-1.15774e+09,304463,0.0346516,-0.0352823,0,0.0494528,17087.9,-41817.8,0,45174.3,304463
step02_gravity_refstate-mantle.xmf,744,2.59476e-06,-6.40465e-06,0,1.77443e-06,-1.54587e+09,-1.54707e+09,-1.54622e+09,237153,0.0377361,-0.0384916,0,0.0539038,9208.37,-53813.5,0,54595.6,237153
step02_gravity_refstate-mantle.xmf,745,-1.13817e-06,-5.60201e-07,0,1.78839e-06,-1.13275e+09,-1.13267e+09,-1.1326e+09,239019,0.0305519,-0.0241683,0,0.0389555,18814.6,-41042.2,0,45149.2,239019
step02_gravity_refstate-mantle.xmf,746,-6.09213e-07,-2.38201e-06,0,3.02039e-06,-1.27832e+09,-1.27856e+09,-1.27824e+09,403675,0.0437807,-0.0456271,0,0.0632344,14836.2,-45537.7,0,47893.6,403675
step02_gravity_refstate-mantle.xmf,747,-8.37477e-07,-1.97029e-06,0,2.87175e-06,-1.25361e+09,-1.25376e+09,-1.25349e+09,383809,0.042383,-0.0428529,0,0.0602718,15457.6,-44773.8,0,47367,383809
step02_gravity_refstate-mantle.xmf,748,-1.12797e-06,-1.22439e-06,0,2.48327e-06,-1.18928e+09,-1.1893e+09,-1.18913e+09,331888,0.0375784,-0.0377003,0,0.0532302,16605.8,-42786.8,0,45896.3,331888
step02_gravity_refstate-mantle.xmf,749,-1.02802e-06,-1.55184e-06,0,2.68016e-06,-1.22189e+09,-1.22196e+09,-1.22175e+09,358203,0.0402034,-0.0400621,0,0.0567564,16085.6,-43793.8,0,46654.5,358203
step02_gravity_refstate-mantle.xmf,750,-1.18653e-06,-7.27664e-07,0,1.99425e-06,-1.15587e+09,-1.1558e+09,-1.15571e+09,266532,0.0332687,-0.0281191,0,0.0435602,18134.6,-41755.4,0,45523.4,266532
step02_gravity_refstate-mantle.xmf,751,-4.22207e-07,-2.62256e-06,0,2.94491e-06,-1.31323e+09,-1.31352e+09,-1.31317e+09,393587,0.0447947,-0.0434963,0,0.0624379,14751.4,-46616.6,0,48894.9,393587
step02_gravity_refstate-mantle.xmf,752,-2.72987e-08,-3.20247e-06,0,2.95828e-06,-1.35117e+09,-1.35159e+09,-1.35116e+09,395374,0.0455913,-0.0446453,0,0.0638104,14043.2,-47789.7,0,49810.3,395374
step02_gravity_refstate-mantle.xmf,753,3.72823e-07,-3.72683e-06,0,2.87933e-06,-1.38714e+09,-1.38768e+09,-1.38719e+09,384822,0.045708,-0.0446941,0,0.063928,13397.5,-48902.1,0,50704.1,384822
step02_gravity_refstate-mantle.xmf,754,7.80847e-07,-4.22576e-06,0,2.71535e-06,-1.42404e+09,-1.42471e+09,-1.42415e+09,362907,0.045287,-0.0436647,0,0.0629088,12763.9,-50043.7,0,51645.8,362907
step02_gravity_refstate-mantle.xmf,755,1.21085e-06,-4.72636e-06,0,2.47346e-06,-1.46312e+09,-1.46392e+09,-1.46328e+09,330577,0.0443118,-0.0416864,0,0.0608383,12069.6,-51252.4,0,52654.3,330577
step02_gravity_refstate-mantle.xmf,756,1.6358e-06,-5.20113e-06,0,2.16758e-06,-1.50305e+09,-1.50396e+09,-1.50327e+09,289698,0.042828,-0.0387018,0,0.0577241,11333.2,-52487.3,0,53696.9,289698
step02_gravity_refstate-mantle.xmf,757,2.00341e-06,-5.5831e-06,0,1.80225e-06,-1.54467e+09,-1.54568e+09,-1.54494e+09,240871,0.0410948,-0.0341404,0,0.0534261,10662.7,-53774.4,0,54821.4,240871
step02_gravity_refstate-mantle.xmf,758,2.87604e-06,-6.66647e-06,0,1.38186e-06,-1.58537e+09,-1.58664e+09,-1.58575e+09,184686,0.0354538,-0.0322488,0,0.0479265,8568.98,-55034.7,0,55697.8,184686
step02_gravity_refstate-mantle.xmf,759,3.11375e-06,-6.87111e-06,0,1.01589e-06,-1.62379e+09,-1.62513e+09,-1.62421e+09,135773,0.0331999,-0.0254457,0,0.0418296,7958.86,-56222.7,0,56783.3,135773
step02_gravity_refstate-mantle.xmf,760,3.32784e-06,-7.05776e-06,0,6.49988e-07,-1.66406e+09,-1.66545e+09,-1.66451e+09,86870.9,0.0308562,-0.0176446,0,0.0355448,7332.83,-57467.6,0,57933.5,86870.9
step02_gravity_refstate-mantle.xmf,761,3.54744e-06,-7.2629e-06,0,3.0945e-07,-1.70458e+09,-1.70602e+09,-1.70505e+09,41358,0.0282134,-0.00923898,0,0.0296876,6621.18,-58720.1,0,59092.2,41358
step02_gravity_refstate-mantle.xmf,762,3.76795e-06,-7.48095e-06,0,-1.91072e-09,-1.74598e+09,-1.74749e+09,-1.74649e+09,-255.368,0.0253187,1.14437e-19,0,0.0253187,5846.82,-60000,0,60284.2,255.368
step02_gravity_refstate-mantle.xmf,763,-1.00537e-06,-4.39749e-07,0,1.5945e-06,-1.09897e+09,-1.0989e+09,-1.09884e+09,213105,0.0268634,-0.0207907,0,0.033969,19434.8,-40000,0,44471.5,213105
step02_gravity_refstate-mantle.xmf,764,-1.21885e-06,-8.81557e-07,0,2.13741e-06,-1.18671e+09,-1.18666e+09,-1.18654e+09,285665,0.0359785,-0.0294312,0,0.0464828,17818.7,-42707.5,0,46275.6,285665
step02_gravity_refstate-mantle.xmf,765,2.32124e-06,-5.91482e-06,0,1.45119e-06,-1.58223e+09,-1.58333e+09,-1.58254e+09,193951,0.0392294,-0.0293357,0,0.048985,10007.5,-54935.8,0,55839.9,193951
step02_gravity_refstate-mantle.xmf,766,-1.26554e-06,-5.62727e-07,0,1.79127e-06,-1.17547e+09,-1.17537e+09,-1.1753e+09,239403,0.0334975,-0.0212485,0,0.0396684,19170.3,-42360.9,0,46496.7,239403
step02_gravity_refstate-mantle.xmf,767,-1.18677e-06,-3.56111e-07,0,1.54287e-06,-1.13721e+09,-1.1371e+09,-1.13705e+09,206205,0.0294648,-0.0165665,0,0.0338027,20067.9,-41180.2,0,45809.7,206205
step02_gravity_refstate-mantle.xmf,768,-7.77259e-07,-1.99608e-06,0,2.70885e-06,-1.28792e+09,-1.28808e+09,-1.28782e+09,362038,0.043426,-0.0382818,0,0.0578905,15816.9,-45834.1,0,48486.5,362038
step02_gravity_refstate-mantle.xmf,769,-1.02044e-06,-1.52498e-06,0,2.50447e-06,-1.25738e+09,-1.25745e+09,-1.25725e+09,334723,0.0414226,-0.0343592,0,0.0538181,16672.3,-44890.4,0,47886.5,334723
step02_gravity_refstate-mantle.xmf,770,-1.16363e-06,-1.15634e-06,0,2.31652e-06,-1.22233e+09,-1.22233e+09,-1.22217e+09,309603,0.0388797,-0.031605,0,0.050105,17316,-43807.5,0,47105.6,309603
step02_gravity_refstate-mantle.xmf,771,-4.22131e-07,-2.51068e-06,0,2.63283e-06,-1.35051e+09,-1.35079e+09,-1.35046e+09,351877,0.0452771,-0.0364859,0,0.0581484,15400,-47768.7,0,50189.7,351877
step02_gravity_refstate-mantle.xmf,772,-7.96949e-08,-2.99048e-06,0,2.61305e-06,-1.38557e+09,-1.38596e+09,-1.38556e+09,349234,0.0458967,-0.0372392,0,0.0591039,14741.3,-48852.6,0,51028.2,349234
step02_gravity_refstate-mantle.xmf,773,2.85366e-07,-3.4556e-06,0,2.4974e-06,-1.42372e+09,-1.42422e+09,-1.42375e+09,333777,0.0460139,-0.036678,0,0.0588435,14125.4,-50032.2,0,51988,333777
step02_gravity_refstate-mantle.xmf,774,6.55718e-07,-3.89957e-06,0,2.31002e-06,-1.46264e+09,-1.46325e+09,-1.46273e+09,308735,0.0456614,-0.0351667,0,0.0576338,13511.3,-51235.8,0,52987.4,308735
step02_gravity_refstate-mantle.xmf,775,1.03991e-06,-4.34445e-06,0,2.06745e-06,-1.50209e+09,-1.50281e+09,-1.50223e+09,276315,0.0448492,-0.0329527,0,0.0556537,12836.2,-52455.9,0,54003.7,276315
step02_gravity_refstate-mantle.xmf,776,1.41337e-06,-4.76005e-06,0,1.7693e-06,-1.54252e+09,-1.54335e+09,-1.54271e+09,236466,0.0436496,-0.0297137,0,0.0528033,12144,-53706.3,0,55062.1,236466
step02_gravity_refstate-mantle.xmf,777,1.761e-06,-5.13504e-06,0,1.43337e-06,-1.58324e+09,-1.58417e+09,-1.58348e+09,191570,0.0421592,-0.0254878,0,0.0492648,11448.7,-54965.6,0,56145.2,191570
step02_gravity_refstate-mantle.xmf,778,2.56124e-06,-6.14205e-06,0,1.10396e-06,-1.61957e+09,-1.62073e+09,-1.61991e+09,147544,0.037508,-0.0235832,0,0.0443059,9462.37,-56090.4,0,56883,147544
step02_gravity_refstate-mantle.xmf,779,2.77362e-06,-6.32614e-06,0,7.35671e-07,-1.6602e+09,-1.66142e+09,-1.66057e+09,98322.4,0.0357757,-0.0165796,0,0.0394308,8936.53,-57346.6,0,58038.7,98322.4
step02_gravity_refstate-mantle.xmf,780,3.01316e-06,-6.55682e-06,0,3.57495e-07,-1.70306e+09,-1.70433e+09,-1.70346e+09,47779.2,0.0336357,-0.00865856,0,0.0347323,8272.21,-58671.3,0,59251.6,47779.2
step02_gravity_refstate-mantle.xmf,781,3.26143e-06,-6.81186e-06,0,-6.49869e-10,-1.74604e+09,-1.74738e+09,-1.74647e+09,-86.855,0.031221,1.04288e-19,0,0.031221,7525.62,-60000,0,60470.1,86.855
step02_gravity_refstate-mantle.xmf,782,-1.03175e-06,-2.61275e-07,0,1.37096e-06,-1.09897e+09,-1.09886e+09,-1.09883e+09,183229,0.0255405,-0.0131851,0,0.0287431,20734.8,-40000,0,45054.8,183229
step02_gravity_refstate-mantle.xmf,783,-6.89051e-07,-2.09076e-06,0,2.58024e-06,-1.3217e+09,-1.32189e+09,-1.32161e+09,344849,0.0443045,-0.0349033,0,0.0564015,16013.6,-46878,0,49537.6,344849
step02_gravity_refstate-mantle.xmf,784,-1.28544e-06,-7.89856e-07,0,1.98044e-06,-1.22034e+09,-1.22027e+09,-1.22016e+09,264685,0.037174,-0.0235933,0,0.0440289,18616.6,-43746.1,0,47542.6,264685
step02_gravity_refstate-mantle.xmf,785,2.08106e-06,-5.50218e-06,0,1.17451e-06,-1.61303e+09,-1.61405e+09,-1.61331e+09,156973,0.0404812,-0.0222747,0,0.0462049,10717.4,-55887,0,56905.3,156973
step02_gravity_refstate-mantle.xmf,786,-1.22977e-06,-1.56562e-07,0,1.311e-06,-1.13827e+09,-1.13813e+09,-1.13811e+09,175215,0.0279057,-0.00928457,0,0.0294097,21426.1,-41213.1,0,46449.9,175215
step02_gravity_refstate-mantle.xmf,787,-1.33496e-06,-2.84626e-07,0,1.48328e-06,-1.17773e+09,-1.17759e+09,-1.17755e+09,198240,0.0316612,-0.0127132,0,0.0341183,20704.6,-42430.9,0,47213,198240
step02_gravity_refstate-mantle.xmf,788,-1.06796e-06,-9.33593e-08,0,1.17306e-06,-1.09896e+09,-1.09883e+09,-1.09882e+09,156780,0.0241108,-0.00609131,0,0.0248684,22097.7,-40000,0,45698,156780
step02_gravity_refstate-mantle.xmf,789,-7.6316e-07,-1.89174e-06,0,2.31432e-06,-1.34702e+09,-1.34717e+09,-1.34692e+09,309309,0.0443851,-0.0289781,0,0.0530073,16778.8,-47660.1,0,50527.4,309309
step02_gravity_refstate-mantle.xmf,790,-9.84488e-07,-1.54355e-06,0,2.32143e-06,-1.30189e+09,-1.30196e+09,-1.30175e+09,310259,0.0427235,-0.0291828,0,0.0517391,17171.2,-46265.2,0,49349,310259
step02_gravity_refstate-mantle.xmf,791,-1.19293e-06,-1.09366e-06,0,2.14101e-06,-1.25918e+09,-1.25917e+09,-1.25902e+09,286146,0.0400142,-0.0259729,0,0.0477046,18019.9,-44945.8,0,48423.6,286146
step02_gravity_refstate-mantle.xmf,792,-1.37259e-06,-4.77647e-07,0,1.66533e-06,-1.21841e+09,-1.21829e+09,-1.21822e+09,222572,0.0352275,-0.0159332,0,0.0386632,19998.4,-43686.7,0,48046.5,222572
step02_gravity_refstate-mantle.xmf,793,-4.73815e-07,-2.32431e-06,0,2.3261e-06,-1.38406e+09,-1.38431e+09,-1.384e+09,310884,0.0454975,-0.0300344,0,0.0545168,16119.7,-48805.1,0,51398.3,310884
step02_gravity_refstate-mantle.xmf,794,-1.61234e-07,-2.74382e-06,0,2.25646e-06,-1.42233e+09,-1.42268e+09,-1.42231e+09,301576,0.0460946,-0.0300088,0,0.0550022,15516.5,-49988.2,0,52341,301576
step02_gravity_refstate-mantle.xmf,795,1.55524e-07,-3.13642e-06,0,2.11185e-06,-1.46156e+09,-1.462e+09,-1.46158e+09,282248,0.0462491,-0.0289562,0,0.0545659,14956.6,-51201.2,0,53341,282248
step02_gravity_refstate-mantle.xmf,796,4.9289e-07,-3.5399e-06,0,1.91772e-06,-1.50126e+09,-1.5018e+09,-1.50132e+09,256304,0.0460039,-0.0273328,0,0.0535111,14336.2,-52428.6,0,54353.3,256304
step02_gravity_refstate-mantle.xmf,797,8.42105e-07,-3.94579e-06,0,1.67719e-06,-1.54105e+09,-1.54169e+09,-1.54117e+09,224157,0.0453722,-0.0250493,0,0.0518276,13661.2,-53659.2,0,55370.9,224157
step02_gravity_refstate-mantle.xmf,798,1.19646e-06,-4.3456e-06,0,1.38505e-06,-1.58232e+09,-1.58306e+09,-1.58248e+09,185112,0.0443687,-0.0218203,0,0.049444,12937.1,-54935.4,0,56438.1,185112
step02_gravity_refstate-mantle.xmf,799,1.59078e-06,-4.78635e-06,0,1.01898e-06,-1.62833e+09,-1.62918e+09,-1.62854e+09,136187,0.0428567,-0.0172035,0,0.0461807,12076.3,-56357.9,0,57637.3,136187
step02_gravity_refstate-mantle.xmf,800,2.16391e-06,-5.5212e-06,0,8.27954e-07,-1.6518e+09,-1.65283e+09,-1.65209e+09,110656,0.0399194,-0.0158913,0,0.0429661,10592.2,-57085.1,0,58059.5,110656
step02_gravity_refstate-mantle.xmf,801,2.39001e-06,-5.72807e-06,0,4.08491e-07,-1.69923e+09,-1.70031e+09,-1.69955e+09,54594.8,0.0384063,-0.00824646,0,0.0392816,10032.5,-58551,0,59404.3,54594.8
step02_gravity_refstate-mantle.xmf,802,2.68719e-06,-6.0468e-06,0,6.80004e-10,-1.7461e+09,-1.74727e+09,-1.74646e+09,90.8825,0.0362535,9.17743e-20,0,0.0362535,9217.14,-60000,0,60703.8,90.8825
step02_gravity_refstate-mantle.xmf,803,-1.27294e-06,2.45629e-08,0,1.10798e-06,-1.13841e+09,-1.13824e+09,-1.13824e+09,148081,0.0261701,-0.00267279,0,0.0263063,22821.1,-41217.6,0,47113.6,148081
step02_gravity_refstate-mantle.xmf,804,-1.3383e-06,-7.1841e-07,0,1.82646e-06,-1.25919e+09,-1.25911e+09,-1.25901e+09,244106,0.0383247,-0.0185572,0,0.0425812,19357.4,-44946.2,0,48937.4,244106
step02_gravity_refstate-mantle.xmf,805,-1.39319e-06,-5.90774e-08,0,1.24056e-06,-1.17844e+09,-1.17827e+09,-1.17826e+09,165800,0.0297503,-0.00572728,0,0.0302966,22140.3,-42453.2,0,47879.7,165800
step02_gravity_refstate-mantle.xmf,806,-1.45546e-06,-2.0068e-07,0,1.39054e-06,-1.21843e+09,-1.21826e+09,-1.21824e+09,185846,0.0331981,-0.0088254,0,0.0343511,21434.8,-43687.6,0,48662.7,185846
step02_gravity_refstate-mantle.xmf,807,-1.11342e-06,6.56328e-08,0,9.97887e-07,-1.09896e+09,-1.0988e+09,-1.09881e+09,133368,0.0225544,0.000477654,0,0.0225594,23526.8,-40000,0,46405.9,133368
step02_gravity_refstate-mantle.xmf,808,-8.14284e-07,-1.72712e-06,0,2.03533e-06,-1.38228e+09,-1.3824e+09,-1.38217e+09,272021,0.0445542,-0.0231843,0,0.0502254,17535.5,-48749.3,0,51807.2,272021
step02_gravity_refstate-mantle.xmf,809,-1.05038e-06,-1.34911e-06,0,2.01307e-06,-1.34098e+09,-1.34102e+09,-1.34084e+09,269047,0.0429652,-0.0220875,0,0.0483101,18166.9,-47472.8,0,50830.2,269047
step02_gravity_refstate-mantle.xmf,810,-1.22251e-06,-1.02184e-06,0,1.95128e-06,-1.29899e+09,-1.29896e+09,-1.29883e+09,260789,0.0408998,-0.0207845,0,0.045878,18726.1,-46175.5,0,49828.2,260789
step02_gravity_refstate-mantle.xmf,811,-1.45308e-06,-3.95111e-07,0,1.53679e-06,-1.25738e+09,-1.25724e+09,-1.25718e+09,205392,0.0363032,-0.0117062,0,0.0381439,20743.2,-44890.2,0,49451.1,205392
step02_gravity_refstate-mantle.xmf,812,-5.46909e-07,-2.11309e-06,0,2.0146e-06,-1.41964e+09,-1.41985e+09,-1.41957e+09,269251,0.0455815,-0.0239029,0,0.0514686,16892.8,-49904.3,0,52685.9,269251
step02_gravity_refstate-mantle.xmf,813,-2.76484e-07,-2.46217e-06,0,1.91527e-06,-1.45803e+09,-1.45832e+09,-1.45799e+09,255975,0.0461525,-0.0235032,0,0.0517924,16344,-51090.9,0,53641.5,255975
step02_gravity_refstate-mantle.xmf,814,-1.75994e-08,-2.76649e-06,0,1.72398e-06,-1.5014e+09,-1.50177e+09,-1.5014e+09,230410,0.0463766,-0.0216357,0,0.0511752,15906.2,-52431.7,0,54791.3,230410
step02_gravity_refstate-mantle.xmf,815,3.05973e-07,-3.16312e-06,0,1.53947e-06,-1.5404e+09,-1.54086e+09,-1.54044e+09,205750,0.0462655,-0.0203152,0,0.0505293,15212.8,-53637.3,0,55753,205750
step02_gravity_refstate-mantle.xmf,816,6.36572e-07,-3.55214e-06,0,1.3031e-06,-1.58048e+09,-1.58104e+09,-1.58056e+09,174160,0.0458067,-0.0181245,0,0.049262,14494.9,-54876.7,0,56758.7,174160
step02_gravity_refstate-mantle.xmf,817,9.61226e-07,-3.92741e-06,0,1.03849e-06,-1.61911e+09,-1.61976e+09,-1.61923e+09,138795,0.0450489,-0.0152808,0,0.04757,13757.4,-56071.1,0,57734.1,138795
step02_gravity_refstate-mantle.xmf,818,1.69993e-06,-4.81019e-06,0,4.86781e-07,-1.68984e+09,-1.69071e+09,-1.69006e+09,65058.3,0.0422708,-0.00831109,0,0.0430801,11905.3,-58258.6,0,59462.6,65058.3
step02_gravity_refstate-mantle.xmf,819,2.07249e-06,-5.21902e-06,0,2.72434e-09,-1.74616e+09,-1.74714e+09,-1.74644e+09,364.108,0.0403228,7.68252e-20,0,0.0403228,10927.1,-60000,0,60986.9,364.108
step02_gravity_refstate-mantle.xmf,820,-1.32529e-06,1.94445e-07,0,9.28732e-07,-1.13954e+09,-1.13934e+09,-1.13937e+09,124125,0.0243431,0.00341702,0,0.0245818,24284.9,-41252.7,0,47870,124125
step02_gravity_refstate-mantle.xmf,821,-1.44972e-06,1.40941e-07,0,1.03268e-06,-1.17899e+09,-1.17877e+09,-1.17879e+09,138018,0.0277067,0.000512556,0,0.0277114,23601.4,-42470.1,0,48587.3,138018
step02_gravity_refstate-mantle.xmf,822,-1.39232e-06,-6.2295e-07,0,1.6524e-06,-1.29737e+09,-1.29726e+09,-1.29718e+09,220844,0.0389973,-0.0139383,0,0.0414134,20131.2,-46125.3,0,50327,220844
step02_gravity_refstate-mantle.xmf,823,1.2148e-06,-4.20132e-06,0,7.38163e-07,-1.65795e+09,-1.65868e+09,-1.65812e+09,98655.5,0.0442543,-0.0113383,0,0.0456837,13183.4,-57272.1,0,58769.8,98655.5
step02_gravity_refstate-mantle.xmf,824,-1.17111e-06,2.18127e-07,0,8.41455e-07,-1.09896e+09,-1.09877e+09,-1.0988e+09,112460,0.020849,0.00650712,0,0.0218409,25025.6,-40000,0,47183.5,112460
step02_gravity_refstate-mantle.xmf,825,-1.22127e-06,3.56493e-07,0,7.01398e-07,-1.09895e+09,-1.09874e+09,-1.09879e+09,93741.9,0.0189751,0.0119795,0,0.0224402,26597.7,-40000,0,48035.8,93741.9
step02_gravity_refstate-mantle.xmf,826,-1.38664e-06,3.58854e-07,0,7.67649e-07,-1.14009e+09,-1.13986e+09,-1.1399e+09,102596,0.022263,0.00905524,0,0.0240341,25846.6,-41269.5,0,48695.2,102596
step02_gravity_refstate-mantle.xmf,827,-1.53074e-06,3.92942e-08,0,1.15604e-06,-1.21914e+09,-1.21893e+09,-1.21894e+09,154504,0.0310706,-0.00249545,0,0.0311706,22886.3,-43709.7,0,49338.8,154504
step02_gravity_refstate-mantle.xmf,828,-1.55541e-06,-1.11782e-07,0,1.28426e-06,-1.25813e+09,-1.25794e+09,-1.25793e+09,171641,0.0341979,-0.00541605,0,0.0346241,22167.8,-44913.6,0,50086.3,171641
step02_gravity_refstate-mantle.xmf,829,-8.66742e-07,-1.56888e-06,0,1.76748e-06,-1.41917e+09,-1.41926e+09,-1.41905e+09,236223,0.0446108,-0.0181496,0,0.0481615,18255.6,-49888.8,0,53124,236223
step02_gravity_refstate-mantle.xmf,830,-1.1015e-06,-1.20188e-06,0,1.75198e-06,-1.38118e+09,-1.3812e+09,-1.38104e+09,234153,0.0431478,-0.0167608,0,0.0462889,18977.9,-48714.8,0,52280.9,234153
step02_gravity_refstate-mantle.xmf,831,-1.27515e-06,-8.94615e-07,0,1.71669e-06,-1.34122e+09,-1.34117e+09,-1.34105e+09,229436,0.0413344,-0.0154371,0,0.044123,19576.5,-47480.1,0,51357.6,229436
step02_gravity_refstate-mantle.xmf,832,-1.5198e-06,-3.01351e-07,0,1.40665e-06,-1.29024e+09,-1.29008e+09,-1.29004e+09,187998,0.0367856,-0.00824106,0,0.0376974,21443.2,-45905.1,0,50666.4,187998
step02_gravity_refstate-mantle.xmf,833,-6.24622e-07,-1.91868e-06,0,1.75882e-06,-1.44962e+09,-1.44979e+09,-1.44953e+09,235066,0.0455245,-0.0192025,0,0.0494086,17576.6,-50830.1,0,53783.2,235066
step02_gravity_refstate-mantle.xmf,834,-1.92134e-07,-2.42133e-06,0,1.38029e-06,-1.53902e+09,-1.53932e+09,-1.53899e+09,184475,0.0463554,-0.0157589,0,0.0489609,16810.1,-53593.3,0,56167.8,184475
step02_gravity_refstate-mantle.xmf,835,-5.20408e-07,-2.00941e-06,0,1.54823e-06,-1.49239e+09,-1.49258e+09,-1.49232e+09,206921,0.0458837,-0.0165549,0,0.0487789,17590.4,-52151.7,0,55038.3,206921
step02_gravity_refstate-mantle.xmf,836,1.14219e-07,-2.79201e-06,0,1.17757e-06,-1.58089e+09,-1.58128e+09,-1.58091e+09,157382,0.0464029,-0.0142496,0,0.0485416,16086.7,-54887.9,0,57196.7,157382
step02_gravity_refstate-mantle.xmf,837,4.28492e-07,-3.16775e-06,0,9.48456e-07,-1.62038e+09,-1.62086e+09,-1.62044e+09,126761,0.0461278,-0.0122135,0,0.0477173,15315.5,-56108.9,0,58161.6,126761
step02_gravity_refstate-mantle.xmf,838,7.29657e-07,-3.52085e-06,0,6.90215e-07,-1.65864e+09,-1.65921e+09,-1.65874e+09,92247.2,0.0455927,-0.0094339,0,0.0465585,14561.6,-57291.9,0,59113.5,92247.2
step02_gravity_refstate-mantle.xmf,839,1.06949e-06,-3.92103e-06,0,3.81109e-07,-1.69974e+09,-1.70041e+09,-1.69989e+09,50935.2,0.0446932,-0.00559436,0,0.045042,13672.6,-58562.7,0,60137.6,50935.2
step02_gravity_refstate-mantle.xmf,840,1.44102e-06,-4.35678e-06,0,2.50012e-09,-1.74623e+09,-1.747e+09,-1.74642e+09,334.141,0.0433707,4.38715e-20,0,0.0433707,12661.1,-60000,0,61321.3,334.141
step02_gravity_refstate-mantle.xmf,841,-1.44876e-06,5.03335e-07,0,6.29342e-07,-1.14382e+09,-1.14356e+09,-1.14363e+09,84111.6,0.0202299,0.0138842,0,0.0245361,27422.4,-41384.7,0,49645.6,84111.6
step02_gravity_refstate-mantle.xmf,842,-1.28093e-06,4.87942e-07,0,5.75769e-07,-1.09896e+09,-1.09872e+09,-1.09879e+09,76951.6,0.0169127,0.0168727,0,0.0238899,28247.1,-40000,0,48968.3,76951.6
step02_gravity_refstate-mantle.xmf,843,-1.50912e-06,3.26108e-07,0,8.49819e-07,-1.17986e+09,-1.17962e+09,-1.17966e+09,113578,0.0254796,0.00622868,0,0.0262299,25140.3,-42497.2,0,49376.6,113578
step02_gravity_refstate-mantle.xmf,844,-1.60107e-06,2.56911e-07,0,9.49778e-07,-1.21946e+09,-1.21921e+09,-1.21924e+09,126938,0.028707,0.00329476,0,0.0288955,24406.2,-43719.5,0,50070.6,126938
step02_gravity_refstate-mantle.xmf,845,-1.50837e-06,-4.01699e-07,0,1.40516e-06,-1.33432e+09,-1.33418e+09,-1.33412e+09,187800,0.038648,-0.00817674,0,0.0395035,21341.3,-47266.7,0,51861.3,187800
step02_gravity_refstate-mantle.xmf,846,-1.57041e-06,4.92359e-07,0,6.95637e-07,-1.18015e+09,-1.17988e+09,-1.17994e+09,92971.8,0.0231155,0.0111877,0,0.0256805,26688.1,-42506.2,0,50190,92971.8
step02_gravity_refstate-mantle.xmf,847,-1.52496e-06,6.46874e-07,0,5.03985e-07,-1.1491e+09,-1.14881e+09,-1.1489e+09,67357.6,0.0179572,0.0181905,0,0.0255608,29112.3,-41547.7,0,50732.1,67357.6
step02_gravity_refstate-mantle.xmf,848,-1.34564e-06,6.10304e-07,0,4.63747e-07,-1.09896e+09,-1.0987e+09,-1.09878e+09,61979.8,0.0146449,0.0211597,0,0.0257334,29977.6,-40000,0,49986.5,61979.8
step02_gravity_refstate-mantle.xmf,849,-1.40164e-06,7.15836e-07,0,3.60492e-07,-1.09896e+09,-1.09868e+09,-1.09878e+09,48179.8,0.0121582,0.0248064,0,0.0276257,31793.3,-40000,0,51096.1,48179.8
step02_gravity_refstate-mantle.xmf,850,-1.58767e-06,7.69776e-07,0,3.97595e-07,-1.15053e+09,-1.15021e+09,-1.15032e+09,53138.6,0.0153508,0.021829,0,0.0266862,30824.9,-41591.7,0,51769.1,53138.6
step02_gravity_refstate-mantle.xmf,851,-1.451e-06,8.04444e-07,0,2.65137e-07,-1.09897e+09,-1.09867e+09,-1.09877e+09,35435.6,0.00944596,0.0277696,0,0.0293322,33698.8,-40000,0,52303,35435.6
step02_gravity_refstate-mantle.xmf,852,-1.63505e-06,8.74564e-07,0,2.95212e-07,-1.15029e+09,-1.14996e+09,-1.15007e+09,39455.1,0.0122772,0.0250812,0,0.0279249,32733.7,-41584.3,0,52922.1,39455.1
step02_gravity_refstate-mantle.xmf,853,-1.64878e-06,-1.98221e-08,0,1.16798e-06,-1.30259e+09,-1.30237e+09,-1.30237e+09,156101,0.0350372,-0.00258689,0,0.0351325,22870.9,-46286.5,0,51628.7,156101
step02_gravity_refstate-mantle.xmf,854,-1.64868e-06,1.43969e-07,0,1.05777e-06,-1.25886e+09,-1.25862e+09,-1.25864e+09,141371,0.0318408,0.000368889,0,0.0318429,23660.3,-44936.1,0,50784.5,141371
step02_gravity_refstate-mantle.xmf,855,-8.90424e-07,-1.46624e-06,0,1.52446e-06,-1.45885e+09,-1.45893e+09,-1.45873e+09,203745,0.0447046,-0.0142402,0,0.0469179,18800.3,-51114.6,0,54462.4,203745
step02_gravity_refstate-mantle.xmf,856,-1.1518e-06,-1.06635e-06,0,1.51419e-06,-1.42101e+09,-1.421e+09,-1.42086e+09,202372,0.0431894,-0.0125259,0,0.0449692,19695.4,-49945.2,0,53688.3,202372
step02_gravity_refstate-mantle.xmf,857,-1.35232e-06,-7.26449e-07,0,1.47958e-06,-1.38012e+09,-1.38004e+09,-1.37994e+09,197745,0.0412627,-0.0106745,0,0.0426211,20492.2,-48681.6,0,52818.8,197745
step02_gravity_refstate-mantle.xmf,858,-3.51413e-07,-2.10162e-06,0,1.04638e-06,-1.58071e+09,-1.58095e+09,-1.58066e+09,139849,0.046217,-0.0107415,0,0.0474488,17653.1,-54881,0,57650.3,139849
step02_gravity_refstate-mantle.xmf,859,-6.38484e-07,-1.74106e-06,0,1.21087e-06,-1.53756e+09,-1.53771e+09,-1.53748e+09,161832,0.0456785,-0.0114562,0,0.0470932,18428.6,-53547,0,56629.5,161832
step02_gravity_refstate-mantle.xmf,860,-6.45434e-08,-2.44785e-06,0,8.35237e-07,-1.62317e+09,-1.62349e+09,-1.62316e+09,111629,0.0464117,-0.00921893,0,0.0473185,16889.6,-56193.6,0,58676.9,111629
step02_gravity_refstate-mantle.xmf,861,2.16458e-07,-2.78636e-06,0,6.2034e-07,-1.66007e+09,-1.66047e+09,-1.6601e+09,82908.5,0.0463278,-0.00734239,0,0.046906,16119.1,-57334.5,0,59557.3,82908.5
step02_gravity_refstate-mantle.xmf,862,5.00549e-07,-3.11794e-06,0,3.37183e-07,-1.70165e+09,-1.70213e+09,-1.70172e+09,45064.5,0.045999,-0.00426919,0,0.0461967,15338.8,-58619.9,0,60593.5,45064.5
step02_gravity_refstate-mantle.xmf,863,8.19335e-07,-3.49371e-06,0,2.85455e-09,-1.74629e+09,-1.74687e+09,-1.7464e+09,381.511,0.0453654,3.31626e-20,0,0.0453654,14424.9,-60000,0,61709.6,381.511
step02_gravity_refstate-mantle.xmf,864,-1.60793e-06,6.23554e-07,0,5.69059e-07,-1.17743e+09,-1.17713e+09,-1.17721e+09,76054.8,0.0206336,0.015331,0,0.0257057,28175.2,-42422.2,0,50926.2,76054.8
step02_gravity_refstate-mantle.xmf,865,-1.49121e-06,8.73059e-07,0,1.75375e-07,-1.09897e+09,-1.09865e+09,-1.09877e+09,23438.9,0.00650792,0.0299928,0,0.0306907,35698.5,-40000,0,53613.3,23438.9
step02_gravity_refstate-mantle.xmf,866,-1.67584e-06,9.57267e-07,0,2.06139e-07,-1.15068e+09,-1.15033e+09,-1.15046e+09,27550.4,0.0090874,0.0275269,0,0.0289881,34670.1,-41596.3,0,54150.5,27550.4
step02_gravity_refstate-mantle.xmf,867,-1.67269e-06,4.56872e-07,0,7.68253e-07,-1.22094e+09,-1.22066e+09,-1.22072e+09,102677,0.0261461,0.00856533,0,0.0275133,26014.6,-43765.4,0,50913.4,102677
step02_gravity_refstate-mantle.xmf,868,-1.74096e-06,3.8223e-07,0,8.54525e-07,-1.26179e+09,-1.26151e+09,-1.26156e+09,114207,0.0292312,0.00576663,0,0.0297946,25277,-45026.6,0,51636.4,114207
step02_gravity_refstate-mantle.xmf,869,-1.66087e-06,-7.81713e-08,0,1.14995e-06,-1.34661e+09,-1.3464e+09,-1.34639e+09,153691,0.0366833,-0.00260237,0,0.0367755,22846.7,-47645.9,0,52840.4,153691
step02_gravity_refstate-mantle.xmf,870,-9.17361e-07,-1.35871e-06,0,1.28277e-06,-1.50066e+09,-1.50072e+09,-1.50054e+09,171442,0.0447273,-0.0108415,0,0.0460225,19296.2,-52406.4,0,55846,171442
step02_gravity_refstate-mantle.xmf,871,-1.5268e-06,9.31922e-07,0,1.47503e-09,-1.09897e+09,-1.09864e+09,-1.09877e+09,197.138,-2.30699e-19,0.0318986,-0,0.0318986,40000,-40000,0,56568.5,197.138
step02_gravity_refstate-mantle.xmf,872,-1.51793e-06,9.17553e-07,0,8.78046e-08,-1.09897e+09,-1.09865e+09,-1.09877e+09,11735.1,0.00335222,0.031402,0,0.0315804,37797.2,-40000,0,55033,11735.1
step02_gravity_refstate-mantle.xmf,873,-1.69947e-06,1.0328e-06,0,5.36298e-08,-1.14571e+09,-1.14535e+09,-1.14548e+09,7167.63,0.0024554,0.0302737,0,0.0303731,38557.3,-41442.8,0,56605.4,7167.63
step02_gravity_refstate-mantle.xmf,874,-1.74583e-06,1.03981e-06,0,1.18801e-07,-1.16135e+09,-1.16098e+09,-1.16112e+09,15877.8,0.00576441,0.0289274,0,0.0294962,36715.3,-41925.6,0,55729.4,15877.8
step02_gravity_refstate-mantle.xmf,875,-1.73714e-06,6.35985e-07,0,6.12558e-07,-1.21935e+09,-1.21903e+09,-1.21912e+09,81868.4,0.0232511,0.0132362,0,0.0267546,27674.5,-43716.3,0,51739.7,81868.4
step02_gravity_refstate-mantle.xmf,876,-1.74924e-06,7.80469e-07,0,4.67711e-07,-1.20314e+09,-1.20281e+09,-1.20291e+09,62509.6,0.0192911,0.0180728,0,0.0264343,29590.4,-43216,0,52375.7,62509.6
step02_gravity_refstate-mantle.xmf,877,-1.80684e-06,9.27014e-07,0,3.36753e-07,-1.20282e+09,-1.20245e+09,-1.20258e+09,45007,0.0154534,0.0220989,0,0.0269661,31750.5,-43205.8,0,53617.5,45007
step02_gravity_refstate-mantle.xmf,878,-1.84408e-06,1.02573e-06,0,2.40556e-07,-1.20117e+09,-1.20079e+09,-1.20092e+09,32150.3,0.0118886,0.0248663,0,0.0275621,33685.3,-43155,0,54745.3,32150.3
step02_gravity_refstate-mantle.xmf,879,-1.74703e-06,2.52319e-07,0,9.5925e-07,-1.29403e+09,-1.29376e+09,-1.2938e+09,128204,0.0320982,0.00267889,0,0.0322098,24400.2,-46022.1,0,52090.3,128204
step02_gravity_refstate-mantle.xmf,880,-1.78243e-06,2.10675e-07,0,9.64927e-07,-1.33567e+09,-1.3354e+09,-1.33543e+09,128962,0.0338927,0.00192634,0,0.0339474,24254.1,-47308,0,53163,128962
step02_gravity_refstate-mantle.xmf,881,-1.56803e-06,-2.97777e-07,0,1.22801e-06,-1.38004e+09,-1.37987e+09,-1.37983e+09,164124,0.0389412,-0.00498702,0,0.0392593,22080.5,-48678.8,0,53452.5,164124
step02_gravity_refstate-mantle.xmf,882,-1.19784e-06,-9.41231e-07,0,1.28241e-06,-1.46365e+09,-1.46362e+09,-1.46349e+09,171394,0.0431667,-0.00905063,0,0.0441053,20337.5,-51262.4,0,55149.3,171394
step02_gravity_refstate-mantle.xmf,883,-1.42183e-06,-5.76506e-07,0,1.2595e-06,-1.42253e+09,-1.42242e+09,-1.42234e+09,168332,0.041144,-0.00695948,0,0.0417285,21307.3,-49991.5,0,54342.9,168332
step02_gravity_refstate-mantle.xmf,884,-1.03605e-06,-1.11216e-06,0,1.02905e-06,-1.53782e+09,-1.53783e+09,-1.53769e+09,137532,0.0442691,-0.00729172,0,0.0448656,20113.6,-53554.1,0,57206.7,137532
step02_gravity_refstate-mantle.xmf,885,-5.16143e-07,-1.7795e-06,0,7.23831e-07,-1.62495e+09,-1.62512e+09,-1.62488e+09,96740,0.0459486,-0.00656004,0,0.0464145,18485.5,-56247.3,0,59207,96740
step02_gravity_refstate-mantle.xmf,886,-7.83968e-07,-1.44668e-06,0,9.08775e-07,-1.58003e+09,-1.58011e+09,-1.57992e+09,121458,0.0452828,-0.00738773,0,0.0458815,19293.6,-54858.6,0,58152.4,121458
step02_gravity_refstate-mantle.xmf,887,-2.47496e-07,-2.11258e-06,0,5.69479e-07,-1.6581e+09,-1.65835e+09,-1.65806e+09,76110.8,0.0463028,-0.00567375,0,0.0466491,17657.7,-57272,0,59932.3,76110.8
step02_gravity_refstate-mantle.xmf,888,-4.22156e-08,-2.34485e-06,0,3.21602e-07,-1.69887e+09,-1.69917e+09,-1.69886e+09,42982.2,0.0463921,-0.00340964,0,0.0465173,17046.9,-58532.2,0,60964.1,42982.2
step02_gravity_refstate-mantle.xmf,889,2.24838e-07,-2.65418e-06,0,3.0606e-09,-1.74635e+09,-1.74674e+09,-1.74638e+09,409.049,0.0463046,2.65174e-20,0,0.0463046,16224.1,-60000,0,62154.8,409.049
step02_gravity_refstate-mantle.xmf,890,-1.78454e-06,1.08978e-06,0,1.46225e-09,-1.16711e+09,-1.16673e+09,-1.16687e+09,195.43,-2.95769e-19,0.0297732,-0,0.0297732,40000,-42103.5,0,58075,195.43
step02_gravity_refstate-mantle.xmf,891,-1.86512e-06,1.08605e-06,0,1.69389e-07,-1.19939e+09,-1.19899e+09,-1.19914e+09,22638.8,0.00882353,0.0266237,0,0.0280477,35322.3,-43099.8,0,55724.8,22638.8
step02_gravity_refstate-mantle.xmf,892,-1.8319e-06,5.95632e-07,0,6.80247e-07,-1.26654e+09,-1.26621e+09,-1.26629e+09,90915,0.0264495,0.010437,0,0.0284343,26941.6,-45173.2,0,52597.2,90915
step02_gravity_refstate-mantle.xmf,893,-1.87691e-06,4.81159e-07,0,7.7819e-07,-1.31677e+09,-1.31646e+09,-1.31652e+09,104005,0.0302131,0.00685629,0,0.0309812,25908.5,-46724.4,0,53426.8,104005
step02_gravity_refstate-mantle.xmf,894,-1.74902e-06,6.79704e-08,0,1.00261e-06,-1.38041e+09,-1.38016e+09,-1.38017e+09,133999,0.0362882,4.47917e-05,0,0.0362883,23686.6,-48689.7,0,54145.6,133999
step02_gravity_refstate-mantle.xmf,895,-1.24299e-06,-8.15402e-07,0,1.08564e-06,-1.50218e+09,-1.50212e+09,-1.50201e+09,145096,0.0430435,-0.00650096,0,0.0435316,20871.6,-52452.4,0,56452.4,145096
step02_gravity_refstate-mantle.xmf,896,-1.90608e-06,1.16038e-06,0,5.74528e-08,-1.20235e+09,-1.20194e+09,-1.20209e+09,7678.57,0.00311575,0.0283005,0,0.0284714,38366.5,-43191.2,0,57770.8,7678.57
step02_gravity_refstate-mantle.xmf,897,-1.90484e-06,7.96328e-07,0,5.21349e-07,-1.26228e+09,-1.26192e+09,-1.26203e+09,69678.3,0.0227866,0.014994,0,0.0272773,28822.1,-45041.8,0,53474.1,69678.3
step02_gravity_refstate-mantle.xmf,898,-1.95962e-06,9.58725e-07,0,3.86228e-07,-1.25808e+09,-1.25769e+09,-1.25782e+09,51619.4,0.0188338,0.01892,0,0.0266961,30804.8,-44912,0,54461.2,51619.4
step02_gravity_refstate-mantle.xmf,899,-2.00249e-06,1.20081e-06,0,1.1251e-07,-1.2339e+09,-1.23347e+09,-1.23363e+09,15036.9,0.00665441,0.0264044,0,0.02723,36690.9,-44165.4,0,57417.8,15036.9
step02_gravity_refstate-mantle.xmf,900,-2.00199e-06,1.08549e-06,0,2.75273e-07,-1.25386e+09,-1.25344e+09,-1.25359e+09,36790.3,0.0147131,0.0220892,0,0.0265407,32835.2,-44781.6,0,55529.6,36790.3
step02_gravity_refstate-mantle.xmf,901,-2.03036e-06,1.17405e-06,0,1.85987e-07,-1.24998e+09,-1.24956e+09,-1.24971e+09,24857.1,0.0106848,0.0243913,0,0.0266289,34799.9,-44662,0,56619.1,24857.1
step02_gravity_refstate-mantle.xmf,902,-1.90163e-06,3.91687e-07,0,8.05677e-07,-1.37416e+09,-1.37385e+09,-1.3739e+09,107679,0.0330232,0.00469207,0,0.0333548,25377.9,-48496.5,0,54735.2,107679
step02_gravity_refstate-mantle.xmf,903,-1.65251e-06,-1.42855e-07,0,1.03493e-06,-1.42448e+09,-1.42428e+09,-1.42426e+09,138318,0.0386725,-0.00203198,0,0.0387259,22942.3,-50051.2,0,55058.8,138318
step02_gravity_refstate-mantle.xmf,904,-1.48995e-06,-4.23179e-07,0,1.02046e-06,-1.476e+09,-1.47586e+09,-1.4758e+09,136385,0.041027,-0.0039077,0,0.0412127,22075.8,-51643.2,0,56163.7,136385
step02_gravity_refstate-mantle.xmf,905,-1.38089e-06,-5.62887e-07,0,8.92876e-07,-1.52886e+09,-1.52875e+09,-1.52867e+09,119333,0.0421696,-0.00380095,0,0.0423405,21776.3,-53276.3,0,57554.9,119333
step02_gravity_refstate-mantle.xmf,906,-1.17857e-06,-8.33035e-07,0,7.69166e-07,-1.57924e+09,-1.57919e+09,-1.57908e+09,102799,0.0435835,-0.00419542,0,0.043785,21019.2,-54833.2,0,58723.8,102799
step02_gravity_refstate-mantle.xmf,907,-5.90068e-07,-1.57809e-06,0,3.66604e-07,-1.68283e+09,-1.68296e+09,-1.68275e+09,48996.7,0.0457893,-0.00304072,0,0.0458902,18933.3,-58035.1,0,61045.4,48996.7
step02_gravity_refstate-mantle.xmf,908,-9.252e-07,-1.15627e-06,0,5.98865e-07,-1.63003e+09,-1.63006e+09,-1.6299e+09,80038.3,0.0447883,-0.00403135,0,0.0449694,20113.9,-56402.9,0,59882,80038.3
step02_gravity_refstate-mantle.xmf,909,-3.28284e-07,-1.85825e-06,0,4.72043e-09,-1.74641e+09,-1.74661e+09,-1.74636e+09,630.885,0.0462063,1.58329e-20,0,0.0462063,18064.5,-60000,0,62660.4,630.885
step02_gravity_refstate-mantle.xmf,910,-2.02604e-06,1.24528e-06,0,1.69205e-09,-1.23579e+09,-1.23535e+09,-1.23552e+09,226.142,-3.59052e-19,0.0272982,-0,0.0272982,40000,-44223.8,0,59630.1,226.142
step02_gravity_refstate-mantle.xmf,911,-1.98933e-06,7.52143e-07,0,5.82568e-07,-1.31598e+09,-1.31561e+09,-1.31571e+09,77860.2,0.0262014,0.0118641,0,0.0287623,27970.2,-46699.6,0,54435.2,77860.2
step02_gravity_refstate-mantle.xmf,912,-1.84671e-06,2.28814e-07,0,8.43027e-07,-1.42176e+09,-1.42148e+09,-1.42151e+09,112671,0.0357257,0.00227607,0,0.0357981,24590.6,-49966.9,0,55690.1,112671
step02_gravity_refstate-mantle.xmf,913,-2.13213e-06,1.30818e-06,0,6.01303e-08,-1.27021e+09,-1.26975e+09,-1.26992e+09,8036.42,0.00376377,0.0256758,0,0.0259502,38235.3,-45286.3,0,59268.8,8036.42
step02_gravity_refstate-mantle.xmf,914,-2.07091e-06,9.59629e-07,0,4.35648e-07,-1.31061e+09,-1.3102e+09,-1.31033e+09,58224.3,0.022029,0.0158874,0,0.0271604,29950.9,-46533.8,0,55339.4,58224.3
step02_gravity_refstate-mantle.xmf,915,-2.13422e-06,1.1193e-06,0,3.16484e-07,-1.30853e+09,-1.3081e+09,-1.30825e+09,42298.1,0.0178435,0.0190169,0,0.0260774,31922.4,-46469.6,0,56377.9,42298.1
step02_gravity_refstate-mantle.xmf,916,-2.22029e-06,1.33527e-06,0,1.27961e-07,-1.30506e+09,-1.30459e+09,-1.30477e+09,17102,0.00841533,0.0233432,0,0.0248138,36227.9,-46362.5,0,58838.3,17102
step02_gravity_refstate-mantle.xmf,917,-2.18563e-06,1.24467e-06,0,2.17091e-07,-1.30754e+09,-1.30709e+09,-1.30725e+09,29014.3,0.0134325,0.0214424,0,0.0253023,33960.8,-46439.2,0,57532,29014.3
step02_gravity_refstate-mantle.xmf,918,-2.02801e-06,6.71088e-07,0,6.34334e-07,-1.36964e+09,-1.36928e+09,-1.36937e+09,84778.8,0.0294418,0.00887456,0,0.0307502,27136.7,-48356.8,0,55450.7,84778.8
step02_gravity_refstate-mantle.xmf,919,-2.01129e-06,5.49149e-07,0,6.69553e-07,-1.42005e+09,-1.41971e+09,-1.41979e+09,89485.8,0.0323709,0.00616663,0,0.032953,26308.9,-49914,0,56423.1,89485.8
step02_gravity_refstate-mantle.xmf,920,-1.74655e-06,3.41743e-08,0,8.40736e-07,-1.46883e+09,-1.4686e+09,-1.4686e+09,112364,0.038055,0.000304074,0,0.0380562,23834.5,-51421.2,0,56676.5,112364
step02_gravity_refstate-mantle.xmf,921,-1.66673e-06,-9.00322e-08,0,7.51464e-07,-1.52316e+09,-1.52295e+09,-1.52294e+09,100433,0.0395752,-0.000486597,0,0.0395782,23433.3,-53099.7,0,58040.4,100433
step02_gravity_refstate-mantle.xmf,922,-1.52269e-06,-2.87458e-07,0,6.46641e-07,-1.57553e+09,-1.57537e+09,-1.57533e+09,86423.6,0.0411849,-0.00133404,0,0.0412065,22773.2,-54717.8,0,59267.7,86423.6
step02_gravity_refstate-mantle.xmf,923,-1.32746e-06,-5.35675e-07,0,4.98051e-07,-1.62967e+09,-1.62956e+09,-1.62949e+09,66564.6,0.0427297,-0.00178662,0,0.0427671,21939.6,-56390.7,0,60508.4,66564.6
step02_gravity_refstate-mantle.xmf,924,-1.08782e-06,-8.25452e-07,0,2.86586e-07,-1.68653e+09,-1.68649e+09,-1.68638e+09,38302.2,0.0440901,-0.00147038,0,0.0441146,20965.7,-58147.9,0,61812.1,38302.2
step02_gravity_refstate-mantle.xmf,925,-8.33986e-07,-1.11417e-06,0,2.78007e-09,-1.74645e+09,-1.74649e+09,-1.74634e+09,371.557,0.0451111,-7.60022e-21,0,0.0451111,19951.6,-60000,0,63230.3,371.557
step02_gravity_refstate-mantle.xmf,926,-2.24314e-06,1.39438e-06,0,1.82761e-09,-1.30519e+09,-1.3047e+09,-1.30489e+09,244.26,-3.98598e-19,0.0244704,-0,0.0244704,40000,-46366.4,0,61235.9,244.26
step02_gravity_refstate-mantle.xmf,927,-2.14027e-06,9.19397e-07,0,4.80562e-07,-1.36846e+09,-1.36805e+09,-1.36818e+09,64227.2,0.025428,0.0126208,0,0.0283878,29048,-48320.3,0,56379.5,64227.2
step02_gravity_refstate-mantle.xmf,928,-1.94314e-06,3.90698e-07,0,6.95303e-07,-1.46012e+09,-1.4598e+09,-1.45986e+09,92927.2,0.0348785,0.00385433,0,0.0350908,25465.4,-51151.5,0,57139.9,92927.2
step02_gravity_refstate-mantle.xmf,929,-2.33118e-06,1.44891e-06,0,5.72387e-08,-1.33911e+09,-1.3386e+09,-1.33879e+09,7649.95,0.00416119,0.0227372,0,0.0231149,38216,-47413.6,0,60897.6,7649.95
step02_gravity_refstate-mantle.xmf,930,-2.23149e-06,1.12214e-06,0,3.56586e-07,-1.36593e+09,-1.36548e+09,-1.36563e+09,47657.7,0.0211291,0.0157457,0,0.0263508,30990.4,-48242,0,57338.4,47657.7
step02_gravity_refstate-mantle.xmf,931,-2.30062e-06,1.27957e-06,0,2.52464e-07,-1.36467e+09,-1.36419e+09,-1.36436e+09,33741.8,0.0166164,0.0182098,0,0.0246516,32975.4,-48203,0,58402.9,33741.8
step02_gravity_refstate-mantle.xmf,932,-2.35201e-06,1.39548e-06,0,1.67058e-07,-1.36432e+09,-1.36382e+09,-1.36401e+09,22327.3,0.0119752,0.0200003,0,0.0233113,34972.5,-48192.2,0,59544.6,22327.3
step02_gravity_refstate-mantle.xmf,933,-2.15348e-06,8.3343e-07,0,5.1777e-07,-1.42069e+09,-1.42029e+09,-1.4204e+09,69199.9,0.0286211,0.00957891,0,0.0301815,28116,-49933.3,0,57304.8,69199.9
step02_gravity_refstate-mantle.xmf,934,-2.10566e-06,6.86505e-07,0,5.46714e-07,-1.46961e+09,-1.46924e+09,-1.46933e+09,73068.4,0.03182,0.00662915,0,0.0325032,27061.6,-51444.6,0,58128.1,73068.4
step02_gravity_refstate-mantle.xmf,935,-1.95371e-06,3.97588e-07,0,5.9187e-07,-1.5165e+09,-1.51618e+09,-1.51623e+09,79103.4,0.0357454,0.0032299,0,0.035891,25498.5,-52893,0,58718.3,79103.4
step02_gravity_refstate-mantle.xmf,936,-1.82718e-06,2.10223e-07,0,5.21646e-07,-1.57322e+09,-1.57294e+09,-1.57297e+09,69717.9,0.0380275,0.00141022,0,0.0380537,24645.3,-54645.5,0,59945.9,69717.9
step02_gravity_refstate-mantle.xmf,937,-1.67569e-06,1.3694e-08,0,4.06992e-07,-1.62822e+09,-1.62799e+09,-1.62799e+09,54394.5,0.0399134,0.000227214,0,0.039914,23809.9,-56344.9,0,61169.1,54394.5
step02_gravity_refstate-mantle.xmf,938,-1.49433e-06,-1.99764e-07,0,2.34075e-07,-1.68618e+09,-1.68601e+09,-1.68598e+09,31284.2,0.0415732,-0.000310093,0,0.0415744,22914.1,-58136.1,0,62488.9,31284.2
step02_gravity_refstate-mantle.xmf,939,-1.27991e-06,-4.40089e-07,0,2.4687e-09,-1.74649e+09,-1.74638e+09,-1.74632e+09,329.942,0.0430622,-1.91589e-20,0,0.0430622,21891.2,-60000,0,63868.8,329.942
step02_gravity_refstate-mantle.xmf,940,-2.43037e-06,1.53499e-06,0,2.31902e-09,-1.37548e+09,-1.37495e+09,-1.37515e+09,309.937,-4.54663e-19,0.0212914,-0,0.0212914,40000,-48536.8,0,62895.3,309.937
step02_gravity_refstate-mantle.xmf,941,-2.39358e-06,1.47377e-06,0,1.01361e-07,-1.36963e+09,-1.36911e+09,-1.36931e+09,13546.8,0.00788419,0.02081,0,0.0222535,36722.1,-48356.2,0,60719.3,13546.8
step02_gravity_refstate-mantle.xmf,942,-2.27526e-06,1.08124e-06,0,3.86987e-07,-1.42146e+09,-1.42102e+09,-1.42116e+09,51720.9,0.0243763,0.0125329,0,0.0274095,30039.7,-49957.1,0,58293.2,51720.9
step02_gravity_refstate-mantle.xmf,943,-2.49589e-06,1.57903e-06,0,5.54525e-08,-1.4084e+09,-1.40786e+09,-1.40807e+09,7411.22,0.00472955,0.0194695,0,0.0200357,38108.4,-49553.5,0,62512.4,7411.22
step02_gravity_refstate-mantle.xmf,944,-2.3756e-06,1.28413e-06,0,2.80667e-07,-1.42179e+09,-1.4213e+09,-1.42147e+09,37511.2,0.0198038,0.0149248,0,0.024798,32010,-49967.1,0,59340.9,37511.2
step02_gravity_refstate-mantle.xmf,945,-2.49943e-06,1.54534e-06,0,1.15142e-07,-1.42077e+09,-1.42023e+09,-1.42043e+09,15388.7,0.00976824,0.01814,0,0.0206028,36119.4,-49935.3,0,61629.1,15388.7
step02_gravity_refstate-mantle.xmf,946,-2.44975e-06,1.4394e-06,0,1.90113e-07,-1.42159e+09,-1.42107e+09,-1.42126e+09,25408.6,0.0148558,0.0168104,0,0.022434,34063,-49960.7,0,60467.9,25408.6
step02_gravity_refstate-mantle.xmf,947,-2.2686e-06,9.94012e-07,0,4.09568e-07,-1.47308e+09,-1.47264e+09,-1.47278e+09,54738.8,0.0276058,0.00947382,0,0.0291862,29014.8,-51551.3,0,59155.7,54738.8
step02_gravity_refstate-mantle.xmf,948,-2.20431e-06,8.46069e-07,0,4.20964e-07,-1.52314e+09,-1.52273e+09,-1.52284e+09,56261.8,0.0309658,0.00650472,0,0.0316416,27840.9,-53097.7,0,59954,56261.8
step02_gravity_refstate-mantle.xmf,949,-2.09859e-06,6.68067e-07,0,3.99852e-07,-1.57251e+09,-1.57214e+09,-1.57223e+09,53440.2,0.0339616,0.00399038,0,0.0341952,26713.5,-54622.9,0,60805.2,53440.2
step02_gravity_refstate-mantle.xmf,950,-1.98265e-06,5.14637e-07,0,3.13783e-07,-1.6295e+09,-1.62917e+09,-1.62924e+09,41937.2,0.036246,0.00206757,0,0.0363049,25819.1,-56383.9,0,62014.3,41937.2
step02_gravity_refstate-mantle.xmf,951,-1.83497e-06,3.37771e-07,0,1.87089e-07,-1.68565e+09,-1.68536e+09,-1.6854e+09,25004.4,0.0383204,0.000701195,0,0.0383269,24867.5,-58118.7,0,63215.3,25004.4
step02_gravity_refstate-mantle.xmf,952,-1.66643e-06,1.59323e-07,0,1.75993e-09,-1.74653e+09,-1.74628e+09,-1.7463e+09,235.215,0.0401195,-2.67341e-20,0,0.0401195,23888.9,-60000,0,64580.8,235.215
step02_gravity_refstate-mantle.xmf,953,-2.58612e-06,1.66824e-06,0,3.9672e-09,-1.44684e+09,-1.44627e+09,-1.4465e+09,530.216,-6.0545e-19,0.0177633,-0,0.0177633,40000,-50740.5,0,64611.1,530.216
step02_gravity_refstate-mantle.xmf,954,-2.40159e-06,1.2496e-06,0,2.96213e-07,-1.47626e+09,-1.47577e+09,-1.47594e+09,39588.9,0.0229269,0.0117661,0,0.0257698,31038.7,-51649.3,0,60258.2,39588.9
step02_gravity_refstate-mantle.xmf,955,-2.63379e-06,1.69743e-06,0,6.46357e-08,-1.48115e+09,-1.48057e+09,-1.4808e+09,8638.57,0.00627953,0.015667,0,0.0168786,37619.6,-51800.1,0,64019.4,8638.57
step02_gravity_refstate-mantle.xmf,956,-2.50749e-06,1.45116e-06,0,2.06793e-07,-1.47886e+09,-1.47833e+09,-1.47852e+09,27637.9,0.0179549,0.0134966,0,0.0224619,33078.7,-51729.4,0,61401.4,27637.9
step02_gravity_refstate-mantle.xmf,957,-2.58139e-06,1.59799e-06,0,1.31148e-07,-1.47877e+09,-1.47821e+09,-1.47842e+09,17528,0.0124798,0.0148799,0,0.0194205,35233,-51726.4,0,62585.8,17528
step02_gravity_refstate-mantle.xmf,958,-2.38352e-06,1.17442e-06,0,3.0125e-07,-1.52731e+09,-1.52683e+09,-1.52699e+09,40262.1,0.0260818,0.00878933,0,0.0275229,29992.2,-53226.1,0,61094.6,40262.1
step02_gravity_refstate-mantle.xmf,959,-2.32406e-06,1.06341e-06,0,2.8652e-07,-1.57745e+09,-1.57699e+09,-1.57714e+09,38293.4,0.0291615,0.00604098,0,0.0297807,28905.5,-54775,0,61934.1,38293.4
step02_gravity_refstate-mantle.xmf,960,-2.24074e-06,9.47956e-07,0,2.33937e-07,-1.63073e+09,-1.6303e+09,-1.63043e+09,31265.7,0.0317996,0.00362692,0,0.0320057,27928.2,-56421.1,0,62955,31265.7
step02_gravity_refstate-mantle.xmf,961,-2.13021e-06,8.21339e-07,0,1.38077e-07,-1.6879e+09,-1.6875e+09,-1.68761e+09,18454,0.0341851,0.00155269,0,0.0342204,26956.8,-58187.5,0,64128.4,18454
step02_gravity_refstate-mantle.xmf,962,-1.99425e-06,6.82143e-07,0,1.07617e-09,-1.74656e+09,-1.7462e+09,-1.74629e+09,143.831,0.0363458,-3.45124e-20,0,0.0363458,25950.7,-60000,0,65371.5,143.831
step02_gravity_refstate-mantle.xmf,963,-2.70737e-06,1.79342e-06,0,3.38912e-09,-1.51946e+09,-1.51886e+09,-1.5191e+09,452.956,-5.49094e-19,0.0138808,-0,0.0138808,40000,-52983,0,66386.8,452.956
step02_gravity_refstate-mantle.xmf,964,-2.51945e-06,1.42591e-06,0,2.09762e-07,-1.53398e+09,-1.53345e+09,-1.53364e+09,28034.7,0.0210808,0.0102814,0,0.0234544,32060.6,-53431.9,0,62312.5,28034.7
step02_gravity_refstate-mantle.xmf,965,-2.74646e-06,1.83582e-06,0,4.55589e-08,-1.56012e+09,-1.55951e+09,-1.55975e+09,6088.94,0.00568364,0.0114255,0,0.0127611,37932.9,-54238.9,0,66187.3,6088.94
step02_gravity_refstate-mantle.xmf,966,-2.67315e-06,1.72276e-06,0,8.85768e-08,-1.53202e+09,-1.53143e+09,-1.53166e+09,11838.3,0.0105048,0.012526,0,0.0163478,36115.3,-53371,0,64442.1,11838.3
step02_gravity_refstate-mantle.xmf,967,-2.62609e-06,1.62027e-06,0,1.38427e-07,-1.53791e+09,-1.53734e+09,-1.53756e+09,18500.8,0.0156794,0.0113978,0,0.0193844,34174.5,-53553.1,0,63528.2,18500.8
step02_gravity_refstate-mantle.xmf,968,-2.49156e-06,1.36333e-06,0,1.99738e-07,-1.58421e+09,-1.5837e+09,-1.58388e+09,26694.9,0.0242196,0.00736447,0,0.0253145,30981.6,-54983.7,0,63111.6,26694.9
step02_gravity_refstate-mantle.xmf,969,-2.43971e-06,1.29323e-06,0,1.69412e-07,-1.63315e+09,-1.63266e+09,-1.63283e+09,22641.9,0.0269534,0.0047789,0,0.0273738,30005.4,-56495.6,0,63969.4,22641.9
step02_gravity_refstate-mantle.xmf,970,-2.36845e-06,1.22128e-06,0,1.02096e-07,-1.68836e+09,-1.68788e+09,-1.68805e+09,13645.1,0.0293811,0.00226142,0,0.029468,29093.2,-58201.4,0,65067.7,13645.1
step02_gravity_refstate-mantle.xmf,971,-2.26472e-06,1.12615e-06,0,5.8842e-10,-1.74658e+09,-1.74612e+09,-1.74627e+09,78.6423,0.0318059,-4.02303e-20,0,0.0318059,28082.3,-60000,0,66246.6,78.6423
step02_gravity_refstate-mantle.xmf,972,-2.79307e-06,1.92843e-06,0,-6.32025e-10,-1.5935e+09,-1.59287e+09,-1.59313e+09,-84.4701,3.17141e-19,0.00963947,0,0.00963947,40000,-55270.1,0,68225.9,84.4701
step02_gravity_refstate-mantle.xmf,973,-2.84378e-06,2.03575e-06,0,1.62505e-09,-1.66916e+09,-1.66851e+09,-1.66878e+09,217.188,-4.8334e-19,0.00502012,-0,0.00502012,40000,-57607.2,0,70132.6,217.188
step02_gravity_refstate-mantle.xmf,974,-2.81124e-06,1.96575e-06,0,2.25388e-08,-1.63274e+09,-1.6321e+09,-1.63236e+09,3012.31,0.00558682,0.00718623,0,0.00910245,38015.8,-56482.1,0,68084,3012.31
step02_gravity_refstate-mantle.xmf,975,-2.6279e-06,1.61332e-06,0,1.26547e-07,-1.59982e+09,-1.59926e+09,-1.59947e+09,16913,0.0188936,0.00779414,0,0.0204381,33102.5,-55465.6,0,64592.6,16913
step02_gravity_refstate-mantle.xmf,976,-2.73962e-06,1.80953e-06,0,7.77695e-08,-1.60213e+09,-1.60152e+09,-1.60177e+09,10393.9,0.0121621,0.00855141,0,0.0148676,35616.4,-55536.7,0,65976.1,10393.9
step02_gravity_refstate-mantle.xmf,977,-2.83942e-06,2.05459e-06,0,8.75501e-09,-1.69178e+09,-1.69113e+09,-1.6914e+09,1170.11,0.0049792,0.0035493,0,0.00611473,38250.9,-58305.9,0,69733.2,1170.11
step02_gravity_refstate-mantle.xmf,978,-2.86454e-06,2.17022e-06,0,6.04085e-11,-1.74662e+09,-1.74595e+09,-1.74624e+09,8.0736,2.26589e-18,-3.48056e-19,0,2.29247e-18,40000,-60000,0,72111,8.0736
step02_gravity_refstate-mantle.xmf,979,-2.57422e-06,1.52892e-06,0,1.23285e-07,-1.63357e+09,-1.63302e+09,-1.63322e+09,16477.1,0.0224002,0.00560807,0,0.0230915,31823.5,-56508.1,0,64852.9,16477.1
step02_gravity_refstate-mantle.xmf,980,-2.55619e-06,1.54304e-06,0,7.67406e-08,-1.68613e+09,-1.68558e+09,-1.68579e+09,10256.4,0.023918,0.00295251,0,0.0240995,31309.1,-58131.8,0,66027,10256.4
step02_gravity_refstate-mantle.xmf,981,-2.48112e-06,1.49147e-06,0,1.08687e-10,-1.74659e+09,-1.74606e+09,-1.74626e+09,14.5261,0.0265665,-4.6137e-20,0,0.0265665,30289.7,-60000,0,67212.1,14.5261
step02_gravity_refstate-mantle.xmf,982,-2.8e-06,1.97406e-06,0,2.50897e-08,-1.68193e+09,-1.68129e+09,-1.68155e+09,3353.24,0.0104139,0.00402881,0,0.011166,36320.3,-58001.6,0,68435,3353.24
step02_gravity_refstate-mantle.xmf,983,-2.83798e-06,2.11936e-06,0,9.52524e-10,-1.74662e+09,-1.74596e+09,-1.74624e+09,127.305,0.00733285,-3.9744e-19,0,0.00733285,37427.7,-60000,0,70716.5,127.305
step02_gravity_refstate-mantle.xmf,984,-2.69901e-06,1.77154e-06,0,6.09605e-08,-1.67095e+09,-1.67035e+09,-1.67059e+09,8147.37,0.0176949,0.00426162,0,0.0182008,33663.3,-57662.7,0,66769.8,8147.37
step02_gravity_refstate-mantle.xmf,985,-2.6474e-06,1.77909e-06,0,-6.18589e-10,-1.74661e+09,-1.74601e+09,-1.74625e+09,-82.6744,0.0206945,-6.02051e-20,0,0.0206945,32578.9,-60000,0,68274.3,82.6744
step02_gravity_refstate-mantle.xmf,986,-2.76637e-06,1.98955e-06,0,7.33008e-10,-1.74661e+09,-1.74598e+09,-1.74624e+09,97.9665,0.0142597,-4.25495e-19,0,0.0142597,34956.1,-60000,0,69440.1,97.9665
step02_gravity_refstate-intrusion.xmf,0,-2.362e-06,1.6076e-05,0,-1.79786e-05,-8.23484e+08,-8.21726e+08,-8.23259e+08,-1.71444e+06,0.0361086,-0.362472,0,0.364266,-4000,-30000,-0,30265.5,1.71444e+06
step02_gravity_refstate-intrusion.xmf,1,-6.21756e-06,1.90134e-05,0,-1.37465e-05,-8.23904e+08,-8.21498e+08,-8.23311e+08,-1.31087e+06,0.033949,-0.385902,0,0.387392,-3497.18,-30000,-0,30203.2,1.31087e+06
step02_gravity_refstate-intrusion.xmf,2,-3.47999e-06,1.27285e-05,0,-1.89262e-05,-8.37641e+08,-8.36095e+08,-8.37309e+08,-1.8048e+06,0.029033,-0.370085,0,0.371222,-4000,-30502.3,-0,30763.4,1.8048e+06
step02_gravity_refstate-intrusion.xmf,3,-8.00379e-06,2.12748e-05,0,-1.13647e-05,-8.24047e+08,-8.21255e+08,-8.23284e+08,-1.08374e+06,0.0303946,-0.405171,0,0.40631,-2997.53,-30000,-0,30149.4,1.08374e+06
step02_gravity_refstate-intrusion.xmf,4,-9.15532e-06,2.29041e-05,0,-9.24844e-06,-8.2413e+08,-8.21072e+08,-8.23257e+08,-881931,0.026102,-0.421154,0,0.421962,-2497.35,-30000,-0,30103.8,881931
step02_gravity_refstate-intrusion.xmf,5,-2.65481e-06,8.8856e-06,0,-1.98883e-05,-8.51445e+08,-8.50345e+08,-8.51192e+08,-1.89655e+06,0.0220191,-0.375488,0,0.376134,-4000,-31001.4,-0,31258.4,1.89655e+06
step02_gravity_refstate-intrusion.xmf,6,-9.93478e-06,2.40782e-05,0,-7.26587e-06,-8.24181e+08,-8.20938e+08,-8.23234e+08,-692873,0.0213312,-0.43403,0,0.434554,-1997.54,-30000,-0,30066.4,692873
step02_gravity_refstate-intrusion.xmf,7,-1.65987e-06,5.15168e-06,0,-2.06091e-05,-8.65246e+08,-8.64597e+08,-8.65088e+08,-1.96528e+06,0.0148997,-0.379001,0,0.379294,-4000,-31501.6,-0,31754.6,1.96528e+06
step02_gravity_refstate-intrusion.xmf,8,-1.04598e-05,2.49072e-05,0,-5.37616e-06,-8.24214e+08,-8.20842e+08,-8.23217e+08,-512671,0.0162421,-0.443927,0,0.444224,-1498.34,-30000,-0,30037.4,512671
step02_gravity_refstate-intrusion.xmf,9,-6.144e-07,1.46944e-06,0,-2.11084e-05,-8.79005e+08,-8.78806e+08,-8.78946e+08,-2.0129e+06,0.00773549,-0.380651,0,0.380729,-4000,-32000.7,-0,32249.7,2.0129e+06
step02_gravity_refstate-intrusion.xmf,10,-1.07891e-05,2.54392e-05,0,-3.56049e-06,-8.24234e+08,-8.20779e+08,-8.23205e+08,-339529,0.0109421,-0.450938,0,0.451071,-999.46,-30000,-0,30016.6,339529
step02_gravity_refstate-intrusion.xmf,11,4.91939e-07,-2.21524e-06,0,-2.14007e-05,-8.92782e+08,-8.93041e+08,-8.92829e+08,-2.04077e+06,0.000529126,-0.380464,0,0.380464,-4000,-32500.8,-0,32746,2.04077e+06
step02_gravity_refstate-intrusion.xmf,12,-1.09779e-05,2.57547e-05,0,-1.7718e-06,-8.24245e+08,-8.20742e+08,-8.23198e+08,-168959,0.00550543,-0.455131,0,0.455165,-500.036,-30000,-0,30004.2,168959
step02_gravity_refstate-intrusion.xmf,13,-1.10376e-05,2.58562e-05,0,-1.368e-09,-8.24248e+08,-8.2073e+08,-8.23196e+08,-130.452,-2.40038e-07,-0.456528,-0,0.456528,-4.01542e-10,-30000,-0,30000,130.452
step02_gravity_refstate-intrusion.xmf,14,1.5904e-06,-5.87411e-06,0,-2.15169e-05,-9.06543e+08,-9.07255e+08,-9.06695e+08,-2.05185e+06,-0.00666153,-0.378442,-0,0.378501,-4000,-33000.2,-0,33241.8,2.05185e+06
step02_gravity_refstate-intrusion.xmf,15,-1.09793e-05,2.57565e-05,0,1.76922e-06,-8.24245e+08,-8.20742e+08,-8.23198e+08,168713,-0.00550535,-0.455132,-0,0.455165,500.036,-30000,0,30004.2,168713
step02_gravity_refstate-intrusion.xmf,16,2.68047e-06,-9.53896e-06,0,-2.1452e-05,-9.20305e+08,-9.2147e+08,-9.2056e+08,-2.04566e+06,-0.0138082,-0.374595,-0,0.374849,-4000,-33499.7,-0,33737.7,2.04566e+06
step02_gravity_refstate-intrusion.xmf,17,-1.07948e-05,2.54383e-05,0,3.54825e-06,-8.24235e+08,-8.2078e+08,-8.23206e+08,338362,-0.0109415,-0.450939,-0,0.451072,999.46,-30000,0,30016.6,338362
step02_gravity_refstate-intrusion.xmf,18,-1.04609e-05,2.48876e-05,0,5.37107e-06,-8.24215e+08,-8.20845e+08,-8.23218e+08,512186,-0.016241,-0.443927,-0,0.444224,1498.34,-30000,0,30037.4,512186
step02_gravity_refstate-intrusion.xmf,19,3.74033e-06,-1.32025e-05,0,-2.11869e-05,-9.34088e+08,-9.35704e+08,-9.34445e+08,-2.02038e+06,-0.0208886,-0.368912,-0,0.369503,-4000,-33999.8,-0,34234.3,2.02038e+06
step02_gravity_refstate-intrusion.xmf,20,-9.93482e-06,2.40418e-05,0,7.24945e-06,-8.24183e+08,-8.20943e+08,-8.23236e+08,691308,-0.0213307,-0.434031,-0,0.434554,1997.54,-30000,0,30066.4,691308
step02_gravity_refstate-intrusion.xmf,21,4.73174e-06,-1.68661e-05,0,-2.07522e-05,-9.47854e+08,-9.49914e+08,-9.48305e+08,-1.97893e+06,-0.027843,-0.361406,-0,0.362477,-4000,-34498.8,-0,34729.9,1.97893e+06
step02_gravity_refstate-intrusion.xmf,22,-9.15278e-06,2.28492e-05,0,9.21563e-06,-8.24132e+08,-8.21081e+08,-8.2326e+08,878802,-0.0261021,-0.421153,-0,0.421961,2497.35,-30000,0,30103.8,878802
step02_gravity_refstate-intrusion.xmf,23,5.65744e-06,-2.06148e-05,0,-2.01115e-05,-9.61667e+08,-9.64172e+08,-9.62206e+08,-1.91783e+06,-0.0346748,-0.352035,-0,0.353739,-4000,-34999,-0,35226.9,1.91783e+06
step02_gravity_refstate-intrusion.xmf,24,-7.9874e-06,2.1143e-05,0,1.12653e-05,-8.24052e+08,-8.21274e+08,-8.2329e+08,1.07426e+06,-0.0303975,-0.405172,-0,0.406311,2997.53,-30000,0,30149.4,1.07426e+06
step02_gravity_refstate-intrusion.xmf,25,6.37505e-06,-2.44874e-05,0,-1.94217e-05,-9.75489e+08,-9.78432e+08,-9.76097e+08,-1.85206e+06,-0.0413567,-0.340787,-0,0.343288,-4000,-35498.2,-0,35722.9,1.85206e+06
step02_gravity_refstate-intrusion.xmf,26,-6.23041e-06,1.85355e-05,0,1.32746e-05,-8.23933e+08,-8.21571e+08,-8.23339e+08,1.26586e+06,-0.0339446,-0.385901,-0,0.387391,3497.18,-30000,0,30203.2,1.26586e+06
step02_gravity_refstate-intrusion.xmf,27,4.94294e-06,-2.72031e-05,0,-1.88666e-05,-9.89645e+08,-9.92711e+08,-9.90116e+08,-1.79912e+06,-0.0482256,-0.327307,-0,0.330841,-4000,-36000,-0,36221.5,1.79912e+06
step02_gravity_refstate-intrusion.xmf,28,9.02609e-06,-3.01746e-05,0,-1.37393e-05,-9.89192e+08,-9.92931e+08,-9.90053e+08,-1.31018e+06,-0.0447064,-0.350951,-0,0.353787,-3499.28,-36000,-0,36169.7,1.31018e+06
step02_gravity_refstate-intrusion.xmf,29,1.09184e-05,-3.27181e-05,0,-1.12048e-05,-9.89049e+08,-9.9321e+08,-9.9009e+08,-1.06849e+06,-0.0397163,-0.369931,-0,0.372057,-2999.32,-36000,-0,36124.7,1.06849e+06
step02_gravity_refstate-intrusion.xmf,30,1.21586e-05,-3.46292e-05,0,-9.04261e-06,-9.88969e+08,-9.93431e+08,-9.90128e+08,-862303,-0.033953,-0.385456,-0,0.386949,-2499.83,-36000,-0,36086.7,862303
step02_gravity_refstate-intrusion.xmf,31,1.30028e-05,-3.60387e-05,0,-7.06525e-06,-9.88921e+08,-9.93597e+08,-9.90161e+08,-673742,-0.0276645,-0.397887,-0,0.398848,-2000,-36000,-0,36055.5,673742
step02_gravity_refstate-intrusion.xmf,32,1.35782e-05,-3.70508e-05,0,-5.20309e-06,-9.88891e+08,-9.93719e+08,-9.90186e+08,-496167,-0.0210206,-0.407399,-0,0.407941,-1500.17,-36000,-0,36031.2,496167
step02_gravity_refstate-intrusion.xmf,33,1.39544e-05,-3.77323e-05,0,-3.42529e-06,-9.88872e+08,-9.93801e+08,-9.90203e+08,-326636,-0.0141431,-0.41411,-0,0.414352,-1000.68,-36000,-0,36013.9,326636
step02_gravity_refstate-intrusion.xmf,34,-3.78324e-06,1.75279e-05,0,1.80309e-05,-8.23618e+08,-8.21585e+08,-8.23257e+08,1.71943e+06,-0.0360903,-0.362465,-0,0.364257,4000,-30000,0,30265.5,1.71943e+06
step02_gravity_refstate-intrusion.xmf,35,1.41656e-05,-3.81257e-05,0,-1.69742e-06,-9.88863e+08,-9.93849e+08,-9.90213e+08,-161866,-0.00711194,-0.418113,-0,0.418173,-500.717,-36000,-0,36003.5,161866
step02_gravity_refstate-intrusion.xmf,36,1.42419e-05,-3.82548e-05,0,3.55176e-09,-9.88858e+08,-9.93864e+08,-9.90216e+08,338.696,6.07389e-08,-0.419444,0,0.419444,0,-36000,0,36000,338.696
step02_gravity_refstate-intrusion.xmf,37,-3.48853e-06,1.27377e-05,0,1.89685e-05,-8.37641e+08,-8.36094e+08,-8.37309e+08,1.80884e+06,-0.0290277,-0.370079,-0,0.371216,4000,-30502.3,0,30763.4,1.80884e+06
step02_gravity_refstate-intrusion.xmf,38,-2.64324e-06,8.87821e-06,0,1.99011e-05,-8.51444e+08,-8.50345e+08,-8.51192e+08,1.89777e+06,-0.0220144,-0.375489,-0,0.376134,4000,-31001.4,0,31258.4,1.89777e+06
step02_gravity_refstate-intrusion.xmf,39,1.41723e-05,-3.81203e-05,0,1.70551e-06,-9.88861e+08,-9.93848e+08,-9.90213e+08,162637,0.00711194,-0.418113,0,0.418173,500.717,-36000,0,36003.5,162637
step02_gravity_refstate-intrusion.xmf,40,1.39566e-05,-3.77135e-05,0,3.42769e-06,-9.88871e+08,-9.93798e+08,-9.90202e+08,326865,0.0141433,-0.41411,0,0.414351,1000.68,-36000,0,36013.9,326865
step02_gravity_refstate-intrusion.xmf,41,-1.66281e-06,5.15497e-06,0,2.06074e-05,-8.65247e+08,-8.64597e+08,-8.65088e+08,1.96512e+06,-0.0148997,-0.379002,-0,0.379295,4000,-31501.6,0,31754.6,1.96512e+06
step02_gravity_refstate-intrusion.xmf,42,1.35922e-05,-3.70452e-05,0,5.19592e-06,-9.88888e+08,-9.93717e+08,-9.90184e+08,495483,0.0210205,-0.407399,0,0.407941,1500.17,-36000,0,36031.2,495483
step02_gravity_refstate-intrusion.xmf,43,-5.94017e-07,1.45496e-06,0,2.11023e-05,-8.79003e+08,-8.78807e+08,-8.78946e+08,2.01232e+06,-0.00773588,-0.380652,-0,0.380731,4000,-32000.7,0,32249.7,2.01232e+06
step02_gravity_refstate-intrusion.xmf,44,4.92535e-07,-2.19796e-06,0,2.13996e-05,-8.92781e+08,-8.93038e+08,-8.92828e+08,2.04066e+06,-0.000527359,-0.380462,-0,0.380463,4000,-32500.8,0,32746,2.04066e+06
step02_gravity_refstate-intrusion.xmf,45,1.58159e-06,-5.87021e-06,0,2.15193e-05,-9.06544e+08,-9.07255e+08,-9.06695e+08,2.05208e+06,0.00666289,-0.378442,0,0.378501,4000,-33000.2,0,33241.8,2.05208e+06
step02_gravity_refstate-intrusion.xmf,46,1.30198e-05,-3.60236e-05,0,7.05329e-06,-9.88917e+08,-9.93594e+08,-9.90159e+08,672601,0.027663,-0.397887,0,0.398847,2000,-36000,0,36055.5,672601
step02_gravity_refstate-intrusion.xmf,47,1.21722e-05,-3.45987e-05,0,9.01193e-06,-9.88965e+08,-9.93425e+08,-9.90126e+08,859377,0.0339511,-0.385456,0,0.386949,2499.83,-36000,0,36086.7,859377
step02_gravity_refstate-intrusion.xmf,48,2.67217e-06,-9.5276e-06,0,2.14433e-05,-9.20305e+08,-9.21469e+08,-9.2056e+08,2.04484e+06,0.0138104,-0.374595,0,0.374849,4000,-33499.7,0,33737.7,2.04484e+06
step02_gravity_refstate-intrusion.xmf,49,1.09343e-05,-3.26187e-05,0,1.10899e-05,-9.89041e+08,-9.93194e+08,-9.90084e+08,1.05754e+06,0.039717,-0.369931,0,0.372057,2999.32,-36000,0,36124.7,1.05754e+06
step02_gravity_refstate-intrusion.xmf,50,3.728e-06,-1.31952e-05,0,2.11857e-05,-9.3409e+08,-9.35704e+08,-9.34445e+08,2.02027e+06,0.020889,-0.368911,0,0.369502,4000,-33999.8,0,34234.3,2.02027e+06
step02_gravity_refstate-intrusion.xmf,51,9.07511e-06,-2.95557e-05,0,1.30317e-05,-9.8915e+08,-9.92834e+08,-9.90015e+08,1.24271e+06,0.0447138,-0.350952,0,0.353789,3499.28,-36000,0,36169.7,1.24271e+06
step02_gravity_refstate-intrusion.xmf,52,4.73395e-06,-1.68732e-05,0,2.0738e-05,-9.47854e+08,-9.49914e+08,-9.48305e+08,1.97758e+06,0.0278431,-0.361408,0,0.362479,4000,-34498.8,0,34729.9,1.97758e+06
step02_gravity_refstate-intrusion.xmf,53,5.65896e-06,-2.06172e-05,0,2.01142e-05,-9.61666e+08,-9.64172e+08,-9.62206e+08,1.91809e+06,0.0346742,-0.352035,0,0.353739,4000,-34999,0,35226.9,1.91809e+06
step02_gravity_refstate-intrusion.xmf,54,6.39552e-06,-2.46255e-05,0,1.94202e-05,-9.75494e+08,-9.78452e+08,-9.76104e+08,1.85191e+06,0.0413552,-0.340799,0,0.343299,4000,-35498.2,0,35722.9,1.85191e+06
step02_gravity_refstate-intrusion.xmf,55,6.59885e-06,-2.90766e-05,0,1.8679e-05,-9.895e+08,-9.92902e+08,-9.90129e+08,1.78123e+06,0.0482394,-0.327325,0,0.330861,4000,-36000,0,36221.5,1.78123e+06
step02_gravity_refstate-intrusion.xmf,56,-4.54474e-06,1.51588e-05,0,-1.61575e-05,-8.33871e+08,-8.31992e+08,-8.33437e+08,-1.54078e+06,0.0294805,-0.385967,0,0.387091,-3635.71,-30364.1,-0,30581,1.54078e+06
step02_gravity_refstate-intrusion.xmf,57,-4.08327e-06,1.23512e-05,0,-1.67106e-05,-8.44418e+08,-8.42851e+08,-8.44029e+08,-1.59352e+06,0.0241856,-0.393036,0,0.393779,-3596.18,-30744.9,-0,30954.5,1.59352e+06
step02_gravity_refstate-intrusion.xmf,58,-5.68315e-06,1.62593e-05,0,-1.38023e-05,-8.35375e+08,-8.33283e+08,-8.34834e+08,-1.31618e+06,0.0268697,-0.403126,0,0.404021,-3256.64,-30414.9,-0,30588.7,1.31618e+06
step02_gravity_refstate-intrusion.xmf,59,-2.98895e-06,8.32832e-06,0,-1.72698e-05,-8.58053e+08,-8.56973e+08,-8.57768e+08,-1.64685e+06,0.017566,-0.398934,0,0.39932,-3579.55,-31239,-0,31443.4,1.64685e+06
step02_gravity_refstate-intrusion.xmf,60,-6.93326e-06,1.77857e-05,0,-1.10566e-05,-8.35973e+08,-8.33615e+08,-8.35311e+08,-1.05435e+06,0.0234454,-0.422174,0,0.422825,-2747.44,-30432.9,-0,30556.6,1.05435e+06
step02_gravity_refstate-intrusion.xmf,61,-4.54421e-06,1.20718e-05,0,-1.38453e-05,-8.50071e+08,-8.48486e+08,-8.49638e+08,-1.32029e+06,0.0194905,-0.416733,0,0.417189,-3105.15,-30947.5,-0,31102.9,1.32029e+06
step02_gravity_refstate-intrusion.xmf,62,-7.7961e-06,1.89536e-05,0,-8.74358e-06,-8.3627e+08,-8.33719e+08,-8.35527e+08,-833788,0.0196863,-0.437294,0,0.437737,-2248.57,-30441.3,-0,30524.3,833788
step02_gravity_refstate-intrusion.xmf,63,-2.85885e-06,7.16126e-06,0,-1.51775e-05,-8.64504e+08,-8.63549e+08,-8.64232e+08,-1.44733e+06,0.0135254,-0.416909,0,0.417129,-3222.53,-31472.1,-0,31636.7,1.44733e+06
step02_gravity_refstate-intrusion.xmf,64,-1.7019e-06,4.18576e-06,0,-1.76185e-05,-8.72212e+08,-8.71651e+08,-8.7205e+08,-1.6801e+06,0.0106759,-0.403203,0,0.403345,-3557.71,-31753,-0,31951.7,1.6801e+06
step02_gravity_refstate-intrusion.xmf,65,-5.60322e-06,1.36687e-05,0,-1.06146e-05,-8.4926e+08,-8.47422e+08,-8.48725e+08,-1.0122e+06,0.0169212,-0.436854,0,0.437182,-2528.11,-30915.4,-0,31018.6,1.0122e+06
step02_gravity_refstate-intrusion.xmf,66,-3.60604e-06,8.61002e-06,0,-1.25954e-05,-8.62516e+08,-8.61351e+08,-8.62172e+08,-1.2011e+06,0.0130424,-0.432753,0,0.432949,-2806.75,-31398.6,-0,31523.8,1.2011e+06
step02_gravity_refstate-intrusion.xmf,67,-8.40776e-06,1.9823e-05,0,-6.54299e-06,-8.36503e+08,-8.33811e+08,-8.35701e+08,-623940,0.0154007,-0.449694,0,0.449958,-1726.51,-30448.2,-0,30497.1,623940
step02_gravity_refstate-intrusion.xmf,68,-6.33047e-06,1.4749e-05,0,-7.99372e-06,-8.48953e+08,-8.46943e+08,-8.4835e+08,-762281,0.0138055,-0.451758,0,0.451969,-1985.71,-30902.5,-0,30966.2,762281
step02_gravity_refstate-intrusion.xmf,69,-1.80021e-06,3.82702e-06,0,-1.46117e-05,-8.75766e+08,-8.75229e+08,-8.75594e+08,-1.39337e+06,0.00821411,-0.425156,0,0.425235,-3079.59,-31881.1,-0,32029.5,1.39337e+06
step02_gravity_refstate-intrusion.xmf,70,-1.28018e-07,-6.56831e-07,0,-1.73369e-05,-8.89119e+08,-8.89169e+08,-8.89107e+08,-1.65325e+06,0.00247853,-0.408781,0,0.408789,-3464.15,-32367.2,-0,32552,1.65325e+06
step02_gravity_refstate-intrusion.xmf,71,-4.22225e-06,9.54285e-06,0,-9.7229e-06,-8.62201e+08,-8.60889e+08,-8.61799e+08,-927175,0.011085,-0.449993,0,0.45013,-2272.73,-31385.7,-0,31467.9,927175
step02_gravity_refstate-intrusion.xmf,72,-2.19577e-06,4.37853e-06,0,-1.15182e-05,-8.76085e+08,-8.75458e+08,-8.75875e+08,-1.09838e+06,0.00704469,-0.444677,0,0.444733,-2556.18,-31891.6,-0,31993.9,1.09838e+06
step02_gravity_refstate-intrusion.xmf,73,-8.7976e-06,2.03863e-05,0,-4.44149e-06,-8.36755e+08,-8.33972e+08,-8.35916e+08,-423540,0.0107633,-0.458956,0,0.459082,-1193.19,-30456.4,-0,30479.8,423540
step02_gravity_refstate-intrusion.xmf,74,-6.75648e-06,1.53079e-05,0,-5.54832e-06,-8.49373e+08,-8.47269e+08,-8.48728e+08,-529087,0.00999738,-0.463657,0,0.463765,-1418.94,-30916.5,-0,30949.1,529087
step02_gravity_refstate-intrusion.xmf,75,-4.71308e-06,1.02812e-05,0,-6.97956e-06,-8.62004e+08,-8.60574e+08,-8.61554e+08,-665571,0.00858609,-0.464212,0,0.464291,-1697.83,-31377.3,-0,31423.2,665571
step02_gravity_refstate-intrusion.xmf,76,-3.29375e-07,-5.28018e-07,0,-1.35843e-05,-8.8988e+08,-8.89898e+08,-8.89848e+08,-1.2954e+06,0.002013,-0.434301,0,0.434305,-2871.35,-32394,-0,32521,1.2954e+06
step02_gravity_refstate-intrusion.xmf,77,1.13379e-06,-4.4123e-06,0,-1.85548e-05,-9.01393e+08,-9.01922e+08,-9.01501e+08,-1.76938e+06,-0.00352774,-0.400157,-0,0.400172,-3615.8,-32813.2,-0,33011.9,1.76938e+06
step02_gravity_refstate-intrusion.xmf,78,-2.5769e-06,4.97302e-06,0,-8.61496e-06,-8.75823e+08,-8.75103e+08,-8.75578e+08,-821523,0.00581057,-0.461026,0,0.461063,-1998.33,-31881.3,-0,31943.8,821523
step02_gravity_refstate-intrusion.xmf,79,-5.247e-07,-2.45267e-07,0,-1.03198e-05,-8.9006e+08,-8.90033e+08,-8.9001e+08,-984092,0.00170425,-0.453815,0,0.453818,-2300.72,-32400.1,-0,32481.7,984092
step02_gravity_refstate-intrusion.xmf,80,1.27051e-06,-4.90698e-06,0,-1.5532e-05,-9.03383e+08,-9.03972e+08,-9.03505e+08,-1.48113e+06,-0.00392897,-0.420474,-0,0.420493,-3175.99,-32885.4,-0,33038.4,1.48113e+06
step02_gravity_refstate-intrusion.xmf,81,-9.13729e-06,2.10005e-05,0,-2.6025e-06,-8.36064e+08,-8.3319e+08,-8.35193e+08,-248175,0.0064774,-0.463801,0,0.463846,-703.679,-30430.6,-0,30438.8,248175
step02_gravity_refstate-intrusion.xmf,82,-6.95132e-06,1.54871e-05,0,-3.11399e-06,-8.50122e+08,-8.47982e+08,-8.49459e+08,-296950,0.00571325,-0.472173,0,0.472207,-812.227,-30943.1,-0,30953.8,296950
step02_gravity_refstate-intrusion.xmf,83,-5.03658e-06,1.07546e-05,0,-4.37249e-06,-8.61981e+08,-8.60475e+08,-8.615e+08,-416961,0.00565462,-0.474577,0,0.474611,-1094.43,-31375.6,-0,31394.7,416961
step02_gravity_refstate-intrusion.xmf,84,-2.93057e-06,5.5693e-06,0,-5.79541e-06,-8.75252e+08,-8.74442e+08,-8.74973e+08,-552650,0.00430068,-0.473875,0,0.473895,-1394.52,-31859.7,-0,31890.2,552650
step02_gravity_refstate-intrusion.xmf,85,1.3852e-06,-5.27996e-06,0,-1.21487e-05,-9.04416e+08,-9.05052e+08,-9.04548e+08,-1.1585e+06,-0.0036086,-0.442288,-0,0.442303,-2611.39,-32922.9,-0,33026.3,1.1585e+06
step02_gravity_refstate-intrusion.xmf,86,2.42921e-06,-8.38376e-06,0,-1.81012e-05,-9.15174e+08,-9.16205e+08,-9.15406e+08,-1.72613e+06,-0.0101043,-0.400018,-0,0.400146,-3554.39,-33313.9,-0,33503,1.72613e+06
step02_gravity_refstate-intrusion.xmf,87,-9.65199e-06,2.224e-05,0,-8.604e-07,-8.33332e+08,-8.30291e+08,-8.32412e+08,-82047.8,0.00226468,-0.464173,0,0.464178,-234.551,-30330.9,-0,30331.8,82047.8
step02_gravity_refstate-intrusion.xmf,88,-7.26648e-07,8.67956e-08,0,-7.33141e-06,-8.89735e+08,-8.89658e+08,-8.89666e+08,-699123,0.00143247,-0.46925,0,0.469252,-1704.56,-32387.9,-0,32432.7,699123
step02_gravity_refstate-intrusion.xmf,89,1.35027e-06,-5.20137e-06,0,-8.87916e-06,-9.04291e+08,-9.04915e+08,-9.04419e+08,-846716,-0.00275053,-0.460518,-0,0.460526,-2011.2,-32918.3,-0,32979.7,846716
step02_gravity_refstate-intrusion.xmf,90,3.13095e-06,-1.02377e-05,0,-1.42274e-05,-9.19873e+08,-9.21148e+08,-9.20171e+08,-1.35673e+06,-0.0106039,-0.424521,-0,0.424653,-2970.06,-33485,-0,33616.5,1.35673e+06
step02_gravity_refstate-intrusion.xmf,91,-9.33979e-06,2.14195e-05,0,7.93692e-07,-8.35433e+08,-8.32499e+08,-8.34542e+08,75686.5,-0.0020441,-0.465884,-0,0.465888,218.89,-30407.4,0,30408.2,75686.5
step02_gravity_refstate-intrusion.xmf,92,-7.65743e-06,1.71066e-05,0,-7.40217e-07,-8.46464e+08,-8.44102e+08,-8.45734e+08,-70587.1,0.0014883,-0.473682,0,0.473684,-194.682,-30809.4,-0,30810,70587.1
step02_gravity_refstate-intrusion.xmf,93,-5.35781e-06,1.13729e-05,0,-1.82376e-06,-8.61032e+08,-8.59436e+08,-8.60521e+08,-173914,0.00249328,-0.480174,0,0.48018,-464.014,-31340.6,-0,31344,173914
step02_gravity_refstate-intrusion.xmf,94,-3.10454e-06,5.81966e-06,0,-3.15339e-06,-8.75222e+08,-8.74371e+08,-8.74926e+08,-300708,0.00244326,-0.48223,0,0.482237,-776.641,-31858.2,-0,31867.7,300708
step02_gravity_refstate-intrusion.xmf,95,-8.90059e-07,3.67722e-07,0,-4.53601e-06,-8.89369e+08,-8.89249e+08,-8.89284e+08,-432554,0.00101467,-0.480179,0,0.480181,-1087.9,-32374.2,-0,32392.5,432554
step02_gravity_refstate-intrusion.xmf,96,3.25017e-06,-1.0284e-05,0,-1.05196e-05,-9.18904e+08,-9.20195e+08,-9.19214e+08,-1.00315e+06,-0.00818404,-0.447469,-0,0.447544,-2326.47,-33450.3,-0,33531.1,1.00315e+06
step02_gravity_refstate-intrusion.xmf,97,3.457e-06,-1.1725e-05,0,-1.9271e-05,-9.27179e+08,-9.28627e+08,-9.27509e+08,-1.83768e+06,-0.0164489,-0.38687,-0,0.38722,-3726.59,-33749.7,-0,33954.9,1.83768e+06
step02_gravity_refstate-intrusion.xmf,98,3.7095e-06,-1.22232e-05,0,-1.68637e-05,-9.27508e+08,-9.29027e+08,-9.27862e+08,-1.60812e+06,-0.0154061,-0.403281,-0,0.403575,-3389.99,-33762.1,-0,33931.8,1.60812e+06
step02_gravity_refstate-intrusion.xmf,99,1.3424e-06,-5.19131e-06,0,-5.969e-06,-9.0417e+08,-9.04793e+08,-9.04298e+08,-569204,-0.00190143,-0.473862,-0,0.473866,-1404,-32913.9,-0,32943.8,569204
step02_gravity_refstate-intrusion.xmf,100,3.41752e-06,-1.04955e-05,0,-7.40915e-06,-9.18817e+08,-9.20143e+08,-9.19143e+08,-706537,-0.00614727,-0.463296,-0,0.463336,-1722.43,-33447.6,-0,33491.9,706537
step02_gravity_refstate-intrusion.xmf,101,4.63543e-06,-1.54275e-05,0,-1.79635e-05,-9.39311e+08,-9.41224e+08,-9.39753e+08,-1.71299e+06,-0.0217352,-0.388044,-0,0.388652,-3585.19,-34190.3,-0,34377.7,1.71299e+06
step02_gravity_refstate-intrusion.xmf,102,4.80451e-06,-1.52187e-05,0,-1.48451e-05,-9.3606e+08,-9.37969e+08,-9.36518e+08,-1.41563e+06,-0.0180127,-0.411474,-0,0.411869,-3106.45,-34073.3,-0,34214.6,1.41563e+06
step02_gravity_refstate-intrusion.xmf,103,4.98581e-06,-1.51754e-05,0,-1.18211e-05,-9.33899e+08,-9.35822e+08,-9.34375e+08,-1.12726e+06,-0.0146525,-0.431884,-0,0.432133,-2595.2,-33995.7,-0,34094.6,1.12726e+06
step02_gravity_refstate-intrusion.xmf,104,-9.08404e-06,2.09126e-05,0,2.83951e-06,-8.36201e+08,-8.33341e+08,-8.35335e+08,270776,-0.00707096,-0.463339,-0,0.463393,770.664,-30435.7,0,30445.5,270776
step02_gravity_refstate-intrusion.xmf,105,-7.34996e-06,1.63609e-05,0,1.77018e-06,-8.48171e+08,-8.4591e+08,-8.4747e+08,168804,-0.00345233,-0.473651,-0,0.473664,468.581,-30871.7,0,30875.2,168804
step02_gravity_refstate-intrusion.xmf,106,-5.42352e-06,1.14839e-05,0,5.68834e-07,-8.60851e+08,-8.59238e+08,-8.60333e+08,54244,-0.000798538,-0.481269,-0,0.48127,147.53,-31333.9,0,31334.2,54244
step02_gravity_refstate-intrusion.xmf,107,-3.27347e-06,6.15298e-06,0,-6.28366e-07,-8.74598e+08,-8.73699e+08,-8.74286e+08,-59921,0.000507773,-0.485673,0,0.485673,-155.366,-31835.2,-0,31835.6,59921
step02_gravity_refstate-intrusion.xmf,108,-9.9116e-07,5.44634e-07,0,-1.90158e-06,-8.8909e+08,-8.88943e+08,-8.88995e+08,-181334,0.000461802,-0.486251,0,0.486252,-463.627,-32363.8,-0,32367.2,181334
step02_gravity_refstate-intrusion.xmf,109,1.33721e-06,-5.18627e-06,0,-3.22075e-06,-9.04055e+08,-9.04678e+08,-9.04183e+08,-307131,-0.00104134,-0.482538,-0,0.48254,-776.663,-32909.7,-0,32918.9,307131
step02_gravity_refstate-intrusion.xmf,110,5.27742e-06,-1.55169e-05,0,-8.77856e-06,-9.33199e+08,-9.35182e+08,-9.33702e+08,-837124,-0.0114892,-0.449278,-0,0.449424,-2023.31,-33971.1,-0,34031.3,837124
step02_gravity_refstate-intrusion.xmf,111,-8.86572e-06,2.06203e-05,0,4.85306e-06,-8.35812e+08,-8.33e+08,-8.34967e+08,462787,-0.011925,-0.456635,-0,0.456791,1304.82,-30422.2,0,30450.2,462787
step02_gravity_refstate-intrusion.xmf,112,3.63723e-06,-1.09274e-05,0,-4.49763e-06,-9.1934e+08,-9.20729e+08,-9.19687e+08,-428894,-0.0040035,-0.474455,-0,0.474472,-1082.58,-33467,-0,33484.5,428894
step02_gravity_refstate-intrusion.xmf,113,5.71217e-06,-1.62623e-05,0,-5.84009e-06,-9.34002e+08,-9.36098e+08,-9.34547e+08,-556911,-0.00835322,-0.461997,-0,0.462073,-1413.74,-34001.2,-0,34030.6,556911
step02_gravity_refstate-intrusion.xmf,114,5.81154e-06,-1.85639e-05,0,-1.55e-05,-9.47844e+08,-9.50169e+08,-9.48399e+08,-1.47808e+06,-0.0239527,-0.397729,-0,0.398449,-3260.36,-34500.9,-0,34654.7,1.47808e+06
step02_gravity_refstate-intrusion.xmf,115,6.37463e-06,-1.9459e-05,0,-1.28555e-05,-9.47956e+08,-9.5042e+08,-9.48564e+08,-1.2259e+06,-0.0213983,-0.414725,-0,0.415277,-2831.1,-34506.3,-0,34622.2,1.2259e+06
step02_gravity_refstate-intrusion.xmf,116,6.90208e-06,-2.01909e-05,0,-9.94072e-06,-9.47471e+08,-9.50055e+08,-9.4813e+08,-947947,-0.0177502,-0.432236,-0,0.432601,-2306.52,-34490,-0,34567.1,947947
step02_gravity_refstate-intrusion.xmf,117,-7.00323e-06,1.57444e-05,0,4.21004e-06,-8.48927e+08,-8.46757e+08,-8.48259e+08,401470,-0.00782192,-0.468349,-0,0.468414,1089.68,-30899.8,0,30919.1,401470
step02_gravity_refstate-intrusion.xmf,118,-8.86387e-06,2.09989e-05,0,6.52247e-06,-8.33252e+08,-8.30404e+08,-8.32407e+08,621983,-0.0164254,-0.446871,-0,0.447173,1746.55,-30329.8,0,30380,621983
step02_gravity_refstate-intrusion.xmf,119,-5.27586e-06,1.1207e-05,0,3.06616e-06,-8.61117e+08,-8.59546e+08,-8.60614e+08,292389,-0.0041595,-0.477829,-0,0.477847,779.407,-31343.8,0,31353.5,292389
step02_gravity_refstate-intrusion.xmf,120,-3.26524e-06,6.1402e-06,0,1.86192e-06,-8.745e+08,-8.73603e+08,-8.74188e+08,177553,-0.00152189,-0.484467,-0,0.48447,464.722,-31831.7,0,31835.1,177553
step02_gravity_refstate-intrusion.xmf,121,-1.05803e-06,6.82018e-07,0,6.28371e-07,-8.88736e+08,-8.8857e+08,-8.88635e+08,59921.5,-0.000164095,-0.487434,-0,0.487434,155.576,-32350.9,0,32351.2,59921.5
step02_gravity_refstate-intrusion.xmf,122,1.31955e-06,-5.15552e-06,0,-6.07201e-07,-9.039e+08,-9.04518e+08,-9.04026e+08,-57902.7,-0.00019383,-0.486215,-0,0.486215,-147.015,-32904,-0,32904.3,57902.7
step02_gravity_refstate-intrusion.xmf,123,3.74254e-06,-1.11293e-05,0,-1.78257e-06,-9.19468e+08,-9.20886e+08,-9.19825e+08,-169986,-0.00163509,-0.480538,-0,0.480541,-436.426,-33471.8,-0,33474.7,169986
step02_gravity_refstate-intrusion.xmf,124,7.45567e-06,-2.1051e-05,0,-7.1669e-06,-9.47696e+08,-9.50414e+08,-9.48407e+08,-683436,-0.0137681,-0.446266,-0,0.446479,-1742.07,-34499.5,-0,34543.4,683436
step02_gravity_refstate-intrusion.xmf,125,5.88074e-06,-1.97902e-05,0,-1.75587e-05,-9.5447e+08,-9.56918e+08,-9.55031e+08,-1.6744e+06,-0.0289093,-0.377849,-0,0.378953,-3595.86,-34740,-0,34925.6,1.6744e+06
step02_gravity_refstate-intrusion.xmf,126,-6.94736e-06,1.59961e-05,0,6.80461e-06,-8.46359e+08,-8.44171e+08,-8.45697e+08,648888,-0.0128892,-0.455921,-0,0.456103,1736.24,-30807.2,0,30856.1,648888
step02_gravity_refstate-intrusion.xmf,127,-7.95003e-06,1.92157e-05,0,8.45561e-06,-8.3568e+08,-8.33089e+08,-8.34921e+08,806327,-0.0194716,-0.43827,-0,0.438702,2195.8,-30419.5,0,30498.7,806327
step02_gravity_refstate-intrusion.xmf,128,6.33987e-06,-1.76561e-05,0,-2.94616e-06,-9.36673e+08,-9.38961e+08,-9.37278e+08,-280946,-0.00473048,-0.469305,-0,0.469329,-739.5,-34099.1,-0,34107.1,280946
step02_gravity_refstate-intrusion.xmf,129,8.06439e-06,-2.21843e-05,0,-4.64913e-06,-9.49237e+08,-9.52122e+08,-9.50006e+08,-443341,-0.00973117,-0.455068,-0,0.455173,-1177.85,-34556.6,-0,34576.7,443341
step02_gravity_refstate-intrusion.xmf,130,7.23366e-06,-2.31271e-05,0,-1.41414e-05,-9.61623e+08,-9.64518e+08,-9.62313e+08,-1.34853e+06,-0.0290149,-0.392971,-0,0.394041,-3124.06,-35001,-0,35140.1,1.34853e+06
step02_gravity_refstate-intrusion.xmf,131,8.24712e-06,-2.45033e-05,0,-1.0821e-05,-9.61466e+08,-9.64589e+08,-9.62252e+08,-1.03189e+06,-0.0245945,-0.4131,-0,0.413832,-2562.32,-34998,-0,35091.7,1.03189e+06
step02_gravity_refstate-intrusion.xmf,132,9.0518e-06,-2.56515e-05,0,-8.1208e-06,-9.61447e+08,-9.64756e+08,-9.6231e+08,-774400,-0.0199209,-0.428135,-0,0.428598,-2023.44,-34999.4,-0,35057.9,774400
step02_gravity_refstate-intrusion.xmf,133,-5.14072e-06,1.11847e-05,0,5.73953e-06,-8.60182e+08,-8.58625e+08,-8.59692e+08,547321,-0.00764577,-0.468877,-0,0.46894,1418.09,-31310.5,0,31342.6,547321
step02_gravity_refstate-intrusion.xmf,134,-3.13098e-06,5.91411e-06,0,4.47044e-06,-8.74564e+08,-8.73701e+08,-8.74265e+08,426301,-0.00352611,-0.478401,-0,0.478414,1094.08,-31834.3,0,31853.1,426301
step02_gravity_refstate-intrusion.xmf,135,-1.02975e-06,6.31675e-07,0,3.20698e-06,-8.88686e+08,-8.88528e+08,-8.88588e+08,305818,-0.000819741,-0.48378,-0,0.48378,780.116,-32349.1,0,32358.5,305818
step02_gravity_refstate-intrusion.xmf,136,1.26746e-06,-5.04621e-06,0,1.96849e-06,-9.03583e+08,-9.04185e+08,-9.03703e+08,187715,0.000608837,-0.484967,0,0.484967,480.059,-32892.4,0,32895.9,187715
step02_gravity_refstate-intrusion.xmf,137,3.64329e-06,-1.08907e-05,0,7.9471e-07,-9.18758e+08,-9.20144e+08,-9.19105e+08,75783.5,0.000716209,-0.481767,0,0.481767,196.76,-33445.9,0,33446.5,75783.5
step02_gravity_refstate-intrusion.xmf,138,6.03759e-06,-1.68216e-05,0,-2.8001e-07,-9.34093e+08,-9.36273e+08,-9.34669e+08,-26701.8,-0.00041943,-0.474239,-0,0.474239,-69.5592,-34005.2,-0,34005.2,26701.8
step02_gravity_refstate-intrusion.xmf,139,9.76624e-06,-2.68785e-05,0,-5.74214e-06,-9.62441e+08,-9.65935e+08,-9.63372e+08,-547571,-0.0151523,-0.438321,-0,0.438583,-1489.4,-35037,-0,35068.7,547571
step02_gravity_refstate-intrusion.xmf,140,6.72334e-06,-2.37047e-05,0,-1.70533e-05,-9.68327e+08,-9.71229e+08,-9.68968e+08,-1.6262e+06,-0.0353686,-0.366587,-0,0.368289,-3603.51,-35241,-0,35424.8,1.6262e+06
step02_gravity_refstate-intrusion.xmf,141,-4.64482e-06,1.03005e-05,0,8.43975e-06,-8.60747e+08,-8.59322e+08,-8.60305e+08,804815,-0.0104442,-0.45626,-0,0.45638,2020.94,-31332,0,31397.1,804815
step02_gravity_refstate-intrusion.xmf,142,-7.02398e-06,1.77727e-05,0,1.07433e-05,-8.36208e+08,-8.33844e+08,-8.35538e+08,1.02448e+06,-0.0229594,-0.42419,-0,0.424811,2690.49,-30440.9,0,30559.6,1.02448e+06
step02_gravity_refstate-intrusion.xmf,143,-5.94473e-06,1.41426e-05,0,9.60598e-06,-8.48745e+08,-8.46829e+08,-8.48178e+08,916026,-0.0159974,-0.44244,-0,0.442729,2333.76,-30895.8,0,30983.8,916026
step02_gravity_refstate-intrusion.xmf,144,8.66539e-06,-2.35633e-05,0,-2.79766e-06,-9.51974e+08,-9.55047e+08,-9.528e+08,-266785,-0.00634046,-0.457939,-0,0.457983,-725.157,-34656.7,-0,34664.3,266785
step02_gravity_refstate-intrusion.xmf,145,8.2947e-06,-2.24987e-05,0,-1.03672e-06,-9.48793e+08,-9.51729e+08,-9.49584e+08,-98862,-0.00223519,-0.463302,-0,0.463307,-269.574,-34541.1,-0,34542.1,98862
step02_gravity_refstate-intrusion.xmf,146,1.02387e-05,-2.77108e-05,0,-3.67147e-06,-9.63169e+08,-9.66788e+08,-9.64145e+08,-350111,-0.010197,-0.444926,-0,0.445043,-980.495,-35064.4,-0,35078.1,350111
step02_gravity_refstate-intrusion.xmf,147,8.09808e-06,-2.73343e-05,0,-1.39581e-05,-9.77297e+08,-9.80676e+08,-9.78069e+08,-1.33104e+06,-0.0369965,-0.372721,-0,0.374553,-3271.63,-35567.7,-0,35717.8,1.33104e+06
step02_gravity_refstate-intrusion.xmf,148,9.38416e-06,-2.85015e-05,0,-1.12985e-05,-9.75089e+08,-9.78701e+08,-9.75983e+08,-1.07742e+06,-0.0318283,-0.392476,-0,0.393765,-2793.02,-35492,-0,35601.7,1.07742e+06
step02_gravity_refstate-intrusion.xmf,149,1.05482e-05,-3.01489e-05,0,-8.7784e-06,-9.75329e+08,-9.7921e+08,-9.76335e+08,-837108,-0.0268142,-0.40744,-0,0.408322,-2282.82,-35503.8,-0,35577.1,837108
step02_gravity_refstate-intrusion.xmf,150,1.1364e-05,-3.13959e-05,0,-6.52388e-06,-9.75479e+08,-9.79556e+08,-9.76562e+08,-622117,-0.0211012,-0.419451,-0,0.419982,-1757.75,-35511.2,-0,35554.6,622117
step02_gravity_refstate-intrusion.xmf,151,-2.9366e-06,5.72418e-06,0,7.26184e-06,-8.74225e+08,-8.73399e+08,-8.73945e+08,692489,-0.00547739,-0.467428,-0,0.46746,1713.47,-31822.6,0,31868.7,692489
step02_gravity_refstate-intrusion.xmf,152,-9.45753e-07,4.99047e-07,0,5.94334e-06,-8.88651e+08,-8.88513e+08,-8.8856e+08,566757,-0.00144604,-0.475106,-0,0.475108,1408.66,-32348,0,32378.7,566757
step02_gravity_refstate-intrusion.xmf,153,1.2282e-06,-4.96917e-06,0,4.63158e-06,-9.03374e+08,-9.03965e+08,-9.03492e+08,441668,0.00136488,-0.478746,0,0.478748,1106.68,-32884.8,0,32903.4,441668
step02_gravity_refstate-intrusion.xmf,154,3.53852e-06,-1.0695e-05,0,3.34229e-06,-9.18415e+08,-9.19772e+08,-9.18753e+08,318721,0.00290309,-0.478019,0,0.478028,813.334,-33433.3,0,33443.2,318721
step02_gravity_refstate-intrusion.xmf,155,5.87628e-06,-1.64735e-05,0,2.1394e-06,-9.33342e+08,-9.35474e+08,-9.33903e+08,204013,0.00315954,-0.472967,0,0.472978,535.81,-33977.7,0,33981.9,204013
step02_gravity_refstate-intrusion.xmf,156,8.19121e-06,-2.22408e-05,0,1.10859e-06,-9.48137e+08,-9.51039e+08,-9.48918e+08,105715,0.0023466,-0.463781,0,0.463787,286.436,-34517.1,0,34518.3,105715
step02_gravity_refstate-intrusion.xmf,157,1.19425e-05,-3.23896e-05,0,-4.51306e-06,-9.75952e+08,-9.80179e+08,-9.77091e+08,-430365,-0.0152557,-0.427556,-0,0.427828,-1247.05,-35529.5,-0,35551.4,430365
step02_gravity_refstate-intrusion.xmf,158,1.04353e-05,-2.80428e-05,0,-1.82934e-06,-9.63186e+08,-9.66855e+08,-9.64181e+08,-174445,-0.00517165,-0.449049,-0,0.449079,-494.071,-35065.5,-0,35068.9,174445
step02_gravity_refstate-intrusion.xmf,159,7.02347e-06,-2.62496e-05,0,-1.63576e-05,-9.79284e+08,-9.82457e+08,-9.79953e+08,-1.55986e+06,-0.0407315,-0.355144,-0,0.357472,-3636.59,-35636.3,-0,35821.4,1.55986e+06
step02_gravity_refstate-intrusion.xmf,160,-5.48866e-06,1.57964e-05,0,1.37786e-05,-8.36871e+08,-8.34841e+08,-8.36348e+08,1.31393e+06,-0.0260364,-0.404991,-0,0.405827,3232.06,-30469.5,0,30640.4,1.31393e+06
step02_gravity_refstate-intrusion.xmf,161,-2.61522e-06,5.20493e-06,0,1.01906e-05,-8.74106e+08,-8.7336e+08,-8.73857e+08,971771,-0.00718564,-0.451895,-0,0.451952,2316.74,-31819,0,31903.2,971771
step02_gravity_refstate-intrusion.xmf,162,-4.05114e-06,9.41639e-06,0,1.13813e-05,-8.60888e+08,-8.59604e+08,-8.60502e+08,1.08532e+06,-0.0128921,-0.439469,-0,0.439658,2598.05,-31338.6,0,31446.1,1.08532e+06
step02_gravity_refstate-intrusion.xmf,163,-5.18742e-06,1.32763e-05,0,1.24803e-05,-8.47716e+08,-8.45956e+08,-8.47222e+08,1.19012e+06,-0.0194461,-0.423966,-0,0.424412,2886.45,-30860.7,0,30995.4,1.19012e+06
step02_gravity_refstate-intrusion.xmf,164,1.03823e-05,-2.78264e-05,0,4.84865e-08,-9.6235e+08,-9.65994e+08,-9.6334e+08,4623.68,0.000135768,-0.451302,0,0.451302,13.0836,-35035.2,0,35035.2,4623.68
step02_gravity_refstate-intrusion.xmf,165,1.2282e-05,-3.30065e-05,0,-2.66715e-06,-9.76254e+08,-9.80572e+08,-9.77425e+08,-254339,-0.00927522,-0.432733,-0,0.432832,-749.449,-35541.1,-0,35549,254339
step02_gravity_refstate-intrusion.xmf,166,-8.04463e-07,3.65023e-07,0,8.93295e-06,-8.88534e+08,-8.88423e+08,-8.88458e+08,851846,-0.00201698,-0.461502,-0,0.461507,2027.17,-32344.3,0,32407.7,851846
step02_gravity_refstate-intrusion.xmf,167,1.20702e-06,-4.92943e-06,0,7.46785e-06,-9.03263e+08,-9.03848e+08,-9.03378e+08,712134,0.00209526,-0.467571,0,0.467576,1726.68,-32880.6,0,32926,712134
step02_gravity_refstate-intrusion.xmf,168,3.38684e-06,-1.04334e-05,0,6.0244e-06,-9.1812e+08,-9.19438e+08,-9.18443e+08,574487,0.0049743,-0.46949,0,0.469516,1426.5,-33422.2,0,33452.6,574487
step02_gravity_refstate-intrusion.xmf,169,8.00478e-06,-2.19253e-05,0,3.32411e-06,-9.47835e+08,-9.50689e+08,-9.48598e+08,316987,0.00690369,-0.460169,0,0.460221,852.529,-34505.8,0,34516.3,316987
step02_gravity_refstate-intrusion.xmf,170,5.647e-06,-1.60596e-05,0,4.63391e-06,-9.32835e+08,-9.34905e+08,-9.33373e+08,441890,0.00654737,-0.467094,0,0.467139,1135.36,-33958.8,0,33977.8,441890
step02_gravity_refstate-intrusion.xmf,171,1.02985e-05,-2.76899e-05,0,2.06171e-06,-9.62338e+08,-9.65961e+08,-9.6332e+08,196604,0.00573614,-0.449541,0,0.449577,555.005,-35034.6,0,35039,196604
step02_gravity_refstate-intrusion.xmf,172,1.23822e-05,-3.31437e-05,0,-8.82478e-07,-9.75959e+08,-9.803e+08,-9.77139e+08,-84153.1,-0.00307646,-0.435856,-0,0.435867,-248.485,-35530.7,-0,35531.5,84153.1
step02_gravity_refstate-intrusion.xmf,173,-6.99329e-07,2.54517e-07,0,1.20494e-05,-8.87799e+08,-8.87708e+08,-8.87733e+08,1.14903e+06,-0.00271556,-0.443444,-0,0.443453,2621.37,-32317.9,0,32424,1.14903e+06
step02_gravity_refstate-intrusion.xmf,174,-4.45173e-06,1.5153e-05,0,1.6311e-05,-8.33857e+08,-8.31987e+08,-8.33432e+08,1.55541e+06,-0.0294801,-0.385966,-0,0.38709,3635.71,-30364.1,0,30581,1.55541e+06
step02_gravity_refstate-intrusion.xmf,175,-4.24606e-06,1.16886e-05,0,1.4958e-05,-8.49574e+08,-8.48054e+08,-8.49169e+08,1.4264e+06,-0.0204997,-0.409089,-0,0.409602,3286.11,-30930.3,0,31104.4,1.4264e+06
step02_gravity_refstate-intrusion.xmf,176,-2.20947e-06,4.6475e-06,0,1.33758e-05,-8.73805e+08,-8.73151e+08,-8.73594e+08,1.27551e+06,-0.00867756,-0.432281,-0,0.432368,2892.25,-31809.1,0,31940.3,1.27551e+06
step02_gravity_refstate-intrusion.xmf,177,-3.43186e-06,8.61268e-06,0,1.44417e-05,-8.60406e+08,-8.59258e+08,-8.60079e+08,1.37716e+06,-0.0150606,-0.419611,-0,0.419881,3129.79,-31322.8,0,31478.8,1.37716e+06
step02_gravity_refstate-intrusion.xmf,178,1.02301e-05,-2.78355e-05,0,4.26315e-06,-9.6374e+08,-9.6737e+08,-9.64716e+08,406534,0.0118833,-0.442435,0,0.442594,1136.67,-35084.9,0,35103.3,406534
step02_gravity_refstate-intrusion.xmf,179,1.23591e-05,-3.30457e-05,0,9.3886e-07,-9.75714e+08,-9.80044e+08,-9.76893e+08,89529.7,0.00327608,-0.4361,0,0.436113,265.365,-35521.8,0,35522.8,89529.7
step02_gravity_refstate-intrusion.xmf,180,1.13715e-06,-4.63945e-06,0,1.06706e-05,-9.02564e+08,-9.03115e+08,-9.02672e+08,1.01755e+06,0.0026054,-0.451289,0,0.451296,2346.71,-32855.4,0,32939.1,1.01755e+06
step02_gravity_refstate-intrusion.xmf,181,-3.98017e-06,1.22039e-05,0,1.68832e-05,-8.44578e+08,-8.43035e+08,-8.44198e+08,1.60998e+06,-0.0242296,-0.39166,-0,0.392408,3627.1,-30750.9,0,30964.1,1.60998e+06
step02_gravity_refstate-intrusion.xmf,182,-5.39199e-07,1.79118e-07,0,1.54458e-05,-8.86765e+08,-8.86696e+08,-8.86714e+08,1.47291e+06,-0.00348388,-0.421563,-0,0.421577,3183.84,-32280.9,0,32437.6,1.47291e+06
step02_gravity_refstate-intrusion.xmf,183,3.17182e-06,-1.00532e-05,0,9.00059e-06,-9.17688e+08,-9.18949e+08,-9.17991e+08,858296,0.00689179,-0.455871,0,0.455923,2046.54,-33406.1,0,33468.7,858296
step02_gravity_refstate-intrusion.xmf,184,5.32903e-06,-1.55309e-05,0,7.34311e-06,-9.32426e+08,-9.34415e+08,-9.32934e+08,700239,0.00975703,-0.456529,0,0.456634,1737.08,-33943.2,0,33987.6,700239
step02_gravity_refstate-intrusion.xmf,185,7.61892e-06,-2.11679e-05,0,5.77156e-06,-9.47227e+08,-9.49973e+08,-9.47954e+08,550376,0.0113827,-0.452505,0,0.452648,1439.79,-34483.1,0,34513.2,550376
step02_gravity_refstate-intrusion.xmf,186,1.22409e-05,-3.28817e-05,0,2.74832e-06,-9.75964e+08,-9.80267e+08,-9.77131e+08,262080,0.00951738,-0.432889,0,0.432994,771.868,-35530.6,0,35539,262080
step02_gravity_refstate-intrusion.xmf,187,9.21145e-07,-4.09099e-06,0,1.39574e-05,-9.00625e+08,-9.01103e+08,-9.00713e+08,1.33098e+06,0.00246016,-0.431206,0,0.431213,2927.74,-32784.8,0,32915.3,1.33098e+06
step02_gravity_refstate-intrusion.xmf,188,-2.93728e-06,8.36911e-06,0,1.73937e-05,-8.57776e+08,-8.56698e+08,-8.57496e+08,1.65866e+06,-0.0177613,-0.397762,-0,0.398158,3602.3,-31229.3,0,31436.3,1.65866e+06
step02_gravity_refstate-intrusion.xmf,189,-1.69815e-06,4.14003e-06,0,1.72259e-05,-8.72835e+08,-8.72278e+08,-8.72673e+08,1.64266e+06,-0.010287,-0.405897,-0,0.406027,3503.7,-31775.6,0,31968.2,1.64266e+06
step02_gravity_refstate-intrusion.xmf,190,9.33747e-06,-2.60003e-05,0,6.83256e-06,-9.61092e+08,-9.64462e+08,-9.61983e+08,651552,0.0172393,-0.434795,0,0.435136,1742.04,-34987.4,0,35030.7,651552
step02_gravity_refstate-intrusion.xmf,191,1.24162e-05,-3.35826e-05,0,4.08355e-06,-9.78704e+08,-9.8309e+08,-9.79888e+08,389407,0.0144542,-0.425652,0,0.425897,1141.9,-35629.9,0,35648.2,389407
step02_gravity_refstate-intrusion.xmf,192,2.8748e-06,-9.39282e-06,0,1.2683e-05,-9.16664e+08,-9.17834e+08,-9.16938e+08,1.20945e+06,0.00854696,-0.435316,0,0.4354,2716.24,-33368.5,0,33478.9,1.20945e+06
step02_gravity_refstate-intrusion.xmf,193,9.27188e-07,-3.85931e-06,0,1.7694e-05,-8.99597e+08,-9.00053e+08,-8.99685e+08,1.6873e+06,0.00253723,-0.406125,0,0.406133,3501.01,-32747.9,0,32934.5,1.6873e+06
step02_gravity_refstate-intrusion.xmf,194,-2.92498e-07,-2.232e-08,0,1.85537e-05,-8.86197e+08,-8.86171e+08,-8.86169e+08,1.76928e+06,-0.00392652,-0.400223,-0,0.400243,3638.77,-32261.2,0,32465.8,1.76928e+06
step02_gravity_refstate-intrusion.xmf,195,6.97948e-06,-1.99996e-05,0,8.58035e-06,-9.46007e+08,-9.4858e+08,-9.46672e+08,818222,0.0154568,-0.440496,0,0.440767,2042.34,-34437.5,0,34498.1,818222
step02_gravity_refstate-intrusion.xmf,196,4.91854e-06,-1.48634e-05,0,1.04846e-05,-9.32094e+08,-9.3398e+08,-9.32563e+08,999813,0.0128372,-0.440468,0,0.440655,2358.75,-33930.2,0,34012.1,999813
step02_gravity_refstate-intrusion.xmf,197,1.14265e-05,-3.1222e-05,0,5.38675e-06,-9.73758e+08,-9.77825e+08,-9.74848e+08,513681,0.0173461,-0.426795,0,0.427148,1463.36,-35449.2,0,35479.4,513681
step02_gravity_refstate-intrusion.xmf,198,1.13718e-05,-3.15161e-05,0,6.8712e-06,-9.7629e+08,-9.8038e+08,-9.77374e+08,655237,0.0223867,-0.416579,0,0.41718,1852.34,-35540.5,0,35588.7,655237
step02_gravity_refstate-intrusion.xmf,199,9.78031e-06,-2.77125e-05,0,8.3028e-06,-9.67508e+08,-9.71084e+08,-9.68441e+08,791755,0.0226197,-0.419983,0,0.420591,2115.33,-35219.9,0,35283.3,791755
step02_gravity_refstate-intrusion.xmf,200,2.00634e-06,-7.06049e-06,0,1.55683e-05,-9.10288e+08,-9.11153e+08,-9.1048e+08,1.48459e+06,0.0070018,-0.418887,0,0.418945,3177.66,-33136.4,0,33288.4,1.48459e+06
step02_gravity_refstate-intrusion.xmf,201,8.16371e-06,-2.3776e-05,0,9.78133e-06,-9.57769e+08,-9.60815e+08,-9.58548e+08,932748,0.0215285,-0.422845,0,0.423392,2347.05,-34864.5,0,34943.4,932748
step02_gravity_refstate-intrusion.xmf,202,1.0848e-05,-3.0973e-05,0,8.8095e-06,-9.77782e+08,-9.8177e+08,-9.78817e+08,840074,0.0279834,-0.403829,0,0.404797,2315.95,-35593,0,35668.3,840074
step02_gravity_refstate-intrusion.xmf,203,3.12151e-06,-1.02253e-05,0,1.53731e-05,-9.20285e+08,-9.21558e+08,-9.20583e+08,1.46598e+06,0.0113515,-0.416785,0,0.416939,3153.37,-33500,0,33648.1,1.46598e+06
step02_gravity_refstate-intrusion.xmf,204,2.3203e-06,-8.06609e-06,0,1.82693e-05,-9.13959e+08,-9.14949e+08,-9.1418e+08,1.74216e+06,0.00956678,-0.399341,0,0.399455,3575.37,-33269.7,0,33461.3,1.74216e+06
step02_gravity_refstate-intrusion.xmf,205,6.32499e-06,-1.8938e-05,0,1.17132e-05,-9.45477e+08,-9.47886e+08,-9.4608e+08,1.11697e+06,0.0191703,-0.423541,0,0.423974,2629.31,-34416.8,0,34517.1,1.11697e+06
step02_gravity_refstate-intrusion.xmf,206,4.5819e-06,-1.43139e-05,0,1.41315e-05,-9.32604e+08,-9.34406e+08,-9.33041e+08,1.34758e+06,0.0160017,-0.418136,0,0.418442,2987.91,-33948.1,0,34079.3,1.34758e+06
step02_gravity_refstate-intrusion.xmf,207,8.85829e-06,-2.63104e-05,0,1.09307e-05,-9.67212e+08,-9.70566e+08,-9.68057e+08,1.04235e+06,0.0274233,-0.405204,0,0.406131,2643.49,-35206.9,0,35306,1.04235e+06
step02_gravity_refstate-intrusion.xmf,208,3.58858e-06,-1.1881e-05,0,1.79146e-05,-9.26954e+08,-9.2843e+08,-9.27297e+08,1.70833e+06,0.0156962,-0.396336,0,0.396647,3540.87,-33742,0,33927.2,1.70833e+06
step02_gravity_refstate-intrusion.xmf,209,7.23155e-06,-2.23388e-05,0,1.30306e-05,-9.5738e+08,-9.602e+08,-9.58069e+08,1.2426e+06,0.0258393,-0.40399,0,0.404816,2928.48,-34848.1,0,34971,1.2426e+06
step02_gravity_refstate-intrusion.xmf,210,9.83963e-06,-2.95299e-05,0,1.11974e-05,-9.78194e+08,-9.81949e+08,-9.79133e+08,1.06778e+06,0.0333333,-0.38829,0,0.389718,2819.78,-35605.5,0,35716.9,1.06778e+06
step02_gravity_refstate-intrusion.xmf,211,5.87718e-06,-1.84683e-05,0,1.45813e-05,-9.46365e+08,-9.48686e+08,-9.46925e+08,1.39047e+06,0.0224414,-0.405004,0,0.405626,3110.78,-34447.6,0,34587.8,1.39047e+06
step02_gravity_refstate-intrusion.xmf,212,7.73372e-06,-2.47883e-05,0,1.41044e-05,-9.67575e+08,-9.70677e+08,-9.68313e+08,1.345e+06,0.0320039,-0.385493,0,0.38682,3181.61,-35217,0,35360.4,1.345e+06
step02_gravity_refstate-intrusion.xmf,213,4.85008e-06,-1.58735e-05,0,1.75489e-05,-9.40518e+08,-9.42494e+08,-9.40981e+08,1.67346e+06,0.0220415,-0.390097,0,0.390719,3528.58,-34234.5,0,34415.8,1.67346e+06
step02_gravity_refstate-intrusion.xmf,214,6.22539e-06,-2.05521e-05,0,1.66623e-05,-9.55852e+08,-9.58405e+08,-9.56445e+08,1.58892e+06,0.0288506,-0.382293,0,0.38338,3479.6,-34790.6,0,34964.2,1.58892e+06
step02_gravity_refstate-intrusion.xmf,215,8.47617e-06,-2.77688e-05,0,1.38977e-05,-9.78664e+08,-9.8212e+08,-9.79472e+08,1.32528e+06,0.0377311,-0.370867,0,0.372781,3282.8,-35618.6,0,35769.6,1.32528e+06
step02_gravity_refstate-intrusion.xmf,216,6.98587e-06,-2.40195e-05,0,1.69907e-05,-9.69457e+08,-9.72413e+08,-9.70123e+08,1.62024e+06,0.035921,-0.365482,0,0.367243,3605.79,-35283,0,35466.7,1.62024e+06
step02_gravity_refstate-intrusion.xmf,217,7.04244e-06,-2.59785e-05,0,1.64976e-05,-9.79259e+08,-9.82408e+08,-9.79931e+08,1.57321e+06,0.0407279,-0.355162,0,0.35749,3636.36,-35636.1,0,35821.1,1.57321e+06
step02_gravity_refstate-crust.xmf,0,-1.51698e-06,1.23862e-06,0,-1.7343e-07,-1.09884e+09,-1.09865e+09,-1.09873e+09,-11897.3,-0.00335232,0.0314021,-0,0.0315805,-37797.2,-40000,-0,55033,11897.3
step02_gravity_refstate-crust.xmf,1,-1.52747e-06,1.26936e-06,0,-2.26454e-09,-1.09884e+09,-1.09864e+09,-1.09873e+09,-155.347,-3.52282e-19,0.0318986,-0,0.0318986,-40000,-40000,-0,56568.5,155.347
step02_gravity_refstate-crust.xmf,2,-1.48932e-06,1.16037e-06,0,-3.43389e-07,-1.09884e+09,-1.09865e+09,-1.09873e+09,-23556.5,-0.00650781,0.0299929,-0,0.0306908,-35698.5,-40000,-0,53613.3,23556.5
step02_gravity_refstate-crust.xmf,3,-1.4482e-06,1.04043e-06,0,-5.18798e-07,-1.09884e+09,-1.09867e+09,-1.09874e+09,-35589.5,-0.00944605,0.0277696,-0,0.0293322,-33698.8,-40000,-0,52303,35589.5
step02_gravity_refstate-crust.xmf,4,-1.3971e-06,8.84354e-07,0,-7.04131e-07,-1.09884e+09,-1.09868e+09,-1.09874e+09,-48303.4,-0.0121584,0.0248063,-0,0.0276257,-31793.3,-40000,-0,51096.1,48303.4
step02_gravity_refstate-crust.xmf,5,-1.33973e-06,6.98156e-07,0,-9.04725e-07,-1.09884e+09,-1.0987e+09,-1.09875e+09,-62064.1,-0.0146448,0.0211594,-0,0.0257331,-29977.6,-40000,-0,49986.5,62064.1
step02_gravity_refstate-crust.xmf,6,-1.2795e-06,4.8619e-07,0,-1.12557e-06,-1.09884e+09,-1.09872e+09,-1.09875e+09,-77213.9,-0.0169127,0.0168726,-0,0.0238898,-28247.1,-40000,-0,48968.3,77213.9
step02_gravity_refstate-crust.xmf,7,-1.21945e-06,2.5199e-07,0,-1.37025e-06,-1.09884e+09,-1.09874e+09,-1.09876e+09,-93999,-0.0189751,0.0119795,-0,0.0224403,-26597.7,-40000,-0,48035.8,93999
step02_gravity_refstate-crust.xmf,8,-1.16254e-06,-3.41085e-09,0,-1.64084e-06,-1.09885e+09,-1.09877e+09,-1.09877e+09,-112562,-0.0208493,0.00650738,-0,0.0218413,-25025.6,-40000,-0,47183.5,112562
step02_gravity_refstate-crust.xmf,9,-1.1104e-06,-2.76639e-07,0,-1.94678e-06,-1.09886e+09,-1.0988e+09,-1.09878e+09,-133549,-0.022554,0.000477814,-0,0.0225591,-23526.8,-40000,-0,46405.9,133549
step02_gravity_refstate-crust.xmf,10,-1.06598e-06,-5.6873e-07,0,-2.29139e-06,-1.09886e+09,-1.09883e+09,-1.09879e+09,-157189,-0.0241107,-0.00609162,-0,0.0248684,-22097.7,-40000,-0,45698,157189
step02_gravity_refstate-crust.xmf,11,-9.72624e-07,-1.99714e-06,0,-4.14823e-06,-1.09891e+09,-1.09898e+09,-1.09885e+09,-284568,-0.0292555,-0.03749,-0,0.047554,-17010.7,-40000,-0,43466.8,284568
step02_gravity_refstate-crust.xmf,12,-9.85976e-07,-1.57124e-06,0,-3.58334e-06,-1.0989e+09,-1.09894e+09,-1.09883e+09,-245817,-0.0280966,-0.0288954,-0,0.0403034,-18194.5,-40000,-0,43943.6,245817
step02_gravity_refstate-crust.xmf,13,-9.6513e-07,-2.45188e-06,0,-4.76286e-06,-1.09893e+09,-1.09903e+09,-1.09887e+09,-326732,-0.0303516,-0.0465636,-0,0.0555822,-15880.5,-40000,-0,43037.1,326732
step02_gravity_refstate-crust.xmf,14,-9.56194e-07,-2.96747e-06,0,-5.45087e-06,-1.09895e+09,-1.09909e+09,-1.09889e+09,-373929,-0.031391,-0.0561058,-0,0.0642904,-14800.9,-40000,-0,42650.5,373929
step02_gravity_refstate-crust.xmf,15,-1.02984e-06,-8.84433e-07,0,-2.67547e-06,-1.09887e+09,-1.09886e+09,-1.0988e+09,-183537,-0.0255409,-0.013185,-0,0.0287434,-20734.8,-40000,-0,45054.8,183537
step02_gravity_refstate-crust.xmf,16,-1.0046e-06,-1.20493e-06,0,-3.09662e-06,-1.09888e+09,-1.0989e+09,-1.09881e+09,-212428,-0.0268633,-0.0207902,-0,0.0339686,-19434.8,-40000,-0,44471.5,212428
step02_gravity_refstate-crust.xmf,17,-9.44886e-07,-3.56e-06,0,-6.21807e-06,-1.09898e+09,-1.09916e+09,-1.09891e+09,-426560,-0.0323738,-0.0661045,-0,0.0736062,-13769.1,-40000,-0,42303.5,426560
step02_gravity_refstate-crust.xmf,18,-6.40035e-07,-7.16287e-06,0,-1.0113e-05,-1.0991e+09,-1.09954e+09,-1.09905e+09,-693750,-0.0355031,-0.110334,-0,0.115905,-10064.5,-40000,-0,41246.8,693750
step02_gravity_refstate-crust.xmf,19,-7.8141e-07,-5.99784e-06,0,-8.99399e-06,-1.09906e+09,-1.09942e+09,-1.09901e+09,-616988,-0.0348865,-0.0986854,-0,0.10467,-10932.8,-40000,-0,41467.2,616988
step02_gravity_refstate-crust.xmf,20,-8.68608e-07,-5.03128e-06,0,-7.97767e-06,-1.09903e+09,-1.09932e+09,-1.09897e+09,-547268,-0.0341398,-0.0874128,-0,0.0938431,-11837.8,-40000,-0,41714.9,547268
step02_gravity_refstate-crust.xmf,21,-4.24816e-07,-8.54088e-06,0,-1.1235e-05,-1.09913e+09,-1.09969e+09,-1.0991e+09,-770721,-0.0359455,-0.12231,-0,0.127482,-9230.72,-40000,-0,41051.3,770721
step02_gravity_refstate-crust.xmf,22,-9.20807e-07,-4.2181e-06,0,-7.0463e-06,-1.099e+09,-1.09923e+09,-1.09894e+09,-483376,-0.0332943,-0.0765457,-0,0.0834731,-12782.4,-40000,-0,41992.7,483376
step02_gravity_refstate-crust.xmf,23,-1.10069e-07,-1.01883e-05,0,-1.23972e-05,-1.09917e+09,-1.09986e+09,-1.09916e+09,-850448,-0.0361578,-0.134551,-0,0.139324,-8429.03,-40000,-0,40878.5,850448
step02_gravity_refstate-crust.xmf,24,8.92803e-07,-1.43532e-05,0,-1.4496e-05,-1.09923e+09,-1.10028e+09,-1.09929e+09,-994425,-0.0356156,-0.159494,-0,0.163422,-6909.43,-40000,-0,40592.4,994425
step02_gravity_refstate-crust.xmf,25,3.24604e-07,-1.21085e-05,0,-1.34712e-05,-1.0992e+09,-1.10005e+09,-1.09922e+09,-924126,-0.0360749,-0.146979,-0,0.151341,-7656.37,-40000,-0,40726.2,924126
step02_gravity_refstate-crust.xmf,26,1.62833e-06,-1.69327e-05,0,-1.52424e-05,-1.09926e+09,-1.10053e+09,-1.09937e+09,-1.04563e+06,-0.0346944,-0.17196,-0,0.175425,-6184.51,-40000,-0,40475.3,1.04563e+06
step02_gravity_refstate-crust.xmf,27,2.51611e-06,-1.98264e-05,0,-1.56189e-05,-1.09928e+09,-1.10082e+09,-1.09946e+09,-1.07146e+06,-0.0332215,-0.184201,-0,0.187173,-5477.46,-40000,-0,40373.3,1.07146e+06
step02_gravity_refstate-crust.xmf,28,3.51985e-06,-2.29337e-05,0,-1.54721e-05,-1.0993e+09,-1.10112e+09,-1.09955e+09,-1.06139e+06,-0.0311179,-0.195994,-0,0.198449,-4783.65,-40000,-0,40285,1.06139e+06
step02_gravity_refstate-crust.xmf,29,4.58682e-06,-2.60934e-05,0,-1.46983e-05,-1.09932e+09,-1.10142e+09,-1.09963e+09,-1.0083e+06,-0.028331,-0.20708,-0,0.209009,-4097.91,-40000,-0,40209.4,1.0083e+06
step02_gravity_refstate-crust.xmf,30,5.60823e-06,-2.91013e-05,0,-1.32594e-05,-1.09933e+09,-1.10172e+09,-1.09972e+09,-909596,-0.0248466,-0.217168,-0,0.218585,-3414.86,-40000,-0,40145.5,909596
step02_gravity_refstate-crust.xmf,31,6.49976e-06,-3.17403e-05,0,-1.12361e-05,-1.09935e+09,-1.10197e+09,-1.09979e+09,-770797,-0.0207065,-0.225932,-0,0.226879,-2731.89,-40000,-0,40093.2,770797
step02_gravity_refstate-crust.xmf,32,7.2156e-06,-3.38698e-05,0,-8.76086e-06,-1.09936e+09,-1.10218e+09,-1.09985e+09,-600995,-0.016017,-0.233052,-0,0.233602,-2048.93,-40000,-0,40052.4,600995
step02_gravity_refstate-crust.xmf,33,7.7355e-06,-3.54198e-05,0,-5.97439e-06,-1.09937e+09,-1.10233e+09,-1.0999e+09,-409843,-0.01091,-0.238293,-0,0.238543,-1365.96,-40000,-0,40023.3,409843
step02_gravity_refstate-crust.xmf,34,8.04061e-06,-3.63771e-05,0,3.08059e-06,-1.09937e+09,-1.10242e+09,-1.09993e+09,211328,0.00552322,-0.241496,0,0.241559,682.988,-40000,0,40005.8,211328
step02_gravity_refstate-crust.xmf,35,8.13459e-06,-3.66832e-05,0,-2.96759e-08,-1.09938e+09,-1.10245e+09,-1.09993e+09,-2035.76,-6.3978e-07,-0.242574,-0,0.242574,0,-40000,0,40000,2035.76
step02_gravity_refstate-crust.xmf,36,8.0365e-06,-3.63729e-05,0,-3.0815e-06,-1.09937e+09,-1.10242e+09,-1.09993e+09,-211391,-0.00552406,-0.241497,-0,0.24156,-682.988,-40000,-0,40005.8,211391
step02_gravity_refstate-crust.xmf,37,7.73753e-06,-3.54779e-05,0,6.03702e-06,-1.09937e+09,-1.10233e+09,-1.0999e+09,414139,0.01091,-0.238292,0,0.238542,1365.96,-40000,0,40023.3,414139
step02_gravity_refstate-crust.xmf,38,7.23075e-06,-3.39614e-05,0,8.80852e-06,-1.09936e+09,-1.10219e+09,-1.09986e+09,604264,0.0160177,-0.233051,0,0.233601,2048.93,-40000,0,40052.4,604264
step02_gravity_refstate-crust.xmf,39,5.63416e-06,-2.92589e-05,0,1.32885e-05,-1.09934e+09,-1.10173e+09,-1.09972e+09,911591,0.0248444,-0.217169,0,0.218585,3414.86,-40000,0,40145.5,911591
step02_gravity_refstate-crust.xmf,40,6.49672e-06,-3.1739e-05,0,1.1236e-05,-1.09935e+09,-1.10197e+09,-1.09979e+09,770790,0.0207054,-0.225931,0,0.226878,2731.89,-40000,0,40093.2,770790
step02_gravity_refstate-crust.xmf,41,4.60864e-06,-2.62789e-05,0,1.47129e-05,-1.09933e+09,-1.10144e+09,-1.09964e+09,1.0093e+06,0.0283304,-0.207079,0,0.209008,4097.91,-40000,0,40209.4,1.0093e+06
step02_gravity_refstate-crust.xmf,42,3.54736e-06,-2.31192e-05,0,1.54765e-05,-1.09931e+09,-1.10114e+09,-1.09955e+09,1.06169e+06,0.0311182,-0.195994,0,0.198449,4783.65,-40000,0,40285,1.06169e+06
step02_gravity_refstate-crust.xmf,43,2.53673e-06,-1.99878e-05,0,1.56129e-05,-1.09929e+09,-1.10083e+09,-1.09946e+09,1.07105e+06,0.0332215,-0.184199,0,0.187171,5477.46,-40000,0,40373.3,1.07105e+06
step02_gravity_refstate-crust.xmf,44,1.64161e-06,-1.70481e-05,0,1.52285e-05,-1.09926e+09,-1.10054e+09,-1.09938e+09,1.04467e+06,0.0346946,-0.171958,0,0.175424,6184.51,-40000,0,40475.3,1.04467e+06
step02_gravity_refstate-crust.xmf,45,9.04643e-07,-1.44158e-05,0,1.44692e-05,-1.09923e+09,-1.10028e+09,-1.09929e+09,992584,0.0356166,-0.159493,0,0.163421,6909.43,-40000,0,40592.4,992584
step02_gravity_refstate-crust.xmf,46,3.27837e-07,-1.21214e-05,0,1.34742e-05,-1.0992e+09,-1.10005e+09,-1.09922e+09,924332,0.0360743,-0.146978,0,0.151341,7656.37,-40000,0,40726.2,924332
step02_gravity_refstate-crust.xmf,47,-1.04622e-07,-1.01754e-05,0,1.23678e-05,-1.09916e+09,-1.09986e+09,-1.09916e+09,848434,0.0361578,-0.13455,0,0.139323,8429.03,-40000,0,40878.5,848434
step02_gravity_refstate-crust.xmf,48,-4.18259e-07,-8.5414e-06,0,1.12139e-05,-1.09913e+09,-1.09969e+09,-1.0991e+09,769273,0.035945,-0.122309,0,0.127482,9230.72,-40000,0,41051.3,769273
step02_gravity_refstate-crust.xmf,49,-6.36821e-07,-7.1507e-06,0,1.0076e-05,-1.09909e+09,-1.09954e+09,-1.09905e+09,691212,0.0355027,-0.110333,0,0.115905,10064.5,-40000,0,41246.8,691212
step02_gravity_refstate-crust.xmf,50,-7.816e-07,-5.99604e-06,0,8.99134e-06,-1.09906e+09,-1.09942e+09,-1.09901e+09,616806,0.0348866,-0.0986853,0,0.10467,10932.8,-40000,0,41467.2,616806
step02_gravity_refstate-crust.xmf,51,-8.70559e-07,-5.02844e-06,0,7.97662e-06,-1.09903e+09,-1.09932e+09,-1.09897e+09,547196,0.03414,-0.0874132,0,0.0938436,11837.8,-40000,0,41714.9,547196
step02_gravity_refstate-crust.xmf,52,-9.22007e-07,-4.21553e-06,0,7.04555e-06,-1.099e+09,-1.09923e+09,-1.09894e+09,483325,0.0332948,-0.0765459,0,0.0834735,12782.4,-40000,0,41992.7,483325
step02_gravity_refstate-crust.xmf,53,-9.47957e-07,-3.52515e-06,0,6.19649e-06,-1.09898e+09,-1.09915e+09,-1.09891e+09,425079,0.0323738,-0.0661042,0,0.0736059,13769.1,-40000,0,42303.5,425079
step02_gravity_refstate-crust.xmf,54,-9.60084e-07,-2.93613e-06,0,5.43114e-06,-1.09895e+09,-1.09909e+09,-1.09889e+09,372576,0.0313906,-0.0561058,0,0.0642902,14800.9,-40000,0,42650.5,372576
step02_gravity_refstate-crust.xmf,55,-9.67e-07,-2.42499e-06,0,4.74426e-06,-1.09893e+09,-1.09903e+09,-1.09886e+09,325456,0.0303514,-0.0465639,0,0.0555824,15880.5,-40000,0,43037.1,325456
step02_gravity_refstate-crust.xmf,56,-9.7421e-07,-1.97439e-06,0,4.13013e-06,-1.09891e+09,-1.09898e+09,-1.09885e+09,283327,0.0292556,-0.0374902,0,0.0475542,17010.7,-40000,0,43466.8,283327
step02_gravity_refstate-crust.xmf,57,-9.86919e-07,-1.56806e-06,0,3.58057e-06,-1.0989e+09,-1.09894e+09,-1.09883e+09,245627,0.028097,-0.0288957,0,0.0403039,18194.5,-40000,0,43943.6,245627
step02_gravity_refstate-crust.xmf,58,-1.00537e-06,-1.19853e-06,0,3.09338e-06,-1.09888e+09,-1.0989e+09,-1.09881e+09,212206,0.0268634,-0.0207907,0,0.033969,19434.8,-40000,0,44471.5,212206
step02_gravity_refstate-crust.xmf,59,-1.03175e-06,-8.65615e-07,0,2.66261e-06,-1.09887e+09,-1.09886e+09,-1.0988e+09,182655,0.0255405,-0.0131851,0,0.0287431,20734.8,-40000,0,45054.8,182655
step02_gravity_refstate-crust.xmf,60,-1.06796e-06,-5.54602e-07,0,2.27898e-06,-1.09886e+09,-1.09883e+09,-1.09879e+09,156338,0.0241108,-0.00609131,0,0.0248684,22097.7,-40000,0,45698,156338
step02_gravity_refstate-crust.xmf,61,-1.11342e-06,-2.60702e-07,0,1.93545e-06,-1.09885e+09,-1.0988e+09,-1.09878e+09,132772,0.0225544,0.000477654,0,0.0225594,23526.8,-40000,0,46405.9,132772
step02_gravity_refstate-crust.xmf,62,-1.16467e-06,1.2358e-08,0,1.63242e-06,-1.09885e+09,-1.09877e+09,-1.09877e+09,111984,0.020849,0.00650712,0,0.0218409,25025.6,-40000,0,47183.5,111984
step02_gravity_refstate-crust.xmf,63,-1.22127e-06,2.63374e-07,0,1.36217e-06,-1.09884e+09,-1.09874e+09,-1.09876e+09,93445.2,0.0189751,0.0119795,0,0.0224402,26597.7,-40000,0,48035.8,93445.2
step02_gravity_refstate-crust.xmf,64,-1.28093e-06,4.94149e-07,0,1.12018e-06,-1.09884e+09,-1.09872e+09,-1.09875e+09,76844.4,0.0169127,0.0168727,0,0.0238899,28247.1,-40000,0,48968.3,76844.4
step02_gravity_refstate-crust.xmf,65,-1.34142e-06,7.04377e-07,0,8.99229e-07,-1.09884e+09,-1.0987e+09,-1.09875e+09,61687.1,0.0146449,0.0211597,0,0.0257334,29977.6,-40000,0,49986.5,61687.1
step02_gravity_refstate-crust.xmf,66,-1.39861e-06,8.91438e-07,0,6.9913e-07,-1.09884e+09,-1.09868e+09,-1.09874e+09,47960.3,0.0121582,0.0248064,0,0.0276257,31793.3,-40000,0,51096.1,47960.3
step02_gravity_refstate-crust.xmf,67,-1.44926e-06,1.0453e-06,0,5.14206e-07,-1.09884e+09,-1.09867e+09,-1.09874e+09,35274.5,0.00944596,0.0277696,0,0.0293322,33698.8,-40000,0,52303,35274.5
step02_gravity_refstate-crust.xmf,68,-1.49022e-06,1.16417e-06,0,3.38495e-07,-1.09884e+09,-1.09865e+09,-1.09873e+09,23220.8,0.00650792,0.0299928,0,0.0306907,35698.5,-40000,0,53613.3,23220.8
step02_gravity_refstate-crust.xmf,69,-1.52745e-06,1.26931e-06,0,2.32373e-09,-1.09884e+09,-1.09864e+09,-1.09873e+09,159.408,1.13761e-19,0.0318986,0,0.0318986,40000,-40000,0,56568.5,159.408
step02_gravity_refstate-crust.xmf,70,-1.51703e-06,1.23882e-06,0,1.73896e-07,-1.09884e+09,-1.09865e+09,-1.09873e+09,11929.3,0.00335222,0.031402,0,0.0315804,37797.2,-40000,0,55033,11929.3
step02_gravity_refstate-crust.xmf,71,2.71034e-06,-7.53547e-07,0,2.28665e-09,-1.46626e+08,-1.46864e+08,-1.46812e+08,156.864,1.06742e-18,0.037825,0,0.037825,-40000,-5347.88,-0,40355.9,156.864
step02_gravity_refstate-crust.xmf,72,3.00321e-06,-9.03426e-07,0,-1.77266e-07,-1.11971e+08,-1.12239e+08,-1.12177e+08,-12160.5,0.00659873,0.0357358,0,0.0363399,-37823.8,-4087.17,-0,38044,12160.5
step02_gravity_refstate-crust.xmf,73,3.44408e-06,-1.12855e-06,0,-2.00351e-09,-7.41912e+07,-7.45049e+07,-7.44275e+07,-137.441,5.01831e-19,0.0353536,0,0.0353536,-40000,-2713.19,-0,40091.9,137.441
step02_gravity_refstate-crust.xmf,74,2.40802e-06,-6.18892e-07,0,-2.56043e-07,-1.81519e+08,-1.81727e+08,-1.81685e+08,-17564.5,0.00527841,0.0376626,0,0.0380307,-37824.5,-6617.18,-0,38399,17564.5
step02_gravity_refstate-crust.xmf,75,2.1719e-06,-5.33414e-07,0,-5.15192e-07,-2.08076e+08,-2.08262e+08,-2.08225e+08,-35342.2,0.00892225,0.0357074,0,0.0368052,-35985.1,-7583.18,-0,36775.5,35342.2
step02_gravity_refstate-crust.xmf,76,2.60164e-06,-7.20498e-07,0,-4.60827e-07,-1.46272e+08,-1.465e+08,-1.4645e+08,-31612.8,0.01208,0.03339,0,0.035508,-35503.6,-5334.58,-0,35902.1,31612.8
step02_gravity_refstate-crust.xmf,77,2.15649e-06,-5.36354e-07,0,-7.72225e-07,-2.01168e+08,-2.01353e+08,-2.01316e+08,-52974.7,0.0134764,0.0311644,0,0.0339534,-33993.1,-7331.61,-0,34774.7,52974.7
step02_gravity_refstate-crust.xmf,78,3.67634e-06,-1.25986e-06,0,-8.28136e-08,-5.27756e+07,-5.31142e+07,-5.30278e+07,-5681.01,0.00715508,0.0336123,0,0.0343654,-38064.7,-1934.27,-0,38113.8,5681.01
step02_gravity_refstate-crust.xmf,79,4.44648e-06,-1.70065e-06,0,1.73697e-08,421814,120.923,116786,1191.56,3.59702e-19,0.0315542,0,0.0315542,-40000,0,-0,40000,1191.56
step02_gravity_refstate-crust.xmf,80,1.8633e-06,-4.29211e-07,0,-7.26487e-07,-2.56878e+08,-2.57036e+08,-2.57006e+08,-49837,0.00950432,0.0346804,0,0.0359592,-35039.2,-9358.79,-0,36267.5,49837
step02_gravity_refstate-crust.xmf,81,1.93543e-06,-4.32289e-07,0,-3.53069e-07,-2.54534e+08,-2.54697e+08,-2.54667e+08,-24220.5,0.00473304,0.0387884,0,0.0390761,-37565.3,-9273.73,-0,38693.1,24220.5
step02_gravity_refstate-crust.xmf,82,2.17468e-06,-5.18167e-07,0,1.12317e-09,-2.17082e+08,-2.17267e+08,-2.17231e+08,77.0493,9.56401e-19,0.0394531,0,0.0394531,-40000,-7911.08,-0,40774.8,77.0493
step02_gravity_refstate-crust.xmf,83,2.04405e-06,-5.10215e-07,0,-1.06718e-06,-1.99375e+08,-1.9955e+08,-1.99515e+08,-73208.7,0.0182052,0.0242286,0,0.030306,-31781.7,-7265.91,-0,32601.7,73208.7
step02_gravity_refstate-crust.xmf,84,1.81187e-06,-4.30742e-07,0,-1.06022e-06,-2.53422e+08,-2.53576e+08,-2.53546e+08,-72731.1,0.0137418,0.028648,0,0.0317734,-32813.8,-9232.74,-0,34087.9,72731.1
step02_gravity_refstate-crust.xmf,85,2.44121e-06,-6.68413e-07,0,-7.42666e-07,-1.50398e+08,-1.50611e+08,-1.50566e+08,-50946.9,0.0182557,0.0271849,0,0.0327458,-32986,-5484.23,-0,33438.8,50946.9
step02_gravity_refstate-crust.xmf,86,3.41317e-06,-1.12431e-06,0,-2.33473e-07,-6.76666e+07,-6.79779e+07,-6.79007e+07,-16016.2,0.0147295,0.031266,0,0.0345619,-35771.6,-2475.54,-0,35857.2,16016.2
step02_gravity_refstate-crust.xmf,87,4.38007e-06,-1.66788e-06,0,1.27162e-08,415828,938.648,115355,872.331,0.012191,0.0299814,0,0.0323652,-37239.8,0,-0,37239.8,872.331
step02_gravity_refstate-crust.xmf,88,1.74756e-06,-4.22027e-07,0,-1.39651e-06,-2.49679e+08,-2.49828e+08,-2.49799e+08,-95800.4,0.0177738,0.0207146,0,0.0272947,-30648.3,-9096.24,-0,31969.7,95800.4
step02_gravity_refstate-crust.xmf,89,2.90225e-06,-8.79579e-07,0,-4.74559e-07,-1.04368e+08,-1.04627e+08,-1.04567e+08,-32554.8,0.0182661,0.0287529,0,0.0340643,-34004.8,-3810,-0,34217.6,32554.8
step02_gravity_refstate-crust.xmf,90,1.55019e-06,-3.95567e-07,0,-1.69747e-06,-2.98355e+08,-2.98488e+08,-2.98461e+08,-116446,0.0172933,0.0168658,0,0.024156,-29592.6,-10867.6,-0,31525,116446
step02_gravity_refstate-crust.xmf,91,1.4532e-06,-3.78136e-07,0,-2.11313e-06,-2.90801e+08,-2.90927e+08,-2.90901e+08,-144961,0.0212673,0.00456539,0,0.0217518,-27180,-10592.2,-0,29171,144961
step02_gravity_refstate-crust.xmf,92,1.43953e-06,-4.17417e-07,0,-2.03467e-06,-3.37511e+08,-3.37638e+08,-3.37609e+08,-139578,0.0178097,0.0104591,0,0.0206538,-28154.7,-12292.6,-0,30721.3,139578
step02_gravity_refstate-crust.xmf,93,1.37561e-06,-4.11663e-07,0,-2.41236e-06,-3.34813e+08,-3.34935e+08,-3.34907e+08,-165488,0.0206707,-0.000470687,0,0.0206761,-26195.3,-12194.1,-0,28894.5,165488
step02_gravity_refstate-crust.xmf,94,1.37568e-06,-4.71297e-07,0,-2.30019e-06,-3.80765e+08,-3.80892e+08,-3.80859e+08,-157793,0.0177051,0.0051987,0,0.0184526,-27047.9,-13867,-0,30395.4,157793
step02_gravity_refstate-crust.xmf,95,1.59741e-06,-3.90467e-07,0,-1.34295e-06,-3.03793e+08,-3.03929e+08,-3.03903e+08,-92126.4,0.0138207,0.0254628,0,0.0289718,-31664.6,-11065.7,-0,33542.5,92126.4
step02_gravity_refstate-crust.xmf,96,1.61457e-06,-3.71049e-07,0,-9.81691e-07,-3.07973e+08,-3.0811e+08,-3.08084e+08,-67344,0.0101908,0.0324569,0,0.0340191,-33835.5,-11218,-0,35646.6,67344
step02_gravity_refstate-crust.xmf,97,1.63138e-06,-3.5452e-07,0,-6.32013e-07,-3.10417e+08,-3.10554e+08,-3.10529e+08,-43356.1,0.00661288,0.0373375,0,0.0379186,-35993.1,-11307.1,-0,37727.4,43356.1
step02_gravity_refstate-crust.xmf,98,1.77243e-06,-3.73953e-07,0,-5.77916e-10,-2.85754e+08,-2.85901e+08,-2.85875e+08,-39.645,6.15657e-19,0.0405696,0,0.0405696,-40000,-10409.7,-0,41332.3,39.645
step02_gravity_refstate-crust.xmf,99,1.60604e-06,-3.93948e-07,0,-1.73478e-06,-2.45995e+08,-2.46132e+08,-2.46105e+08,-119006,0.0216427,0.0107301,0,0.0241566,-28467.2,-8961.58,-0,29844.5,119006
step02_gravity_refstate-crust.xmf,100,1.88773e-06,-4.66832e-07,0,-1.36719e-06,-1.97325e+08,-1.97487e+08,-1.97455e+08,-93789.4,0.0226531,0.0152724,0,0.0273205,-29581.4,-7190.73,-0,30442.8,93789.4
step02_gravity_refstate-crust.xmf,101,2.2541e-06,-6.07129e-07,0,-9.9669e-07,-1.49737e+08,-1.49933e+08,-1.49892e+08,-68372.9,0.023646,0.0191432,0,0.0304236,-30708.8,-5459.5,-0,31190.3,68372.9
step02_gravity_refstate-crust.xmf,102,2.74278e-06,-8.27733e-07,0,-6.35857e-07,-1.01744e+08,-1.01989e+08,-1.01932e+08,-43619.8,0.0244483,0.0222574,0,0.0330622,-31879.4,-3713.9,-0,32095,43619.8
step02_gravity_refstate-crust.xmf,103,3.36261e-06,-1.13717e-06,0,-3.06494e-07,-5.41005e+07,-5.44092e+07,-5.43312e+07,-21025.5,0.0244268,0.0246393,0,0.0346953,-33172.8,-1981.43,-0,33231.9,21025.5
step02_gravity_refstate-crust.xmf,104,4.21095e-06,-1.6039e-06,0,4.40465e-09,399754,855.568,110883,302.159,0.0236167,0.0255105,0,0.034764,-34578.2,0,-0,34578.2,302.159
step02_gravity_refstate-crust.xmf,105,1.34993e-06,-4.76559e-07,0,-2.68666e-06,-3.7778e+08,-3.77905e+08,-3.77873e+08,-184305,0.0203725,-0.00606542,0,0.0212562,-25176.7,-13758.2,-0,28690.6,184305
step02_gravity_refstate-crust.xmf,106,1.42915e-06,-3.98333e-07,0,-1.6493e-06,-3.59157e+08,-3.59283e+08,-3.59255e+08,-113142,0.0138838,0.0210025,0,0.0251767,-30334.5,-13080.6,-0,33034.6,113142
step02_gravity_refstate-crust.xmf,107,1.38114e-06,-4.47609e-07,0,-1.97049e-06,-3.84849e+08,-3.84975e+08,-3.84944e+08,-135176,0.0152864,0.01393,0,0.0206814,-28697.2,-14015.7,-0,31937,135176
step02_gravity_refstate-crust.xmf,108,1.59551e-06,-3.27253e-07,0,-3.02299e-07,-3.22694e+08,-3.22825e+08,-3.22803e+08,-20737.7,0.0030552,0.0402326,0,0.0403485,-38088.4,-11753.9,-0,39860.7,20737.7
step02_gravity_refstate-crust.xmf,109,1.33508e-06,-3.39235e-07,0,-2.45612e-06,-2.88901e+08,-2.89016e+08,-2.88993e+08,-168490,0.0239794,-0.00657134,0,0.0248635,-25301.5,-10522.6,-0,27402.4,168490
step02_gravity_refstate-crust.xmf,110,1.28839e-06,-3.76613e-07,0,-2.7892e-06,-3.32548e+08,-3.32662e+08,-3.32637e+08,-191339,0.02329,-0.012516,0,0.02644,-24298.4,-12111.4,-0,27149.5,191339
step02_gravity_refstate-crust.xmf,111,1.44623e-06,-6.54682e-07,0,-3.24404e-06,-4.51195e+08,-4.51339e+08,-4.51294e+08,-222541,0.0211345,-0.0208824,0,0.0297109,-22804.2,-16431,-0,28107.1,222541
step02_gravity_refstate-crust.xmf,112,1.34465e-06,-5.14217e-07,0,-3.37855e-06,-4.11462e+08,-4.1159e+08,-4.11554e+08,-231768,0.0231906,-0.0260732,0,0.0348943,-22223,-14984.3,-0,26802.8,231768
step02_gravity_refstate-crust.xmf,113,1.42863e-06,-6.08455e-07,0,-3.63904e-06,-4.49146e+08,-4.49286e+08,-4.49244e+08,-249638,0.0234991,-0.0333031,0,0.0407591,-21200,-16356.4,-0,26776.3,249638
step02_gravity_refstate-crust.xmf,114,1.46181e-06,-3.4329e-07,0,-2.07826e-06,-2.43339e+08,-2.43463e+08,-2.4344e+08,-142569,0.0250391,-0.000677013,0,0.0250483,-26368.2,-8864.4,-0,27818.3,142569
step02_gravity_refstate-crust.xmf,115,1.38262e-06,-5.63771e-07,0,-2.95331e-06,-4.17752e+08,-4.17886e+08,-4.17847e+08,-202597,0.0204578,-0.0125742,0,0.0240132,-24077.5,-15213.4,-0,28481.1,202597
step02_gravity_refstate-crust.xmf,116,1.29512e-06,-4.37314e-07,0,-3.09997e-06,-3.73382e+08,-3.73501e+08,-3.73471e+08,-212658,0.0230915,-0.0192137,0,0.0300397,-23243.8,-13597.9,-0,26929.1,212658
step02_gravity_refstate-crust.xmf,117,1.37303e-06,-5.54774e-07,0,-2.51973e-06,-4.23163e+08,-4.23295e+08,-4.23257e+08,-172853,0.0175663,0.000130594,0,0.0175668,-26039.2,-15410.4,-0,30257.5,172853
step02_gravity_refstate-crust.xmf,118,1.55046e-06,-7.2562e-07,0,-3.82561e-06,-4.86146e+08,-4.86302e+08,-4.86252e+08,-262437,0.0236114,-0.0389294,0,0.0455302,-20409.6,-17703.8,-0,27018,262437
step02_gravity_refstate-crust.xmf,119,1.36876e-06,-4.79343e-07,0,-4.05162e-06,-4.44171e+08,-4.44298e+08,-4.44265e+08,-277941,0.0258584,-0.0467915,0,0.0534612,-19600.4,-16175.3,-0,25412.9,277941
step02_gravity_refstate-crust.xmf,120,1.53621e-06,-7.69837e-07,0,-3.43186e-06,-4.87818e+08,-4.87977e+08,-4.87924e+08,-235426,0.0212881,-0.0269267,0,0.0343254,-21882.3,-17764.5,-0,28185.3,235426
step02_gravity_refstate-crust.xmf,121,1.34116e-06,-5.05448e-07,0,-2.11552e-06,-4.25513e+08,-4.2564e+08,-4.25605e+08,-145124,0.0148558,0.0109984,0,0.018484,-27975.9,-15495.9,-0,31980.8,145124
step02_gravity_refstate-crust.xmf,122,1.44069e-06,-3.60062e-07,0,-1.21655e-06,-3.57828e+08,-3.57952e+08,-3.57927e+08,-83455.5,0.0105287,0.0297673,0,0.0315744,-32704.7,-13032.4,-0,35205.7,83455.5
step02_gravity_refstate-crust.xmf,123,1.42339e-06,-3.20129e-07,0,-8.51214e-07,-3.62693e+08,-3.62812e+08,-3.6279e+08,-58393.3,0.00736947,0.0356184,0,0.0363728,-34826.8,-13209.5,-0,37247.8,58393.3
step02_gravity_refstate-crust.xmf,124,1.44465e-06,-3.01941e-07,0,-5.5028e-07,-3.57843e+08,-3.57963e+08,-3.57942e+08,-37749.2,0.00488338,0.0389209,0,0.0392261,-36618.4,-13033,-0,38868.5,37749.2
step02_gravity_refstate-crust.xmf,125,1.46263e-06,-2.88176e-07,0,-9.89803e-10,-3.52834e+08,-3.52954e+08,-3.52934e+08,-67.9005,5.11379e-19,0.0413773,0,0.0413773,-40000,-12850.7,-0,42013.6,67.9005
step02_gravity_refstate-crust.xmf,126,1.26073e-06,-4.09051e-07,0,-3.76812e-06,-4.07019e+08,-4.07133e+08,-4.07105e+08,-258493,0.0255041,-0.0394409,0,0.0469686,-20541.6,-14822.4,-0,25331,258493
step02_gravity_refstate-crust.xmf,127,1.52732e-06,-6.28623e-07,0,-4.20425e-06,-4.85354e+08,-4.85502e+08,-4.85459e+08,-288412,0.0257251,-0.0508449,0,0.0569824,-19049.9,-17675,-0,25986.6,288412
step02_gravity_refstate-crust.xmf,128,1.3546e-06,-4.12783e-07,0,-4.35774e-06,-4.56332e+08,-4.56453e+08,-4.56425e+08,-298941,0.0271512,-0.0566798,0,0.0628473,-18470.4,-16618.1,-0,24845.8,298941
step02_gravity_refstate-crust.xmf,129,1.6104e-06,-5.54856e-07,0,-4.76834e-06,-5.13909e+08,-5.14057e+08,-5.14019e+08,-327108,0.0280951,-0.0683306,0,0.0738811,-17150,-18715,-0,25384.5,327108
step02_gravity_refstate-crust.xmf,130,1.83261e-06,-8.5752e-07,0,-4.55753e-06,-5.48492e+08,-5.48676e+08,-5.48617e+08,-312647,0.0263975,-0.0625289,0,0.0678727,-17641.1,-19974.5,-0,26649.3,312647
step02_gravity_refstate-crust.xmf,131,1.75889e-06,-6.37374e-07,0,-4.97237e-06,-5.41792e+08,-5.41956e+08,-5.41913e+08,-341105,0.0286435,-0.074523,0,0.0798381,-16489.1,-19730.6,-0,25713.6,341105
step02_gravity_refstate-crust.xmf,132,1.67868e-06,-7.45591e-07,0,-4.37902e-06,-5.18438e+08,-5.18604e+08,-5.18553e+08,-300401,0.0260067,-0.0564309,0,0.0621353,-18358.1,-18879.9,-0,26333.8,300401
step02_gravity_refstate-crust.xmf,133,1.46935e-06,-4.76535e-07,0,-4.5588e-06,-4.84254e+08,-4.84387e+08,-4.84354e+08,-312734,0.0275837,-0.0622758,0,0.0681112,-17824.6,-17634.9,-0,25074.1,312734
step02_gravity_refstate-crust.xmf,134,1.93417e-06,-7.43904e-07,0,-5.17848e-06,-5.70639e+08,-5.70822e+08,-5.70771e+08,-355244,0.0291589,-0.0810163,0,0.0861039,-15822.6,-20781.3,-0,26119.3,355244
step02_gravity_refstate-crust.xmf,135,1.64568e-06,-3.50035e-07,0,-5.40106e-06,-5.39832e+08,-5.39969e+08,-5.39945e+08,-370513,0.0306916,-0.0873832,0,0.0926164,-15305.2,-19659.2,-0,24914.5,370513
step02_gravity_refstate-crust.xmf,136,1.66494e-06,-4.0105e-07,0,-1.66376e-06,-1.96234e+08,-1.96375e+08,-1.96348e+08,-114134,0.0265393,0.00473311,0,0.0269581,-27449.2,-7150.2,-0,28365.2,114134
step02_gravity_refstate-crust.xmf,137,2.01528e-06,-5.26636e-07,0,-1.25026e-06,-1.48726e+08,-1.489e+08,-1.48864e+08,-85767.5,0.0284547,0.00929008,0,0.0299328,-28495.4,-5421.85,-0,29006.6,85767.5
step02_gravity_refstate-crust.xmf,138,2.47991e-06,-7.35183e-07,0,-8.23336e-07,-1.00462e+08,-1.00683e+08,-1.00632e+08,-56480.9,0.030582,0.0131892,0,0.0333049,-29575.8,-3666.32,-0,29802.1,56480.9
step02_gravity_refstate-crust.xmf,139,3.105e-06,-1.0484e-06,0,-4.032e-07,-5.12024e+07,-5.14873e+07,-5.14154e+07,-27659.5,0.0325538,0.0164018,0,0.0364523,-30747,-1875.01,-0,30804.1,27659.5
step02_gravity_refstate-crust.xmf,140,3.92049e-06,-1.49277e-06,0,4.91864e-09,372202,851.412,103256,337.419,0.0340708,0.0184892,0,0.0387643,-32008.2,0,-0,32008.2,337.419
step02_gravity_refstate-crust.xmf,141,1.82682e-06,-4.24285e-07,0,-5.6558e-06,-5.68552e+08,-5.68707e+08,-5.68677e+08,-387988,0.0313797,-0.0942961,0,0.0993803,-14665.9,-20705.4,-0,25373.3,387988
step02_gravity_refstate-crust.xmf,142,1.42582e-06,-6.74037e-07,0,-2.76082e-06,-4.68207e+08,-4.68351e+08,-4.68305e+08,-189392,0.0176908,-0.00663344,0,0.0188936,-24797.2,-17050.3,-0,30093.4,189392
step02_gravity_refstate-crust.xmf,143,1.49626e-06,-7.65157e-07,0,-3.0755e-06,-4.89094e+08,-4.89249e+08,-4.89196e+08,-210979,0.0191145,-0.0163672,0,0.0251645,-23291.2,-17810.8,-0,29320.7,210979
step02_gravity_refstate-crust.xmf,144,2.11789e-06,-8.64753e-07,0,-5.37127e-06,-5.97766e+08,-5.97971e+08,-5.97912e+08,-368469,0.0295646,-0.0873687,0,0.0922353,-15197.2,-21769.5,-0,26549.3,368469
step02_gravity_refstate-crust.xmf,145,2.01717e-06,-5.08282e-07,0,-5.92371e-06,-5.96467e+08,-5.9664e+08,-5.96605e+08,-406366,0.0320541,-0.101743,0,0.106673,-14013.6,-21722.3,-0,25850.4,406366
step02_gravity_refstate-crust.xmf,146,1.98525e-06,-9.67785e-07,0,-4.72802e-06,-5.75322e+08,-5.75525e+08,-5.75458e+08,-324342,0.0267954,-0.0686834,0,0.0737252,-16951.7,-20951.7,-0,26950.6,324342
step02_gravity_refstate-crust.xmf,147,1.30455e-06,-4.41538e-07,0,-1.74637e-06,-4.25109e+08,-4.25229e+08,-4.25199e+08,-119801,0.0123988,0.0199139,0,0.0234584,-29847.1,-15481.1,-0,33623.1,119801
step02_gravity_refstate-crust.xmf,148,1.30818e-06,-3.75799e-07,0,-1.40992e-06,-4.08334e+08,-4.0845e+08,-4.08424e+08,-96720.7,0.010495,0.0270184,0,0.0289852,-31696.2,-14870.5,-0,35011.2,96720.7
step02_gravity_refstate-crust.xmf,149,1.33848e-06,-2.64942e-07,0,-3.09137e-07,-3.83868e+08,-3.83978e+08,-3.8396e+08,-21206.8,0.00254563,0.0408986,0,0.0409777,-38097.6,-13980.1,-0,40581.6,21206.8
step02_gravity_refstate-crust.xmf,150,1.26503e-06,-2.65831e-07,0,-2.405e-06,-2.42248e+08,-2.42353e+08,-2.42335e+08,-164983,0.027789,-0.0128577,0,0.0306194,-24401.7,-8823.99,-0,25948.1,164983
step02_gravity_refstate-crust.xmf,151,1.17641e-06,-2.64802e-07,0,-2.80588e-06,-2.87095e+08,-2.87194e+08,-2.87176e+08,-192483,0.0264667,-0.0192424,0,0.0327224,-23392.5,-10456.3,-0,25623.1,192483
step02_gravity_refstate-crust.xmf,152,1.18723e-06,-3.43572e-07,0,-3.49237e-06,-3.69534e+08,-3.69639e+08,-3.69616e+08,-239577,0.0254959,-0.0330084,0,0.0417084,-21408,-13457.5,-0,25286.5,239577
step02_gravity_refstate-crust.xmf,153,1.15849e-06,-2.96284e-07,0,-3.16607e-06,-3.299e+08,-3.3e+08,-3.2998e+08,-217192,0.0257148,-0.025911,0,0.0365052,-22402.5,-12014.6,-0,25420.9,217192
step02_gravity_refstate-crust.xmf,154,1.14674e-06,-2.80797e-07,0,-4.04932e-06,-4.01508e+08,-4.01606e+08,-4.01587e+08,-277783,0.0271715,-0.0503531,0,0.0572165,-19256.6,-14621.5,-0,24178.6,277783
step02_gravity_refstate-crust.xmf,155,1.16651e-06,-2.29575e-07,0,-4.35569e-06,-4.23814e+08,-4.2391e+08,-4.23894e+08,-298801,0.027935,-0.0590297,0,0.065306,-18255.1,-15433.7,-0,23905,298801
step02_gravity_refstate-crust.xmf,156,1.48131e-06,-2.8839e-07,0,-5.14931e-06,-5.10098e+08,-5.1022e+08,-5.102e+08,-353242,0.0299883,-0.0806447,0,0.0860399,-15959.2,-18576.2,-0,24490.2,353242
step02_gravity_refstate-crust.xmf,157,1.33768e-06,-2.41185e-07,0,-4.89641e-06,-4.79793e+08,-4.79901e+08,-4.79885e+08,-335894,0.029306,-0.0739652,0,0.0795594,-16637.6,-17472.4,-0,24126.7,335894
step02_gravity_refstate-crust.xmf,158,1.22269e-06,-2.11098e-07,0,-4.64224e-06,-4.50184e+08,-4.50282e+08,-4.50267e+08,-318457,0.0286794,-0.067249,0,0.0731091,-17349.5,-16394,-0,23869.8,318457
step02_gravity_refstate-crust.xmf,159,1.4264e-06,-3.14537e-07,0,-1.96139e-06,-1.96098e+08,-1.96217e+08,-1.96196e+08,-134551,0.0297249,-0.00689693,0,0.0305146,-25421,-7144.42,-0,26405.8,134551
step02_gravity_refstate-crust.xmf,160,1.62733e-06,2.21979e-08,0,-6.14304e-06,-5.67145e+08,-5.67255e+08,-5.67256e+08,-421413,0.0334341,-0.10859,0,0.113621,-13484.8,-20654.1,-0,24666.4,421413
step02_gravity_refstate-crust.xmf,161,2.53584e-06,-5.69746e-08,0,-7.94396e-06,-6.79614e+08,-6.79792e+08,-6.79788e+08,-544955,0.0368634,-0.149691,0,0.154163,-10656.7,-24752.2,-0,26948.8,544955
step02_gravity_refstate-crust.xmf,162,2.7252e-06,-6.98041e-07,0,-7.17799e-06,-6.79757e+08,-6.79992e+08,-6.79944e+08,-492410,0.0344221,-0.134337,0,0.138677,-11582,-24757.2,-0,27332.4,492410
step02_gravity_refstate-crust.xmf,163,2.98237e-06,-8.69554e-07,0,-7.4403e-06,-7.00608e+08,-7.00872e+08,-7.00813e+08,-510404,0.0342289,-0.141204,0,0.145294,-11131.9,-25517.1,-0,27839.5,510404
step02_gravity_refstate-crust.xmf,164,2.08462e-06,1.13898e-07,0,-7.25772e-06,-6.37146e+08,-6.37281e+08,-6.37289e+08,-497879,0.0361163,-0.134683,0,0.139441,-11586.6,-23204.6,-0,25936.5,497879
step02_gravity_refstate-crust.xmf,165,2.30197e-06,-4.46406e-07,0,-6.68685e-06,-6.39086e+08,-6.39274e+08,-6.39244e+08,-458718,0.0341257,-0.121666,0,0.126362,-12470.5,-23275.2,-0,26405.5,458718
step02_gravity_refstate-crust.xmf,166,2.49255e-06,-5.48315e-07,0,-6.92265e-06,-6.58438e+08,-6.58647e+08,-6.58609e+08,-474894,0.0343629,-0.127617,0,0.132162,-12043.5,-23980.3,-0,26834.7,474894
step02_gravity_refstate-crust.xmf,167,2.27925e-06,7.37135e-08,0,-7.61171e-06,-6.58021e+08,-6.58172e+08,-6.58177e+08,-522163,0.0366546,-0.142483,0,0.147122,-11090.1,-23965.2,-0,26406.9,522163
step02_gravity_refstate-crust.xmf,168,2.16302e-06,1.91041e-06,0,-1.06412e-05,-7.18524e+08,-7.18542e+08,-7.18673e+08,-729986,0.0412833,-0.200573,0,0.204777,-8112.15,-26170.3,-0,27398.8,729986
step02_gravity_refstate-crust.xmf,169,2.47169e-06,1.8852e-06,0,-1.12871e-05,-7.37001e+08,-7.37041e+08,-7.37171e+08,-774292,0.0412065,-0.210657,0,0.21465,-7734.86,-26844.2,-0,27936.3,774292
step02_gravity_refstate-crust.xmf,170,2.99351e-06,6.07776e-07,0,-1.02261e-05,-7.36996e+08,-7.3716e+08,-7.37201e+08,-701511,0.0391794,-0.193213,0,0.197145,-8475.3,-26844.1,-0,28150.3,701511
step02_gravity_refstate-crust.xmf,171,1.45707e-06,4.93316e-08,0,-5.83836e-06,-5.38987e+08,-5.39083e+08,-5.39087e+08,-400512,0.0325566,-0.101064,0,0.106179,-14106.3,-19628.3,-0,24171.5,400512
step02_gravity_refstate-crust.xmf,172,2.82146e-06,1.78811e-06,0,-1.19363e-05,-7.54809e+08,-7.5488e+08,-7.55003e+08,-818831,0.0407347,-0.220721,0,0.224449,-7385.28,-27493.8,-0,28468.4,818831
step02_gravity_refstate-crust.xmf,173,1.66246e-06,3.69769e-06,0,-1.24426e-05,-7.37551e+08,-7.37412e+08,-7.37665e+08,-853563,0.0427771,-0.229991,0,0.233935,-6964.54,-26863.7,-0,27751.9,853563
step02_gravity_refstate-crust.xmf,174,3.28903e-06,4.93451e-07,0,-1.0749e-05,-7.53796e+08,-7.53988e+08,-7.54022e+08,-737382,0.0386911,-0.20268,0,0.20634,-8090.67,-27456.8,-0,28624,737382
step02_gravity_refstate-crust.xmf,175,2.79363e-06,-1.83015e-07,0,-8.30563e-06,-7.00145e+08,-7.00349e+08,-7.00337e+08,-569766,0.0369351,-0.157621,0,0.161891,-10205.3,-25500.5,-0,27466.8,569766
step02_gravity_refstate-crust.xmf,176,1.80512e-06,2.54964e-08,0,-6.49957e-06,-5.93997e+08,-5.94119e+08,-5.9412e+08,-445871,0.0343483,-0.116938,0,0.121878,-12835.8,-21632.4,-0,25153.9,445871
step02_gravity_refstate-crust.xmf,177,2.26275e-06,-6.10244e-07,0,-6.24734e-06,-6.26126e+08,-6.26323e+08,-6.26281e+08,-428568,0.0326798,-0.110298,0,0.115038,-13307.3,-22802.9,-0,26401.9,428568
step02_gravity_refstate-crust.xmf,178,1.69324e-06,-8.62626e-07,0,-3.98283e-06,-5.22785e+08,-5.22961e+08,-5.22902e+08,-273222,0.0237221,-0.04457,0,0.0504898,-19636.5,-19038,-0,27350.3,273222
step02_gravity_refstate-crust.xmf,179,1.33933e-06,-5.96348e-07,0,-2.2813e-06,-4.68234e+08,-4.68367e+08,-4.68326e+08,-156497,0.0146789,0.00655005,0,0.016074,-26986.8,-17051,-0,31922.2,156497
step02_gravity_refstate-crust.xmf,180,1.65077e-06,-9.02707e-07,0,-3.56759e-06,-5.23768e+08,-5.23943e+08,-5.23881e+08,-244737,0.0212751,-0.0322273,0,0.0386164,-21081.4,-19073.6,-0,28429.3,244737
step02_gravity_refstate-crust.xmf,181,1.5683e-06,-8.76962e-07,0,-3.15979e-06,-5.22101e+08,-5.22269e+08,-5.22208e+08,-216762,0.0188328,-0.0200922,0,0.0275385,-22645.2,-19012.6,-0,29568.3,216762
step02_gravity_refstate-crust.xmf,182,2.32805e-06,-1.00411e-06,0,-5.57912e-06,-6.25235e+08,-6.25463e+08,-6.25394e+08,-382727,0.029868,-0.0942509,0,0.0988703,-14550.7,-22770.2,-0,27022.2,382727
step02_gravity_refstate-crust.xmf,183,2.14067e-06,-1.09428e-06,0,-4.87335e-06,-6.00577e+08,-6.00799e+08,-6.00723e+08,-334312,0.0270478,-0.0744513,0,0.0792123,-16326.2,-21871.6,-0,27293,334312
step02_gravity_refstate-crust.xmf,184,1.84248e-06,-1.0056e-06,0,-4.12712e-06,-5.5585e+08,-5.56046e+08,-5.55977e+08,-283121,0.0239116,-0.0505807,0,0.0559479,-18853.3,-20242.2,-0,27662.1,283121
step02_gravity_refstate-crust.xmf,185,1.9936e-06,-1.12861e-06,0,-4.28793e-06,-5.84221e+08,-5.84435e+08,-5.84358e+08,-294152,0.0242055,-0.0570114,0,0.0619372,-18067.8,-21275.5,-0,27912.2,294152
step02_gravity_refstate-crust.xmf,186,1.94444e-06,7.86746e-08,0,-6.88655e-06,-6.16948e+08,-6.17076e+08,-6.17082e+08,-472418,0.0353181,-0.126174,0,0.131023,-12164.4,-22468.6,-0,25550.2,472418
step02_gravity_refstate-crust.xmf,187,2.56955e-06,-9.62702e-07,0,-6.28265e-06,-6.57129e+08,-6.57372e+08,-6.57305e+08,-430990,0.0319865,-0.113532,0,0.117952,-13009.4,-23932.4,-0,27239.7,430990
step02_gravity_refstate-crust.xmf,188,2.79602e-06,-1.15125e-06,0,-6.45884e-06,-6.79827e+08,-6.80097e+08,-6.80019e+08,-443076,0.0317777,-0.119522,0,0.123675,-12538.3,-24759.3,-0,27753,443076
step02_gravity_refstate-crust.xmf,189,3.01414e-06,-1.34187e-06,0,-6.64306e-06,-7.00919e+08,-7.01217e+08,-7.01125e+08,-455714,0.0314372,-0.126007,0,0.12987,-12055.4,-25527.8,-0,28231.2,455714
step02_gravity_refstate-crust.xmf,190,1.26283e-06,-5.09235e-07,0,-1.89771e-06,-4.6848e+08,-4.68602e+08,-4.68567e+08,-130183,0.0122118,0.0162858,0,0.0203557,-28884,-17059.8,-0,33545.8,130183
step02_gravity_refstate-crust.xmf,191,1.27033e-06,-3.17544e-07,0,-1.0192e-06,-4.10928e+08,-4.11037e+08,-4.11016e+08,-69916.8,0.00762894,0.0338255,0,0.0346751,-33870.5,-14964.9,-0,37029.2,69916.8
step02_gravity_refstate-crust.xmf,192,1.24283e-06,-2.63902e-07,0,-6.09731e-07,-4.11233e+08,-4.11337e+08,-4.11318e+08,-41827.6,0.004576,0.0389712,0,0.0392389,-36294.8,-14976,-0,39263.1,41827.6
step02_gravity_refstate-crust.xmf,193,1.20137e-06,-2.2743e-07,0,-4.97371e-10,-4.18511e+08,-4.18609e+08,-4.18594e+08,-34.1196,3.74602e-19,0.041992,0,0.041992,-40000,-15240.8,-0,42805.2,34.1196
step02_gravity_refstate-crust.xmf,194,1.03243e-06,-1.9611e-07,0,-3.85016e-06,-3.6707e+08,-3.67155e+08,-3.67141e+08,-264121,0.0274748,-0.046963,0,0.0544094,-19688.9,-13367.4,-0,23797.9,264121
step02_gravity_refstate-crust.xmf,195,1.29881e-06,6.49514e-08,0,-5.53998e-06,-5.09442e+08,-5.09526e+08,-5.09531e+08,-380042,0.0316928,-0.0938651,0,0.0990711,-14734.7,-18552.1,-0,23691.6,380042
step02_gravity_refstate-crust.xmf,196,1.70433e-06,-4.21197e-07,0,-1.50164e-06,-1.49357e+08,-1.49502e+08,-1.49474e+08,-103012,0.0323401,-0.0018238,0,0.0323915,-26388.2,-5443.72,-0,26943.9,103012
step02_gravity_refstate-crust.xmf,197,2.13627e-06,-6.10117e-07,0,-1.0188e-06,-1.00235e+08,-1.00424e+08,-1.00382e+08,-69889.7,0.0358376,0.00229775,0,0.0359112,-27312.4,-3656.86,-0,27556.1,69889.7
step02_gravity_refstate-crust.xmf,198,2.73387e-06,-9.10388e-07,0,-5.11053e-07,-5.04725e+07,-5.07225e+07,-5.06601e+07,-35058.2,0.0395682,0.00622962,0,0.0400556,-28377.2,-1847.15,-0,28437.2,35058.2
step02_gravity_refstate-crust.xmf,199,3.52543e-06,-1.34103e-06,0,3.11668e-09,334751,911.982,92906.7,213.805,0.0433344,0.00926328,0,0.0443134,-29522.7,0,-0,29522.7,213.805
step02_gravity_refstate-crust.xmf,200,2.19848e-06,7.88008e-07,0,-8.71694e-06,-6.79468e+08,-6.79565e+08,-6.79619e+08,-597982,0.0389807,-0.165453,0,0.169983,-9764.3,-24746.8,-0,26603.5,597982
step02_gravity_refstate-crust.xmf,201,3.04282e-06,-2.53665e-07,0,-8.76426e-06,-7.19206e+08,-7.19432e+08,-7.19415e+08,-601228,0.0370374,-0.167315,0,0.171365,-9689.49,-26195.3,-0,27929.9,601228
step02_gravity_refstate-crust.xmf,202,2.44493e-06,7.50949e-07,0,-9.19629e-06,-6.99514e+08,-6.99631e+08,-6.99682e+08,-630865,0.039282,-0.174351,0,0.178722,-9322.8,-25477.6,-0,27129.7,630865
step02_gravity_refstate-crust.xmf,203,2.71824e-06,6.85579e-07,0,-9.7063e-06,-7.18995e+08,-7.19134e+08,-7.19181e+08,-665852,0.0393523,-0.183679,0,0.187848,-8889.63,-26187.8,-0,27655.5,665852
step02_gravity_refstate-crust.xmf,204,2.12208e-06,3.41632e-06,0,-1.312e-05,-7.56509e+08,-7.5642e+08,-7.56654e+08,-900033,0.0422542,-0.239145,0,0.242849,-6715.91,-27555.3,-0,28361.9,900033
step02_gravity_refstate-crust.xmf,205,1.07285e-06,5.0572e-06,0,-1.33984e-05,-7.44619e+08,-7.44345e+08,-7.44692e+08,-919132,0.0433375,-0.24628,0,0.250064,-6393.04,-27120.8,-0,27864.1,919132
step02_gravity_refstate-crust.xmf,206,1.43851e-06,3.36836e-06,0,-1.14958e-05,-7.18619e+08,-7.18487e+08,-7.18718e+08,-788610,0.042605,-0.217204,0,0.221343,-7386.41,-26173.1,-0,27195.4,788610
step02_gravity_refstate-crust.xmf,207,1.18069e-06,5.6878e-07,0,-6.25547e-06,-5.38759e+08,-5.38801e+08,-5.3884e+08,-429125,0.034102,-0.115069,0,0.120016,-12933,-19619.7,-0,23498.8,429125
step02_gravity_refstate-crust.xmf,208,1.14673e-06,5.4952e-06,0,-1.42417e-05,-7.57465e+08,-7.57166e+08,-7.57543e+08,-976978,0.043228,-0.257328,0,0.260933,-6091.31,-27589.4,-0,28253.8,976978
step02_gravity_refstate-crust.xmf,209,3.3656e-06,-4.59885e-07,0,-9.15705e-06,-7.40042e+08,-7.40305e+08,-7.40273e+08,-628173,0.0363945,-0.175985,0,0.179709,-9255.15,-26954.9,-0,28499.5,628173
step02_gravity_refstate-crust.xmf,210,3.52221e-06,-3.61622e-07,0,-9.77101e-06,-7.53048e+08,-7.53315e+08,-7.5329e+08,-670291,0.0366413,-0.187595,0,0.19114,-8723.44,-27429.2,-0,28782.9,670291
step02_gravity_refstate-crust.xmf,211,3.28633e-06,-1.1327e-06,0,-7.66555e-06,-7.23141e+08,-7.23444e+08,-7.23366e+08,-525857,0.0334976,-0.148148,0,0.151888,-10692.3,-26338.2,-0,28425.8,525857
step02_gravity_refstate-crust.xmf,212,1.46326e-06,-7.98218e-07,0,-2.76956e-06,-5.1615e+08,-5.16305e+08,-5.1625e+08,-189992,0.0165394,-0.00844461,0,0.0185705,-24327,-18795.6,-0,30742.1,189992
step02_gravity_refstate-crust.xmf,213,2.31389e-06,-1.24978e-06,0,-4.99524e-06,-6.26737e+08,-6.26982e+08,-6.26896e+08,-342673,0.0270542,-0.0800486,0,0.0844968,-15730.9,-22824.4,-0,27720.3,342673
step02_gravity_refstate-crust.xmf,214,2.12358e-06,-1.22456e-06,0,-4.45889e-06,-6.05059e+08,-6.05288e+08,-6.05204e+08,-305880,0.0247075,-0.0636281,0,0.0682568,-17323.6,-22034.5,-0,28029,305880
step02_gravity_refstate-crust.xmf,215,3.24109e-06,-1.51656e-06,0,-6.83796e-06,-7.19495e+08,-7.19821e+08,-7.19717e+08,-469084,0.0309219,-0.132261,0,0.135828,-11612.4,-26204.7,-0,28662.4,469084
step02_gravity_refstate-crust.xmf,216,1.19934e-06,-4.17079e-07,0,-1.53567e-06,-4.64278e+08,-4.64389e+08,-4.6436e+08,-105347,0.00996612,0.0245657,0,0.0265104,-30825.3,-16906.7,-0,35157.3,105347
step02_gravity_refstate-crust.xmf,217,1.14363e-06,-3.32777e-07,0,-1.17507e-06,-4.61342e+08,-4.61443e+08,-4.61421e+08,-80609.9,0.00767312,0.0315483,0,0.032468,-32858.4,-16799.7,-0,36904,80609.9
step02_gravity_refstate-crust.xmf,218,1.15763e-06,-2.21502e-07,0,-2.63889e-07,-4.30861e+08,-4.30956e+08,-4.30941e+08,-18102.8,0.00188409,0.0415232,0,0.0415659,-38370.7,-15690.3,-0,41454.7,18102.8
step02_gravity_refstate-crust.xmf,219,1.16923e-06,-2.01033e-07,0,-2.25496e-06,-1.96224e+08,-1.96318e+08,-1.96305e+08,-154690,0.0322665,-0.019451,0,0.0376758,-23469.7,-7148.17,-0,24534.1,154690
step02_gravity_refstate-crust.xmf,220,1.02974e-06,-1.54696e-07,0,-2.72446e-06,-2.41826e+08,-2.41907e+08,-2.41897e+08,-186898,0.0300283,-0.0260884,0,0.0397782,-22473.9,-8807.85,-0,24138.2,186898
step02_gravity_refstate-crust.xmf,221,9.73861e-07,-1.46717e-07,0,-3.14761e-06,-2.85933e+08,-2.86009e+08,-2.85999e+08,-215926,0.0285598,-0.0330343,0,0.0436684,-21498.6,-10413.4,-0,23887.8,215926
step02_gravity_refstate-crust.xmf,222,9.78798e-07,-1.61124e-07,0,-3.52925e-06,-3.28036e+08,-3.28114e+08,-3.28103e+08,-242107,0.0277805,-0.0402998,0,0.0489472,-20534.2,-11946.2,-0,23756.4,242107
step02_gravity_refstate-crust.xmf,223,8.96033e-07,-1.37924e-08,0,-4.25468e-06,-3.77978e+08,-3.7804e+08,-3.78039e+08,-291871,0.0288769,-0.061543,0,0.067981,-17998.4,-13764.3,-0,22658.2,291871
step02_gravity_refstate-crust.xmf,224,9.2724e-07,6.24698e-08,0,-4.64465e-06,-4.13114e+08,-4.13173e+08,-4.13178e+08,-318623,0.0295361,-0.0722498,0,0.0780539,-16834.5,-15043.7,-0,22576.8,318623
step02_gravity_refstate-crust.xmf,225,1.15192e-06,7.70504e-08,0,-5.24712e-06,-4.78255e+08,-4.78329e+08,-4.78334e+08,-359952,0.0308764,-0.0868425,0,0.0921682,-15380.9,-17416.1,-0,23235.6,359952
step02_gravity_refstate-crust.xmf,226,1.02622e-06,7.76164e-08,0,-4.95397e-06,-4.46234e+08,-4.46299e+08,-4.46304e+08,-339842,0.0301512,-0.0798197,0,0.0853245,-16061.4,-16249.9,-0,22847.9,339842
step02_gravity_refstate-crust.xmf,227,1.39198e-06,-3.01644e-07,0,-1.75367e-06,-1.51172e+08,-1.51288e+08,-1.51267e+08,-120301,0.0351997,-0.0134599,0,0.0376853,-24447.4,-5508.71,-0,25060.3,120301
step02_gravity_refstate-crust.xmf,228,1.31574e-06,6.16866e-07,0,-6.61535e-06,-5.65785e+08,-5.65833e+08,-5.65875e+08,-453813,0.0351329,-0.12326,0,0.128169,-12327.9,-20604.2,-0,24010.7,453813
step02_gravity_refstate-crust.xmf,229,1.44536e-06,7.27392e-07,0,-7.03258e-06,-5.9109e+08,-5.9114e+08,-5.91189e+08,-482435,0.0361836,-0.132182,0,0.137045,-11708.7,-21526.2,-0,24504.5,482435
step02_gravity_refstate-crust.xmf,230,1.95057e-06,8.45384e-07,0,-8.28509e-06,-6.58213e+08,-6.58289e+08,-6.58347e+08,-568357,0.0385631,-0.157415,0,0.16207,-10185.7,-23972.1,-0,26046.3,568357
step02_gravity_refstate-crust.xmf,231,1.56515e-06,8.33903e-07,0,-7.45623e-06,-6.13975e+08,-6.14025e+08,-6.14083e+08,-511497,0.0371684,-0.141254,0,0.146062,-11120.4,-22360,-0,24972.6,511497
step02_gravity_refstate-crust.xmf,232,1.73179e-06,8.78334e-07,0,-7.87851e-06,-6.36447e+08,-6.36506e+08,-6.36566e+08,-540466,0.0379829,-0.149719,0,0.154462,-10613.4,-23178.9,-0,25493.2,540466
step02_gravity_refstate-crust.xmf,233,-5.02886e-07,9.28331e-06,0,-1.63432e-05,-7.71414e+08,-7.70743e+08,-7.7138e+08,-1.12114e+06,0.0430795,-0.290789,0,0.293962,-5141.64,-28096.4,-0,28563,1.12114e+06
step02_gravity_refstate-crust.xmf,234,1.2271e-06,6.02031e-06,0,-1.52745e-05,-7.71495e+08,-7.71166e+08,-7.71579e+08,-1.04783e+06,0.0428461,-0.270519,0,0.273891,-5759.48,-28101.3,-0,28685.5,1.04783e+06
step02_gravity_refstate-crust.xmf,235,1.28312e-06,6.59784e-06,0,-1.64364e-05,-7.85546e+08,-7.85181e+08,-7.85634e+08,-1.12754e+06,0.0420703,-0.284759,0,0.28785,-5435.35,-28614,-0,29125.6,1.12754e+06
step02_gravity_refstate-crust.xmf,236,1.92117e-06,1.9069e-06,0,-1.00469e-05,-6.99422e+08,-6.99423e+08,-6.99554e+08,-689217,0.0410882,-0.190962,0,0.195332,-8497.11,-25473.9,-0,26853.7,689217
step02_gravity_refstate-crust.xmf,237,1.69542e-06,1.85842e-06,0,-9.4703e-06,-6.79602e+08,-6.79591e+08,-6.79718e+08,-649663,0.0406534,-0.181516,0,0.186013,-8903.76,-24751.3,-0,26304.1,649663
step02_gravity_refstate-crust.xmf,238,-3.00533e-07,8.15204e-06,0,-1.51067e-05,-7.57227e+08,-7.56647e+08,-7.57206e+08,-1.03632e+06,0.0434965,-0.275696,0,0.279106,-5476.46,-27579,-0,28117.5,1.03632e+06
step02_gravity_refstate-crust.xmf,239,-7.39151e-08,7.11492e-06,0,-1.40324e-05,-7.43386e+08,-7.42893e+08,-7.43381e+08,-962626,0.0436261,-0.261212,0,0.26483,-5843.5,-27074.4,-0,27697.9,962626
step02_gravity_refstate-crust.xmf,240,3.1039e-07,5.93574e-06,0,-1.30382e-05,-7.30386e+08,-7.30001e+08,-7.30408e+08,-894422,0.0435294,-0.245719,0,0.249545,-6307.27,-26600.9,-0,27338.4,894422
step02_gravity_refstate-crust.xmf,241,4.59376e-07,5.18721e-06,0,-1.21873e-05,-7.16437e+08,-7.16113e+08,-7.16468e+08,-836048,0.0432584,-0.232932,0,0.236914,-6708.87,-26092.5,-0,26941.2,836048
step02_gravity_refstate-crust.xmf,242,1.18866e-06,3.29924e-06,0,-1.08239e-05,-7.00078e+08,-6.99933e+08,-7.00159e+08,-742521,0.0423195,-0.207747,0,0.212014,-7706.27,-25496.9,-0,26636.1,742521
step02_gravity_refstate-crust.xmf,243,1.03419e-06,5.3281e-07,0,-5.91748e-06,-5.09752e+08,-5.09787e+08,-5.09823e+08,-405939,0.0331306,-0.107731,0,0.11271,-13504.4,-18563,-0,22955.5,405939
step02_gravity_refstate-crust.xmf,244,-7.89495e-07,1.03883e-05,0,-1.75978e-05,-7.85226e+08,-7.84459e+08,-7.85172e+08,-1.20721e+06,0.0422987,-0.306293,0,0.3092,-4838.97,-28599.8,-0,29006.3,1.20721e+06
step02_gravity_refstate-crust.xmf,245,2.39056e-06,3.53902e-06,0,-1.3958e-05,-7.71493e+08,-7.71414e+08,-7.71657e+08,-957517,0.0416963,-0.250579,0,0.254024,-6392.03,-28102.1,-0,28819.9,957517
step02_gravity_refstate-crust.xmf,246,3.62988e-06,2.50855e-07,0,-1.12069e-05,-7.70946e+08,-7.71178e+08,-7.71195e+08,-768792,0.0375784,-0.211715,0,0.215024,-7747.37,-28082.1,-0,29131.2,768792
step02_gravity_refstate-crust.xmf,247,3.18314e-06,1.64391e-06,0,-1.2575e-05,-7.71602e+08,-7.71707e+08,-7.7182e+08,-862647,0.0398422,-0.230976,0,0.234387,-7051.93,-28106.3,-0,28977.5,862647
step02_gravity_refstate-crust.xmf,248,2.68828e-06,3.65401e-06,0,-1.48646e-05,-7.86444e+08,-7.86378e+08,-7.86629e+08,-1.01971e+06,0.0406847,-0.263082,0,0.266209,-6064.81,-28647.8,-0,29282.8,1.01971e+06
step02_gravity_refstate-crust.xmf,249,3.84116e-06,-7.42369e-07,0,-9.93586e-06,-7.69507e+08,-7.69822e+08,-7.69771e+08,-681600,0.0351107,-0.193137,0,0.196302,-8476.58,-28029.1,-0,29282.8,681600
step02_gravity_refstate-crust.xmf,250,3.45621e-06,-1.12863e-06,0,-8.17195e-06,-7.38555e+08,-7.3887e+08,-7.38793e+08,-560596,0.0338461,-0.159567,0,0.163117,-10056.8,-26900.1,-0,28718.5,560596
step02_gravity_refstate-crust.xmf,251,2.54666e-06,-1.15468e-06,0,-5.78632e-06,-6.50777e+08,-6.51031e+08,-6.50952e+08,-396942,0.0300051,-0.101172,0,0.105528,-13932.5,-23700.7,-0,27492.5,396942
step02_gravity_refstate-crust.xmf,252,1.78073e-06,-1.04731e-06,0,-3.68842e-06,-5.58174e+08,-5.58368e+08,-5.58296e+08,-253026,0.0212592,-0.0378325,0,0.0433964,-20267.1,-20326.5,-0,28704,253026
step02_gravity_refstate-crust.xmf,253,1.35799e-06,-7.02598e-07,0,-2.39838e-06,-5.11965e+08,-5.12107e+08,-5.12059e+08,-164529,0.0142923,0.00222281,0,0.0144641,-26048.9,-18643,-0,32032.9,164529
step02_gravity_refstate-crust.xmf,254,1.24325e-06,-5.94049e-07,0,-2.01404e-06,-5.12589e+08,-5.12715e+08,-5.12674e+08,-138163,0.0118575,0.0124245,0,0.0171746,-27913.4,-18665.4,-0,33579.1,138163
step02_gravity_refstate-crust.xmf,255,1.66723e-06,-1.01921e-06,0,-3.25227e-06,-5.58547e+08,-5.58731e+08,-5.58661e+08,-223106,0.0185878,-0.0251619,0,0.0312831,-21813.9,-20339.6,-0,29825.3,223106
step02_gravity_refstate-crust.xmf,256,1.52314e-06,-9.27021e-07,0,-2.83295e-06,-5.55291e+08,-5.55459e+08,-5.55395e+08,-194341,0.0160132,-0.0126154,0,0.0203856,-23533.5,-20220.6,-0,31027.4,194341
step02_gravity_refstate-crust.xmf,257,2.51451e-06,-1.42784e-06,0,-5.11527e-06,-6.53872e+08,-6.54143e+08,-6.54045e+08,-350908,0.0267998,-0.0859186,0,0.0900013,-15124.8,-23812.8,-0,28210.1,350908
step02_gravity_refstate-crust.xmf,258,2.23986e-06,-1.37636e-06,0,-4.47504e-06,-6.28365e+08,-6.28613e+08,-6.28519e+08,-306988,0.0242735,-0.0668783,0,0.0711471,-16910.1,-22883.2,-0,28453.3,306988
step02_gravity_refstate-crust.xmf,259,1.93168e-06,-1.22482e-06,0,-3.7581e-06,-5.96154e+08,-5.96371e+08,-5.96287e+08,-257806,0.020846,-0.0432248,0,0.0479889,-19476.3,-21709.5,-0,29165.6,257806
step02_gravity_refstate-crust.xmf,260,2.10794e-06,-1.38383e-06,0,-4.02765e-06,-6.23865e+08,-6.24105e+08,-6.2401e+08,-276297,0.0218249,-0.054198,0,0.0584273,-18170.5,-22718.8,-0,29091.4,276297
step02_gravity_refstate-crust.xmf,261,2.77858e-06,-1.46134e-06,0,-5.7937e-06,-6.80346e+08,-6.80637e+08,-6.80537e+08,-397448,0.0290157,-0.105432,0,0.109352,-13514.9,-24777.7,-0,28223.8,397448
step02_gravity_refstate-crust.xmf,262,2.97754e-06,-1.67079e-06,0,-5.90064e-06,-7.0334e+08,-7.03658e+08,-7.03544e+08,-404784,0.0283144,-0.11121,0,0.114758,-13018.5,-25615.2,-0,28733.6,404784
step02_gravity_refstate-crust.xmf,263,3.14461e-06,-1.78803e-06,0,-6.11613e-06,-7.19013e+08,-7.19351e+08,-7.19228e+08,-419567,0.0281883,-0.118146,0,0.121462,-12492.2,-26186.3,-0,29013.4,419567
step02_gravity_refstate-crust.xmf,264,1.13454e-06,-4.78033e-07,0,-1.65096e-06,-5.12739e+08,-5.12849e+08,-5.12816e+08,-113256,0.00959174,0.0212961,0,0.0233565,-29825.8,-18670.6,-0,35187.7,113256
step02_gravity_refstate-crust.xmf,265,1.08493e-06,-2.61982e-07,0,-8.05271e-07,-4.62606e+08,-4.62699e+08,-4.62681e+08,-55241.6,0.00525131,0.0370792,0,0.0374492,-35011.3,-16845.6,-0,38853.1,55241.6
step02_gravity_refstate-crust.xmf,266,1.02054e-06,-2.01626e-07,0,-4.35283e-07,-4.70874e+08,-4.70958e+08,-4.70944e+08,-29860.4,0.00275844,0.0408167,0,0.0409098,-37269.8,-17146.4,-0,41024.9,29860.4
step02_gravity_refstate-crust.xmf,267,9.58772e-07,-1.69451e-07,0,-3.21374e-09,-4.82975e+08,-4.83052e+08,-4.83041e+08,-220.463,3.34082e-19,0.0424558,0,0.0424558,-40000,-17586.8,-0,43695.5,220.463
step02_gravity_refstate-crust.xmf,268,7.63138e-07,2.62573e-08,0,-3.8726e-06,-3.29874e+08,-3.29924e+08,-3.29926e+08,-265661,0.0292852,-0.0550405,0,0.0623465,-18745,-12012.5,-0,22263.8,265661
step02_gravity_refstate-crust.xmf,269,8.99625e-07,4.96242e-07,0,-5.59039e-06,-4.78839e+08,-4.78867e+08,-4.78901e+08,-383501,0.0321938,-0.100499,0,0.105529,-14100.6,-17437,-0,22424.9,383501
step02_gravity_refstate-crust.xmf,270,1.05924e-06,-1.5467e-07,0,-1.99185e-06,-1.50918e+08,-1.51001e+08,-1.5099e+08,-136641,0.0375754,-0.0260621,0,0.0457291,-22545.8,-5498.36,-0,23206.6,136641
step02_gravity_refstate-crust.xmf,271,1.71721e-06,-4.53946e-07,0,-1.23382e-06,-1.03845e+08,-1.03994e+08,-1.03963e+08,-84640.1,0.0394567,-0.0093733,0,0.0405547,-25216.7,-3786.82,-0,25499.4,84640.1
step02_gravity_refstate-crust.xmf,272,2.25598e-06,-7.27368e-07,0,-6.36012e-07,-5.14131e+07,-5.16177e+07,-5.15678e+07,-43630.4,0.0452434,-0.00568607,0,0.0455993,-26052.8,-1879.75,-0,26120.5,43630.4
step02_gravity_refstate-crust.xmf,273,3.02431e-06,-1.14889e-06,0,4.19724e-10,287233,951.765,79765.4,28.7931,0.0512354,-0.0018262,0,0.0512679,-27114.8,0,-0,27114.8,28.7931
step02_gravity_refstate-crust.xmf,274,7.99445e-07,1.22219e-06,0,-6.62624e-06,-5.38336e+08,-5.38307e+08,-5.38391e+08,-454560,0.0352227,-0.129171,0,0.133887,-11792.6,-19603.8,-0,22877.4,454560
step02_gravity_refstate-crust.xmf,275,1.47081e-06,1.82226e-06,0,-8.93864e-06,-6.58666e+08,-6.58642e+08,-6.58767e+08,-613191,0.040075,-0.172801,0,0.177387,-9300.46,-23988.2,-0,25728,613191
step02_gravity_refstate-crust.xmf,276,5.29948e-07,4.61079e-06,0,-1.14636e-05,-7.02834e+08,-7.02555e+08,-7.02871e+08,-786403,0.0428846,-0.221959,0,0.226064,-7078.28,-25596.7,-0,26557.3,786403
step02_gravity_refstate-crust.xmf,277,7.21087e-07,1.06963e-06,0,-6.2469e-06,-5.1186e+08,-5.11836e+08,-5.1191e+08,-428537,0.0341593,-0.120999,0,0.125728,-12372.5,-18639.4,-0,22372,428537
step02_gravity_refstate-crust.xmf,278,-2.76645e-06,1.31113e-05,0,-1.66932e-05,-7.71463e+08,-7.70374e+08,-7.71273e+08,-1.14515e+06,0.0420991,-0.310898,0,0.313736,-4537.64,-28095,-0,28459.1,1.14515e+06
step02_gravity_refstate-crust.xmf,279,-3.39316e-06,1.50982e-05,0,-1.79361e-05,-7.85223e+08,-7.83954e+08,-7.8499e+08,-1.23042e+06,0.0411465,-0.327151,0,0.329728,-4269.66,-28596.5,-0,28913.5,1.23042e+06
step02_gravity_refstate-crust.xmf,280,-9.42408e-07,1.211e-05,0,-1.93601e-05,-7.98431e+08,-7.97535e+08,-7.98366e+08,-1.3281e+06,0.0410402,-0.323051,0,0.325648,-4546.15,-29082.6,-0,29435.8,1.3281e+06
step02_gravity_refstate-crust.xmf,281,1.39088e-06,7.34031e-06,0,-1.77748e-05,-7.98748e+08,-7.9834e+08,-7.98843e+08,-1.21935e+06,0.040857,-0.300206,0,0.302974,-5114.09,-29096.2,-0,29542.2,1.21935e+06
step02_gravity_refstate-crust.xmf,282,2.86555e-06,4.03058e-06,0,-1.59262e-05,-7.9997e+08,-7.99891e+08,-8.00167e+08,-1.09254e+06,0.0393837,-0.277825,0,0.280603,-5702.7,-29141.6,-0,29694.3,1.09254e+06
step02_gravity_refstate-crust.xmf,283,3.782e-06,-1.33386e-06,0,-8.79565e-06,-7.63003e+08,-7.63354e+08,-7.63262e+08,-603382,0.0331742,-0.174856,0,0.177975,-9273.62,-27791.1,-0,29297.5,603382
step02_gravity_refstate-crust.xmf,284,3.61135e-06,-1.21574e-06,0,-8.46192e-06,-7.50686e+08,-7.51017e+08,-7.50934e+08,-580488,0.0335571,-0.166679,0,0.170023,-9680.56,-27342.2,-0,29005.3,580488
step02_gravity_refstate-crust.xmf,285,3.42647e-06,-1.8718e-06,0,-6.71418e-06,-7.40424e+08,-7.40788e+08,-7.40659e+08,-460593,0.0288861,-0.134123,0,0.137198,-11427.3,-26966.9,-0,29288.1,460593
step02_gravity_refstate-crust.xmf,286,1.38065e-06,-8.12422e-07,0,-2.45489e-06,-5.53102e+08,-5.53252e+08,-5.53197e+08,-168406,0.013657,-0.0015353,0,0.013743,-25236.3,-20140.6,-0,32288,168406
step02_gravity_refstate-crust.xmf,287,2.39438e-06,-1.55197e-06,0,-4.54726e-06,-6.55241e+08,-6.55512e+08,-6.55405e+08,-311942,0.023871,-0.0723546,0,0.0761906,-16280,-23862,-0,28886.6,311942
step02_gravity_refstate-crust.xmf,288,3.28648e-06,-2.06125e-06,0,-6.01113e-06,-7.3878e+08,-7.39147e+08,-7.39006e+08,-412364,0.0263251,-0.120277,0,0.123124,-12268.5,-26906.1,-0,29571.2,412364
step02_gravity_refstate-crust.xmf,289,1.03894e-06,-3.64553e-07,0,-1.29419e-06,-5.11344e+08,-5.1144e+08,-5.11415e+08,-88781.2,0.00744254,0.0289754,0,0.029916,-31855.5,-18619.6,-0,36898,88781.2
step02_gravity_refstate-crust.xmf,290,9.59323e-07,-2.68381e-07,0,-9.51394e-07,-5.11138e+08,-5.11222e+08,-5.11204e+08,-65265.6,0.00540738,0.0350002,0,0.0354155,-33909,-18612,-0,38681.1,65265.6
step02_gravity_refstate-crust.xmf,291,8.54887e-07,-5.62976e-08,0,-2.5309e-06,-1.96365e+08,-1.96428e+08,-1.96424e+08,-173620,0.0342059,-0.0330095,0,0.047536,-21542.9,-7152.25,-0,22699.2,173620
step02_gravity_refstate-crust.xmf,292,7.42291e-07,3.53345e-09,0,-3.03163e-06,-2.4138e+08,-2.41431e+08,-2.41431e+08,-207970,0.031789,-0.040638,0,0.0515945,-20520,-8790.68,-0,22323.7,207970
step02_gravity_refstate-crust.xmf,293,7.19567e-07,2.5329e-08,0,-3.48339e-06,-2.87015e+08,-2.87063e+08,-2.87065e+08,-238960,0.0301436,-0.0481258,0,0.0567866,-19574.8,-10452,-0,22190.4,238960
step02_gravity_refstate-crust.xmf,294,5.29177e-07,2.71829e-07,0,-4.20167e-06,-3.36242e+08,-3.36259e+08,-3.36278e+08,-288235,0.0302412,-0.0698476,0,0.0761132,-17043.8,-12243.8,-0,20985.7,288235
step02_gravity_refstate-crust.xmf,295,5.83465e-07,3.44214e-07,0,-4.58396e-06,-3.75087e+08,-3.75103e+08,-3.75127e+08,-314460,0.0302739,-0.0783518,0,0.0839971,-16155.1,-13658.3,-0,21155,314460
step02_gravity_refstate-crust.xmf,296,6.69166e-07,4.03591e-07,0,-4.93482e-06,-4.11856e+08,-4.11874e+08,-4.11902e+08,-338529,0.0306907,-0.0861203,0,0.0914255,-15392.4,-14997.4,-0,21490.6,338529
step02_gravity_refstate-crust.xmf,297,7.79785e-07,4.47148e-07,0,-5.25935e-06,-4.46085e+08,-4.46107e+08,-4.46138e+08,-360791,0.0313412,-0.0931525,0,0.0982835,-14743.4,-16244,-0,21937.1,360791
step02_gravity_refstate-crust.xmf,298,1.35373e-06,-3.01544e-07,0,-1.49933e-06,-1.12993e+08,-1.13107e+08,-1.13086e+08,-102854,0.0409086,-0.0198885,0,0.045487,-23512.2,-4118.64,-0,23870.2,102854
step02_gravity_refstate-crust.xmf,299,8.77505e-07,1.36731e-06,0,-7.03177e-06,-5.64151e+08,-5.64118e+08,-5.64211e+08,-482379,0.0363371,-0.138012,0,0.142716,-11204.8,-20544.2,-0,23401.1,482379
step02_gravity_refstate-crust.xmf,300,9.5726e-07,1.58322e-06,0,-7.49449e-06,-5.88646e+08,-5.88603e+08,-5.88711e+08,-514122,0.0374381,-0.147237,0,0.151922,-10633.5,-21436.6,-0,23929,514122
step02_gravity_refstate-crust.xmf,301,1.23822e-06,1.81842e-06,0,-8.45464e-06,-6.36217e+08,-6.36177e+08,-6.36302e+08,-579988,0.0393784,-0.164915,0,0.169551,-9673.95,-23169.9,-0,25108.4,579988
step02_gravity_refstate-crust.xmf,302,1.06028e-06,1.75652e-06,0,-7.9799e-06,-6.12704e+08,-6.12657e+08,-6.12777e+08,-547421,0.0384944,-0.156601,0,0.161263,-10099.9,-22313.1,-0,24492.5,547421
step02_gravity_refstate-crust.xmf,303,-2.26993e-06,1.14589e-05,0,-1.55116e-05,-7.57008e+08,-7.56066e+08,-7.56852e+08,-1.0641e+06,0.0426773,-0.29504,0,0.29811,-4836.7,-27568.2,-0,27989.3,1.0641e+06
step02_gravity_refstate-crust.xmf,304,8.50813e-07,2.98604e-06,0,-9.53045e-06,-6.59541e+08,-6.59394e+08,-6.59599e+08,-653789,0.0410595,-0.188058,0,0.192488,-8461.04,-24019.3,-0,25466,653789
step02_gravity_refstate-crust.xmf,305,9.74677e-07,3.2152e-06,0,-1.01706e-05,-6.79656e+08,-6.79503e+08,-6.79723e+08,-697704,0.0417929,-0.198155,0,0.202514,-8051.81,-24752.5,-0,26029.2,697704
step02_gravity_refstate-crust.xmf,306,-1.74863e-06,9.90671e-06,0,-1.44481e-05,-7.42629e+08,-7.41829e+08,-7.42509e+08,-991140,0.0430235,-0.279101,0,0.282398,-5194.67,-27044.4,-0,27538.8,991140
step02_gravity_refstate-crust.xmf,307,-1.26724e-06,8.51295e-06,0,-1.34617e-05,-7.28016e+08,-7.27345e+08,-7.27929e+08,-923475,0.0431396,-0.263423,0,0.266932,-5598.28,-26512.2,-0,27096.8,923475
step02_gravity_refstate-crust.xmf,308,-8.67198e-07,7.31802e-06,0,-1.25493e-05,-7.12973e+08,-7.12411e+08,-7.12913e+08,-860883,0.0430264,-0.248429,0,0.252127,-6029.23,-25964.3,-0,26655.1,860883
step02_gravity_refstate-crust.xmf,309,-5.58978e-07,6.31691e-06,0,-1.16943e-05,-6.96957e+08,-6.96485e+08,-6.96918e+08,-802228,0.0426981,-0.234064,0,0.237927,-6482.74,-25380.9,-0,26195.7,802228
step02_gravity_refstate-crust.xmf,310,-8.79311e-08,5.02557e-06,0,-1.08224e-05,-6.82099e+08,-6.81749e+08,-6.82093e+08,-742417,0.042299,-0.217681,0,0.221752,-7107.14,-24839.9,-0,25836.7,742417
step02_gravity_refstate-crust.xmf,311,5.53014e-07,1.05993e-06,0,-5.91855e-06,-4.80631e+08,-4.80597e+08,-4.80669e+08,-406012,0.0331858,-0.115114,0,0.119802,-12779.4,-17501.7,-0,21670.8,406012
step02_gravity_refstate-crust.xmf,312,2.97163e-07,1.7463e-06,0,-6.51745e-06,-5.12688e+08,-5.12588e+08,-5.12708e+08,-447097,0.0347527,-0.13443,0,0.138849,-11253.3,-18668.8,-0,21798.2,447097
step02_gravity_refstate-crust.xmf,313,-4.42337e-06,1.74745e-05,0,-1.92004e-05,-7.98665e+08,-7.97163e+08,-7.98361e+08,-1.31715e+06,0.0395884,-0.34509,0,0.347353,-4005.95,-29085.4,-0,29359.9,1.31715e+06
step02_gravity_refstate-crust.xmf,314,4.10526e-06,-1.029e-06,0,-1.02959e-05,-7.87087e+08,-7.87439e+08,-7.87369e+08,-706301,0.0333237,-0.202507,0,0.205231,-8085.95,-28669.7,-0,29788.2,706301
step02_gravity_refstate-crust.xmf,315,3.52137e-06,1.52192e-06,0,-1.32433e-05,-7.87181e+08,-7.87318e+08,-7.87423e+08,-908487,0.0385566,-0.242004,0,0.245056,-6715.13,-28674.7,-0,29450.5,908487
step02_gravity_refstate-crust.xmf,316,3.94611e-06,9.60751e-09,0,-1.16969e-05,-7.87559e+08,-7.87829e+08,-7.8783e+08,-802408,0.0360044,-0.221795,0,0.224699,-7387.11,-28687.9,-0,29623.7,802408
step02_gravity_refstate-crust.xmf,317,3.73765e-06,1.36947e-06,0,-1.39002e-05,-8.02805e+08,-8.02967e+08,-8.03061e+08,-953557,0.0365855,-0.254392,0,0.257009,-6364.17,-29244.2,-0,29928.6,953557
step02_gravity_refstate-crust.xmf,318,4.07813e-06,-1.873e-06,0,-8.80162e-06,-7.87311e+08,-7.8772e+08,-7.87591e+08,-603791,0.0298068,-0.181061,0,0.183498,-8942.35,-28676.5,-0,30038.4,603791
step02_gravity_refstate-crust.xmf,319,3.72078e-06,-1.85233e-06,0,-7.70152e-06,-7.61233e+08,-7.61616e+08,-7.61489e+08,-528324,0.0302494,-0.156797,0,0.159688,-10135.1,-27725.7,-0,29520,528324
step02_gravity_refstate-crust.xmf,320,3.52568e-06,-1.66704e-06,0,-7.37961e-06,-7.44716e+08,-7.45072e+08,-7.44957e+08,-506241,0.0308542,-0.14727,0,0.150468,-10680.5,-27123.8,-0,29150.9,506241
step02_gravity_refstate-crust.xmf,321,2.7069e-06,-1.64094e-06,0,-5.19115e-06,-6.80855e+08,-6.81153e+08,-6.81041e+08,-356113,0.0261357,-0.0915693,0,0.0952261,-14552.2,-24795.6,-0,28750.5,356113
step02_gravity_refstate-crust.xmf,322,1.77825e-06,-1.16199e-06,0,-3.33997e-06,-5.91288e+08,-5.9149e+08,-5.9141e+08,-229122,0.0183657,-0.0305933,0,0.0356827,-20971.4,-21531.8,-0,30056.9,229122
step02_gravity_refstate-crust.xmf,323,1.23558e-06,-6.84327e-07,0,-2.08677e-06,-5.54059e+08,-5.54191e+08,-5.54144e+08,-143153,0.0113121,0.00867436,0,0.0142551,-27007.8,-20175,-0,33711.3,143153
step02_gravity_refstate-crust.xmf,324,1.09159e-06,-5.46686e-07,0,-1.73303e-06,-5.56414e+08,-5.56527e+08,-5.56489e+08,-118886,0.0090821,0.0178501,0,0.0200277,-28854.3,-20260.4,-0,35257,118886
step02_gravity_refstate-crust.xmf,325,1.4152e-06,-9.28364e-07,0,-2.5027e-06,-5.90441e+08,-5.90602e+08,-5.90538e+08,-171686,0.0130336,-0.00583407,0,0.0142798,-24367.5,-21499.9,-0,32496.5,171686
step02_gravity_refstate-crust.xmf,326,1.59265e-06,-1.06122e-06,0,-2.88508e-06,-5.91265e+08,-5.91447e+08,-5.91374e+08,-197917,0.0154812,-0.0172593,0,0.0231852,-22698.2,-21530.4,-0,31285.2,197917
step02_gravity_refstate-crust.xmf,327,2.5595e-06,-1.74203e-06,0,-4.59611e-06,-6.82584e+08,-6.8288e+08,-6.8276e+08,-315293,0.0230501,-0.077718,0,0.0810642,-15671.3,-24857.8,-0,29385.4,315293
step02_gravity_refstate-crust.xmf,328,2.23816e-06,-1.57482e-06,0,-4.04569e-06,-6.55894e+08,-6.56155e+08,-6.56047e+08,-277534,0.0210242,-0.0593512,0,0.062965,-17487.5,-23885.1,-0,29602.6,277534
step02_gravity_refstate-crust.xmf,329,1.97171e-06,-1.3901e-06,0,-3.55664e-06,-6.32844e+08,-6.33075e+08,-6.32979e+08,-243986,0.0187111,-0.042106,0,0.0460762,-19407,-23045.1,-0,30128.3,243986
step02_gravity_refstate-crust.xmf,330,3.04434e-06,-2.1316e-06,0,-5.33884e-06,-7.32053e+08,-7.32408e+08,-7.32261e+08,-366245,0.0240769,-0.10538,0,0.108095,-13283.5,-26660.1,-0,29786.1,366245
step02_gravity_refstate-crust.xmf,331,2.86501e-06,-1.90335e-06,0,-5.19512e-06,-7.08328e+08,-7.08655e+08,-7.08524e+08,-356385,0.024905,-0.0970609,0,0.100205,-14001.4,-25796,-0,29350.9,356385
step02_gravity_refstate-crust.xmf,332,9.57248e-07,-4.07646e-07,0,-1.38841e-06,-5.57868e+08,-5.57961e+08,-5.57933e+08,-95245.2,0.00702889,0.0259752,0,0.0269094,-30822.3,-20313,-0,36913.8,95245.2
step02_gravity_refstate-crust.xmf,333,8.91208e-07,-1.96512e-07,0,-6.20108e-07,-5.12784e+08,-5.12858e+08,-5.12845e+08,-42539.4,0.00348471,0.0392795,0,0.0394337,-35959.1,-18671.7,-0,40517.8,42539.4
step02_gravity_refstate-crust.xmf,334,8.11104e-07,-1.38861e-07,0,-3.05373e-07,-5.25408e+08,-5.25473e+08,-5.25463e+08,-20948.6,0.00161726,0.0418578,0,0.041889,-37985.4,-19131.1,-0,42531.1,20948.6
step02_gravity_refstate-crust.xmf,335,4.65951e-07,2.31445e-07,0,-3.80436e-06,-2.94397e+08,-2.94414e+08,-2.94429e+08,-260979,0.0309101,-0.0627299,0,0.0699319,-17820,-10720.1,-0,20795.9,260979
step02_gravity_refstate-crust.xmf,336,4.76411e-07,8.80232e-07,0,-5.51135e-06,-4.47609e+08,-4.47582e+08,-4.47642e+08,-378079,0.0321516,-0.10622,0,0.11098,-13492.5,-16299,-0,21159,378079
step02_gravity_refstate-crust.xmf,337,6.62556e-07,1.55778e-08,0,-2.18055e-06,-1.48492e+08,-1.48536e+08,-1.48537e+08,-149586,0.0394844,-0.0396974,0,0.0559902,-20637.1,-5408.69,-0,21334.1,149586
step02_gravity_refstate-crust.xmf,338,9.6988e-07,-1.49014e-07,0,-1.54272e-06,-1.02331e+08,-1.02408e+08,-1.02398e+08,-105831,0.0444338,-0.0320416,0,0.0547816,-21723.4,-3729.16,-0,22041.2,105831
step02_gravity_refstate-crust.xmf,339,1.62841e-06,-4.63753e-07,0,-8.86348e-07,-6.0104e+07,-6.02475e+07,-6.02157e+07,-60803.5,0.0485925,-0.020053,0,0.0525676,-23600.4,-2194.01,-0,23702.2,60803.5
step02_gravity_refstate-crust.xmf,340,2.41619e-06,-9.15012e-07,0,-1.61279e-09,229599,1078.42,63848.3,-110.637,0.0576183,-0.0144345,0,0.0593988,-24778,0,-0,24778,110.637
step02_gravity_refstate-crust.xmf,341,3.07783e-07,2.00892e-06,0,-6.92155e-06,-5.37777e+08,-5.3766e+08,-5.37798e+08,-474818,0.0358202,-0.143254,0,0.147664,-10680,-19582.7,-0,22305.7,474818
step02_gravity_refstate-crust.xmf,342,6.85121e-07,2.84287e-06,0,-8.97026e-06,-6.38582e+08,-6.38434e+08,-6.38629e+08,-615360,0.0402538,-0.179564,0,0.18402,-8814.44,-23255.4,-0,24869.8,615360
step02_gravity_refstate-crust.xmf,343,3.37543e-07,1.48777e-06,0,-6.20932e-06,-4.92926e+08,-4.92848e+08,-4.9295e+08,-425960,0.03393,-0.126393,0,0.130868,-11836.3,-17949.2,-0,21500.5,425960
step02_gravity_refstate-crust.xmf,344,-4.44555e-06,1.49369e-05,0,-1.5186e-05,-7.57108e+08,-7.55778e+08,-7.56803e+08,-1.04176e+06,0.0406191,-0.313367,0,0.315989,-4222.29,-27568.4,-0,27889.9,1.04176e+06
step02_gravity_refstate-crust.xmf,345,-5.12503e-06,1.68603e-05,0,-1.60516e-05,-7.71166e+08,-7.69658e+08,-7.70814e+08,-1.10114e+06,0.0398866,-0.328825,0,0.331235,-3977.73,-28080.4,-0,28360.8,1.10114e+06
step02_gravity_refstate-crust.xmf,346,-6.0174e-06,1.90608e-05,0,-1.68267e-05,-7.85202e+08,-7.83481e+08,-7.84789e+08,-1.15431e+06,0.0386492,-0.345781,0,0.347934,-3737.81,-28591.2,-0,28834.5,1.15431e+06
step02_gravity_refstate-crust.xmf,347,-1.42974e-06,1.41224e-05,0,-2.12602e-05,-8.10597e+08,-8.0953e+08,-8.10499e+08,-1.45845e+06,0.0392112,-0.340913,0,0.34316,-4269,-29526.7,-0,29833.7,1.45845e+06
step02_gravity_refstate-crust.xmf,348,1.48245e-06,8.22311e-06,0,-1.91756e-05,-8.1111e+08,-8.10648e+08,-8.11212e+08,-1.31545e+06,0.039047,-0.316776,0,0.319174,-4803.45,-29548,-0,29935.9,1.31545e+06
step02_gravity_refstate-crust.xmf,349,3.67672e-06,2.08125e-06,0,-1.5154e-05,-8.14513e+08,-8.14622e+08,-8.14765e+08,-1.03957e+06,0.0352317,-0.272514,0,0.274782,-5886.25,-29671.3,-0,30249.5,1.03957e+06
step02_gravity_refstate-crust.xmf,350,3.00667e-06,4.50091e-06,0,-1.70088e-05,-8.12288e+08,-8.12186e+08,-8.12494e+08,-1.16681e+06,0.0375498,-0.293286,0,0.29568,-5357.93,-29591.3,-0,30072.4,1.16681e+06
step02_gravity_refstate-crust.xmf,351,3.88244e-06,-2.22305e-06,0,-7.72778e-06,-7.81942e+08,-7.82361e+08,-7.82209e+08,-530126,0.0277025,-0.162869,0,0.165208,-9769.12,-28479.7,-0,30108.6,530126
step02_gravity_refstate-crust.xmf,352,3.38624e-06,-2.36396e-06,0,-5.90952e-06,-7.61061e+08,-7.61456e+08,-7.61294e+08,-405393,0.023895,-0.123904,0,0.126187,-11935.8,-27717.2,-0,30177.9,405393
step02_gravity_refstate-crust.xmf,353,3.59823e-06,-2.19963e-06,0,-6.71687e-06,-7.61819e+08,-7.62217e+08,-7.62066e+08,-460777,0.0268477,-0.139381,0,0.141943,-11042.6,-27745.9,-0,29862.6,460777
step02_gravity_refstate-crust.xmf,354,1.23885e-06,-7.81509e-07,0,-2.14484e-06,-5.92006e+08,-5.92145e+08,-5.92091e+08,-147136,0.0107115,0.00450706,0,0.0116211,-26067.5,-21556.4,-0,33825.9,147136
step02_gravity_refstate-crust.xmf,355,2.3542e-06,-1.757e-06,0,-4.0632e-06,-6.83829e+08,-6.84111e+08,-6.83991e+08,-278735,0.0201098,-0.0646541,0,0.0677094,-16824.3,-24902.3,-0,30053,278735
step02_gravity_refstate-crust.xmf,356,1.81227e-06,-1.29256e-06,0,-3.22681e-06,-6.26616e+08,-6.26829e+08,-6.2674e+08,-221360,0.0167657,-0.0315243,0,0.0357053,-20666.6,-22817.9,-0,30785.8,221360
step02_gravity_refstate-crust.xmf,357,2.05877e-06,-1.5378e-06,0,-3.59573e-06,-6.57692e+08,-6.57939e+08,-6.57833e+08,-246667,0.0182458,-0.0471745,0,0.0505801,-18714.2,-23949.9,-0,30394.4,246667
step02_gravity_refstate-crust.xmf,358,3.14163e-06,-2.41632e-06,0,-5.22003e-06,-7.60184e+08,-7.60565e+08,-7.60399e+08,-358094,0.0210865,-0.109436,0,0.111449,-12853.5,-27684.2,-0,30522.6,358094
step02_gravity_refstate-crust.xmf,359,8.41778e-07,-2.82098e-07,0,-1.05526e-06,-5.59109e+08,-5.59187e+08,-5.59167e+08,-72391,0.00516533,0.0326886,0,0.0330942,-32868.1,-20357.9,-0,38662.1,72391
step02_gravity_refstate-crust.xmf,360,7.50343e-07,-1.8371e-07,0,-7.45864e-07,-5.61459e+08,-5.61523e+08,-5.6151e+08,-51166.2,0.00353199,0.0375895,0,0.0377551,-34865.1,-20443.2,-0,40416.6,51166.2
step02_gravity_refstate-crust.xmf,361,7.17147e-07,-9.89889e-08,0,-2.96285e-09,-5.4641e+08,-5.46466e+08,-5.46459e+08,-203.251,2.2825e-19,0.0427644,0,0.0427644,-40000,-19895.3,-0,44674.6,203.251
step02_gravity_refstate-crust.xmf,362,4.76752e-07,1.35537e-07,0,-2.77951e-06,-1.95219e+08,-1.95243e+08,-1.95252e+08,-190674,0.0356346,-0.04812,0,0.0598778,-19538.3,-7109.29,-0,20791.5,190674
step02_gravity_refstate-crust.xmf,363,3.76375e-07,2.40973e-07,0,-3.35924e-06,-2.43844e+08,-2.43853e+08,-2.4387e+08,-230444,0.0328621,-0.0579405,0,0.066611,-18343.8,-8879.28,-0,20379.8,230444
step02_gravity_refstate-crust.xmf,364,1.91598e-07,4.95439e-07,0,-4.06588e-06,-3.00806e+08,-3.00785e+08,-3.00819e+08,-278919,0.031262,-0.0767423,0,0.0828655,-16206.2,-10952.7,-0,19560.2,278919
step02_gravity_refstate-crust.xmf,365,2.2628e-07,6.01366e-07,0,-4.45042e-06,-3.38836e+08,-3.3881e+08,-3.38852e+08,-305299,0.0308233,-0.084557,0,0.0899998,-15414.6,-12337.5,-0,19744,305299
step02_gravity_refstate-crust.xmf,366,2.74347e-07,7.24627e-07,0,-4.82994e-06,-3.76783e+08,-3.76753e+08,-3.76802e+08,-331334,0.0309279,-0.0927529,0,0.0977734,-14632,-13719.4,-0,20057.9,331334
step02_gravity_refstate-crust.xmf,367,3.73934e-07,8.05911e-07,0,-5.18042e-06,-4.1372e+08,-4.13691e+08,-4.13746e+08,-355377,0.031415,-0.0996348,0,0.10447,-14032.4,-15064.7,-0,20587.6,355377
step02_gravity_refstate-crust.xmf,368,3.08922e-07,2.27421e-06,0,-7.36084e-06,-5.62627e+08,-5.62492e+08,-5.62648e+08,-504954,0.0369407,-0.152767,0,0.15717,-10106.3,-20487.8,-0,22844.8,504954
step02_gravity_refstate-crust.xmf,369,3.24783e-07,2.62561e-06,0,-7.87678e-06,-5.8734e+08,-5.87182e+08,-5.87362e+08,-540347,0.0380844,-0.162668,0,0.167067,-9560.82,-21388.1,-0,23427.7,540347
step02_gravity_refstate-crust.xmf,370,3.56362e-07,2.9613e-06,0,-8.4548e-06,-6.12699e+08,-6.1252e+08,-6.12723e+08,-579999,0.0392583,-0.173293,0,0.177684,-9029.73,-22311.9,-0,24069.9,579999
step02_gravity_refstate-crust.xmf,371,-3.72362e-06,1.30459e-05,0,-1.43248e-05,-7.42389e+08,-7.41239e+08,-7.42134e+08,-982685,0.0412146,-0.29711,0,0.299955,-4536.85,-27032.6,-0,27410.6,982685
step02_gravity_refstate-crust.xmf,372,-3.81775e-08,4.08011e-06,0,-9.37322e-06,-6.39319e+08,-6.39037e+08,-6.39317e+08,-643003,0.0405471,-0.193877,0,0.198071,-7991.47,-23281.2,-0,24614.6,643003
step02_gravity_refstate-crust.xmf,373,-1.57706e-08,4.48382e-06,0,-1.00349e-05,-6.59886e+08,-6.59577e+08,-6.59885e+08,-688394,0.0414339,-0.204384,0,0.208542,-7587.38,-24030.7,-0,25200,688394
step02_gravity_refstate-crust.xmf,374,-3.03169e-06,1.12905e-05,0,-1.34581e-05,-7.27037e+08,-7.26054e+08,-7.26829e+08,-923224,0.0416089,-0.280672,0,0.283739,-4908.6,-26473.7,-0,26924.9,923224
step02_gravity_refstate-crust.xmf,375,-2.42241e-06,9.74923e-06,0,-1.26235e-05,-7.11349e+08,-7.10514e+08,-7.11183e+08,-865971,0.0417707,-0.264783,0,0.268057,-5317.88,-25902.7,-0,26442.9,865971
step02_gravity_refstate-crust.xmf,376,-1.93566e-06,8.44064e-06,0,-1.17925e-05,-6.94505e+08,-6.93793e+08,-6.94372e+08,-808965,0.0416468,-0.249552,0,0.253003,-5747.87,-25289.4,-0,25934.4,808965
step02_gravity_refstate-crust.xmf,377,-1.62774e-06,7.45358e-06,0,-1.10097e-05,-6.76801e+08,-6.76178e+08,-6.76689e+08,-755267,0.041224,-0.236085,0,0.239657,-6148.51,-24644.6,-0,25400,755267
step02_gravity_refstate-crust.xmf,378,9.05813e-08,1.42493e-06,0,-5.67556e-06,-4.43826e+08,-4.43734e+08,-4.43832e+08,-389343,0.0324088,-0.11866,0,0.123006,-12301.2,-16160.5,-0,20309.6,389343
step02_gravity_refstate-crust.xmf,379,2.59224e-08,1.72971e-06,0,-6.00835e-06,-4.68684e+08,-4.68567e+08,-4.68686e+08,-412173,0.0331968,-0.127854,0,0.132093,-11582.2,-17065.7,-0,20624.9,412173
step02_gravity_refstate-crust.xmf,380,-1.10153e-07,2.13318e-06,0,-6.34058e-06,-4.90488e+08,-4.90334e+08,-4.90481e+08,-434964,0.0339599,-0.13807,0,0.142185,-10812.8,-17859.6,-0,20877.7,434964
step02_gravity_refstate-crust.xmf,381,-2.07921e-07,2.52287e-06,0,-6.70624e-06,-5.13636e+08,-5.13449e+08,-5.13622e+08,-460048,0.0348382,-0.147622,0,0.151677,-10170.3,-18702.5,-0,21288.9,460048
step02_gravity_refstate-crust.xmf,382,-7.06983e-06,2.22968e-05,0,-1.70134e-05,-7.99124e+08,-7.9711e+08,-7.98639e+08,-1.16712e+06,0.036613,-0.364807,0,0.36664,-3491.85,-29098.8,-0,29307.6,1.16712e+06
step02_gravity_refstate-crust.xmf,383,-5.77412e-06,2.1836e-05,0,-1.92434e-05,-8.11472e+08,-8.09578e+08,-8.11076e+08,-1.3201e+06,0.0371697,-0.364797,0,0.366686,-3749.22,-29552.9,-0,29789.8,1.3201e+06
step02_gravity_refstate-crust.xmf,384,3.91119e-06,7.91201e-07,0,-1.38487e-05,-8.15204e+08,-8.15418e+08,-8.15472e+08,-950022,0.0334652,-0.257073,0,0.259242,-6302.35,-29695.4,-0,30356.8,950022
step02_gravity_refstate-crust.xmf,385,1.18113e-06,9.61469e-06,0,-2.06038e-05,-8.19965e+08,-8.19387e+08,-8.20046e+08,-1.41342e+06,0.0371068,-0.33308,0,0.33514,-4517.7,-29871.3,-0,30211,1.41342e+06
step02_gravity_refstate-crust.xmf,386,4.22828e-06,-2.099e-06,0,-9.2505e-06,-8.05223e+08,-8.05657e+08,-8.05513e+08,-634585,0.0276085,-0.193156,0,0.195119,-8403.47,-29328.8,-0,30509,634585
step02_gravity_refstate-crust.xmf,387,4.29265e-06,-1.34867e-06,0,-1.06268e-05,-8.04534e+08,-8.04921e+08,-8.04828e+08,-729000,0.0307287,-0.212279,0,0.214492,-7703.61,-29305.1,-0,30300.8,729000
step02_gravity_refstate-crust.xmf,388,4.18895e-06,-2.59752e-07,0,-1.21458e-05,-8.03557e+08,-8.03862e+08,-8.03844e+08,-833204,0.0337288,-0.232044,0,0.234482,-7044.72,-29270.8,-0,30106.6,833204
step02_gravity_refstate-crust.xmf,389,3.92158e-06,-2.52285e-06,0,-7.6557e-06,-7.98473e+08,-7.98915e+08,-7.98742e+08,-525181,0.024815,-0.166646,0,0.168483,-9530.64,-29081.2,-0,30603.1,525181
step02_gravity_refstate-crust.xmf,390,2.69328e-06,-1.95337e-06,0,-4.60996e-06,-7.09246e+08,-7.09565e+08,-7.09431e+08,-316243,0.0218477,-0.0832082,0,0.0860286,-15068.2,-25828.7,-0,29902.7,316243
step02_gravity_refstate-crust.xmf,391,1.64033e-06,-1.18771e-06,0,-2.87788e-06,-6.26312e+08,-6.26506e+08,-6.26425e+08,-197423,0.0145075,-0.0210256,0,0.0255449,-21996.6,-22806.3,-0,31685.6,197423
step02_gravity_refstate-crust.xmf,392,1.04839e-06,-6.17041e-07,0,-1.77582e-06,-5.98518e+08,-5.98632e+08,-5.9859e+08,-121821,0.00828318,0.0144127,0,0.0166234,-27929.1,-21792.9,-0,35425.5,121821
step02_gravity_refstate-crust.xmf,393,8.85393e-07,-4.57007e-07,0,-1.45418e-06,-6.0241e+08,-6.02502e+08,-6.02471e+08,-99757,0.00633898,0.0226553,0,0.0235254,-29780.8,-21934.2,-0,36986.6,99757
step02_gravity_refstate-crust.xmf,394,1.25682e-06,-8.88538e-07,0,-2.19586e-06,-6.26865e+08,-6.27012e+08,-6.26951e+08,-150636,0.0100527,-0.000193878,0,0.0100545,-25079.5,-22825.3,-0,33911.3,150636
step02_gravity_refstate-crust.xmf,395,1.44134e-06,-1.0422e-06,0,-2.51344e-06,-6.26247e+08,-6.26417e+08,-6.26346e+08,-172422,0.0121241,-0.00988343,0,0.0156421,-23559.4,-22803.4,-0,32787.8,172422
step02_gravity_refstate-crust.xmf,396,2.46733e-06,-1.93412e-06,0,-4.07541e-06,-7.106e+08,-7.10902e+08,-7.10769e+08,-279573,0.0188633,-0.0700474,0,0.0725428,-16173.5,-25877.1,-0,30515.7,279573
step02_gravity_refstate-crust.xmf,397,2.13711e-06,-1.69926e-06,0,-3.58656e-06,-6.86112e+08,-6.86375e+08,-6.86258e+08,-246038,0.0171619,-0.0520008,0,0.0547596,-18039.9,-24984.6,-0,30816.7,246038
step02_gravity_refstate-crust.xmf,398,1.87001e-06,-1.44192e-06,0,-3.19093e-06,-6.59898e+08,-6.60126e+08,-6.60027e+08,-218898,0.0155387,-0.0354277,0,0.0386856,-20007.5,-24029.6,-0,31268.6,218898
step02_gravity_refstate-crust.xmf,399,2.77306e-06,-2.18447e-06,0,-4.58735e-06,-7.34807e+08,-7.35147e+08,-7.34997e+08,-314692,0.0202556,-0.088914,0,0.0911921,-14467.8,-26759.2,-0,30419.9,314692
step02_gravity_refstate-crust.xmf,400,2.82419e-06,-2.40132e-06,0,-4.56213e-06,-7.5948e+08,-7.59838e+08,-7.59674e+08,-312962,0.018174,-0.0947747,0,0.0965015,-13876.1,-27657.3,-0,30943.1,312962
step02_gravity_refstate-crust.xmf,401,7.37705e-07,-3.0288e-07,0,-1.13669e-06,-6.04716e+08,-6.04787e+08,-6.04766e+08,-77977,0.00463699,0.0299298,0,0.0302869,-31794.3,-22017.8,-0,38673.8,77977
step02_gravity_refstate-crust.xmf,402,7.1076e-07,-1.28864e-07,0,-4.94106e-07,-5.58076e+08,-5.58134e+08,-5.58125e+08,-33895.7,0.00233947,0.0404853,0,0.0405529,-36581.5,-20320,-0,41846.2,33895.7
step02_gravity_refstate-crust.xmf,403,5.87556e-07,-6.36833e-08,0,-2.62936e-07,-5.81816e+08,-5.81861e+08,-5.81856e+08,-18037.4,0.00108594,0.0421773,0,0.0421912,-38128.7,-21183.9,-0,43618.3,18037.4
step02_gravity_refstate-crust.xmf,404,1.66918e-07,4.24052e-07,0,-3.71955e-06,-2.6692e+08,-2.66902e+08,-2.66931e+08,-255161,0.0321902,-0.0705387,0,0.0775366,-16861.8,-9718.82,-0,19462.2,255161
step02_gravity_refstate-crust.xmf,405,1.04933e-07,1.19776e-06,0,-5.36692e-06,-4.18194e+08,-4.18119e+08,-4.18201e+08,-368170,0.0317464,-0.110846,0,0.115302,-12937.5,-15227,-0,19981,368170
step02_gravity_refstate-crust.xmf,406,2.11126e-07,2.19941e-07,0,-2.3418e-06,-1.46343e+08,-1.46342e+08,-1.46357e+08,-160648,0.0405627,-0.0541647,0,0.0676694,-18715.4,-5328.95,-0,19459.3,160648
step02_gravity_refstate-crust.xmf,407,5.00727e-07,3.43491e-08,0,-1.64184e-06,-9.88047e+07,-9.88367e+07,-9.88391e+07,-112630,0.0462888,-0.0450739,0,0.0646089,-19899.3,-3599.16,-0,20222.2,112630
step02_gravity_refstate-crust.xmf,408,1.03045e-06,-2.57291e-07,0,-8.37607e-07,-4.88999e+07,-4.89882e+07,-4.89706e+07,-57459.9,0.0536558,-0.035363,0,0.0642611,-21300.3,-1784.02,-0,21374.9,57459.9
step02_gravity_refstate-crust.xmf,409,1.72299e-06,-6.52727e-07,0,-7.62388e-09,163718,743.508,45520.6,-522.998,0.0623308,-0.0282015,0,0.0684138,-22506.7,0,-0,22506.7,522.998
step02_gravity_refstate-crust.xmf,410,-2.93854e-07,2.92343e-06,0,-7.11035e-06,-5.37077e+08,-5.36856e+08,-5.37056e+08,-487770,0.0357963,-0.157119,0,0.161145,-9593.91,-19556.1,-0,21782.7,487770
step02_gravity_refstate-crust.xmf,411,-5.62054e-08,3.78212e-06,0,-8.88896e-06,-6.22289e+08,-6.22025e+08,-6.22285e+08,-609783,0.0397747,-0.185984,0,0.190189,-8314.25,-22660.7,-0,24137.8,609783
step02_gravity_refstate-crust.xmf,412,-1.20269e-06,6.26724e-06,0,-1.0251e-05,-6.5911e+08,-6.58597e+08,-6.59027e+08,-703217,0.0408563,-0.22113,0,0.224873,-6690.88,-24000.4,-0,24915.6,703217
step02_gravity_refstate-crust.xmf,413,-7.14003e-06,2.00107e-05,0,-1.46313e-05,-7.70443e+08,-7.6858e+08,-7.69953e+08,-1.00371e+06,0.0366581,-0.344016,0,0.345963,-3454.27,-28050.8,-0,28262.7,1.00371e+06
step02_gravity_refstate-crust.xmf,414,-5.77961e-06,1.62325e-05,0,-1.35217e-05,-7.4258e+08,-7.4107e+08,-7.42183e+08,-927590,0.038109,-0.314375,0,0.316676,-3881.13,-27036.1,-0,27313.3,927590
step02_gravity_refstate-crust.xmf,415,-6.45645e-06,1.80745e-05,0,-1.41226e-05,-7.5695e+08,-7.55267e+08,-7.56507e+08,-968808,0.0374967,-0.329272,0,0.3314,-3651.16,-27559.4,-0,27800.2,968808
step02_gravity_refstate-crust.xmf,416,-8.00499e-06,2.25675e-05,0,-1.49274e-05,-7.85984e+08,-7.83886e+08,-7.85434e+08,-1.02402e+06,0.0350562,-0.362721,0,0.364411,-3225.98,-28617.1,-0,28798.3,1.02402e+06
step02_gravity_refstate-crust.xmf,417,-2.17838e-06,1.73862e-05,0,-2.2873e-05,-8.23543e+08,-8.222e+08,-8.23393e+08,-1.56909e+06,0.0361086,-0.362472,0,0.364266,-4000,-30000,-0,30265.5,1.56909e+06
step02_gravity_refstate-crust.xmf,418,4.25063e-06,-5.24783e-07,0,-1.25261e-05,-8.18891e+08,-8.19218e+08,-8.19182e+08,-859292,0.0305577,-0.241947,0,0.243869,-6735.07,-29828.9,-0,30579.8,859292
step02_gravity_refstate-crust.xmf,419,3.94042e-06,3.54508e-07,0,-1.39236e-05,-8.25997e+08,-8.26243e+08,-8.26268e+08,-955157,0.0303398,-0.261744,0,0.263496,-6182.08,-30087.8,-0,30716.3,955157
step02_gravity_refstate-crust.xmf,420,2.4711e-06,5.38004e-06,0,-1.82097e-05,-8.25548e+08,-8.25348e+08,-8.25717e+08,-1.24919e+06,0.0343632,-0.311884,0,0.313771,-4989.14,-30073.2,-0,30484.3,1.24919e+06
step02_gravity_refstate-crust.xmf,421,3.44039e-06,2.23972e-06,0,-1.58324e-05,-8.26479e+08,-8.26562e+08,-8.26715e+08,-1.08611e+06,0.032248,-0.284734,0,0.286554,-5605.29,-30106.2,-0,30623.6,1.08611e+06
step02_gravity_refstate-crust.xmf,422,4.05539e-06,-2.53358e-06,0,-8.17354e-06,-8.06306e+08,-8.06758e+08,-8.06584e+08,-560705,0.0247007,-0.177158,0,0.178872,-9042.78,-29366.9,-0,30727.6,560705
step02_gravity_refstate-crust.xmf,423,3.68315e-06,-2.51947e-06,0,-6.74679e-06,-7.82286e+08,-7.82712e+08,-7.82539e+08,-462830,0.0245512,-0.14626,0,0.148306,-10584.4,-28490.9,-0,30393.5,462830
step02_gravity_refstate-crust.xmf,424,3.71119e-06,-2.82386e-06,0,-6.7834e-06,-8.02423e+08,-8.02872e+08,-8.02678e+08,-465341,0.0215475,-0.153507,0,0.155012,-10125.9,-29223.7,-0,30928.2,465341
step02_gravity_refstate-crust.xmf,425,3.15112e-06,-2.6673e-06,0,-5.14685e-06,-7.83222e+08,-7.83621e+08,-7.83438e+08,-353074,0.0182519,-0.11463,0,0.116074,-12381.6,-28522.6,-0,31094.1,353074
step02_gravity_refstate-crust.xmf,426,3.46134e-06,-2.63974e-06,0,-5.90989e-06,-7.82418e+08,-7.82836e+08,-7.82655e+08,-405418,0.021424,-0.130112,0,0.131864,-11459,-28494.6,-0,30712.4,405418
step02_gravity_refstate-crust.xmf,427,1.06072e-06,-7.18975e-07,0,-1.87417e-06,-6.30723e+08,-6.30845e+08,-6.30796e+08,-128568,0.00793535,0.0091781,0,0.0121329,-26730.9,-22965.3,-0,35241.3,128568
step02_gravity_refstate-crust.xmf,428,2.1993e-06,-1.8532e-06,0,-3.58772e-06,-7.11525e+08,-7.11803e+08,-7.11676e+08,-246118,0.0159983,-0.0571878,0,0.0593834,-17361.2,-25909.8,-0,31188.6,246118
step02_gravity_refstate-crust.xmf,429,1.66236e-06,-1.31017e-06,0,-2.82866e-06,-6.60388e+08,-6.60592e+08,-6.60502e+08,-194046,0.013136,-0.0243741,0,0.0276885,-21357.6,-24046.8,-0,32162,194046
step02_gravity_refstate-crust.xmf,430,1.90351e-06,-1.59229e-06,0,-3.16113e-06,-6.89666e+08,-6.89906e+08,-6.89797e+08,-216853,0.0143052,-0.0401043,0,0.0425792,-19286.6,-25113.2,-0,31664.6,216853
step02_gravity_refstate-crust.xmf,431,2.82868e-06,-2.60236e-06,0,-4.50706e-06,-7.83784e+08,-7.84157e+08,-7.83978e+08,-309185,0.0153153,-0.100105,0,0.10127,-13339.6,-28541.9,-0,31505.3,309185
step02_gravity_refstate-crust.xmf,432,6.17005e-07,-1.7422e-07,0,-8.3709e-07,-6.07224e+08,-6.07278e+08,-6.07266e+08,-57424.4,0.00320019,0.0355982,0,0.0357417,-33828,-22108.8,-0,40412.1,57424.4
step02_gravity_refstate-crust.xmf,433,5.10497e-07,-7.14374e-08,0,-5.14571e-07,-6.11262e+08,-6.11302e+08,-6.11297e+08,-35299.6,0.00184675,0.0399877,0,0.0400303,-36096.6,-22255.6,-0,42406.1,35299.6
step02_gravity_refstate-crust.xmf,434,4.62948e-07,-5.26716e-09,0,-3.12285e-09,-6.08999e+08,-6.09032e+08,-6.09031e+08,-214.228,1.36711e-19,0.0428829,0,0.0428829,-40000,-22173.1,-0,45734.5,214.228
step02_gravity_refstate-crust.xmf,435,5.11571e-08,3.64524e-07,0,-2.94186e-06,-1.91249e+08,-1.91228e+08,-1.91253e+08,-201812,0.0364617,-0.0633775,0,0.0731175,-17600.8,-6963.39,-0,18928.2,201812
step02_gravity_refstate-crust.xmf,436,-5.4952e-08,5.07304e-07,0,-3.42658e-06,-2.30342e+08,-2.30303e+08,-2.30338e+08,-235064,0.0338791,-0.0727928,0,0.0802906,-16520,-8386.4,-0,18526.8,235064
step02_gravity_refstate-crust.xmf,437,-1.33834e-07,6.66841e-07,0,-3.83797e-06,-2.65541e+08,-2.65486e+08,-2.65531e+08,-263284,0.0322629,-0.0822664,0,0.0883666,-15482.5,-9667.76,-0,18253,263284
step02_gravity_refstate-crust.xmf,438,-1.44233e-07,8.23654e-07,0,-4.23024e-06,-3.0254e+08,-3.02473e+08,-3.0253e+08,-290195,0.031267,-0.0905668,0,0.0958121,-14641.5,-11015,-0,18322.2,290195
step02_gravity_refstate-crust.xmf,439,-1.3296e-07,1.00447e-06,0,-4.61639e-06,-3.40209e+08,-3.40131e+08,-3.402e+08,-316685,0.0308912,-0.0989273,0,0.103638,-13850.7,-12386.7,-0,18581.5,316685
step02_gravity_refstate-crust.xmf,440,-1.1424e-07,1.24497e-06,0,-5.04979e-06,-3.81995e+08,-3.81902e+08,-3.81988e+08,-346416,0.0311093,-0.108556,0,0.112926,-13006.8,-13908.4,-0,19042.6,346416
step02_gravity_refstate-crust.xmf,441,-2.89915e-07,1.66876e-06,0,-5.38435e-06,-4.10134e+08,-4.1e+08,-4.10115e+08,-369366,0.0314604,-0.121017,0,0.125039,-11888.6,-14932.8,-0,19087.4,369366
step02_gravity_refstate-crust.xmf,442,-3.77413e-07,3.31635e-06,0,-7.56571e-06,-5.61409e+08,-5.61156e+08,-5.61383e+08,-519008,0.036848,-0.167201,0,0.171214,-9040.83,-20442.3,-0,22352.3,519008
step02_gravity_refstate-crust.xmf,443,-4.30901e-07,3.78812e-06,0,-8.09807e-06,-5.85705e+08,-5.85416e+08,-5.85676e+08,-555528,0.0379531,-0.177221,0,0.181239,-8554.37,-21327.3,-0,22978.9,555528
step02_gravity_refstate-crust.xmf,444,-4.93005e-06,1.42081e-05,0,-1.29173e-05,-7.27005e+08,-7.25692e+08,-7.26667e+08,-886127,0.0388502,-0.297604,0,0.300129,-4216.67,-26469.4,-0,26803.2,886127
step02_gravity_refstate-crust.xmf,445,-4.49304e-07,4.08003e-06,0,-8.53175e-06,-6.05063e+08,-6.04752e+08,-6.05032e+08,-585278,0.0388611,-0.185219,0,0.189252,-8207.71,-22032.4,-0,23511.6,585278
step02_gravity_refstate-crust.xmf,446,-9.25325e-07,5.0174e-06,0,-8.92441e-06,-6.15787e+08,-6.15379e+08,-6.15723e+08,-612214,0.0390218,-0.197732,0,0.201546,-7527.88,-22422.4,-0,23652.3,612214
step02_gravity_refstate-crust.xmf,447,-9.96705e-07,5.59434e-06,0,-9.59696e-06,-6.38814e+08,-6.38362e+08,-6.38746e+08,-658352,0.0400663,-0.208939,0,0.212746,-7123.1,-23261.3,-0,24327.5,658352
step02_gravity_refstate-crust.xmf,448,-4.16428e-06,1.24015e-05,0,-1.22611e-05,-7.10836e+08,-7.09699e+08,-7.1055e+08,-841111,0.0393261,-0.281308,0,0.284044,-4587.26,-25881,-0,26284.4,841111
step02_gravity_refstate-crust.xmf,449,-3.50074e-06,1.08283e-05,0,-1.15926e-05,-6.94244e+08,-6.93261e+08,-6.94004e+08,-795253,0.0395451,-0.265815,0,0.268741,-4982.36,-25277.3,-0,25763.6,795253
step02_gravity_refstate-crust.xmf,450,-2.97191e-06,9.49023e-06,0,-1.08841e-05,-6.76199e+08,-6.75345e+08,-6.75996e+08,-746648,0.03942,-0.251069,0,0.254144,-5384.53,-24620.4,-0,25202.3,746648
step02_gravity_refstate-crust.xmf,451,-2.47766e-06,8.27107e-06,0,-1.023e-05,-6.57918e+08,-6.5718e+08,-6.57748e+08,-701777,0.0392011,-0.23679,0,0.240013,-5830.41,-23954.9,-0,24654.3,701777
step02_gravity_refstate-crust.xmf,452,-3.79551e-07,2.02645e-06,0,-5.71726e-06,-4.38433e+08,-4.38268e+08,-4.38407e+08,-392204,0.0320715,-0.130649,0,0.134528,-11130.8,-15963.2,-0,19460.7,392204
step02_gravity_refstate-crust.xmf,453,-5.18265e-07,2.46418e-06,0,-6.0584e-06,-4.65013e+08,-4.64809e+08,-4.64978e+08,-415606,0.0327579,-0.140951,0,0.144707,-10367.2,-16931,-0,19852.9,415606
step02_gravity_refstate-crust.xmf,454,-6.79088e-07,2.94621e-06,0,-6.40696e-06,-4.89987e+08,-4.89738e+08,-4.8994e+08,-439517,0.0334859,-0.151202,0,0.154866,-9667.29,-17840.3,-0,20291.2,439517
step02_gravity_refstate-crust.xmf,455,-8.37165e-07,3.42333e-06,0,-6.74939e-06,-5.12358e+08,-5.12066e+08,-5.123e+08,-463008,0.0342026,-0.16065,0,0.164251,-9079.1,-18654.8,-0,20746.9,463008
step02_gravity_refstate-crust.xmf,456,-8.70245e-06,2.27265e-05,0,-1.31108e-05,-7.73807e+08,-7.71651e+08,-7.7321e+08,-899402,0.0328485,-0.359908,0,0.361404,-2964.41,-28171.2,-0,28326.7,899402
step02_gravity_refstate-crust.xmf,457,-8.69468e-06,2.53678e-05,0,-1.45318e-05,-7.99616e+08,-7.97279e+08,-7.99019e+08,-996878,0.0325952,-0.381956,0,0.383344,-2985.59,-29114.9,-0,29267.6,996878
step02_gravity_refstate-crust.xmf,458,-7.66235e-06,2.53371e-05,0,-1.64971e-05,-8.11832e+08,-8.09568e+08,-8.11307e+08,-1.1317e+06,0.03375,-0.384674,0,0.386152,-3246.26,-29563.8,-0,29741.5,1.1317e+06
step02_gravity_refstate-crust.xmf,459,-6.21756e-06,2.51256e-05,0,-1.89411e-05,-8.23662e+08,-8.21512e+08,-8.23236e+08,-1.29936e+06,0.033949,-0.385902,0,0.387392,-3497.18,-30000,-0,30203.2,1.29936e+06
step02_gravity_refstate-crust.xmf,460,1.5988e-07,9.36979e-06,0,-2.04536e-05,-8.3183e+08,-8.31198e+08,-8.31841e+08,-1.40311e+06,0.0325159,-0.339482,0,0.341036,-4471.65,-30298.7,-0,30626.9,1.40311e+06
step02_gravity_refstate-crust.xmf,461,3.7636e-06,-3.0169e-06,0,-7.08165e-06,-8.18763e+08,-8.19228e+08,-8.19021e+08,-485801,0.0191039,-0.163736,0,0.164847,-9569.61,-29818.4,-0,31316.4,485801
step02_gravity_refstate-crust.xmf,462,3.99462e-06,-2.84025e-06,0,-8.16764e-06,-8.22069e+08,-8.22538e+08,-8.22343e+08,-560300,0.0211948,-0.182674,0,0.183899,-8754.58,-29940,-0,31193.7,560300
step02_gravity_refstate-crust.xmf,463,4.19909e-06,-2.4098e-06,0,-9.42367e-06,-8.21903e+08,-8.22356e+08,-8.22191e+08,-646464,0.0241044,-0.201445,0,0.202882,-8044.99,-29935.5,-0,30997.6,646464
step02_gravity_refstate-crust.xmf,464,4.30163e-06,-1.69566e-06,0,-1.08499e-05,-8.21052e+08,-8.21463e+08,-8.21347e+08,-744300,0.0271479,-0.220937,0,0.222599,-7381.76,-29906,-0,30803.5,744300
step02_gravity_refstate-crust.xmf,465,2.52796e-06,-2.11642e-06,0,-4.04588e-06,-7.3568e+08,-7.35998e+08,-7.35853e+08,-277548,0.0172115,-0.0750961,0,0.0770432,-15577,-26790.1,-0,30989.5,277548
step02_gravity_refstate-crust.xmf,466,1.45247e-06,-1.15473e-06,0,-2.49668e-06,-6.61399e+08,-6.61578e+08,-6.61499e+08,-171272,0.0108945,-0.013964,0,0.0177111,-22761.2,-24083,-0,33137,171272
step02_gravity_refstate-crust.xmf,467,6.3485e-07,-3.25228e-07,0,-1.19064e-06,-6.48999e+08,-6.49065e+08,-6.49042e+08,-81678.1,0.00373917,0.0268601,0,0.0271191,-30723.9,-23629.5,-0,38759.6,81678.1
step02_gravity_refstate-crust.xmf,468,8.19967e-07,-5.21571e-07,0,-1.50854e-06,-6.474e+08,-6.47493e+08,-6.47457e+08,-103486,0.00535153,0.0184052,0,0.0191674,-28577.1,-23571.8,-0,37044.3,103486
step02_gravity_refstate-crust.xmf,469,1.05604e-06,-8.08394e-07,0,-1.91516e-06,-6.6278e+08,-6.62908e+08,-6.62852e+08,-131380,0.00711894,0.0047045,0,0.00853297,-25735.7,-24132.2,-0,35280.2,131380
step02_gravity_refstate-crust.xmf,470,1.24748e-06,-9.8274e-07,0,-2.19186e-06,-6.61959e+08,-6.62112e+08,-6.62044e+08,-150362,0.00888196,-0.0041619,0,0.0098087,-24237.2,-24102.8,-0,34181.7,150362
step02_gravity_refstate-crust.xmf,471,2.25179e-06,-1.99798e-06,0,-3.57664e-06,-7.35553e+08,-7.35845e+08,-7.35708e+08,-245358,0.0144935,-0.0621049,0,0.0637737,-16732.7,-26784.6,-0,31581.6,245358
step02_gravity_refstate-crust.xmf,472,1.92411e-06,-1.72998e-06,0,-3.12645e-06,-7.18574e+08,-7.18824e+08,-7.18706e+08,-214474,0.0127242,-0.0449287,0,0.0466957,-18567.1,-26165.5,-0,32083.8,214474
step02_gravity_refstate-crust.xmf,473,1.67647e-06,-1.43636e-06,0,-2.78879e-06,-6.92708e+08,-6.92921e+08,-6.92823e+08,-191311,0.0116515,-0.0286231,0,0.0309037,-20618.1,-25223.3,-0,32577.9,191311
step02_gravity_refstate-crust.xmf,474,2.48297e-06,-2.48281e-06,0,-3.96315e-06,-7.84185e+08,-7.84525e+08,-7.84355e+08,-271872,0.0126593,-0.0866754,0,0.087595,-14318,-28555.2,-0,31943.8,271872
step02_gravity_refstate-crust.xmf,475,2.5157e-06,-2.31399e-06,0,-3.97888e-06,-7.6094e+08,-7.61271e+08,-7.61112e+08,-272951,0.0150374,-0.0804899,0,0.0818825,-14963.5,-27709.4,-0,31491.5,272951
step02_gravity_refstate-crust.xmf,476,4.91368e-07,-1.73538e-07,0,-9.183e-07,-6.5228e+08,-6.52326e+08,-6.52314e+08,-62995.4,0.00254033,0.0329243,0,0.0330221,-32667.7,-23748.6,-0,40387.8,62995.4
step02_gravity_refstate-crust.xmf,477,3.36085e-07,3.83011e-08,0,-2.35543e-07,-6.41832e+08,-6.41853e+08,-6.41855e+08,-16158.2,0.000612893,0.0422032,0,0.0422076,-38127,-23368,-0,44718.3,16158.2
step02_gravity_refstate-crust.xmf,478,-2.89242e-07,4.55526e-07,0,-2.45345e-06,-1.4407e+08,-1.44018e+08,-1.4405e+08,-168306,0.0407389,-0.0691018,0,0.0802167,-16791.1,-5244.53,-0,17591.1,168306
step02_gravity_refstate-crust.xmf,479,-6.74479e-08,2.67406e-07,0,-1.75651e-06,-9.77567e+07,-9.77337e+07,-9.77521e+07,-120496,0.0468804,-0.059854,0,0.0760281,-17913.8,-3559.07,-0,18264,120496
step02_gravity_refstate-crust.xmf,480,3.23999e-07,1.49859e-08,0,-9.32292e-07,-4.89962e+07,-4.90174e+07,-4.90184e+07,-63955.2,0.0551378,-0.0508007,0,0.0749725,-19105.9,-1785.09,-0,19189.1,63955.2
step02_gravity_refstate-crust.xmf,481,9.25049e-07,-3.49514e-07,0,-6.70266e-09,87937,502.021,24478.7,-459.802,0.065283,-0.0427644,0,0.0780427,-20294.4,0,-0,20294.4,459.802
step02_gravity_refstate-crust.xmf,482,-9.9303e-07,3.9478e-06,0,-7.16135e-06,-5.36515e+08,-5.36176e+08,-5.36447e+08,-491269,0.0350777,-0.170647,0,0.174215,-8527.59,-19534.5,-0,21314.7,491269
step02_gravity_refstate-crust.xmf,483,-2.12157e-06,7.25212e-06,0,-9.60275e-06,-6.39999e+08,-6.39356e+08,-6.39853e+08,-658749,0.0387965,-0.22426,0,0.227591,-6253.55,-23302.4,-0,24127,658749
step02_gravity_refstate-crust.xmf,484,-6.75478e-06,1.69783e-05,0,-1.17969e-05,-7.27243e+08,-7.25615e+08,-7.2678e+08,-809264,0.0349111,-0.313051,0,0.314992,-3540.02,-26475,-0,26710.6,809264
step02_gravity_refstate-crust.xmf,485,-8.0746e-06,2.0621e-05,0,-1.26165e-05,-7.56911e+08,-7.54942e+08,-7.56357e+08,-865490,0.0336746,-0.342593,0,0.344244,-3125.72,-27555.4,-0,27732.1,865490
step02_gravity_refstate-crust.xmf,486,-7.60361e-06,1.90674e-05,0,-1.21538e-05,-7.43133e+08,-7.41304e+08,-7.42612e+08,-833750,0.0339827,-0.329582,0,0.33133,-3259.11,-27053.3,-0,27248.9,833750
step02_gravity_refstate-crust.xmf,487,-9.4115e-06,2.52646e-05,0,-1.2749e-05,-7.87629e+08,-7.8525e+08,-7.86983e+08,-874580,0.0306423,-0.378283,0,0.379522,-2721.93,-28675.5,-0,28804.4,874580
step02_gravity_refstate-crust.xmf,488,-9.02631e-06,2.78923e-05,0,-1.38011e-05,-8.1212e+08,-8.09588e+08,-8.11501e+08,-946755,0.0295487,-0.401427,0,0.402513,-2745.74,-29572.7,-0,29699.9,946755
step02_gravity_refstate-crust.xmf,489,-2.95374e-06,1.27285e-05,0,-2.60514e-05,-8.37623e+08,-8.36547e+08,-8.3742e+08,-1.78713e+06,0.029033,-0.370085,0,0.371222,-4000,-30502.3,-0,30763.4,1.78713e+06
step02_gravity_refstate-crust.xmf,490,3.83682e-06,-1.10114e-06,0,-1.26994e-05,-8.38906e+08,-8.39245e+08,-8.39169e+08,-871182,0.024135,-0.250396,0,0.251556,-6480.61,-30555,-0,31234.7,871182
step02_gravity_refstate-crust.xmf,491,3.363e-06,2.63982e-07,0,-1.45701e-05,-8.40488e+08,-8.40701e+08,-8.40719e+08,-999506,0.0255241,-0.272964,0,0.274154,-5902.89,-30612.8,-0,31176.7,999506
step02_gravity_refstate-crust.xmf,492,1.3018e-06,5.30344e-06,0,-1.90103e-05,-8.388e+08,-8.38526e+08,-8.3889e+08,-1.30411e+06,0.0289471,-0.321032,0,0.322334,-4855.08,-30550.8,-0,30934.2,1.30411e+06
step02_gravity_refstate-crust.xmf,493,2.51805e-06,2.4099e-06,0,-1.67758e-05,-8.40408e+08,-8.40415e+08,-8.4058e+08,-1.15082e+06,0.0272336,-0.297524,0,0.298767,-5341.83,-30609.8,-0,31072.4,1.15082e+06
step02_gravity_refstate-crust.xmf,494,-7.22748e-07,7.3009e-06,0,-2.21815e-05,-8.45642e+08,-8.45092e+08,-8.45593e+08,-1.52165e+06,0.0257249,-0.343827,0,0.344788,-4467.99,-30794.8,-0,31117.3,1.52165e+06
step02_gravity_refstate-crust.xmf,495,4.00015e-06,-2.04314e-06,0,-1.10779e-05,-8.38e+08,-8.38414e+08,-8.38274e+08,-759944,0.022192,-0.229489,0,0.23056,-7078.78,-30521.2,-0,31331.4,759944
step02_gravity_refstate-crust.xmf,496,3.38346e-06,-2.93797e-06,0,-5.84739e-06,-8.04345e+08,-8.04779e+08,-8.04577e+08,-401131,0.0180674,-0.13671,0,0.137898,-10972.2,-29292.1,-0,31279.7,401131
step02_gravity_refstate-crust.xmf,497,3.24958e-06,-3.14989e-06,0,-5.88894e-06,-8.23243e+08,-8.23682e+08,-8.23466e+08,-403981,0.0145404,-0.143568,0,0.144302,-10506.1,-29979.3,-0,31766.9,403981
step02_gravity_refstate-crust.xmf,498,2.38778e-06,-2.63588e-06,0,-3.91865e-06,-8.07081e+08,-8.07426e+08,-8.07245e+08,-268820,0.00950138,-0.092106,0,0.0925948,-13751.9,-29388.2,-0,32446.6,268820
step02_gravity_refstate-crust.xmf,499,2.71486e-06,-2.79332e-06,0,-4.43288e-06,-8.06599e+08,-8.06977e+08,-8.06785e+08,-304095,0.011953,-0.105546,0,0.106221,-12818.3,-29371.7,-0,32046.9,304095
step02_gravity_refstate-crust.xmf,500,3.07636e-06,-2.90682e-06,0,-5.08649e-06,-8.05851e+08,-8.06261e+08,-8.06062e+08,-348933,0.0148177,-0.120647,0,0.121553,-11872.7,-29345.7,-0,31656.5,348933
step02_gravity_refstate-crust.xmf,501,8.86183e-07,-6.53256e-07,0,-1.67574e-06,-6.66383e+08,-6.66488e+08,-6.66443e+08,-114956,0.00559228,0.0119242,0,0.0131705,-27096.4,-24262.9,-0,36371.8,114956
step02_gravity_refstate-crust.xmf,502,2.00236e-06,-1.85292e-06,0,-3.21547e-06,-7.34483e+08,-7.34748e+08,-7.34621e+08,-220581,0.0123128,-0.0509419,0,0.0524088,-17829.6,-26744.8,-0,32143.1,220581
step02_gravity_refstate-crust.xmf,503,1.43436e-06,-1.2587e-06,0,-2.45049e-06,-6.95711e+08,-6.95896e+08,-6.95809e+08,-168103,0.0092588,-0.0178861,0,0.0201405,-22000.6,-25331.9,-0,33551.9,168103
step02_gravity_refstate-crust.xmf,504,1.66121e-06,-1.57591e-06,0,-2.75321e-06,-7.23783e+08,-7.24005e+08,-7.23897e+08,-188870,0.0100042,-0.0339531,0,0.0353962,-19768.1,-26354.3,-0,32944.3,188870
step02_gravity_refstate-crust.xmf,505,3.67706e-07,-4.92773e-08,0,-6.63724e-07,-6.5809e+08,-6.58119e+08,-6.58116e+08,-45531.4,0.0015657,0.0374452,0,0.037478,-34579.1,-23959.8,-0,42068.9,45531.4
step02_gravity_refstate-crust.xmf,506,1.92007e-07,1.15143e-07,0,-2.97608e-09,-6.70927e+08,-6.70933e+08,-6.70941e+08,-204.159,3.63347e-20,0.042759,0,0.042759,-40000,-24426.7,-0,46868.6,204.159
step02_gravity_refstate-crust.xmf,507,-4.11444e-07,6.24255e-07,0,-3.03088e-06,-1.87376e+08,-1.87305e+08,-1.87348e+08,-207918,0.0364238,-0.0783473,0,0.0864002,-15734.7,-6820.9,-0,17149.5,207918
step02_gravity_refstate-crust.xmf,508,-4.78198e-07,7.97591e-07,0,-3.50542e-06,-2.27214e+08,-2.27126e+08,-2.27181e+08,-240472,0.0335727,-0.0872424,0,0.0934792,-14771.6,-8271.25,-0,16929.7,240472
step02_gravity_refstate-crust.xmf,509,-5.13678e-07,9.90905e-07,0,-3.92074e-06,-2.65424e+08,-2.65321e+08,-2.65389e+08,-268963,0.0317531,-0.0958387,0,0.100962,-13893.8,-9662.48,-0,16923.4,268963
step02_gravity_refstate-crust.xmf,510,-5.34601e-07,1.21583e-06,0,-4.30579e-06,-3.03132e+08,-3.03011e+08,-3.03095e+08,-295378,0.0307315,-0.104348,0,0.108779,-13081.2,-11035.5,-0,17114.4,295378
step02_gravity_refstate-crust.xmf,511,-5.66575e-07,1.49394e-06,0,-4.67863e-06,-3.40511e+08,-3.4037e+08,-3.40472e+08,-320954,0.0303408,-0.11335,0,0.11734,-12275.5,-12396.7,-0,17446.1,320954
step02_gravity_refstate-crust.xmf,512,-7.72921e-07,2.26835e-06,0,-5.35506e-06,-4.06694e+08,-4.06485e+08,-4.06641e+08,-367357,0.0306844,-0.133309,0,0.136795,-10622.8,-14806.5,-0,18223,367357
step02_gravity_refstate-crust.xmf,513,-6.5273e-07,1.85485e-06,0,-5.02838e-06,-3.75312e+08,-3.7514e+08,-3.75267e+08,-344947,0.0303778,-0.123315,0,0.127002,-11423.2,-13663.8,-0,17809.8,344947
step02_gravity_refstate-crust.xmf,514,-1.16973e-06,4.47765e-06,0,-7.6163e-06,-5.60735e+08,-5.60347e+08,-5.60655e+08,-522478,0.0359998,-0.181273,0,0.184814,-7996.95,-20416.3,-0,21926.6,522478
step02_gravity_refstate-crust.xmf,515,-1.34929e-06,5.19036e-06,0,-8.20227e-06,-5.86613e+08,-5.86164e+08,-5.8652e+08,-562676,0.0370746,-0.192796,0,0.196328,-7496.35,-21358.8,-0,22636.1,562676
step02_gravity_refstate-crust.xmf,516,-5.89868e-06,1.50028e-05,0,-1.14001e-05,-7.11e+08,-7.09566e+08,-7.10595e+08,-782047,0.0357423,-0.29668,0,0.298826,-3873.09,-25884,-0,26172.2,782047
step02_gravity_refstate-crust.xmf,517,-1.94199e-06,6.63682e-06,0,-9.0376e-06,-6.20434e+08,-6.19845e+08,-6.20301e+08,-619979,0.0379724,-0.214047,0,0.217389,-6572.22,-22589.9,-0,23526.6,619979
step02_gravity_refstate-crust.xmf,518,-5.12664e-06,1.32381e-05,0,-1.09167e-05,-6.94022e+08,-6.92762e+08,-6.9367e+08,-748886,0.0362688,-0.280948,0,0.283279,-4227.93,-25266.3,-0,25617.6,748886
step02_gravity_refstate-crust.xmf,519,-4.43744e-06,1.16605e-05,0,-1.0388e-05,-6.76226e+08,-6.75122e+08,-6.75922e+08,-712619,0.0365353,-0.265812,0,0.268311,-4606.32,-24618.8,-0,25046,712619
step02_gravity_refstate-crust.xmf,520,-3.81475e-06,1.02417e-05,0,-9.85805e-06,-6.57871e+08,-6.56907e+08,-6.57609e+08,-676263,0.0366295,-0.251269,0,0.253925,-5015.6,-23950.9,-0,24470.4,676263
step02_gravity_refstate-crust.xmf,521,-3.25339e-06,8.98029e-06,0,-9.37397e-06,-6.39883e+08,-6.39044e+08,-6.3966e+08,-643054,0.0366388,-0.237663,0,0.24047,-5452.79,-23296.3,-0,23926,643054
step02_gravity_refstate-crust.xmf,522,-9.16971e-07,2.73132e-06,0,-5.682e-06,-4.36291e+08,-4.36041e+08,-4.36228e+08,-389785,0.0311835,-0.143282,0,0.146636,-9889.23,-15884.1,-0,18711,389785
step02_gravity_refstate-crust.xmf,523,-1.10678e-06,3.26587e-06,0,-6.00923e-06,-4.63912e+08,-4.63612e+08,-4.63836e+08,-412233,0.0317422,-0.153634,0,0.156879,-9179.67,-16889.8,-0,19223.2,412233
step02_gravity_refstate-crust.xmf,524,-1.30172e-06,3.80971e-06,0,-6.335e-06,-4.88886e+08,-4.88536e+08,-4.88797e+08,-434581,0.0323452,-0.163374,0,0.166545,-8575.01,-17799,-0,19756.9,434581
step02_gravity_refstate-crust.xmf,525,-1.53307e-06,4.41563e-06,0,-6.67128e-06,-5.12775e+08,-5.12367e+08,-5.1267e+08,-457650,0.0329442,-0.17347,0,0.176571,-7997.02,-18668.7,-0,20309.4,457650
step02_gravity_refstate-crust.xmf,526,-9.27009e-06,2.29039e-05,0,-1.14184e-05,-7.6297e+08,-7.60763e+08,-7.62334e+08,-783302,0.0300881,-0.357483,0,0.358747,-2686.04,-27774.7,-0,27904.2,783302
step02_gravity_refstate-crust.xmf,527,-9.94714e-06,2.50322e-05,0,-1.104e-05,-7.75413e+08,-7.73014e+08,-7.74731e+08,-757346,0.028087,-0.373486,0,0.374541,-2451.84,-28228.2,-0,28334.5,757346
step02_gravity_refstate-crust.xmf,528,-9.83915e-06,2.76393e-05,0,-1.20389e-05,-8.00424e+08,-7.97853e+08,-7.99749e+08,-825866,0.0278704,-0.396877,0,0.397855,-2480.31,-29143.2,-0,29248.6,825866
step02_gravity_refstate-crust.xmf,529,-8.00379e-06,2.8086e-05,0,-1.57681e-05,-8.23735e+08,-8.21259e+08,-8.23186e+08,-1.08169e+06,0.0303946,-0.405171,0,0.40631,-2997.53,-30000,-0,30149.4,1.08169e+06
step02_gravity_refstate-crust.xmf,530,1.15553e-06,2.61026e-06,0,-1.91024e-05,-8.54543e+08,-8.54443e+08,-8.54622e+08,-1.31042e+06,0.0208286,-0.315265,0,0.315953,-5009.4,-31119.2,-0,31519.8,1.31042e+06
step02_gravity_refstate-crust.xmf,531,3.47489e-06,-3.32536e-06,0,-7.13277e-06,-8.39426e+08,-8.39892e+08,-8.39664e+08,-489308,0.0140178,-0.171711,0,0.172282,-9122.41,-30569.1,-0,31901.2,489308
step02_gravity_refstate-crust.xmf,532,3.73725e-06,-3.13925e-06,0,-8.2812e-06,-8.39571e+08,-8.40043e+08,-8.39827e+08,-568090,0.0165806,-0.190383,0,0.191104,-8384.38,-30575.7,-0,31704.4,568090
step02_gravity_refstate-crust.xmf,533,3.93185e-06,-2.73553e-06,0,-9.58188e-06,-8.3886e+08,-8.39318e+08,-8.3913e+08,-657317,0.0193718,-0.209385,0,0.21028,-7715.11,-30551.2,-0,31510.3,657317
step02_gravity_refstate-crust.xmf,534,3.15353e-06,-3.36513e-06,0,-6.16421e-06,-8.39772e+08,-8.40219e+08,-8.39988e+08,-422865,0.0113971,-0.154276,0,0.154697,-9890.55,-30580.3,-0,32140,422865
step02_gravity_refstate-crust.xmf,535,2.13444e-06,-2.46912e-06,0,-3.56543e-06,-8.05769e+08,-8.06085e+08,-8.05916e+08,-244588,0.0079051,-0.0813221,0,0.0817054,-14584.4,-29339.7,-0,32764.6,244588
step02_gravity_refstate-crust.xmf,536,2.22999e-06,-2.15095e-06,0,-3.51214e-06,-7.61667e+08,-7.61967e+08,-7.6182e+08,-240933,0.0122242,-0.0669708,0,0.0680773,-16108.3,-27734.9,-0,32073.4,240933
step02_gravity_refstate-crust.xmf,537,3.6404e-07,-1.68217e-07,0,-9.65871e-07,-6.94671e+08,-6.94707e+08,-6.94696e+08,-66258.8,0.00147228,0.030178,0,0.0302139,-31618,-25291.4,-0,40488.9,66258.8
step02_gravity_refstate-crust.xmf,538,1.21049e-06,-1.06805e-06,0,-2.15861e-06,-6.97058e+08,-6.97214e+08,-6.97141e+08,-148081,0.00728158,-0.00801823,0,0.0108311,-23427.8,-25380.3,-0,34540.2,148081
step02_gravity_refstate-crust.xmf,539,5.15834e-07,-3.3584e-07,0,-1.20812e-06,-6.92329e+08,-6.92387e+08,-6.92364e+08,-82877.1,0.00238139,0.0238718,0,0.0239903,-29752.7,-25206.5,-0,38994.7,82877.1
step02_gravity_refstate-crust.xmf,540,6.70825e-07,-5.11487e-07,0,-1.44017e-06,-6.92944e+08,-6.93025e+08,-6.9299e+08,-98795.7,0.00336149,0.0168268,0,0.0171592,-28023.9,-25229.2,-0,37707.5,98795.7
step02_gravity_refstate-crust.xmf,541,8.17081e-07,-6.8673e-07,0,-1.6559e-06,-6.98066e+08,-6.98169e+08,-6.98122e+08,-113595,0.0042331,0.00927754,0,0.0101976,-26414.5,-25416,-0,36656.5,113595
step02_gravity_refstate-crust.xmf,542,1.00147e-06,-8.72978e-07,0,-1.89321e-06,-6.97892e+08,-6.9802e+08,-6.97961e+08,-129874,0.0055922,0.00113348,0,0.00570591,-24915.5,-25410.1,-0,35587.4,129874
step02_gravity_refstate-crust.xmf,543,1.93894e-06,-1.95003e-06,0,-3.10901e-06,-7.59067e+08,-7.59334e+08,-7.592e+08,-213278,0.00998787,-0.0537394,0,0.0546597,-17376.2,-27639.4,-0,32647.7,213278
step02_gravity_refstate-crust.xmf,544,1.6947e-06,-1.73057e-06,0,-2.78833e-06,-7.52765e+08,-7.53e+08,-7.52882e+08,-191280,0.00840217,-0.0413559,0,0.0422008,-18721.8,-27409.4,-0,33193.1,191280
step02_gravity_refstate-crust.xmf,545,1.40728e-06,-1.37017e-06,0,-2.41702e-06,-7.28342e+08,-7.28532e+08,-7.28438e+08,-165808,0.00745762,-0.0227994,0,0.0239881,-21129.1,-26519.6,-0,33907.6,165808
step02_gravity_refstate-crust.xmf,546,2.1014e-06,-2.31021e-06,0,-3.40398e-06,-7.89384e+08,-7.89686e+08,-7.89528e+08,-233513,0.00911512,-0.0721743,0,0.0727477,-15456.6,-28743.2,-0,32635.6,233513
step02_gravity_refstate-crust.xmf,547,2.22994e-07,6.14564e-08,0,-4.19106e-07,-6.75153e+08,-6.75164e+08,-6.75168e+08,-28750.7,0.000687315,0.0404121,0,0.0404179,-36394.2,-24580.6,-0,43917.5,28750.7
step02_gravity_refstate-crust.xmf,548,2.28551e-07,-2.54397e-08,0,-7.35838e-07,-7.0019e+08,-7.00208e+08,-7.00206e+08,-50478.5,0.000747133,0.0350741,0,0.035082,-33451.7,-25492,-0,42057.8,50478.5
step02_gravity_refstate-crust.xmf,549,5.89666e-08,1.71543e-07,0,-2.04701e-07,-7.0279e+08,-7.02782e+08,-7.02794e+08,-14042.5,9.37035e-05,0.0419922,0,0.0419923,-38159,-25586.3,-0,45943.1,14042.5
step02_gravity_refstate-crust.xmf,550,-8.07586e-07,7.10942e-07,0,-2.51039e-06,-1.42624e+08,-1.4252e+08,-1.42568e+08,-172213,0.039875,-0.0836668,0,0.092683,-14929.6,-5190.19,-0,15806.1,172213
step02_gravity_refstate-crust.xmf,551,-6.72324e-07,5.21691e-07,0,-1.82634e-06,-9.67108e+07,-9.66289e+07,-9.66646e+07,-125287,0.0463153,-0.0747708,0,0.0879533,-15950.4,-3518.94,-0,16333.9,125287
step02_gravity_refstate-crust.xmf,552,-3.98419e-07,2.93867e-07,0,-9.86687e-07,-4.83884e+07,-4.83409e+07,-4.83611e+07,-67686.7,0.0551952,-0.0658325,0,0.0859094,-17047.2,-1760.47,-0,17137.8,67686.7
step02_gravity_refstate-crust.xmf,553,5.73693e-08,-1.95134e-08,0,-1.18197e-08,5545.62,271.467,1610.09,-810.829,0.0663702,-0.0577388,0,0.0879703,-18134.4,0,-0,18134.4,810.829
step02_gravity_refstate-crust.xmf,554,-1.7759e-06,5.00571e-06,0,-7.03699e-06,-5.36282e+08,-5.35816e+08,-5.3616e+08,-482738,0.0335998,-0.183727,0,0.186775,-7472.85,-19524.4,-0,20905.7,482738
step02_gravity_refstate-crust.xmf,555,-1.90332e-06,6.21637e-06,0,-8.49251e-06,-6.00342e+08,-5.99785e+08,-6.00212e+08,-582587,0.0369343,-0.205725,0,0.209014,-6807.84,-21858,-0,22893.6,582587
step02_gravity_refstate-crust.xmf,556,-2.80526e-06,7.97368e-06,0,-8.99019e-06,-6.24819e+08,-6.2408e+08,-6.24627e+08,-616727,0.0366138,-0.226545,0,0.229485,-5857.1,-22748.2,-0,23490.1,616727
step02_gravity_refstate-crust.xmf,557,-7.50018e-06,1.74002e-05,0,-1.00539e-05,-7.11544e+08,-7.09836e+08,-7.11029e+08,-689695,0.0310742,-0.310492,0,0.312043,-3170.35,-25901.1,-0,26094.4,689695
step02_gravity_refstate-crust.xmf,558,-8.37975e-06,1.94892e-05,0,-1.01822e-05,-7.28332e+08,-7.2642e+08,-7.27757e+08,-698498,0.0298771,-0.327246,0,0.328607,-2865.25,-26511.9,-0,26666.3,698498
step02_gravity_refstate-crust.xmf,559,-9.28611e-06,2.18903e-05,0,-1.03024e-05,-7.46936e+08,-7.44798e+08,-7.46299e+08,-706746,0.0286038,-0.346251,0,0.34743,-2596.28,-27189.3,-0,27313,706746
step02_gravity_refstate-crust.xmf,560,-1.03176e-05,2.45574e-05,0,-9.37034e-06,-7.61574e+08,-7.59181e+08,-7.60866e+08,-642806,0.0250863,-0.366356,0,0.367214,-2179.6,-27722.1,-0,27807.7,642806
step02_gravity_refstate-crust.xmf,561,-1.0442e-05,2.73066e-05,0,-1.03765e-05,-7.8883e+08,-7.8624e+08,-7.88114e+08,-711831,0.0255095,-0.391591,0,0.392421,-2207.12,-28718.2,-0,28802.9,711831
step02_gravity_refstate-crust.xmf,562,-9.98941e-06,2.97788e-05,0,-1.1147e-05,-8.12431e+08,-8.09703e+08,-8.11746e+08,-764681,0.0247329,-0.415455,0,0.416191,-2241.69,-29583.1,-0,29667.9,764681
step02_gravity_refstate-crust.xmf,563,-9.15532e-06,3.01816e-05,0,-1.28514e-05,-8.23774e+08,-8.21075e+08,-8.23146e+08,-881609,0.026102,-0.421154,0,0.421962,-2497.35,-30000,-0,30103.8,881609
step02_gravity_refstate-crust.xmf,564,-2.36071e-06,8.8856e-06,0,-2.75726e-05,-8.51432e+08,-8.5066e+08,-8.5127e+08,-1.89148e+06,0.0220191,-0.375488,0,0.376134,-4000,-31001.4,-0,31258.4,1.89148e+06
step02_gravity_refstate-crust.xmf,565,3.38871e-06,-2.40549e-06,0,-1.15215e-05,-8.54869e+08,-8.55267e+08,-8.55102e+08,-790376,0.0159769,-0.238477,0,0.239011,-6779.55,-31132.4,-0,31862,790376
step02_gravity_refstate-crust.xmf,566,3.10849e-06,-1.41109e-06,0,-1.34036e-05,-8.54665e+08,-8.54975e+08,-8.54878e+08,-919484,0.0179511,-0.260442,0,0.26106,-6202.11,-31125.3,-0,31737.2,919484
step02_gravity_refstate-crust.xmf,567,2.41696e-06,1.36169e-07,0,-1.57874e-05,-8.54878e+08,-8.55035e+08,-8.55044e+08,-1.08302e+06,0.0195006,-0.285523,0,0.286188,-5616.78,-31132.7,-0,31635.3,1.08302e+06
step02_gravity_refstate-crust.xmf,568,-6.05763e-07,4.64455e-06,0,-2.35293e-05,-8.59377e+08,-8.59017e+08,-8.59336e+08,-1.61411e+06,0.0184764,-0.347244,0,0.347735,-4460.34,-31291.2,-0,31607.5,1.61411e+06
step02_gravity_refstate-crust.xmf,569,3.42903e-06,-3.04576e-06,0,-9.8952e-06,-8.55219e+08,-8.55663e+08,-8.55454e+08,-678811,0.0137598,-0.217767,0,0.218201,-7389.09,-31144.3,-0,32008.8,678811
step02_gravity_refstate-crust.xmf,570,2.82217e-06,-3.14347e-06,0,-5.03954e-06,-8.30462e+08,-8.30872e+08,-8.30656e+08,-345713,0.0101199,-0.128037,0,0.128436,-11289.4,-30240.4,-0,32279,345713
step02_gravity_refstate-crust.xmf,571,2.8376e-06,-3.33729e-06,0,-5.49067e-06,-8.41347e+08,-8.41771e+08,-8.41542e+08,-376660,0.00906902,-0.141431,0,0.141721,-10506.8,-30636.4,-0,32388,376660
step02_gravity_refstate-crust.xmf,572,1.83144e-06,-2.5221e-06,0,-3.39126e-06,-8.29651e+08,-8.2995e+08,-8.29777e+08,-232640,0.00354468,-0.0830047,0,0.0830804,-14280.6,-30207.8,-0,33413.3,232640
step02_gravity_refstate-crust.xmf,573,2.13145e-06,-2.75194e-06,0,-3.82858e-06,-8.29738e+08,-8.30073e+08,-8.29884e+08,-262641,0.00550085,-0.0966377,0,0.0967941,-13267.5,-30211.8,-0,32996.6,262641
step02_gravity_refstate-crust.xmf,574,2.45573e-06,-2.96011e-06,0,-4.35009e-06,-8.29962e+08,-8.30333e+08,-8.3013e+08,-298416,0.00762139,-0.11106,0,0.111322,-12303.3,-30220.9,-0,32629.4,298416
step02_gravity_refstate-crust.xmf,575,1.14576e-06,-1.14916e-06,0,-2.11573e-06,-7.31868e+08,-7.32026e+08,-7.31947e+08,-145139,0.0052897,-0.0122235,0,0.0133189,-22582.2,-26647.3,-0,34929,145139
step02_gravity_refstate-crust.xmf,576,1.34031e-06,-1.47764e-06,0,-2.39686e-06,-7.57551e+08,-7.57745e+08,-7.57643e+08,-164424,0.00554253,-0.0282236,0,0.0287626,-20237.5,-27582.5,-0,34210.4,164424
step02_gravity_refstate-crust.xmf,577,1.73801e-06,-2.32664e-06,0,-3.15781e-06,-8.19897e+08,-8.20175e+08,-8.20016e+08,-216625,0.00389294,-0.0723421,0,0.0724468,-15222.9,-29852.6,-0,33509.9,216625
step02_gravity_refstate-crust.xmf,578,1.36792e-07,7.1951e-08,0,-5.48101e-07,-7.0368e+08,-7.03684e+08,-7.03689e+08,-37599.7,0.000366574,0.0382862,0,0.0382879,-35039.7,-25618.8,-0,43406.3,37599.7
step02_gravity_refstate-crust.xmf,579,8.58878e-08,2.02747e-09,0,-7.86312e-07,-7.4042e+08,-7.40425e+08,-7.40425e+08,-53941,-0.000453356,0.0325274,-0,0.0325305,-32406.8,-26956.1,-0,42152.5,53941
step02_gravity_refstate-crust.xmf,580,-9.42923e-08,2.61974e-07,0,-2.69062e-09,-7.32376e+08,-7.32351e+08,-7.32369e+08,-184.577,-6.46971e-20,0.0423377,-0,0.0423377,-40000,-26662.9,-0,48071.9,184.577
step02_gravity_refstate-crust.xmf,581,-8.70362e-07,9.02306e-07,0,-3.06891e-06,-1.86178e+08,-1.86057e+08,-1.86119e+08,-210527,0.0353848,-0.092448,0,0.0989885,-13976.5,-6775.89,-0,15532.4,210527
step02_gravity_refstate-crust.xmf,582,-9.02884e-07,1.11406e-06,0,-3.52328e-06,-2.2667e+08,-2.26532e+08,-2.26608e+08,-241697,0.0324508,-0.100884,0,0.105974,-13109.9,-8250.22,-0,15489.9,241697
step02_gravity_refstate-crust.xmf,583,-9.31003e-07,1.36315e-06,0,-3.91612e-06,-2.65409e+08,-2.65252e+08,-2.65345e+08,-268646,0.0306042,-0.109241,0,0.113447,-12301.3,-9660.83,-0,15641.4,268646
step02_gravity_refstate-crust.xmf,584,-9.7276e-07,1.66414e-06,0,-4.2739e-06,-3.03071e+08,-3.0289e+08,-3.03004e+08,-293190,0.0295594,-0.117799,0,0.121451,-11525.4,-11032.2,-0,15954.5,293190
step02_gravity_refstate-crust.xmf,585,-1.04969e-06,2.03162e-06,0,-4.60542e-06,-3.39258e+08,-3.39046e+08,-3.39186e+08,-315932,0.0290949,-0.126853,0,0.130147,-10753.4,-12349.9,-0,16375.5,315932
step02_gravity_refstate-crust.xmf,586,-1.328e-06,2.96708e-06,0,-5.21747e-06,-4.05519e+08,-4.05224e+08,-4.05428e+08,-357919,0.0292276,-0.146073,0,0.148968,-9276.54,-14762.5,-0,17435.2,357919
step02_gravity_refstate-crust.xmf,587,-1.17117e-06,2.46878e-06,0,-4.91444e-06,-3.73281e+08,-3.73032e+08,-3.73201e+08,-337130,0.0290206,-0.136361,0,0.139414,-9992.03,-13588.8,-0,16867,337130
step02_gravity_refstate-crust.xmf,588,-2.07089e-06,5.74414e-06,0,-7.44985e-06,-5.59563e+08,-5.59027e+08,-5.59421e+08,-511060,0.0342238,-0.19482,0,0.197803,-6952.76,-20372,-0,21525.8,511060
step02_gravity_refstate-crust.xmf,589,-6.65658e-06,1.54939e-05,0,-9.82203e-06,-6.94444e+08,-6.92925e+08,-6.93988e+08,-673791,0.0320024,-0.294553,0,0.296286,-3498.27,-25279,-0,25519.9,673791
step02_gravity_refstate-crust.xmf,590,-2.48276e-06,6.74129e-06,0,-7.84852e-06,-5.81e+08,-5.80367e+08,-5.8083e+08,-538409,0.0345549,-0.20705,0,0.209914,-6394.33,-21152.3,-0,22097.7,538409
step02_gravity_refstate-crust.xmf,591,-2.96511e-06,7.83477e-06,0,-8.32105e-06,-6.04059e+08,-6.03318e+08,-6.03856e+08,-570824,0.0349015,-0.220688,0,0.223431,-5850.04,-21991.5,-0,22756.3,570824
step02_gravity_refstate-crust.xmf,592,-5.88823e-06,1.3776e-05,0,-9.48305e-06,-6.76513e+08,-6.75164e+08,-6.76109e+08,-650537,0.0325914,-0.279323,0,0.281218,-3838.36,-24626.6,-0,24924,650537
step02_gravity_refstate-crust.xmf,593,-5.15665e-06,1.21829e-05,0,-9.12577e-06,-6.57994e+08,-6.56804e+08,-6.5764e+08,-626028,0.0330629,-0.264492,0,0.266551,-4219.07,-23952.9,-0,24321.7,626028
step02_gravity_refstate-crust.xmf,594,-4.47446e-06,1.07338e-05,0,-8.78801e-06,-6.396e+08,-6.38557e+08,-6.39293e+08,-602858,0.0334686,-0.250378,0,0.252605,-4639.7,-23283.8,-0,23741.6,602858
step02_gravity_refstate-crust.xmf,595,-3.78886e-06,9.3498e-06,0,-8.51318e-06,-6.21711e+08,-6.20809e+08,-6.21451e+08,-584004,0.0339908,-0.236425,0,0.238856,-5141.24,-22633.1,-0,23209.7,584004
step02_gravity_refstate-crust.xmf,596,-1.5282e-06,3.52841e-06,0,-5.51101e-06,-4.35343e+08,-4.34996e+08,-4.35239e+08,-378055,0.0295625,-0.156005,0,0.158782,-8598.35,-15848.4,-0,18030.6,378055
step02_gravity_refstate-crust.xmf,597,-1.76298e-06,4.14541e-06,0,-5.80648e-06,-4.63188e+08,-4.62783e+08,-4.63067e+08,-398325,0.0299707,-0.166037,0,0.16872,-7971.93,-16862.1,-0,18651.6,398325
step02_gravity_refstate-crust.xmf,598,-2.04718e-06,4.83211e-06,0,-6.09614e-06,-4.88981e+08,-4.88509e+08,-4.8884e+08,-418195,0.0303403,-0.176349,0,0.17894,-7373.48,-17801,-0,19267.7,418195
step02_gravity_refstate-crust.xmf,599,-2.30242e-06,5.49005e-06,0,-6.41714e-06,-5.13914e+08,-5.13379e+08,-5.13756e+08,-440216,0.0309179,-0.186053,0,0.188605,-6901.78,-18708.7,-0,19941.2,440216
step02_gravity_refstate-crust.xmf,600,-2.59102e-06,6.14045e-06,0,-6.73869e-06,-5.36346e+08,-5.35747e+08,-5.36168e+08,-462274,0.0313787,-0.1958,0,0.198299,-6455.73,-19525.2,-0,20564.8,462274
step02_gravity_refstate-crust.xmf,601,-1.09071e-05,2.68248e-05,0,-8.64182e-06,-7.76247e+08,-7.73659e+08,-7.75499e+08,-592829,0.0223833,-0.384944,0,0.385594,-1904.45,-28257.5,-0,28321.6,592829
step02_gravity_refstate-crust.xmf,602,-1.06914e-05,2.93589e-05,0,-9.4281e-06,-8.00949e+08,-7.98202e+08,-8.00216e+08,-646767,0.022417,-0.409442,0,0.410055,-1951.46,-29161.6,-0,29226.8,646767
step02_gravity_refstate-crust.xmf,603,5.12345e-07,1.74856e-06,0,-2.12543e-05,-8.66701e+08,-8.66616e+08,-8.66736e+08,-1.45805e+06,0.0144599,-0.32844,0,0.328758,-4788.59,-31557.9,-0,31919.1,1.45805e+06
step02_gravity_refstate-crust.xmf,604,2.73384e-06,-3.57833e-06,0,-6.26867e-06,-8.57848e+08,-8.58281e+08,-8.58036e+08,-430031,0.00631959,-0.161537,0,0.161661,-9459.12,-31236.3,-0,32637.2,430031
step02_gravity_refstate-crust.xmf,605,3.02213e-06,-3.58544e-06,0,-7.28915e-06,-8.57466e+08,-8.57919e+08,-8.57673e+08,-500036,0.00856826,-0.179498,0,0.179702,-8716.6,-31223.6,-0,32417.5,500036
step02_gravity_refstate-crust.xmf,606,3.27105e-06,-3.4297e-06,0,-8.49567e-06,-8.56564e+08,-8.57023e+08,-8.56788e+08,-582803,0.0110713,-0.198268,0,0.198577,-8027.3,-31192,-0,32208.3,582803
step02_gravity_refstate-crust.xmf,607,2.44929e-06,-3.46601e-06,0,-5.4614e-06,-8.5772e+08,-8.58125e+08,-8.57888e+08,-374652,0.00444786,-0.145347,0,0.145415,-10211.1,-31230.7,-0,32857.6,374652
step02_gravity_refstate-crust.xmf,608,1.81393e-06,-2.05067e-06,0,-3.01095e-06,-7.86136e+08,-7.86401e+08,-7.8626e+08,-206551,0.00705247,-0.057692,0,0.0581215,-16796,-28624.2,-0,33188.1,206551
step02_gravity_refstate-crust.xmf,609,2.26544e-07,-1.57284e-07,0,-9.93416e-07,-7.36009e+08,-7.36035e+08,-7.36024e+08,-68148.3,1.78764e-06,0.0272754,0,0.0272754,-30613.6,-26795.8,-0,40684.3,68148.3
step02_gravity_refstate-crust.xmf,610,9.16754e-07,-9.29484e-07,0,-1.85736e-06,-7.33334e+08,-7.3346e+08,-7.33397e+08,-127415,0.00363891,-0.0026256,0,0.00448725,-24079.6,-26700,-0,35954.4,127415
step02_gravity_refstate-crust.xmf,611,3.8189e-07,-3.36607e-07,0,-1.2065e-06,-7.33673e+08,-7.33722e+08,-7.33699e+08,-82766.2,0.000646954,0.0208976,0,0.0209076,-28846,-26711.1,-0,39313.8,82766.2
step02_gravity_refstate-crust.xmf,612,5.41838e-07,-5.24706e-07,0,-1.41563e-06,-7.33909e+08,-7.33983e+08,-7.33947e+08,-97111.9,0.0013934,0.0137415,0,0.013812,-27171.2,-26720.1,-0,38108.2,97111.9
step02_gravity_refstate-crust.xmf,613,7.16655e-07,-7.21251e-07,0,-1.62767e-06,-7.34158e+08,-7.34257e+08,-7.34207e+08,-111658,0.00235105,0.00596388,0,0.00641056,-25598.4,-26729.5,-0,37010.1,111658
step02_gravity_refstate-crust.xmf,614,1.54966e-06,-1.81663e-06,0,-2.68682e-06,-7.83802e+08,-7.84033e+08,-7.83908e+08,-184316,0.00529021,-0.0453425,0,0.0456501,-18068.8,-28538.5,-0,33777.7,184316
step02_gravity_refstate-crust.xmf,615,1.03886e-06,-1.23672e-06,0,-2.07833e-06,-7.6844e+08,-7.68596e+08,-7.68511e+08,-142573,0.00275634,-0.0176659,0,0.0178796,-21568.5,-27978.1,-0,35326.7,142573
step02_gravity_refstate-crust.xmf,616,1.30777e-06,-1.5962e-06,0,-2.41782e-06,-7.83366e+08,-7.83565e+08,-7.83456e+08,-165863,0.00364248,-0.0346465,0,0.0348374,-19278.2,-28522,-0,34426.1,165863
step02_gravity_refstate-crust.xmf,617,1.55817e-06,-2.12134e-06,0,-2.88263e-06,-8.1441e+08,-8.14662e+08,-8.14517e+08,-197748,0.00321424,-0.0611942,0,0.0612786,-16259.6,-29652.4,-0,33817.8,197748
step02_gravity_refstate-crust.xmf,618,-4.9832e-08,1.99361e-07,0,-3.71757e-07,-7.33111e+08,-7.33094e+08,-7.33107e+08,-25502.5,-0.000290243,0.0401074,-0,0.0401085,-36369.2,-26689.7,-0,45111.7,25502.5
step02_gravity_refstate-crust.xmf,619,-7.49847e-08,1.58426e-07,0,-5.54482e-07,-7.51854e+08,-7.51838e+08,-7.51849e+08,-38037.5,-0.000827667,0.0369393,-0,0.0369486,-34404.4,-27372,-0,43964.6,38037.5
step02_gravity_refstate-crust.xmf,620,-2.24219e-07,3.24715e-07,0,-1.80317e-07,-7.62132e+08,-7.62095e+08,-7.62117e+08,-12369.7,-0.000425722,0.0414572,-0,0.0414594,-38159.6,-27745.8,-0,47180.3,12369.7
step02_gravity_refstate-crust.xmf,621,-1.31926e-06,9.86643e-07,0,-2.53778e-06,-1.44227e+08,-1.44068e+08,-1.44136e+08,-174092,0.0377787,-0.0978254,0,0.104867,-13101.6,-5246.9,-0,14113.2,174092
step02_gravity_refstate-crust.xmf,622,-1.28429e-06,7.90359e-07,0,-1.86684e-06,-9.71811e+07,-9.70388e+07,-9.7093e+07,-128065,0.044371,-0.0893673,0,0.0997762,-14023.5,-3534,-0,14461.9,128065
step02_gravity_refstate-crust.xmf,623,-1.14963e-06,5.88569e-07,0,-1.03279e-06,-4.88473e+07,-4.87281e+07,-4.87685e+07,-70849.7,0.0535473,-0.0808067,0,0.0969383,-15015.7,-1774.6,-0,15120.2,70849.7
step02_gravity_refstate-crust.xmf,624,-8.6541e-07,3.30872e-07,0,-1.67581e-08,-82102.1,-37.2015,-22735,-1149.6,0.0655458,-0.0727281,0,0.0979062,-16020.4,0,-0,16020.4,1149.6
step02_gravity_refstate-crust.xmf,625,-8.03419e-06,1.75128e-05,0,-8.27412e-06,-6.94814e+08,-6.93062e+08,-6.94263e+08,-567605,0.0266391,-0.306413,0,0.307569,-2764.57,-25290,-0,25440.7,567605
step02_gravity_refstate-crust.xmf,626,-2.96251e-06,6.4126e-06,0,-6.11151e-06,-5.17786e+08,-5.17143e+08,-5.17583e+08,-419250,0.028821,-0.196437,0,0.19854,-6006.45,-18848.5,-0,19782.4,419250
step02_gravity_refstate-crust.xmf,627,-1.90317e-06,3.6945e-06,0,-4.94695e-06,-4.05694e+08,-4.0531e+08,-4.05563e+08,-339361,0.0271092,-0.157967,0,0.160277,-7960.98,-14767.7,-0,16776.8,339361
step02_gravity_refstate-crust.xmf,628,-8.86235e-06,1.94486e-05,0,-8.28544e-06,-7.12262e+08,-7.1032e+08,-7.11654e+08,-568381,0.0254289,-0.32232,0,0.323321,-2474.42,-25924.9,-0,26042.7,568381
step02_gravity_refstate-crust.xmf,629,-9.73376e-06,2.15905e-05,0,-8.07417e-06,-7.29329e+08,-7.27181e+08,-7.28662e+08,-553888,0.0236742,-0.339422,0,0.340247,-2174.17,-26546,-0,26634.9,553888
step02_gravity_refstate-crust.xmf,630,-1.1209e-05,2.61007e-05,0,-6.87712e-06,-7.61801e+08,-7.59242e+08,-7.61032e+08,-471770,0.0186605,-0.375873,0,0.376336,-1582.01,-27729.2,-0,27774.3,471770
step02_gravity_refstate-crust.xmf,631,-1.05817e-05,2.3906e-05,0,-7.54539e-06,-7.46024e+08,-7.43658e+08,-7.45298e+08,-517614,0.021219,-0.357766,0,0.358395,-1856.96,-27154,-0,27217.4,517614
step02_gravity_refstate-crust.xmf,632,-1.1214e-05,2.88432e-05,0,-7.77642e-06,-7.8944e+08,-7.86692e+08,-7.8867e+08,-533463,0.0195176,-0.402518,0,0.402991,-1654.79,-28739.6,-0,28787.2,533463
step02_gravity_refstate-crust.xmf,633,-1.06731e-05,3.11829e-05,0,-8.46641e-06,-8.12759e+08,-8.09887e+08,-8.12027e+08,-580796,0.0193151,-0.427032,0,0.427468,-1719.33,-29594.4,-0,29644.3,580796
step02_gravity_refstate-crust.xmf,634,-9.93478e-06,3.16955e-05,0,-1.01049e-05,-8.23796e+08,-8.2094e+08,-8.23114e+08,-693193,0.0213312,-0.43403,0,0.434554,-1997.54,-30000,-0,30066.4,693193
step02_gravity_refstate-crust.xmf,635,2.77779e-06,-3.39102e-06,0,-1.04779e-05,-8.70459e+08,-8.70882e+08,-8.7065e+08,-718781,0.00762853,-0.226707,0,0.226835,-7067.21,-31695.9,-0,32474.3,718781
step02_gravity_refstate-crust.xmf,636,-1.51422e-06,5.15168e-06,0,-2.86205e-05,-8.65236e+08,-8.64779e+08,-8.65132e+08,-1.96336e+06,0.0148997,-0.379001,0,0.379294,-4000,-31501.6,-0,31754.6,1.96336e+06
step02_gravity_refstate-crust.xmf,637,2.71154e-06,-2.83638e-06,0,-1.21989e-05,-8.69288e+08,-8.69668e+08,-8.69474e+08,-836842,0.00971068,-0.246733,0,0.246924,-6521.28,-31653.9,-0,32318.6,836842
step02_gravity_refstate-crust.xmf,638,2.29856e-06,-1.91102e-06,0,-1.46642e-05,-8.69688e+08,-8.69977e+08,-8.69846e+08,-1.00597e+06,0.0110576,-0.271993,0,0.272217,-5907.33,-31668.2,-0,32214.5,1.00597e+06
step02_gravity_refstate-crust.xmf,639,1.41141e-06,-3.89122e-07,0,-1.82436e-05,-8.70693e+08,-8.70817e+08,-8.7079e+08,-1.25151e+06,0.0117741,-0.303138,0,0.303366,-5253.53,-31703.6,-0,32135.9,1.25151e+06
step02_gravity_refstate-crust.xmf,640,-2.36452e-07,1.93745e-06,0,-2.4751e-05,-8.72289e+08,-8.7214e+08,-8.72272e+08,-1.69792e+06,0.0114811,-0.351222,0,0.351409,-4421.74,-31758.6,-0,32064.9,1.69792e+06
step02_gravity_refstate-crust.xmf,641,2.66463e-06,-3.75046e-06,0,-8.92385e-06,-8.72599e+08,-8.73039e+08,-8.72782e+08,-612176,0.00499381,-0.20691,0,0.20697,-7666.59,-31772.8,-0,32684.7,612176
step02_gravity_refstate-crust.xmf,642,2.2178e-06,-3.31622e-06,0,-4.80732e-06,-8.55598e+08,-8.55978e+08,-8.5575e+08,-329782,0.00336473,-0.130641,0,0.130685,-10983.8,-31152.7,-0,33032.4,329782
step02_gravity_refstate-crust.xmf,643,1.44411e-06,-2.3293e-06,0,-3.04168e-06,-8.40141e+08,-8.404e+08,-8.4024e+08,-208660,0.000189404,-0.0735054,0,0.0735057,-14978.6,-30588.4,-0,34058.9,208660
step02_gravity_refstate-crust.xmf,644,1.49575e-06,-2.60238e-06,0,-3.38561e-06,-8.52075e+08,-8.52356e+08,-8.52178e+08,-232253,-0.000608126,-0.0885638,-0,0.0885659,-13695.5,-31022.7,-0,33911.2,232253
step02_gravity_refstate-crust.xmf,645,1.74397e-06,-2.8407e-06,0,-3.77798e-06,-8.52331e+08,-8.52646e+08,-8.52451e+08,-259169,0.000793101,-0.101423,0,0.101427,-12779,-31032.6,-0,33560.8,259169
step02_gravity_refstate-crust.xmf,646,1.9954e-06,-3.07272e-06,0,-4.25068e-06,-8.53426e+08,-8.53774e+08,-8.53563e+08,-291597,0.00214981,-0.115324,0,0.115344,-11879.5,-31073.2,-0,33266.6,291597
step02_gravity_refstate-crust.xmf,647,7.92465e-07,-9.70493e-07,0,-1.81509e-06,-7.68037e+08,-7.68158e+08,-7.68091e+08,-124515,0.00126461,-0.00641108,0,0.00653462,-23263.1,-27962.8,-0,36374.3,124515
step02_gravity_refstate-crust.xmf,648,1.09868e-06,-1.4048e-06,0,-2.20467e-06,-7.84681e+08,-7.84852e+08,-7.84756e+08,-151240,0.00221657,-0.0260293,0,0.0261235,-20335.8,-28569.3,-0,35067.9,151240
step02_gravity_refstate-crust.xmf,649,1.24229e-06,-2.13324e-06,0,-2.80253e-06,-8.40935e+08,-8.41167e+08,-8.4102e+08,-192254,-0.00105012,-0.0641665,-0,0.0641751,-15794.8,-30616.8,-0,34450.9,192254
step02_gravity_refstate-crust.xmf,650,-5.49659e-08,2.48844e-08,0,-8.27986e-07,-7.78609e+08,-7.78603e+08,-7.78605e+08,-56799.8,-0.00197318,0.0297006,-0,0.029766,-31374.3,-28345.9,-0,42282.8,56799.8
step02_gravity_refstate-crust.xmf,651,-1.59151e-07,1.54871e-07,0,-6.64738e-07,-7.81136e+08,-7.81114e+08,-7.81125e+08,-45601.1,-0.00189859,0.0338106,-0,0.0338639,-32979.8,-28437.6,-0,43547.3,45601.1
step02_gravity_refstate-crust.xmf,652,-3.88492e-07,4.29822e-07,0,-2.26383e-09,-7.93526e+08,-7.93469e+08,-7.93499e+08,-155.299,-1.67115e-19,0.0415682,-0,0.0415682,-40000,-28888.2,-0,49340.9,155.299
step02_gravity_refstate-crust.xmf,653,-1.33078e-06,1.17664e-06,0,-3.04194e-06,-1.86324e+08,-1.86152e+08,-1.86232e+08,-208677,0.0334896,-0.105908,0,0.111077,-12259.9,-6779.73,-0,14009.6,208677
step02_gravity_refstate-crust.xmf,654,-1.3332e-06,1.45435e-06,0,-3.45719e-06,-2.26983e+08,-2.26792e+08,-2.26891e+08,-237163,0.0306338,-0.11377,0,0.117822,-11493.3,-8260.4,-0,14153.8,237163
step02_gravity_refstate-crust.xmf,655,-1.3653e-06,1.76997e-06,0,-3.81581e-06,-2.66164e+08,-2.65949e+08,-2.6607e+08,-261765,0.0287928,-0.122004,0,0.125356,-10731.9,-9687.17,-0,14457.3,261765
step02_gravity_refstate-crust.xmf,656,-1.43923e-06,2.15359e-06,0,-4.12581e-06,-3.0329e+08,-3.03043e+08,-3.03191e+08,-283031,0.0276994,-0.13059,0,0.133495,-9981.91,-11039.1,-0,14882.9,283031
step02_gravity_refstate-crust.xmf,657,-1.55353e-06,2.60344e-06,0,-4.40795e-06,-3.38951e+08,-3.38666e+08,-3.38845e+08,-302386,0.0271533,-0.139452,0,0.142071,-9265.56,-12337.6,-0,15429.4,302386
step02_gravity_refstate-crust.xmf,658,-1.70357e-06,3.11355e-06,0,-4.68179e-06,-3.7325e+08,-3.7292e+08,-3.73133e+08,-321171,0.0270212,-0.148504,0,0.150942,-8601.42,-13586.5,-0,16080.3,321171
step02_gravity_refstate-crust.xmf,659,-3.02611e-06,7.05476e-06,0,-7.0259e-06,-5.58057e+08,-5.57365e+08,-5.57849e+08,-481977,0.0314716,-0.207321,0,0.209696,-5918.26,-20315.3,-0,21159.8,481977
step02_gravity_refstate-crust.xmf,660,-7.21914e-06,1.57059e-05,0,-8.19138e-06,-6.77024e+08,-6.75451e+08,-6.76529e+08,-561928,0.0276803,-0.291173,0,0.292485,-3082.91,-24642.8,-0,24834.9,561928
step02_gravity_refstate-crust.xmf,661,-3.56798e-06,8.24924e-06,0,-7.31419e-06,-5.8027e+08,-5.79459e+08,-5.80025e+08,-501753,0.0313632,-0.220286,0,0.222508,-5359.5,-21123.6,-0,21792.9,501753
step02_gravity_refstate-crust.xmf,662,-6.43987e-06,1.40235e-05,0,-8.0274e-06,-6.58522e+08,-6.57118e+08,-6.5808e+08,-550679,0.0285009,-0.276459,0,0.277924,-3425.15,-23969.8,-0,24213.3,550679
step02_gravity_refstate-crust.xmf,663,-5.6905e-06,1.24598e-05,0,-7.85411e-06,-6.39756e+08,-6.38511e+08,-6.39366e+08,-538792,0.0292695,-0.262241,0,0.263869,-3811.56,-23287.2,-0,23597.1,538792
step02_gravity_refstate-crust.xmf,664,-4.95139e-06,1.0969e-05,0,-7.69201e-06,-6.20585e+08,-6.19493e+08,-6.20245e+08,-527672,0.0300634,-0.248139,0,0.249954,-4265.02,-22590,-0,22989.1,527672
step02_gravity_refstate-crust.xmf,665,-4.24079e-06,9.57313e-06,0,-7.53268e-06,-6.01313e+08,-6.00366e+08,-6.01023e+08,-516742,0.0308296,-0.234312,0,0.236331,-4782.79,-21889.1,-0,22405.5,516742
step02_gravity_refstate-crust.xmf,666,-3.40223e-06,7.22973e-06,0,-6.21981e-06,-5.35266e+08,-5.34536e+08,-5.35032e+08,-426679,0.0283603,-0.206289,0,0.208229,-5476.06,-19484.3,-0,20239.2,426679
step02_gravity_refstate-crust.xmf,667,-2.15966e-06,4.35411e-06,0,-5.19588e-06,-4.35786e+08,-4.35339e+08,-4.35638e+08,-356437,0.0272583,-0.167847,0,0.170046,-7336.91,-15863.2,-0,17477.8,356437
step02_gravity_refstate-crust.xmf,668,-2.47745e-06,5.09364e-06,0,-5.41461e-06,-4.63227e+08,-4.62707e+08,-4.63057e+08,-371443,0.0273218,-0.178116,0,0.180199,-6722.16,-16862.1,-0,18152.6,371443
step02_gravity_refstate-crust.xmf,669,-2.90732e-06,6.01361e-06,0,-5.63988e-06,-4.91895e+08,-4.91283e+08,-4.91696e+08,-386895,0.0273126,-0.189938,0,0.191892,-6072.98,-17905.5,-0,18907.3,386895
step02_gravity_refstate-crust.xmf,670,-1.15886e-05,2.81149e-05,0,-6.04201e-06,-7.76653e+08,-7.7393e+08,-7.75858e+08,-414482,0.0158959,-0.393782,0,0.394103,-1327.71,-28271.5,-0,28302.6,414482
step02_gravity_refstate-crust.xmf,671,-1.12932e-05,3.0671e-05,0,-6.72569e-06,-8.01689e+08,-7.9881e+08,-8.00914e+08,-461383,0.016272,-0.419809,0,0.420124,-1395.02,-29188.1,-0,29221.4,461383
step02_gravity_refstate-crust.xmf,672,6.42394e-07,-6.24735e-08,0,-2.16937e-05,-8.76624e+08,-8.76673e+08,-8.76668e+08,-1.48819e+06,0.00897767,-0.328196,0,0.328318,-4797.92,-31916.9,-0,32275.5,1.48819e+06
step02_gravity_refstate-crust.xmf,673,1.87607e-06,-3.63032e-06,0,-5.56532e-06,-8.76005e+08,-8.76382e+08,-8.76133e+08,-381781,-0.0012772,-0.151201,-0,0.151206,-9819.13,-31893.8,-0,33371.1,381781
step02_gravity_refstate-crust.xmf,674,2.13209e-06,-3.79985e-06,0,-6.461e-06,-8.75753e+08,-8.7616e+08,-8.759e+08,-443224,0.000320557,-0.168532,0,0.168532,-9059.11,-31885.4,-0,33147.4,443224
step02_gravity_refstate-crust.xmf,675,2.39478e-06,-3.86752e-06,0,-7.59183e-06,-8.74882e+08,-8.75311e+08,-8.75046e+08,-520799,0.00232069,-0.187457,0,0.187471,-8326.85,-31854.6,-0,32925,520799
step02_gravity_refstate-crust.xmf,676,1.64034e-06,-3.40891e-06,0,-4.85262e-06,-8.75766e+08,-8.76113e+08,-8.75879e+08,-332890,-0.00255678,-0.135264,-0,0.135288,-10607,-31884.5,-0,33602.5,332890
step02_gravity_refstate-crust.xmf,677,1.25667e-06,-2.38638e-06,0,-3.09379e-06,-8.53422e+08,-8.53672e+08,-8.53508e+08,-212234,-0.00201913,-0.0781261,-0,0.0781522,-14500.7,-31071.1,-0,34288.2,212234
step02_gravity_refstate-crust.xmf,678,1.34205e-06,-1.87469e-06,0,-2.6075e-06,-8.12234e+08,-8.12455e+08,-8.12326e+08,-178874,0.00188027,-0.0493851,0,0.0494209,-17440.4,-29572.7,-0,34332.4,178874
step02_gravity_refstate-crust.xmf,679,7.80728e-08,-1.42441e-07,0,-1.01314e-06,-7.76086e+08,-7.76101e+08,-7.76091e+08,-69501.5,-0.00183806,0.0241618,-0,0.0242316,-29625.3,-28254.3,-0,40938.5,69501.5
step02_gravity_refstate-crust.xmf,680,5.87563e-07,-7.4704e-07,0,-1.59895e-06,-7.69762e+08,-7.69853e+08,-7.69802e+08,-109688,9.43249e-05,0.00239655,0,0.00239841,-24760.3,-28025.2,-0,37396.3,109688
step02_gravity_refstate-crust.xmf,681,2.32059e-07,-3.32129e-07,0,-1.20425e-06,-7.73782e+08,-7.73821e+08,-7.73798e+08,-82611.3,-0.00144846,0.0176293,-0,0.0176888,-27916.8,-28170.7,-0,39660.3,82611.3
step02_gravity_refstate-crust.xmf,682,3.9852e-07,-5.33774e-07,0,-1.39698e-06,-7.72338e+08,-7.72402e+08,-7.72365e+08,-95832.8,-0.00084907,0.0103394,-0,0.0103742,-26292.2,-28118.5,-0,38495.8,95832.8
step02_gravity_refstate-crust.xmf,683,1.11513e-06,-1.64055e-06,0,-2.35583e-06,-8.11917e+08,-8.12106e+08,-8.11993e+08,-161610,0.000492397,-0.0385722,0,0.0385753,-18623.9,-29560.6,-0,34938.2,161610
step02_gravity_refstate-crust.xmf,684,6.21499e-07,-9.96498e-07,0,-1.77927e-06,-8.02563e+08,-8.02674e+08,-8.02606e+08,-122058,-0.00157792,-0.0104012,-0,0.0105203,-22436.7,-29219.1,-0,36839.7,122058
step02_gravity_refstate-crust.xmf,685,9.32252e-07,-1.42733e-06,0,-2.15191e-06,-8.10373e+08,-8.10535e+08,-8.10437e+08,-147621,-0.000463362,-0.0290668,-0,0.0290705,-19778.8,-29504,-0,35520.2,147621
step02_gravity_refstate-crust.xmf,686,7.85842e-07,-1.22385e-06,0,-1.97282e-06,-8.06241e+08,-8.06379e+08,-8.06295e+08,-135335,-0.000985978,-0.0200464,-0,0.0200707,-20999.1,-29353.3,-0,36091.2,135335
step02_gravity_refstate-crust.xmf,687,1.03872e-06,-1.90177e-06,0,-2.54193e-06,-8.39624e+08,-8.39826e+08,-8.39695e+08,-174377,-0.00202274,-0.053102,-0,0.0531405,-16867.5,-30568.6,-0,34913.5,174377
step02_gravity_refstate-crust.xmf,688,-3.15998e-07,3.45412e-07,0,-3.38518e-07,-7.87737e+08,-7.87691e+08,-7.87715e+08,-23222.3,-0.00127152,0.0394768,-0,0.0394973,-36294.9,-28677.6,-0,46257.2,23222.3
step02_gravity_refstate-crust.xmf,689,-3.97324e-07,3.40979e-07,0,-5.03777e-07,-8.16689e+08,-8.16639e+08,-8.16662e+08,-34559.1,-0.00264718,0.0361546,-0,0.0362514,-34294.5,-29731.3,-0,45387.9,34559.1
step02_gravity_refstate-crust.xmf,690,-5.07076e-07,4.92314e-07,0,-1.61264e-07,-8.20624e+08,-8.20555e+08,-8.20589e+08,-11062.7,-0.00094798,0.0405838,-0,0.0405949,-38152.9,-29874.3,-0,48457.4,11062.7
step02_gravity_refstate-crust.xmf,691,-1.83912e-06,1.27057e-06,0,-2.45181e-06,-1.43936e+08,-1.43723e+08,-1.4381e+08,-168194,0.03494,-0.111239,0,0.116597,-11285.3,-5234.67,-0,12440.3,168194
step02_gravity_refstate-crust.xmf,692,-1.90437e-06,1.07102e-06,0,-1.84271e-06,-9.77677e+07,-9.75636e+07,-9.76371e+07,-126410,0.0411977,-0.103638,0,0.111526,-12076.9,-3553.29,-0,12588.8,126410
step02_gravity_refstate-crust.xmf,693,-1.91634e-06,8.91074e-07,0,-1.03826e-06,-4.91139e+07,-4.89213e+07,-4.89824e+07,-71224.4,0.0503959,-0.0954772,0,0.107961,-12983.7,-1781.67,-0,13105.4,71224.4
step02_gravity_refstate-crust.xmf,694,-1.81464e-06,6.90559e-07,0,-2.13279e-08,-172294,-437.068,-47809.4,-1463.1,0.0627972,-0.0873249,0,0.10756,-13945.9,0,-0,13945.9,1463.1
step02_gravity_refstate-crust.xmf,695,-1.77006e-06,1.48414e-06,0,-2.94255e-06,-1.87925e+08,-1.87702e+08,-1.87804e+08,-201859,0.0308502,-0.118283,0,0.12224,-10611.1,-6836.75,-0,12622.8,201859
step02_gravity_refstate-crust.xmf,696,-9.14136e-06,1.91781e-05,0,-6.46127e-06,-6.95994e+08,-6.94051e+08,-6.95367e+08,-443243,0.0206455,-0.316289,0,0.316962,-2057.36,-25331.1,-0,25414.5,443243
step02_gravity_refstate-crust.xmf,697,-8.38748e-06,1.73966e-05,0,-6.48157e-06,-6.77589e+08,-6.7582e+08,-6.77014e+08,-444636,0.0216419,-0.301342,0,0.302118,-2304.11,-24661.3,-0,24768.7,444636
step02_gravity_refstate-crust.xmf,698,-3.59691e-06,7.1878e-06,0,-5.47373e-06,-5.11507e+08,-5.10768e+08,-5.11261e+08,-375498,0.0255093,-0.203458,0,0.205051,-5125.71,-18618.5,-0,19311.2,375498
step02_gravity_refstate-crust.xmf,699,-2.19518e-06,3.72e-06,0,-4.35612e-06,-3.74815e+08,-3.74409e+08,-3.74664e+08,-298830,0.0246206,-0.158873,0,0.16077,-7343.06,-13642.4,-0,15493.1,298830
step02_gravity_refstate-crust.xmf,700,-2.45917e-06,4.39217e-06,0,-4.54056e-06,-4.05957e+08,-4.05487e+08,-4.05788e+08,-311483,0.0244082,-0.16831,0,0.170071,-6717.91,-14776.1,-0,16231.6,311483
step02_gravity_refstate-crust.xmf,701,-9.91042e-06,2.1038e-05,0,-6.22748e-06,-7.13012e+08,-7.10889e+08,-7.12332e+08,-427205,0.0190594,-0.331657,0,0.332204,-1791.3,-25950.4,-0,26012.1,427205
step02_gravity_refstate-crust.xmf,702,-1.0702e-05,2.30934e-05,0,-5.6203e-06,-7.29543e+08,-7.27224e+08,-7.28808e+08,-385553,0.016536,-0.348262,0,0.348654,-1474.9,-26552.2,-0,26593.1,385553
step02_gravity_refstate-crust.xmf,703,-1.17754e-05,2.72446e-05,0,-4.5169e-06,-7.63448e+08,-7.60771e+08,-7.6264e+08,-309859,0.0123482,-0.383534,0,0.383733,-1029.98,-27788.6,-0,27807.7,309859
step02_gravity_refstate-crust.xmf,704,-1.13757e-05,2.52477e-05,0,-4.9176e-06,-7.46596e+08,-7.44084e+08,-7.45816e+08,-337348,0.0138992,-0.366019,0,0.366283,-1188.63,-27173.6,-0,27199.6,337348
step02_gravity_refstate-crust.xmf,705,-1.17419e-05,2.99451e-05,0,-4.99626e-06,-7.90029e+08,-7.8717e+08,-7.89224e+08,-342743,0.01275,-0.410923,0,0.41112,-1066,-28760.7,-0,28780.4,342743
step02_gravity_refstate-crust.xmf,706,-1.20008e-05,2.89224e-05,0,-3.43236e-06,-7.76999e+08,-7.74192e+08,-7.76176e+08,-235460,0.00912641,-0.399577,0,0.399681,-753.777,-28283.7,-0,28293.7,235460
step02_gravity_refstate-crust.xmf,707,-1.1664e-05,3.16989e-05,0,-3.74364e-06,-8.03385e+08,-8.0041e+08,-8.02585e+08,-256814,0.00918194,-0.42862,0,0.428718,-781.223,-29249.9,-0,29260.4,256814
step02_gravity_refstate-crust.xmf,708,-1.11165e-05,3.21938e-05,0,-5.85383e-06,-8.13534e+08,-8.10563e+08,-8.12771e+08,-401573,0.0135915,-0.436152,0,0.436364,-1197.31,-29622.4,-0,29646.6,401573
step02_gravity_refstate-crust.xmf,709,-1.04598e-05,3.27686e-05,0,-7.4829e-06,-8.23809e+08,-8.20843e+08,-8.23091e+08,-513327,0.0162421,-0.443927,0,0.444224,-1498.34,-30000,-0,30037.4,513327
step02_gravity_refstate-crust.xmf,710,2.05711e-06,-4.05026e-06,0,-9.4953e-06,-8.8539e+08,-8.85809e+08,-8.85532e+08,-651377,-0.000435215,-0.215018,-0,0.215018,-7354.48,-32235.6,-0,33063.9,651377
step02_gravity_refstate-crust.xmf,711,2.15453e-06,-3.90305e-06,0,-1.09978e-05,-8.83852e+08,-8.84267e+08,-8.84e+08,-754450,0.00139662,-0.232503,0,0.232507,-6853.89,-32180.2,-0,32902,754450
step02_gravity_refstate-crust.xmf,712,-5.54961e-07,1.46944e-06,0,-2.9318e-05,-8.78994e+08,-8.78855e+08,-8.78956e+08,-2.01122e+06,0.00773549,-0.380651,0,0.380729,-4000,-32000.7,-0,32249.7,2.01122e+06
step02_gravity_refstate-crust.xmf,713,2.0149e-06,-3.53079e-06,0,-1.33291e-05,-8.84063e+08,-8.84443e+08,-8.84201e+08,-914379,0.00259577,-0.256826,0,0.256839,-6227.56,-32187.9,-0,32784.8,914379
step02_gravity_refstate-crust.xmf,714,1.64921e-06,-2.90781e-06,0,-1.6419e-05,-8.84692e+08,-8.85005e+08,-8.84805e+08,-1.12634e+06,0.00340083,-0.284526,0,0.284547,-5608.27,-32210.3,-0,32694.9,1.12634e+06
step02_gravity_refstate-crust.xmf,715,5.37613e-07,-1.38973e-06,0,-2.4841e-05,-8.86684e+08,-8.86816e+08,-8.86721e+08,-1.70409e+06,0.00358071,-0.347522,0,0.347541,-4480.93,-32280.6,-0,32590.2,1.70409e+06
step02_gravity_refstate-crust.xmf,716,1.13161e-06,-2.29381e-06,0,-2.01752e-05,-8.86362e+08,-8.86597e+08,-8.86439e+08,-1.38402e+06,0.00327685,-0.313995,0,0.314012,-5038.11,-32269.9,-0,32660.8,1.38402e+06
step02_gravity_refstate-crust.xmf,717,1.58672e-06,-4.26756e-06,0,-8.31464e-06,-8.92847e+08,-8.93249e+08,-8.92956e+08,-570384,-0.00494368,-0.198619,-0,0.19868,-7843.12,-32504.8,-0,33437.7,570384
step02_gravity_refstate-crust.xmf,718,1.41795e-06,-3.17416e-06,0,-4.25156e-06,-8.74931e+08,-8.75246e+08,-8.75028e+08,-291657,-0.00355273,-0.120193,-0,0.120246,-11444.6,-31853.5,-0,33847.1,291657
step02_gravity_refstate-crust.xmf,719,8.80831e-07,-2.17261e-06,0,-2.82093e-06,-8.65101e+08,-8.6531e+08,-8.65161e+08,-193516,-0.00522138,-0.0694761,-0,0.0696721,-15149.7,-31495.1,-0,34949.3,193516
step02_gravity_refstate-crust.xmf,720,8.88448e-07,-2.38772e-06,0,-3.08386e-06,-8.72484e+08,-8.72709e+08,-8.72545e+08,-211553,-0.00596001,-0.080835,-0,0.0810544,-14149.1,-31763.6,-0,34772.4,211553
step02_gravity_refstate-crust.xmf,721,1.04062e-06,-2.63435e-06,0,-3.3985e-06,-8.73675e+08,-8.73927e+08,-8.73747e+08,-233137,-0.00537023,-0.0928239,-0,0.0929791,-13231.4,-31807.2,-0,34449.4,233137
step02_gravity_refstate-crust.xmf,722,1.21902e-06,-2.89592e-06,0,-3.79084e-06,-8.7459e+08,-8.74872e+08,-8.74673e+08,-260052,-0.00459438,-0.106065,-0,0.106165,-12317.5,-31840.8,-0,34140.2,260052
step02_gravity_refstate-crust.xmf,723,4.40672e-07,-7.67956e-07,0,-1.58751e-06,-8.0204e+08,-8.02123e+08,-8.0207e+08,-108903,-0.00230635,-0.00141107,-0,0.00270377,-23921.3,-29199.7,-0,37747.1,108903
step02_gravity_refstate-crust.xmf,724,6.74875e-07,-1.89572e-06,0,-2.5464e-06,-8.6645e+08,-8.66627e+08,-8.66497e+08,-174683,-0.00636711,-0.0570606,-0,0.0574148,-16290.2,-31543.8,-0,35501.9,174683
step02_gravity_refstate-crust.xmf,725,-3.26191e-07,2.1484e-07,0,-6.88838e-07,-8.19856e+08,-8.19819e+08,-8.19834e+08,-47254.3,-0.00350764,0.0317321,-0,0.0319253,-32210.3,-29846.7,-0,43912.7,47254.3
step02_gravity_refstate-crust.xmf,726,-2.18941e-07,6.01381e-08,0,-8.59052e-07,-8.18146e+08,-8.18127e+08,-8.18131e+08,-58930.9,-0.00392571,0.0267917,-0,0.0270778,-30409.7,-29784.6,-0,42566.1,58930.9
step02_gravity_refstate-crust.xmf,727,-6.79413e-07,6.1058e-07,0,-2.02197e-09,-8.54556e+08,-8.54468e+08,-8.5451e+08,-138.707,-2.7298e-19,0.0404128,-0,0.0404128,-40000,-31109.2,-0,50673.3,138.707
step02_gravity_refstate-crust.xmf,728,-1.75069e-06,1.81387e-06,0,-3.31491e-06,-2.29242e+08,-2.28997e+08,-2.29121e+08,-227403,0.0281468,-0.125752,0,0.128863,-9920.44,-8341.49,-0,12961.3,227403
step02_gravity_refstate-crust.xmf,729,-1.80318e-06,2.20173e-06,0,-3.61224e-06,-2.67845e+08,-2.6757e+08,-2.67721e+08,-247800,0.0263296,-0.133906,0,0.13647,-9183.69,-9747.26,-0,13392.1,247800
step02_gravity_refstate-crust.xmf,730,-1.92155e-06,2.67268e-06,0,-3.84769e-06,-3.04127e+08,-3.03812e+08,-3.03995e+08,-263951,0.0251076,-0.142578,0,0.144772,-8433.54,-11068.4,-0,13915.3,263951
step02_gravity_refstate-crust.xmf,731,-2.04714e-06,3.17804e-06,0,-4.08966e-06,-3.4026e+08,-3.39901e+08,-3.40119e+08,-280551,0.0246118,-0.150815,0,0.15281,-7836.58,-12384.1,-0,14655.3,280551
step02_gravity_refstate-crust.xmf,732,-2.28796e-06,1.53955e-06,0,-2.31619e-06,-1.46212e+08,-1.45949e+08,-1.46055e+08,-158890,0.031245,-0.123069,0,0.126973,-9579.77,-5316.11,-0,10956,158890
step02_gravity_refstate-crust.xmf,733,-3.9563e-06,8.3133e-06,0,-6.36077e-06,-5.56927e+08,-5.56085e+08,-5.56655e+08,-436349,0.0278715,-0.218369,0,0.220141,-4912.41,-20272.3,-0,20859,436349
step02_gravity_refstate-crust.xmf,734,-7.57005e-06,1.56002e-05,0,-6.52748e-06,-6.59195e+08,-6.57605e+08,-6.58675e+08,-447785,0.0229565,-0.286742,0,0.287659,-2627.51,-23992.2,-0,24135.6,447785
step02_gravity_refstate-crust.xmf,735,-4.59959e-06,9.64577e-06,0,-6.47741e-06,-5.79076e+08,-5.78099e+08,-5.78761e+08,-444350,0.0271913,-0.231504,0,0.233095,-4361.27,-21078.2,-0,21524.6,444350
step02_gravity_refstate-crust.xmf,736,-6.79569e-06,1.40169e-05,0,-6.59772e-06,-6.40237e+08,-6.3881e+08,-6.39771e+08,-452604,0.0241741,-0.272532,0,0.273602,-2989.75,-23302.7,-0,23493.7,452604
step02_gravity_refstate-crust.xmf,737,-6.05058e-06,1.25066e-05,0,-6.58941e-06,-6.2103e+08,-6.19757e+08,-6.20615e+08,-452034,0.0252556,-0.258937,0,0.260166,-3384.81,-22604.1,-0,22856.1,452034
step02_gravity_refstate-crust.xmf,738,-5.3145e-06,1.10376e-05,0,-6.53427e-06,-6.00273e+08,-5.99152e+08,-5.99909e+08,-448251,0.0262213,-0.245141,0,0.246539,-3836.11,-21849.1,-0,22183.3,448251
step02_gravity_refstate-crust.xmf,739,-4.19823e-06,8.26934e-06,0,-5.43794e-06,-5.33137e+08,-5.32282e+08,-5.32849e+08,-373042,0.0243704,-0.215523,0,0.216897,-4465.89,-19405.2,-0,19912.5,373042
step02_gravity_refstate-crust.xmf,740,-2.79133e-06,5.1656e-06,0,-4.70049e-06,-4.35847e+08,-4.35301e+08,-4.35656e+08,-322453,0.0241823,-0.178425,0,0.180056,-6093.16,-15864.2,-0,16994.1,322453
step02_gravity_refstate-crust.xmf,741,-3.20104e-06,6.03549e-06,0,-4.801e-06,-4.63286e+08,-4.62653e+08,-4.63067e+08,-329349,0.0237446,-0.189054,0,0.190539,-5460.77,-16862.8,-0,17724.9,329349
step02_gravity_refstate-crust.xmf,742,-3.67746e-06,6.94378e-06,0,-4.75599e-06,-4.85106e+08,-4.84377e+08,-4.84853e+08,-326261,0.0227275,-0.199413,0,0.200704,-4804.79,-17656.6,-0,18298.7,326261
step02_gravity_refstate-crust.xmf,743,-1.20721e-05,2.8002e-05,0,-2.00504e-06,-7.66134e+08,-7.63384e+08,-7.65305e+08,-137546,0.00553807,-0.38988,0,0.38992,-457.303,-27886.4,-0,27890.1,137546
step02_gravity_refstate-crust.xmf,744,-1.12682e-05,3.28878e-05,0,-3.70187e-06,-8.15569e+08,-8.1254e+08,-8.14796e+08,-253948,0.00860477,-0.443229,0,0.443312,-758.065,-29696.9,-0,29706.6,253948
step02_gravity_refstate-crust.xmf,745,9.49845e-07,-3.53435e-06,0,-5.03901e-06,-8.94854e+08,-8.95162e+08,-8.94919e+08,-345676,-0.00875583,-0.140816,-0,0.141087,-10201.4,-32576.4,-0,34136.4,345676
step02_gravity_refstate-crust.xmf,746,1.15323e-06,-3.82203e-06,0,-5.82346e-06,-8.94364e+08,-8.94705e+08,-8.94443e+08,-399489,-0.0077576,-0.157556,-0,0.157747,-9418.44,-32559,-0,33893.8,399489
step02_gravity_refstate-crust.xmf,747,1.38184e-06,-4.08507e-06,0,-6.84767e-06,-8.93614e+08,-8.93989e+08,-8.93709e+08,-469750,-0.00648423,-0.176206,-0,0.176325,-8649.33,-32532.2,-0,33662.3,469750
step02_gravity_refstate-crust.xmf,748,1.41475e-06,-4.51643e-06,0,-9.77356e-06,-8.98706e+08,-8.99113e+08,-8.98803e+08,-670466,-0.00687132,-0.217849,-0,0.217958,-7206.62,-32717,-0,33501.3,670466
step02_gravity_refstate-crust.xmf,749,7.65035e-07,-3.23641e-06,0,-4.41786e-06,-8.95257e+08,-8.95532e+08,-8.9531e+08,-303065,-0.00958389,-0.125355,-0,0.125721,-11015.2,-32590.8,-0,34402,303065
step02_gravity_refstate-crust.xmf,750,8.58465e-07,-1.66182e-06,0,-2.32101e-06,-8.39366e+08,-8.39538e+08,-8.39424e+08,-159221,-0.00303793,-0.0425315,-0,0.0426398,-17989.7,-30558.8,-0,35460.8,159221
step02_gravity_refstate-crust.xmf,751,-8.80353e-08,-1.21231e-07,0,-1.03292e-06,-8.15569e+08,-8.15572e+08,-8.15563e+08,-70858.2,-0.00405937,0.0208806,-0,0.0212715,-28658.3,-29691.1,-0,41265.7,70858.2
step02_gravity_refstate-crust.xmf,752,2.43578e-07,-5.39711e-07,0,-1.39182e-06,-8.07486e+08,-8.0754e+08,-8.07503e+08,-95478.9,-0.00327992,0.00674912,-0,0.0075039,-25421.1,-29397.5,-0,38864.4,95478.9
step02_gravity_refstate-crust.xmf,753,6.03346e-08,-3.21435e-07,0,-1.20957e-06,-8.13158e+08,-8.13184e+08,-8.13162e+08,-82976.2,-0.00393341,0.0140996,-0,0.0146379,-26974.8,-29603.6,-0,40050.1,82976.2
step02_gravity_refstate-crust.xmf,754,6.9604e-07,-1.44326e-06,0,-2.12687e-06,-8.38622e+08,-8.38769e+08,-8.3867e+08,-145903,-0.00378755,-0.0329777,-0,0.0331945,-19109.4,-30531.5,-0,36018.6,145903
step02_gravity_refstate-crust.xmf,755,2.03652e-07,-7.39331e-07,0,-1.56103e-06,-8.39653e+08,-8.39718e+08,-8.39667e+08,-107087,-0.00567016,-0.00443427,-0,0.00719815,-23218.5,-30568.1,-0,38386.3,107087
step02_gravity_refstate-crust.xmf,756,4.01254e-07,-9.99532e-07,0,-1.76272e-06,-8.358e+08,-8.35896e+08,-8.35828e+08,-120923,-0.00480489,-0.0142416,-0,0.0150303,-21664.9,-30428.2,-0,37353,120923
step02_gravity_refstate-crust.xmf,757,5.41932e-07,-1.22066e-06,0,-1.94064e-06,-8.37597e+08,-8.37718e+08,-8.37635e+08,-133128,-0.004403,-0.0234654,-0,0.0238749,-20339.3,-30493.9,-0,36654.6,133128
step02_gravity_refstate-crust.xmf,758,5.15556e-07,-1.65696e-06,0,-2.32189e-06,-8.66769e+08,-8.66918e+08,-8.66805e+08,-159281,-0.00707384,-0.0463423,-0,0.0468791,-17390.2,-31555.1,-0,36029.8,159281
step02_gravity_refstate-crust.xmf,759,-5.85524e-07,5.10023e-07,0,-3.0044e-07,-8.41951e+08,-8.41875e+08,-8.4191e+08,-20610.2,-0.00218704,0.0387372,-0,0.0387989,-36387,-30650.5,-0,47575.9,20610.2
step02_gravity_refstate-crust.xmf,760,-5.91076e-07,4.0817e-07,0,-5.7533e-07,-8.63136e+08,-8.63067e+08,-8.63095e+08,-39467.6,-0.00467991,0.0331344,-0,0.0334633,-33050.3,-31421.6,-0,45603.1,39467.6
step02_gravity_refstate-crust.xmf,761,-7.91846e-07,6.74351e-07,0,-1.5098e-07,-8.81112e+08,-8.81012e+08,-8.81058e+08,-10357.3,-0.00148834,0.0392876,-0,0.0393158,-38129.8,-32075.6,-0,49827,10357.3
step02_gravity_refstate-crust.xmf,762,-2.13912e-06,1.79398e-06,0,-2.80825e-06,-1.93675e+08,-1.93406e+08,-1.93529e+08,-192646,0.0276443,-0.129126,0,0.132052,-9097.56,-7045.07,-0,11506.5,192646
step02_gravity_refstate-crust.xmf,763,-2.48549e-06,1.3558e-06,0,-1.77054e-06,-1.00702e+08,-1.00439e+08,-1.00532e+08,-121459,0.036562,-0.117158,0,0.12273,-10119.1,-3658.21,-0,10760,121459
step02_gravity_refstate-crust.xmf,764,-2.66768e-06,1.19181e-06,0,-1.00617e-06,-4.97792e+07,-4.95144e+07,-4.95962e+07,-69023.5,0.0456311,-0.109386,0,0.118522,-10949.6,-1803.31,-0,11097.1,69023.5
step02_gravity_refstate-crust.xmf,765,-2.75807e-06,1.04714e-06,0,-2.55782e-08,-261973,-935.336,-72769.2,-1754.66,0.0581614,-0.101117,0,0.11665,-11904.5,0,-0,11904.5,1754.66
step02_gravity_refstate-crust.xmf,766,-8.50513e-06,1.6955e-05,0,-4.74485e-06,-6.59654e+08,-6.57907e+08,-6.5907e+08,-325496,0.0164462,-0.294799,0,0.295257,-1815.12,-24007.2,-0,24075.7,325496
step02_gravity_refstate-crust.xmf,767,-9.90829e-06,2.03391e-05,0,-4.49501e-06,-6.96604e+08,-6.94529e+08,-6.95925e+08,-308358,0.0143402,-0.323077,0,0.323395,-1391.7,-25352,-0,25390.2,308358
step02_gravity_refstate-crust.xmf,768,-9.30621e-06,1.87163e-05,0,-4.31159e-06,-6.77876e+08,-6.75954e+08,-6.77238e+08,-295775,0.014276,-0.309227,0,0.309556,-1470.26,-24670.1,-0,24713.9,295775
step02_gravity_refstate-crust.xmf,769,-4.30038e-06,8.09445e-06,0,-4.6069e-06,-5.09317e+08,-5.08466e+08,-5.09022e+08,-316033,0.02117,-0.211773,0,0.212829,-4061.02,-18537.3,-0,18976.9,316033
step02_gravity_refstate-crust.xmf,770,-2.40475e-06,3.65562e-06,0,-3.84883e-06,-3.48286e+08,-3.4787e+08,-3.48121e+08,-264030,0.0224748,-0.159408,0,0.160985,-6781.56,-12675.6,-0,14375.7,264030
step02_gravity_refstate-crust.xmf,771,-2.65384e-06,4.2683e-06,0,-3.91195e-06,-3.74728e+08,-3.74253e+08,-3.74546e+08,-268360,0.0217595,-0.167454,0,0.168862,-6165.16,-13638.2,-0,14967,268360
step02_gravity_refstate-crust.xmf,772,-2.98986e-06,5.05141e-06,0,-3.98219e-06,-4.05863e+08,-4.05311e+08,-4.05657e+08,-273178,0.0210606,-0.177309,0,0.178555,-5491.11,-14771.6,-0,15759.2,273178
step02_gravity_refstate-crust.xmf,773,-1.06329e-05,2.21521e-05,0,-3.93227e-06,-7.13689e+08,-7.1144e+08,-7.1296e+08,-269753,0.0120318,-0.338366,0,0.33858,-1104.44,-25973.9,-0,25997.3,269753
step02_gravity_refstate-crust.xmf,774,-1.13077e-05,2.40937e-05,0,-3.04355e-06,-7.30612e+08,-7.28183e+08,-7.29836e+08,-208787,0.00897459,-0.354595,0,0.354708,-785.206,-26590.2,-0,26601.8,208787
step02_gravity_refstate-crust.xmf,775,-1.18939e-05,2.62958e-05,0,-1.88409e-06,-7.49866e+08,-7.47246e+08,-7.4905e+08,-129248,0.00534388,-0.373799,0,0.373837,-448.971,-27292.2,-0,27295.9,129248
step02_gravity_refstate-crust.xmf,776,-1.20372e-05,3.0452e-05,0,-2.19955e-06,-7.89408e+08,-7.86493e+08,-7.88582e+08,-150889,0.00568724,-0.414671,0,0.41471,-471.429,-28737.6,-0,28741.5,150889
step02_gravity_refstate-crust.xmf,777,-1.21784e-05,2.92535e-05,0,-7.77822e-07,-7.76943e+08,-7.74101e+08,-7.76108e+08,-53358.6,0.00209245,-0.401974,0,0.40198,-171.981,-28281.4,-0,28281.9,53358.6
step02_gravity_refstate-crust.xmf,778,-1.14713e-05,3.29496e-05,0,-1.50496e-06,-8.13266e+08,-8.10219e+08,-8.12479e+08,-103240,0.00358526,-0.443023,0,0.443037,-312.296,-29612.4,-0,29614,103240
step02_gravity_refstate-crust.xmf,779,-1.07938e-05,3.34759e-05,0,-4.9452e-06,-8.23816e+08,-8.20779e+08,-8.23075e+08,-339240,0.0109421,-0.450938,0,0.451071,-999.46,-30000,-0,30016.6,339240
step02_gravity_refstate-crust.xmf,780,1.49221e-06,-4.71631e-06,0,-1.2003e-05,-8.98875e+08,-8.99301e+08,-8.98977e+08,-823405,-0.00600894,-0.241508,-0,0.241583,-6552.55,-32723.2,-0,33372.8,823405
step02_gravity_refstate-crust.xmf,781,4.58147e-07,-2.21524e-06,0,-2.97542e-05,-8.92774e+08,-8.92958e+08,-8.92806e+08,-2.04114e+06,0.000529126,-0.380464,0,0.380464,-4000,-32500.8,-0,32746,2.04114e+06
step02_gravity_refstate-crust.xmf,782,1.48703e-06,-4.70782e-06,0,-1.47985e-05,-8.98982e+08,-8.99407e+08,-8.99084e+08,-1.01518e+06,-0.00513142,-0.267759,-0,0.267808,-5924.72,-32727.1,-0,33259,1.01518e+06
step02_gravity_refstate-crust.xmf,783,1.38777e-06,-4.6308e-06,0,-1.83337e-05,-8.99488e+08,-8.99901e+08,-8.99583e+08,-1.2577e+06,-0.00455221,-0.296735,-0,0.29677,-5326.11,-32745.2,-0,33175.5,1.2577e+06
step02_gravity_refstate-crust.xmf,784,1.22497e-06,-4.4773e-06,0,-2.25195e-05,-8.99915e+08,-9.00306e+08,-8.99999e+08,-1.54484e+06,-0.00406037,-0.327808,-0,0.327833,-4772.57,-32760.3,-0,33106.1,1.54484e+06
step02_gravity_refstate-crust.xmf,785,5.28564e-07,-4.48917e-06,0,-7.45438e-06,-9.11298e+08,-9.11642e+08,-9.11334e+08,-511371,-0.0139325,-0.184145,-0,0.184671,-8246.95,-33171.9,-0,34181.7,511371
step02_gravity_refstate-crust.xmf,786,5.48188e-07,-4.98807e-06,0,-8.94685e-06,-9.14008e+08,-9.14388e+08,-9.14046e+08,-613754,-0.0148113,-0.204545,-0,0.205081,-7533.7,-33269.9,-0,34112.2,613754
step02_gravity_refstate-crust.xmf,787,5.99831e-07,-2.95128e-06,0,-3.90266e-06,-8.95537e+08,-8.95781e+08,-8.95578e+08,-267722,-0.0102502,-0.110868,-0,0.111341,-11869.9,-32600.8,-0,34694.5,267722
step02_gravity_refstate-crust.xmf,788,2.29355e-07,-1.87718e-06,0,-2.62059e-06,-8.92153e+08,-8.92298e+08,-8.92169e+08,-179773,-0.0109829,-0.0611412,-0,0.0621198,-15727.5,-32477.7,-0,36085.4,179773
step02_gravity_refstate-crust.xmf,789,3.02249e-07,-2.12618e-06,0,-2.87617e-06,-8.93385e+08,-8.93552e+08,-8.93406e+08,-197306,-0.0109503,-0.0726932,-0,0.0735134,-14679.7,-32522.5,-0,35682,197306
step02_gravity_refstate-crust.xmf,790,3.72909e-07,-2.38075e-06,0,-3.16719e-06,-8.94797e+08,-8.94986e+08,-8.94823e+08,-217269,-0.0109342,-0.0847004,-0,0.0854032,-13694.3,-32573.8,-0,35335.3,217269
step02_gravity_refstate-crust.xmf,791,4.6971e-07,-2.65209e-06,0,-3.50832e-06,-8.95545e+08,-8.95759e+08,-8.95577e+08,-240671,-0.0107272,-0.0973975,-0,0.0979864,-12758.4,-32601,-0,35008.6,240671
step02_gravity_refstate-crust.xmf,792,1.31245e-07,-5.72068e-07,0,-1.42498e-06,-8.31432e+08,-8.3148e+08,-8.31441e+08,-97753.8,-0.00513213,0.00284649,-0,0.00586867,-24566.6,-30268.8,-0,38983.6,97753.8
step02_gravity_refstate-crust.xmf,793,1.25083e-07,-1.63163e-06,0,-2.39938e-06,-8.92986e+08,-8.93106e+08,-8.92994e+08,-164598,-0.0113311,-0.0501832,-0,0.0514466,-16814.4,-32508,-0,36599.1,164598
step02_gravity_refstate-crust.xmf,794,-5.02605e-07,2.64035e-07,0,-7.38285e-07,-8.60986e+08,-8.60934e+08,-8.60952e+08,-50646.4,-0.00561019,0.0287813,-0,0.029323,-31193.9,-31343.4,-0,44220.7,50646.4
step02_gravity_refstate-crust.xmf,795,-3.93008e-07,9.18915e-08,0,-9.02726e-07,-8.57641e+08,-8.57608e+08,-8.57614e+08,-61927,-0.0062509,0.0234829,-0,0.0243006,-29398.7,-31221.8,-0,42884.6,61927
step02_gravity_refstate-crust.xmf,796,-6.7744e-07,5.25952e-07,0,-4.28006e-07,-8.69268e+08,-8.69186e+08,-8.69222e+08,-29361.2,-0.00378267,0.0360845,-0,0.0362822,-34751.9,-31644.7,-0,47000.8,29361.2
step02_gravity_refstate-crust.xmf,797,-9.52705e-07,7.93938e-07,0,-1.81035e-09,-9.15577e+08,-9.15457e+08,-9.15512e+08,-124.19,-3.71603e-19,0.0388529,-0,0.0388529,-40000,-33329.9,-0,52066.1,124.19
step02_gravity_refstate-crust.xmf,798,-2.15475e-06,2.17387e-06,0,-3.06662e-06,-2.31142e+08,-2.30845e+08,-2.30994e+08,-210370,0.0251091,-0.136535,0,0.138825,-8384.24,-8409.59,-0,11875,210370
step02_gravity_refstate-crust.xmf,799,-2.24711e-06,2.64019e-06,0,-3.2625e-06,-2.68541e+08,-2.68206e+08,-2.68387e+08,-223808,0.0231268,-0.144878,0,0.146712,-7603.08,-9771.49,-0,12381,223808
step02_gravity_refstate-crust.xmf,800,-2.42159e-06,3.27268e-06,0,-3.44878e-06,-3.10455e+08,-3.10064e+08,-3.10289e+08,-236586,0.0216695,-0.154499,0,0.156011,-6803.16,-11297.7,-0,13187.9,236586
step02_gravity_refstate-crust.xmf,801,-2.50349e-06,1.7981e-06,0,-2.33523e-06,-1.62445e+08,-1.6215e+08,-1.62273e+08,-160197,0.0272996,-0.131852,0,0.134648,-8345.55,-5906.62,-0,10224.3,160197
step02_gravity_refstate-crust.xmf,802,-2.89033e-06,1.66661e-06,0,-1.7891e-06,-1.1732e+08,-1.17007e+08,-1.17122e+08,-122732,0.0297934,-0.130006,0,0.133376,-8178.8,-4262.03,-0,9222.67,122732
step02_gravity_refstate-crust.xmf,803,-4.8351e-06,9.4864e-06,0,-5.41833e-06,-5.55773e+08,-5.54791e+08,-5.55442e+08,-371697,0.0233106,-0.227982,0,0.229171,-3894.09,-20228.6,-0,20600,371697
step02_gravity_refstate-crust.xmf,804,-7.70281e-06,1.5267e-05,0,-5.01271e-06,-6.408e+08,-6.39224e+08,-6.40271e+08,-343872,0.0182385,-0.28088,0,0.281472,-2167.04,-23321.4,-0,23421.9,343872
step02_gravity_refstate-crust.xmf,805,-5.52903e-06,1.0895e-05,0,-5.36055e-06,-5.78324e+08,-5.77197e+08,-5.77945e+08,-367734,0.0221133,-0.240996,0,0.242008,-3369.49,-21049,-0,21316.9,367734
step02_gravity_refstate-crust.xmf,806,-6.97284e-06,1.37809e-05,0,-5.19515e-06,-6.21101e+08,-6.19678e+08,-6.20623e+08,-356387,0.0196409,-0.267472,0,0.268192,-2522.05,-22604.9,-0,22745.2,356387
step02_gravity_refstate-crust.xmf,807,-6.25388e-06,1.23262e-05,0,-5.27821e-06,-6.00287e+08,-5.99012e+08,-5.99858e+08,-362085,0.020846,-0.254294,0,0.255147,-2906.77,-21847.8,-0,22040.3,362085
step02_gravity_refstate-crust.xmf,808,-4.92676e-06,9.22227e-06,0,-4.42132e-06,-5.31761e+08,-5.3079e+08,-5.31423e+08,-303303,0.0195244,-0.223574,0,0.224425,-3423.15,-19353.6,-0,19654,303303
step02_gravity_refstate-crust.xmf,809,-3.41045e-06,5.96604e-06,0,-4.01772e-06,-4.37115e+08,-4.36472e+08,-4.36881e+08,-275616,0.0202971,-0.188086,0,0.189178,-4820.27,-15909.1,-0,16623.3,275616
step02_gravity_refstate-crust.xmf,810,-3.86029e-06,6.88632e-06,0,-3.97732e-06,-4.63539e+08,-4.62802e+08,-4.63274e+08,-272844,0.0193508,-0.198293,0,0.199235,-4212.24,-16870.6,-0,17388.6,272844
step02_gravity_refstate-crust.xmf,811,-4.35453e-06,7.83158e-06,0,-3.8044e-06,-4.8593e+08,-4.85094e+08,-4.85631e+08,-260982,0.0178979,-0.208259,0,0.209027,-3591.39,-17685.3,-0,18046.2,260982
step02_gravity_refstate-crust.xmf,812,-1.21209e-05,2.78695e-05,0,5.24314e-07,-7.63786e+08,-7.61043e+08,-7.62955e+08,35967.9,-0.00141408,-0.388324,-0,0.388327,116.619,-27800.5,0,27800.8,35967.9
step02_gravity_refstate-crust.xmf,813,-1.18986e-05,3.17109e-05,0,-8.11627e-07,-8.00517e+08,-7.97525e+08,-7.99701e+08,-55677.6,0.00198997,-0.428273,0,0.428278,-167.445,-29144.6,-0,29145.1,55677.6
step02_gravity_refstate-crust.xmf,814,-1.09781e-05,3.38771e-05,0,-2.46318e-06,-8.23819e+08,-8.20742e+08,-8.23066e+08,-168974,0.00550543,-0.455131,0,0.455165,-500.036,-30000,-0,30004.2,168974
step02_gravity_refstate-crust.xmf,815,1.05214e-06,-4.26839e-06,0,-2.64528e-05,-8.99842e+08,-9.00207e+08,-8.99915e+08,-1.81466e+06,-0.0035102,-0.355792,-0,0.355809,-4336.14,-32757.3,-0,33043.1,1.81466e+06
step02_gravity_refstate-crust.xmf,816,7.89908e-09,-3.34768e-06,0,-4.73896e-06,-9.15065e+08,-9.15296e+08,-9.15066e+08,-325092,-0.0159814,-0.131081,-0,0.132052,-10573.2,-33308.7,-0,34946.6,325092
step02_gravity_refstate-crust.xmf,817,1.61379e-07,-3.71046e-06,0,-5.41492e-06,-9.13577e+08,-9.13843e+08,-9.13588e+08,-371463,-0.0153873,-0.147057,-0,0.14786,-9778.75,-33254.6,-0,34662.5,371463
step02_gravity_refstate-crust.xmf,818,3.26066e-07,-4.09358e-06,0,-6.29111e-06,-9.12525e+08,-9.12828e+08,-9.12547e+08,-431570,-0.0147865,-0.164545,-0,0.165208,-9006.3,-33216.4,-0,34415.7,431570
step02_gravity_refstate-crust.xmf,819,7.24824e-07,-5.37575e-06,0,-1.07378e-05,-9.14279e+08,-9.14697e+08,-9.14328e+08,-736614,-0.0145276,-0.226635,-0,0.2271,-6873.63,-33279.8,-0,33982.3,736614
step02_gravity_refstate-crust.xmf,820,-1.15601e-07,-2.99934e-06,0,-4.19679e-06,-9.16393e+08,-9.16591e+08,-9.16385e+08,-287900,-0.0163628,-0.11616,-0,0.117307,-11408.7,-33357.1,-0,35254.1,287900
step02_gravity_refstate-crust.xmf,821,3.80843e-07,-1.42659e-06,0,-2.13368e-06,-8.67219e+08,-8.67343e+08,-8.67245e+08,-146371,-0.00764258,-0.0364939,-0,0.0372856,-18504.6,-31571.3,-0,36594.7,146371
step02_gravity_refstate-crust.xmf,822,-2.76132e-07,-9.66357e-08,0,-1.06702e-06,-8.55319e+08,-8.55307e+08,-8.553e+08,-73197.7,-0.00668953,0.017308,-0,0.0185558,-27675.3,-31137.5,-0,41658.9,73197.7
step02_gravity_refstate-crust.xmf,823,-1.19205e-07,-3.32405e-07,0,-1.25117e-06,-8.5036e+08,-8.50374e+08,-8.50352e+08,-85830.3,-0.00669765,0.00949953,-0,0.0116232,-25850.4,-30957.2,-0,40331,85830.3
step02_gravity_refstate-crust.xmf,824,2.56883e-07,-1.20798e-06,0,-1.95742e-06,-8.67403e+08,-8.67503e+08,-8.6742e+08,-134279,-0.0080368,-0.0271902,-0,0.0283531,-19667,-31577.8,-0,37201.5,134279
step02_gravity_refstate-crust.xmf,825,-1.10741e-07,-4.83054e-07,0,-1.39084e-06,-8.63569e+08,-8.63595e+08,-8.63562e+08,-95411.8,-0.00794198,0.00237026,-0,0.00828814,-24357.2,-31437.9,-0,39769.5,95411.8
step02_gravity_refstate-crust.xmf,826,2.90394e-09,-7.69734e-07,0,-1.62417e-06,-8.70093e+08,-8.70146e+08,-8.70093e+08,-111418,-0.00867679,-0.00960183,-0,0.0129415,-22217.2,-31675.4,-0,38690.2,111418
step02_gravity_refstate-crust.xmf,827,1.35948e-07,-9.91214e-07,0,-1.78902e-06,-8.67852e+08,-8.6793e+08,-8.67862e+08,-122727,-0.00833469,-0.0182408,-0,0.0200548,-20901.2,-31594,-0,37882,122727
step02_gravity_refstate-crust.xmf,828,2.9831e-08,-1.40691e-06,0,-2.20647e-06,-8.94268e+08,-8.94367e+08,-8.94271e+08,-151364,-0.0116257,-0.0402518,-0,0.041897,-17900,-32554.7,-0,37151.3,151364
step02_gravity_refstate-crust.xmf,829,-9.00397e-07,7.09676e-07,0,-3.06462e-07,-9.10702e+08,-9.10592e+08,-9.1064e+08,-21023.3,-0.00358179,0.0369016,-0,0.0370751,-36096,-33152.5,-0,49010.3,21023.3
step02_gravity_refstate-crust.xmf,830,-7.69481e-07,4.66821e-07,0,-6.42722e-07,-9.05841e+08,-9.05756e+08,-9.05788e+08,-44090.7,-0.00687472,0.030174,-0,0.0309473,-31999.4,-32975.7,-0,45949.5,44090.7
step02_gravity_refstate-crust.xmf,831,-8.53151e-07,6.08842e-07,0,-4.79212e-07,-9.10872e+08,-9.10771e+08,-9.10813e+08,-32874,-0.00546293,0.0339259,-0,0.0343629,-33943.2,-33158.7,-0,47451.5,32874
step02_gravity_refstate-crust.xmf,832,-1.05586e-06,8.56528e-07,0,-1.4357e-07,-9.42634e+08,-9.42502e+08,-9.42561e+08,-9848.91,-0.00198782,0.03757,-0,0.0376226,-38122.8,-34314.6,-0,51291.7,9848.91
step02_gravity_refstate-crust.xmf,833,-2.49592e-06,2.07491e-06,0,-2.54976e-06,-1.95171e+08,-1.94858e+08,-1.95e+08,-174914,0.0242117,-0.13839,0,0.140492,-7638.64,-7098.52,-0,10427.7,174914
step02_gravity_refstate-crust.xmf,834,-3.36497e-06,1.48966e-06,0,-9.91925e-07,-5.50175e+07,-5.46845e+07,-5.47867e+07,-68046.1,0.0379932,-0.123559,0,0.129268,-8685.82,-1991.66,-0,8911.24,68046.1
step02_gravity_refstate-crust.xmf,835,-3.65607e-06,1.38409e-06,0,-3.36605e-08,-347439,-1684.03,-96632.3,-2309.11,0.0517272,-0.113693,0,0.124907,-9889.84,0,-0,9889.84,2309.11
step02_gravity_refstate-crust.xmf,836,-8.3863e-06,1.62447e-05,0,-3.29711e-06,-6.41664e+08,-6.39974e+08,-6.41089e+08,-226182,0.0118568,-0.286943,0,0.287188,-1369.39,-23351.6,-0,23391.8,226182
step02_gravity_refstate-crust.xmf,837,-1.04775e-05,2.13128e-05,0,-2.45043e-06,-7.00959e+08,-6.98778e+08,-7.0024e+08,-168100,0.00774576,-0.330383,0,0.330474,-731.458,-25509.7,-0,25520.2,168100
step02_gravity_refstate-crust.xmf,838,-9.14514e-06,1.7876e-05,0,-2.66247e-06,-6.60732e+08,-6.58879e+08,-6.60105e+08,-182645,0.00917735,-0.300667,0,0.300807,-987.062,-24045.3,-0,24065.5,182645
step02_gravity_refstate-crust.xmf,839,-9.98026e-06,1.97969e-05,0,-2.00859e-06,-6.82403e+08,-6.80361e+08,-6.81719e+08,-137789,0.00663072,-0.316783,0,0.316852,-661.537,-24833.9,-0,24842.7,137789
step02_gravity_refstate-crust.xmf,840,-2.75766e-06,3.9558e-06,0,-3.346e-06,-3.3983e+08,-3.3937e+08,-3.39641e+08,-229536,0.0195088,-0.165057,0,0.166206,-5721.53,-12366.8,-0,13626.2,229536
step02_gravity_refstate-crust.xmf,841,-4.91317e-06,8.88265e-06,0,-3.54019e-06,-5.08424e+08,-5.07477e+08,-5.08087e+08,-242857,0.0160841,-0.218842,0,0.219432,-2967.38,-18503.6,-0,18740,242857
step02_gravity_refstate-crust.xmf,842,-3.09395e-06,4.78425e-06,0,-3.30993e-06,-3.73466e+08,-3.72925e+08,-3.73254e+08,-227062,0.0181714,-0.175022,0,0.175963,-4931.41,-13591.3,-0,14458.3,227062
step02_gravity_refstate-crust.xmf,843,-3.48066e-06,5.66909e-06,0,-3.27526e-06,-4.06636e+08,-4.06008e+08,-4.06397e+08,-224683,0.0170611,-0.185166,0,0.185951,-4245.62,-14798.7,-0,15395.7,224683
step02_gravity_refstate-crust.xmf,844,-1.10306e-05,2.27843e-05,0,-1.52562e-06,-7.14781e+08,-7.12462e+08,-7.14025e+08,-104658,0.00468271,-0.342555,0,0.342587,-423.899,-26013,-0,26016.4,104658
step02_gravity_refstate-crust.xmf,845,-1.1553e-05,2.45078e-05,0,-3.32346e-07,-7.31354e+08,-7.2888e+08,-7.30561e+08,-22798.9,0.000990548,-0.357397,0,0.357399,-85.9327,-26616.9,-0,26617,22798.9
step02_gravity_refstate-crust.xmf,846,-1.18735e-05,2.60621e-05,0,1.19392e-06,-7.47044e+08,-7.44442e+08,-7.4623e+08,81903,-0.00341277,-0.37157,-0,0.371586,287.644,-27189.2,0,27190.7,81903
step02_gravity_refstate-crust.xmf,847,-1.21035e-05,3.05441e-05,0,5.62122e-07,-7.89119e+08,-7.86193e+08,-7.88288e+08,38561.6,-0.00142939,-0.415358,-0,0.41536,118.248,-28727,0,28727.2,38561.6
step02_gravity_refstate-crust.xmf,848,-1.21351e-05,2.91487e-05,0,1.84214e-06,-7.76727e+08,-7.73895e+08,-7.75895e+08,126371,-0.00488852,-0.401142,-0,0.401171,402.256,-28273.6,0,28276.4,126371
step02_gravity_refstate-crust.xmf,849,-1.14862e-05,3.30184e-05,0,1.09555e-06,-8.1381e+08,-8.10757e+08,-8.13022e+08,75154.7,-0.00259219,-0.443926,-0,0.443934,226.05,-29632.2,0,29633.1,75154.7
step02_gravity_refstate-crust.xmf,850,-1.18289e-05,3.16891e-05,0,2.04361e-06,-8.01263e+08,-7.98278e+08,-8.00451e+08,140192,-0.00508977,-0.428342,-0,0.428373,429.588,-29172,0,29175.1,140192
step02_gravity_refstate-crust.xmf,851,-1.10376e-05,3.40158e-05,0,-6.27984e-09,-8.2382e+08,-8.20729e+08,-8.23063e+08,-430.797,-2.40038e-07,-0.456528,-0,0.456528,-4.01542e-10,-30000,-0,30000,430.797
step02_gravity_refstate-crust.xmf,852,9.92952e-07,-5.96469e-06,0,-1.32814e-05,-9.13844e+08,-9.14322e+08,-9.13913e+08,-911101,-0.0137531,-0.251465,-0,0.251841,-6234,-33264.2,-0,33843.3,911101
step02_gravity_refstate-crust.xmf,853,1.47309e-06,-5.87411e-06,0,-2.9908e-05,-9.06537e+08,-9.07041e+08,-9.06638e+08,-2.05169e+06,-0.00666153,-0.378442,-0,0.378501,-4000,-33000.2,-0,33241.8,2.05169e+06
step02_gravity_refstate-crust.xmf,854,1.8078e-06,-7.38469e-06,0,-2.54129e-05,-9.13441e+08,-9.14071e+08,-9.13565e+08,-1.74333e+06,-0.0110921,-0.345303,-0,0.345481,-4449.82,-33250.6,-0,33547,1.74333e+06
step02_gravity_refstate-crust.xmf,855,1.2577e-06,-6.4721e-06,0,-1.6446e-05,-9.13712e+08,-9.14242e+08,-9.13798e+08,-1.12819e+06,-0.0130051,-0.278979,-0,0.279282,-5621.44,-33259.6,-0,33731.4,1.12819e+06
step02_gravity_refstate-crust.xmf,856,1.5345e-06,-6.97219e-06,0,-2.0386e-05,-9.13628e+08,-9.14212e+08,-9.13733e+08,-1.39848e+06,-0.0121601,-0.30941,-0,0.309649,-5038.6,-33257,-0,33636.5,1.39848e+06
step02_gravity_refstate-crust.xmf,857,-5.41779e-07,-4.4971e-06,0,-6.95993e-06,-9.3033e+08,-9.30601e+08,-9.30293e+08,-477451,-0.022107,-0.171531,-0,0.17295,-8609.01,-33860.4,-0,34937.7,477451
step02_gravity_refstate-crust.xmf,858,-2.36441e-07,-5.87465e-06,0,-9.86674e-06,-9.30845e+08,-9.31232e+08,-9.30829e+08,-676858,-0.0228934,-0.212149,-0,0.213381,-7194.68,-33878.3,-0,34633.8,676858
step02_gravity_refstate-crust.xmf,859,-4.19712e-07,-5.11269e-06,0,-8.22419e-06,-9.30308e+08,-9.3063e+08,-9.30279e+08,-564179,-0.0224288,-0.190922,-0,0.192235,-7887.93,-33859.2,-0,34765.8,564179
step02_gravity_refstate-crust.xmf,860,-1.6907e-07,-2.69084e-06,0,-3.74184e-06,-9.1679e+08,-9.16963e+08,-9.16778e+08,-256690,-0.0163573,-0.10228,-0,0.10358,-12284.9,-33371.8,-0,35561.2,256690
step02_gravity_refstate-crust.xmf,861,-3.17343e-07,-1.60864e-06,0,-2.5637e-06,-9.18629e+08,-9.18718e+08,-9.18607e+08,-175870,-0.0157816,-0.0541391,-0,0.0563924,-16249.8,-33439.8,-0,37179,175870
step02_gravity_refstate-crust.xmf,862,-2.90086e-07,-1.84975e-06,0,-2.80042e-06,-9.18017e+08,-9.18124e+08,-9.17997e+08,-192109,-0.0159774,-0.065156,-0,0.0670864,-15189.7,-33417.3,-0,36707.5,192109
step02_gravity_refstate-crust.xmf,863,-2.59972e-07,-2.10757e-06,0,-3.0696e-06,-9.17526e+08,-9.17652e+08,-9.17508e+08,-210575,-0.0161418,-0.0768559,-0,0.0785327,-14173.1,-33399.1,-0,36281.9,210575
step02_gravity_refstate-crust.xmf,864,-2.3703e-07,-2.3792e-06,0,-3.38305e-06,-9.17591e+08,-9.17738e+08,-9.17575e+08,-232077,-0.0163816,-0.0891055,-0,0.0905989,-13210.4,-33401.2,-0,35918.7,232077
step02_gravity_refstate-crust.xmf,865,-1.33609e-07,-5.80338e-07,0,-1.493e-06,-8.7551e+08,-8.7554e+08,-8.755e+08,-102420,-0.00914675,-0.00288623,-0,0.00959131,-23338.6,-31872.4,-0,39503.6,102420
step02_gravity_refstate-crust.xmf,866,-3.53964e-07,-1.38562e-06,0,-2.36057e-06,-9.20019e+08,-9.2009e+08,-9.19995e+08,-161935,-0.0156615,-0.0440757,-0,0.0467756,-17315.7,-33490.6,-0,37702.2,161935
step02_gravity_refstate-crust.xmf,867,-6.75992e-07,3.02605e-07,0,-8.03562e-07,-9.00987e+08,-9.00919e+08,-9.0094e+08,-55124.4,-0.00799415,0.0255275,-0,0.0267499,-30165.6,-32799.1,-0,44561.7,55124.4
step02_gravity_refstate-crust.xmf,868,-5.81261e-07,1.246e-07,0,-9.62981e-07,-8.97558e+08,-8.9751e+08,-8.97518e+08,-66060.5,-0.00890651,0.0200468,-0,0.0219363,-28425,-32674.3,-0,43308.1,66060.5
step02_gravity_refstate-crust.xmf,869,-1.19398e-06,9.6964e-07,0,-2.23385e-09,-9.76594e+08,-9.76446e+08,-9.76512e+08,-153.242,-4.97832e-19,0.0368946,-0,0.0368946,-40000,-35550.6,-0,53514.9,153.242
step02_gravity_refstate-crust.xmf,870,-2.53974e-06,2.51575e-06,0,-2.69908e-06,-2.318e+08,-2.31453e+08,-2.31625e+08,-185157,0.0215129,-0.145979,0,0.147555,-6855.8,-8432.52,-0,10867.8,185157
step02_gravity_refstate-crust.xmf,871,-2.66041e-06,3.04699e-06,0,-2.78223e-06,-2.68732e+08,-2.6834e+08,-2.68549e+08,-190861,0.0192988,-0.154218,0,0.15542,-6042.32,-9777.4,-0,11493.8,190861
step02_gravity_refstate-crust.xmf,872,-2.86684e-06,1.98037e-06,0,-2.01838e-06,-1.56795e+08,-1.56463e+08,-1.56599e+08,-138461,0.0239453,-0.139155,0,0.1412,-6993,-5699.75,-0,9021.6,138461
step02_gravity_refstate-crust.xmf,873,-3.5004e-06,1.71354e-06,0,-1.21826e-06,-8.30363e+07,-8.26786e+07,-8.27962e+07,-83572.7,0.0292831,-0.13378,0,0.136948,-7086.34,-3011.51,-0,7699.7,83572.7
step02_gravity_refstate-crust.xmf,874,-5.59577e-06,1.0498e-05,0,-4.22483e-06,-5.55069e+08,-5.53965e+08,-5.54685e+08,-289823,0.0179058,-0.235886,0,0.236564,-2866.6,-20201.5,-0,20403.8,289823
step02_gravity_refstate-crust.xmf,875,-7.66492e-06,1.47392e-05,0,-3.62257e-06,-6.22416e+08,-6.20879e+08,-6.2189e+08,-248508,0.0136157,-0.274262,0,0.2746,-1690.4,-22651.5,-0,22714.5,248508
step02_gravity_refstate-crust.xmf,876,-6.33965e-06,1.19885e-05,0,-3.9213e-06,-5.78673e+08,-5.77416e+08,-5.78239e+08,-269001,0.0159327,-0.249135,0,0.249644,-2325.25,-21060.1,-0,21188.1,269001
step02_gravity_refstate-crust.xmf,877,-7.01394e-06,1.33975e-05,0,-3.81132e-06,-6.01817e+08,-6.00417e+08,-6.01336e+08,-261457,0.0148747,-0.261884,0,0.262306,-1993.52,-21902.1,-0,21992.7,261457
step02_gravity_refstate-crust.xmf,878,-2.86585e-06,3.67015e-06,0,-2.76202e-06,-3.03254e+08,-3.02805e+08,-3.03057e+08,-189474,0.0173162,-0.162863,0,0.163781,-5199.09,-11034.3,-0,12197.8,189474
step02_gravity_refstate-crust.xmf,879,-5.50344e-06,9.97568e-06,0,-3.23163e-06,-5.3079e+08,-5.29728e+08,-5.30412e+08,-221690,0.0141137,-0.22967,0,0.230103,-2395.46,-19317.1,-0,19465.1,221690
step02_gravity_refstate-crust.xmf,880,-3.9307e-06,6.63443e-06,0,-3.18635e-06,-4.37982e+08,-4.37258e+08,-4.37713e+08,-218583,0.0158778,-0.195619,0,0.196263,-3605.87,-15939.6,-0,16342.3,218583
step02_gravity_refstate-crust.xmf,881,-4.37924e-06,7.54143e-06,0,-3.00021e-06,-4.6295e+08,-4.62133e+08,-4.6265e+08,-205815,0.0144275,-0.205018,0,0.205525,-3023.45,-16848.1,-0,17117.3,205815
step02_gravity_refstate-crust.xmf,882,-4.8514e-06,8.47556e-06,0,-2.7469e-06,-4.86235e+08,-4.8532e+08,-4.85902e+08,-188437,0.0127927,-0.214349,0,0.21473,-2479.45,-17695.4,-0,17868.2,188437
step02_gravity_refstate-crust.xmf,883,-1.19643e-05,2.74625e-05,0,2.94127e-06,-7.62444e+08,-7.59739e+08,-7.61623e+08,201771,-0.00807348,-0.38512,-0,0.385205,669.987,-27751.6,0,27759.7,201771
step02_gravity_refstate-crust.xmf,884,-1.13733e-05,3.26569e-05,0,3.5616e-06,-8.12927e+08,-8.09907e+08,-8.12147e+08,244325,-0.00837539,-0.440269,-0,0.440349,731.1,-29600,0,29609,244325
step02_gravity_refstate-crust.xmf,885,-8.81833e-07,-3.11914e-06,0,-4.66654e-06,-9.36604e+08,-9.36757e+08,-9.36543e+08,-320125,-0.0226089,-0.12191,-0,0.123989,-10940.5,-34089.6,-0,35802.2,320125
step02_gravity_refstate-crust.xmf,886,-7.41477e-07,-3.53821e-06,0,-5.23969e-06,-9.3316e+08,-9.33352e+08,-9.33109e+08,-359442,-0.0221789,-0.137353,-0,0.139133,-10128.9,-33964.1,-0,35442.3,359442
step02_gravity_refstate-crust.xmf,887,-6.53904e-07,-3.98186e-06,0,-5.98826e-06,-9.31403e+08,-9.31631e+08,-9.31358e+08,-410795,-0.0220904,-0.153658,-0,0.155237,-9358.88,-33899.8,-0,35168,410795
step02_gravity_refstate-crust.xmf,888,1.52259e-07,-6.63963e-06,0,-1.18948e-05,-9.29857e+08,-9.30323e+08,-9.29867e+08,-815983,-0.0224304,-0.235798,-0,0.236863,-6534.01,-33842.7,-0,34467.7,815983
step02_gravity_refstate-crust.xmf,889,-8.99918e-07,-2.74835e-06,0,-4.17085e-06,-9.38369e+08,-9.38496e+08,-9.38307e+08,-286120,-0.0223506,-0.107449,-0,0.109749,-11806.7,-34154.4,-0,36137.5,286120
step02_gravity_refstate-crust.xmf,890,-6.47709e-08,-1.18857e-06,0,-2.03424e-06,-8.95823e+08,-8.959e+08,-8.95818e+08,-139549,-0.011834,-0.0309995,-0,0.0331815,-19013.8,-32611.2,-0,37749.4,139549
step02_gravity_refstate-crust.xmf,891,-4.82527e-07,-6.96275e-08,0,-1.12501e-06,-8.94738e+08,-8.94709e+08,-8.94704e+08,-77176,-0.0096246,0.0136724,-0,0.0167203,-26734.2,-32571.8,-0,42138.3,77176
step02_gravity_refstate-crust.xmf,892,-1.57979e-07,-9.75006e-07,0,-1.86808e-06,-8.9791e+08,-8.97966e+08,-8.97899e+08,-128150,-0.0119773,-0.0221195,-0,0.0251541,-20191.8,-32687.2,-0,38420.8,128150
step02_gravity_refstate-crust.xmf,893,-4.07504e-07,-2.57507e-07,0,-1.28191e-06,-8.95488e+08,-8.95478e+08,-8.9546e+08,-87938.9,-0.0103621,0.00684295,-0,0.0124177,-25175.9,-32599.1,-0,41188.9,87938.9
step02_gravity_refstate-crust.xmf,894,-3.87085e-07,-4.04676e-07,0,-1.42101e-06,-9.0162e+08,-9.01621e+08,-9.01593e+08,-97481.6,-0.0113636,0.000550956,-0,0.011377,-23888.8,-32822.2,-0,40595.2,97481.6
step02_gravity_refstate-crust.xmf,895,-3.36206e-07,-5.6505e-07,0,-1.55465e-06,-9.02675e+08,-9.02691e+08,-9.02652e+08,-106649,-0.0118766,-0.00585631,-0,0.013242,-22713.9,-32860.6,-0,39946.7,106649
step02_gravity_refstate-crust.xmf,896,-2.50218e-07,-7.63344e-07,0,-1.70625e-06,-9.00273e+08,-9.00308e+08,-9.00256e+08,-117049,-0.011998,-0.0135909,-0,0.0181291,-21446.7,-32773.2,-0,39166.8,117049
step02_gravity_refstate-crust.xmf,897,-3.90175e-07,-1.17786e-06,0,-2.17854e-06,-9.22106e+08,-9.2216e+08,-9.22079e+08,-149448,-0.0155675,-0.0348059,-0,0.0381287,-18394.5,-33566.8,-0,38276.4,149448
step02_gravity_refstate-crust.xmf,898,-1.08102e-06,7.89878e-07,0,-4.11474e-07,-9.5965e+08,-9.59521e+08,-9.59575e+08,-28227.1,-0.00589439,0.0338274,-0,0.0343371,-34685.9,-34933.8,-0,49228.9,28227.1
step02_gravity_refstate-crust.xmf,899,-9.21391e-07,4.96227e-07,0,-7.31652e-07,-9.44755e+08,-9.44658e+08,-9.44692e+08,-50191.3,-0.00923605,0.0268791,-0,0.0284217,-30905.8,-34391.8,-0,46238.1,50191.3
step02_gravity_refstate-crust.xmf,900,-1.01919e-06,6.66306e-07,0,-5.67445e-07,-9.54577e+08,-9.54461e+08,-9.54507e+08,-38926.7,-0.00773435,0.0308544,-0,0.0318091,-32801.9,-34749.2,-0,47785.7,38926.7
step02_gravity_refstate-crust.xmf,901,-1.13064e-06,8.81108e-07,0,-2.6565e-07,-9.64928e+08,-9.6479e+08,-9.6485e+08,-18223.6,-0.00397386,0.0357466,-0,0.0359668,-36512.9,-35126,-0,50665.8,18223.6
step02_gravity_refstate-crust.xmf,902,-1.28931e-06,1.02843e-06,0,-1.56641e-07,-1.00539e+09,-1.00523e+09,-1.0053e+09,-10745.6,-0.00263136,0.0353361,-0,0.035434,-37953.8,-36598.6,-0,52725.2,10745.6
step02_gravity_refstate-crust.xmf,903,-2.84817e-06,2.32949e-06,0,-2.164e-06,-1.93705e+08,-1.93349e+08,-1.93509e+08,-148450,0.0201888,-0.146528,0,0.147912,-6118.47,-7044.09,-0,9330.32,148450
step02_gravity_refstate-crust.xmf,904,-3.32752e-06,1.89645e-06,0,-1.48795e-06,-1.17952e+08,-1.17594e+08,-1.17724e+08,-102073,0.0238968,-0.139898,0,0.141924,-6295.55,-4283.65,-0,7614.69,102073
step02_gravity_refstate-crust.xmf,905,-4.4738e-06,1.70316e-06,0,-2.77535e-08,-424744,-1004.2,-117841,-1903.89,0.0436568,-0.124656,0,0.13208,-7895.49,0,-0,7895.49,1903.89
step02_gravity_refstate-crust.xmf,906,-4.11766e-06,1.73774e-06,0,-6.76083e-07,-4.39443e+07,-4.35427e+07,-4.36619e+07,-46379.3,0.0321238,-0.133014,0,0.136838,-6735.41,-1585.87,-0,6919.59,46379.3
step02_gravity_refstate-crust.xmf,907,-8.77748e-06,1.67971e-05,0,-1.38263e-06,-6.42452e+08,-6.40698e+08,-6.4185e+08,-94848.4,0.00496164,-0.290573,0,0.290616,-563.504,-23379.6,-0,23386.4,94848.4
step02_gravity_refstate-crust.xmf,908,-8.10796e-06,1.53467e-05,0,-1.98508e-06,-6.22762e+08,-6.21153e+08,-6.22206e+08,-136176,0.00740702,-0.278124,0,0.278222,-902.883,-22663.2,-0,22681.2,136176
step02_gravity_refstate-crust.xmf,909,-1.05828e-05,2.13342e-05,0,-3.38962e-07,-6.98131e+08,-6.95941e+08,-6.97405e+08,-23252.8,0.00105903,-0.329709,0,0.329711,-100.357,-25406.4,-0,25406.6,23252.8
step02_gravity_refstate-crust.xmf,910,-9.4492e-06,1.83282e-05,0,-5.03222e-07,-6.62167e+08,-6.60261e+08,-6.61518e+08,-34521.1,0.00175499,-0.303763,0,0.303768,-186.136,-24097,-0,24097.7,34521.1
step02_gravity_refstate-crust.xmf,911,-3.15806e-06,4.40177e-06,0,-2.67445e-06,-3.38705e+08,-3.38186e+08,-3.38488e+08,-183467,0.0153803,-0.172314,0,0.172999,-4334.64,-12324.9,-0,13065,183467
step02_gravity_refstate-crust.xmf,912,-5.35055e-06,9.43437e-06,0,-2.38305e-06,-5.07878e+08,-5.06864e+08,-5.07511e+08,-163477,0.010761,-0.223674,0,0.223932,-1934.23,-18482.8,-0,18583.7,163477
step02_gravity_refstate-crust.xmf,913,-3.48959e-06,5.27571e-06,0,-2.57502e-06,-3.74278e+08,-3.73677e+08,-3.74039e+08,-176646,0.0139601,-0.181719,0,0.182255,-3645.06,-13620,-0,14099.3,176646
step02_gravity_refstate-crust.xmf,914,-3.92237e-06,6.26634e-06,0,-2.44208e-06,-4.11107e+08,-4.10408e+08,-4.10838e+08,-167526,0.0125228,-0.192252,0,0.192659,-2980.03,-14960.6,-0,15254.5,167526
step02_gravity_refstate-crust.xmf,915,-1.10758e-05,2.28496e-05,0,9.44666e-07,-7.14901e+08,-7.12574e+08,-7.14141e+08,64804.1,-0.00286784,-0.343014,-0,0.343026,259.173,-26017.3,0,26018.5,64804.1
step02_gravity_refstate-crust.xmf,916,-1.14244e-05,2.42991e-05,0,2.3248e-06,-7.31349e+08,-7.28899e+08,-7.30565e+08,159481,-0.00683513,-0.356165,-0,0.356231,595.363,-26616.9,0,26623.6,159481
step02_gravity_refstate-crust.xmf,917,-1.15747e-05,2.55908e-05,0,3.95353e-06,-7.47414e+08,-7.44865e+08,-7.4662e+08,271212,-0.011211,-0.368726,-0,0.368896,952.397,-27203.2,0,27219.8,271212
step02_gravity_refstate-crust.xmf,918,-1.19543e-05,3.02938e-05,0,3.25428e-06,-7.89495e+08,-7.86597e+08,-7.88675e+08,223243,-0.00833921,-0.413519,-0,0.413603,692.867,-28740.9,0,28749.3,223243
step02_gravity_refstate-crust.xmf,919,-1.1868e-05,2.86551e-05,0,4.47531e-06,-7.76814e+08,-7.74034e+08,-7.76e+08,307006,-0.0118271,-0.397592,-0,0.397768,980.39,-28277,0,28294,307006
step02_gravity_refstate-crust.xmf,920,-1.16013e-05,3.12426e-05,0,4.6773e-06,-8.01358e+08,-7.98419e+08,-8.00563e+08,320863,-0.0115079,-0.42451,-0,0.424666,977.645,-29175.7,0,29192.1,320863
step02_gravity_refstate-crust.xmf,921,-1.09795e-05,3.38882e-05,0,2.45065e-06,-8.23819e+08,-8.20741e+08,-8.23066e+08,168115,-0.00550535,-0.455132,-0,0.455165,500.036,-30000,0,30004.2,168115
step02_gravity_refstate-crust.xmf,922,7.1992e-07,-7.71349e-06,0,-1.46882e-05,-9.28622e+08,-9.29201e+08,-9.28672e+08,-1.00761e+06,-0.0215247,-0.261663,-0,0.262547,-5912.16,-33798.4,-0,34311.6,1.00761e+06
step02_gravity_refstate-crust.xmf,923,2.49274e-06,-9.53896e-06,0,-2.98243e-05,-9.20298e+08,-9.21124e+08,-9.20469e+08,-2.04595e+06,-0.0138082,-0.374595,-0,0.374849,-4000,-33499.7,-0,33737.7,2.04595e+06
step02_gravity_refstate-crust.xmf,924,2.04601e-06,-9.92141e-06,0,-2.23725e-05,-9.27505e+08,-9.28326e+08,-9.27645e+08,-1.53476e+06,-0.0194067,-0.321272,-0,0.321858,-4761.54,-33759.7,-0,34093.8,1.53476e+06
step02_gravity_refstate-crust.xmf,925,1.37099e-06,-8.80631e-06,0,-1.81698e-05,-9.27877e+08,-9.28575e+08,-9.27971e+08,-1.24645e+06,-0.020529,-0.290333,-0,0.291057,-5316.5,-33772.2,-0,34188.1,1.24645e+06
step02_gravity_refstate-crust.xmf,926,-1.00841e-06,-7.26448e-06,0,-1.10471e-05,-9.4929e+08,-9.49719e+08,-9.49221e+08,-757828,-0.0317347,-0.220844,-0,0.223112,-6808.79,-34544.5,-0,35209.1,757828
step02_gravity_refstate-crust.xmf,927,-1.4547e-06,-4.39834e-06,0,-6.76064e-06,-9.48712e+08,-9.48914e+08,-9.48612e+08,-463780,-0.0287572,-0.160368,-0,0.162926,-8947.7,-34526.1,-0,35666.7,463780
step02_gravity_refstate-crust.xmf,928,-1.38467e-06,-5.09427e-06,0,-7.83357e-06,-9.47925e+08,-9.4818e+08,-9.4783e+08,-537383,-0.0294658,-0.178413,-0,0.18083,-8223.62,-34496.7,-0,35463.3,537383
step02_gravity_refstate-crust.xmf,929,-1.26042e-06,-5.9786e-06,0,-9.19831e-06,-9.4812e+08,-9.48444e+08,-9.48033e+08,-631004,-0.0304348,-0.197888,-0,0.200215,-7529.49,-34502.9,-0,35314.9,631004
step02_gravity_refstate-crust.xmf,930,-8.71527e-07,-2.42569e-06,0,-3.75669e-06,-9.40055e+08,-9.40162e+08,-9.39996e+08,-257709,-0.0219787,-0.0939447,-0,0.0964815,-12713.2,-34216.4,-0,36501.9,257709
step02_gravity_refstate-crust.xmf,931,-7.53505e-07,-1.38374e-06,0,-2.60745e-06,-9.45322e+08,-9.45366e+08,-9.45271e+08,-178871,-0.0197359,-0.0479413,-0,0.0518447,-16748.3,-34410.2,-0,38269.7,178871
step02_gravity_refstate-crust.xmf,932,-7.89127e-07,-1.60732e-06,0,-2.84632e-06,-9.44065e+08,-9.44121e+08,-9.44011e+08,-195257,-0.0203383,-0.0583116,-0,0.0617567,-15684,-34363.9,-0,37773.9,195257
step02_gravity_refstate-crust.xmf,933,-8.29801e-07,-1.8529e-06,0,-3.11532e-06,-9.42786e+08,-9.42856e+08,-9.42729e+08,-213711,-0.0209318,-0.0695481,-0,0.0726297,-14643,-34316.8,-0,37310.4,213711
step02_gravity_refstate-crust.xmf,934,-8.65007e-07,-2.1231e-06,0,-3.41915e-06,-9.41463e+08,-9.41549e+08,-9.41403e+08,-234554,-0.0214903,-0.0814801,-0,0.0842665,-13647.8,-34268.1,-0,36885.8,234554
step02_gravity_refstate-crust.xmf,935,-7.10202e-07,-1.18943e-06,0,-2.39966e-06,-9.46487e+08,-9.46519e+08,-9.46438e+08,-164616,-0.0191486,-0.0387673,-0,0.0432385,-17786.4,-34453.1,-0,38773.3,164616
step02_gravity_refstate-crust.xmf,936,-8.43347e-07,3.27179e-07,0,-8.915e-07,-9.40258e+08,-9.40177e+08,-9.402e+08,-61156.9,-0.0105787,0.0220802,-0,0.0244836,-29155.2,-34228.1,-0,44962.1,61156.9
step02_gravity_refstate-crust.xmf,937,-7.6495e-07,1.41832e-07,0,-1.05626e-06,-9.36334e+08,-9.36272e+08,-9.36282e+08,-72459.5,-0.0117345,0.0163945,-0,0.0201613,-27451.6,-34085.3,-0,43765.3,72459.5
step02_gravity_refstate-crust.xmf,938,-1.38746e-06,1.12655e-06,0,-5.54966e-10,-1.03763e+09,-1.03746e+09,-1.03754e+09,-38.0706,-4.30369e-19,0.0345636,-0,0.0345636,-40000,-37772.2,-0,55015.8,38.0706
step02_gravity_refstate-crust.xmf,939,-2.89406e-06,2.81434e-06,0,-2.19979e-06,-2.30597e+08,-2.30205e+08,-2.30398e+08,-150905,0.0172709,-0.153927,0,0.154893,-5289.97,-8387.75,-0,9916.56,150905
step02_gravity_refstate-crust.xmf,940,-3.01052e-06,3.36316e-06,0,-2.16378e-06,-2.66216e+08,-2.65779e+08,-2.66009e+08,-148435,0.0148887,-0.161427,0,0.162113,-4490.63,-9684.88,-0,10675.3,148435
step02_gravity_refstate-crust.xmf,941,-3.21801e-06,2.18005e-06,0,-1.61937e-06,-1.54185e+08,-1.53815e+08,-1.53964e+08,-111089,0.0191502,-0.146659,0,0.147904,-5380.98,-5603.61,-0,7768.87,111089
step02_gravity_refstate-crust.xmf,942,-3.89259e-06,1.87124e-06,0,-9.83797e-07,-8.09535e+07,-8.05581e+07,-8.06865e+07,-67488.5,0.0237345,-0.140682,0,0.14267,-5536.12,-2934.34,-0,6265.69,67488.5
step02_gravity_refstate-crust.xmf,943,-6.17341e-06,1.12719e-05,0,-2.82623e-06,-5.54819e+08,-5.53622e+08,-5.54396e+08,-193880,0.0118434,-0.241704,0,0.241994,-1838.93,-20191.2,-0,20274.8,193880
step02_gravity_refstate-crust.xmf,944,-7.52545e-06,1.4137e-05,0,-2.50116e-06,-6.06099e+08,-6.04613e+08,-6.05582e+08,-171579,0.00968867,-0.267877,0,0.268052,-1256.66,-22057.1,-0,22092.8,171579
step02_gravity_refstate-crust.xmf,945,-6.98193e-06,1.29153e-05,0,-2.26358e-06,-5.82114e+08,-5.80749e+08,-5.81635e+08,-155282,0.00900615,-0.256065,0,0.256224,-1264.73,-21184.2,-0,21221.9,155282
step02_gravity_refstate-crust.xmf,946,-1.00335e-05,1.98064e-05,0,6.40324e-07,-6.80798e+08,-6.78751e+08,-6.8011e+08,43926.2,-0.00208134,-0.316653,-0,0.31666,207.897,-24775.2,0,24776.1,43926.2
step02_gravity_refstate-crust.xmf,947,-3.20201e-06,4.00919e-06,0,-2.05172e-06,-3.01581e+08,-3.01087e+08,-3.01362e+08,-140748,0.0127607,-0.169291,0,0.169771,-3704.89,-10972.6,-0,11581.2,140748
step02_gravity_refstate-crust.xmf,948,-5.88462e-06,1.04684e-05,0,-1.91407e-06,-5.29585e+08,-5.28463e+08,-5.29181e+08,-131305,0.00830504,-0.233455,0,0.233603,-1382.97,-19272.5,-0,19322,131305
step02_gravity_refstate-crust.xmf,949,-4.32556e-06,7.13309e-06,0,-2.22567e-06,-4.38281e+08,-4.37495e+08,-4.37985e+08,-152681,0.0109914,-0.201036,0,0.201336,-2419.88,-15949.6,-0,16132.1,152681
step02_gravity_refstate-crust.xmf,950,-4.77287e-06,8.0697e-06,0,-1.94066e-06,-4.64746e+08,-4.63865e+08,-4.64418e+08,-133130,0.00922614,-0.210203,0,0.210406,-1874.11,-16912.7,-0,17016.2,133130
step02_gravity_refstate-crust.xmf,951,-5.16916e-06,8.90093e-06,0,-1.70773e-06,-4.87439e+08,-4.86474e+08,-4.87085e+08,-117150,0.00791432,-0.218314,0,0.218458,-1498.37,-17738.6,-0,17801.7,117150
step02_gravity_refstate-crust.xmf,952,-1.15399e-05,2.67472e-05,0,5.60293e-06,-7.62832e+08,-7.60205e+08,-7.6204e+08,384361,-0.0152542,-0.38048,-0,0.380785,1280.61,-27766.4,0,27795.9,384361
step02_gravity_refstate-crust.xmf,953,-1.10955e-05,3.2067e-05,0,6.07996e-06,-8.12816e+08,-8.09855e+08,-8.12055e+08,417085,-0.0141533,-0.434679,-0,0.434909,1245.15,-29596.2,0,29622.3,417085
step02_gravity_refstate-crust.xmf,954,-1.07948e-05,3.34871e-05,0,4.93271e-06,-8.23815e+08,-8.20778e+08,-8.23075e+08,338384,-0.0109415,-0.450939,-0,0.451072,999.46,-30000,0,30016.6,338384
step02_gravity_refstate-crust.xmf,955,2.56274e-06,-1.07896e-05,0,-2.63923e-05,-9.27236e+08,-9.28152e+08,-9.27412e+08,-1.81051e+06,-0.0182534,-0.349492,-0,0.349969,-4318.98,-33750.6,-0,34025.8,1.81051e+06
step02_gravity_refstate-crust.xmf,956,-1.98555e-07,-8.27166e-06,0,-1.31831e-05,-9.44211e+08,-9.44764e+08,-9.44197e+08,-904360,-0.0296986,-0.245383,-0,0.247174,-6189.64,-34361.3,-0,34914.4,904360
step02_gravity_refstate-crust.xmf,957,-1.60146e-06,-2.91366e-06,0,-4.78095e-06,-9.58952e+08,-9.59042e+08,-9.58842e+08,-327973,-0.0281298,-0.113003,-0,0.116452,-11324.1,-34900.6,-0,36691.8,327973
step02_gravity_refstate-crust.xmf,958,-1.65174e-06,-3.38367e-06,0,-5.39943e-06,-9.57662e+08,-9.57781e+08,-9.57549e+08,-370401,-0.0292809,-0.129086,-0,0.132365,-10401.3,-34852.7,-0,36371.7,370401
step02_gravity_refstate-crust.xmf,959,-1.47156e-06,-3.83393e-06,0,-5.92354e-06,-9.49959e+08,-9.50121e+08,-9.49858e+08,-406355,-0.028116,-0.143971,-0,0.14669,-9688.75,-34572.3,-0,35904.3,406355
step02_gravity_refstate-crust.xmf,960,-1.49021e-06,-2.55179e-06,0,-4.30975e-06,-9.61146e+08,-9.61219e+08,-9.61044e+08,-295649,-0.0272976,-0.0993558,-0,0.103038,-12199.4,-34981.5,-0,37047.7,295649
step02_gravity_refstate-crust.xmf,961,-4.59396e-07,-9.67087e-07,0,-2.01213e-06,-9.25929e+08,-9.25964e+08,-9.25898e+08,-138032,-0.015584,-0.0259972,-0,0.0303104,-19517.3,-33706,-0,38948.9,138032
step02_gravity_refstate-crust.xmf,962,-6.91479e-07,-5.2194e-08,0,-1.22351e-06,-9.33362e+08,-9.33318e+08,-9.33314e+08,-83932.5,-0.0127221,0.0099726,-0,0.0161649,-25827.2,-33977.1,-0,42678.9,83932.5
step02_gravity_refstate-crust.xmf,963,-5.27795e-07,-7.61538e-07,0,-1.85082e-06,-9.30306e+08,-9.30322e+08,-9.3027e+08,-126967,-0.0155077,-0.017647,-0,0.0234927,-20694.6,-33865.4,-0,39687.9,126967
step02_gravity_refstate-crust.xmf,964,-6.40752e-07,-2.23903e-07,0,-1.37353e-06,-9.32452e+08,-9.32424e+08,-9.32408e+08,-94224.3,-0.0135501,0.00380644,-0,0.0140746,-24468.4,-33943.9,-0,41843.7,94224.3
step02_gravity_refstate-crust.xmf,965,-6.05856e-07,-3.89593e-07,0,-1.52392e-06,-9.32789e+08,-9.32774e+08,-9.32747e+08,-104541,-0.0143506,-0.00260867,-0,0.0145858,-23205,-33956.1,-0,41127.7,104541
step02_gravity_refstate-crust.xmf,966,-5.71579e-07,-5.65215e-07,0,-1.68129e-06,-9.32345e+08,-9.32344e+08,-9.32306e+08,-115336,-0.015028,-0.00962969,-0,0.0178486,-21963.3,-33939.8,-0,40426.4,115336
step02_gravity_refstate-crust.xmf,967,-7.27911e-07,-9.92923e-07,0,-2.21893e-06,-9.501e+08,-9.50118e+08,-9.5005e+08,-152219,-0.018838,-0.0302059,-0,0.0355987,-18839.3,-34584.8,-0,39383.1,152219
step02_gravity_refstate-crust.xmf,968,-1.05676e-06,5.05946e-07,0,-8.39782e-07,-9.83706e+08,-9.83599e+08,-9.83633e+08,-57609,-0.0117297,0.0234404,-0,0.0262114,-29856.1,-35809.3,-0,46622.9,57609
step02_gravity_refstate-crust.xmf,969,-1.26732e-06,9.60749e-07,0,-3.31058e-07,-1.00626e+09,-1.00611e+09,-1.00617e+09,-22710.6,-0.00549713,0.0335818,-0,0.0340287,-35706,-36630.3,-0,51153.6,22710.6
step02_gravity_refstate-crust.xmf,970,-1.22614e-06,8.51506e-07,0,-4.96981e-07,-1.00414e+09,-1.004e+09,-1.00405e+09,-34092.9,-0.00795693,0.0310313,-0,0.0320352,-33689.7,-36553,-0,49710.4,34092.9
step02_gravity_refstate-crust.xmf,971,-1.17488e-06,7.00316e-07,0,-6.82859e-07,-1.0022e+09,-1.00207e+09,-1.00212e+09,-46844.2,-0.0104107,0.0272098,-0,0.0291334,-31587.5,-36482.4,-0,48257,46844.2
step02_gravity_refstate-crust.xmf,972,-1.42848e-06,1.15895e-06,0,-1.18633e-07,-1.05584e+09,-1.05566e+09,-1.05574e+09,-8138.22,-0.00224622,0.033531,-0,0.0336061,-38430.8,-38435,-0,54352.3,8138.22
step02_gravity_refstate-crust.xmf,973,-3.16253e-06,2.55226e-06,0,-1.66754e-06,-1.9171e+08,-1.91318e+08,-1.91493e+08,-114393,0.0153876,-0.153394,0,0.154164,-4507.48,-6970.54,-0,8300.96,114393
step02_gravity_refstate-crust.xmf,974,-3.69406e-06,2.05438e-06,0,-1.10898e-06,-1.13863e+08,-1.13469e+08,-1.1361e+08,-76076.3,0.0181611,-0.146607,0,0.147728,-4596.77,-4133.54,-0,6181.94,76076.3
step02_gravity_refstate-crust.xmf,975,-5.15894e-06,1.96195e-06,0,-2.64791e-08,-489877,-1384.23,-135974,-1816.46,0.0341421,-0.133651,0,0.137943,-5915.08,0,-0,5915.08,1816.46
step02_gravity_refstate-crust.xmf,976,-4.63749e-06,1.93299e-06,0,-4.81516e-07,-4.17344e+07,-4.12837e+07,-4.14163e+07,-33032,0.0238745,-0.140745,0,0.142756,-4796.66,-1503.61,-0,5026.81,33032
step02_gravity_refstate-crust.xmf,977,-8.88904e-06,1.69831e-05,0,5.25433e-07,-6.43925e+08,-6.42151e+08,-6.43316e+08,36044.7,-0.00184245,-0.292042,-0,0.292048,207.742,-23433.1,0,23434,36044.7
step02_gravity_refstate-crust.xmf,978,-8.30203e-06,1.56334e-05,0,-2.8044e-07,-6.23592e+08,-6.2195e+08,-6.23022e+08,-19238.2,0.00105836,-0.280052,0,0.280054,-127.742,-22693.1,-0,22693.5,19238.2
step02_gravity_refstate-crust.xmf,979,-7.67309e-06,1.42412e-05,0,-9.60489e-07,-6.02117e+08,-6.00614e+08,-6.01591e+08,-65889.6,0.00374431,-0.268014,0,0.26804,-487.191,-21911.7,-0,21917.1,65889.6
step02_gravity_refstate-crust.xmf,980,-1.04764e-05,2.11816e-05,0,1.98066e-06,-6.98231e+08,-6.96059e+08,-6.97512e+08,135873,-0.00627698,-0.328791,-0,0.328851,596.243,-25410.2,0,25417.2,135873
step02_gravity_refstate-crust.xmf,981,-9.3859e-06,1.82506e-05,0,1.60138e-06,-6.62833e+08,-6.60938e+08,-6.6219e+08,109854,-0.00544618,-0.303513,-0,0.303561,578.093,-24121.4,0,24128.3,109854
step02_gravity_refstate-crust.xmf,982,-3.50276e-06,4.85161e-06,0,-1.81995e-06,-3.40169e+08,-3.39596e+08,-3.39929e+08,-124849,0.0103111,-0.17862,0,0.178918,-2805.69,-12377.5,-0,12691.5,124849
step02_gravity_refstate-crust.xmf,983,-5.55758e-06,9.63994e-06,0,-1.12442e-06,-5.04573e+08,-5.03531e+08,-5.04192e+08,-77135.1,0.00511372,-0.225452,0,0.22551,-913.89,-18361.9,-0,18384.7,77135.1
step02_gravity_refstate-crust.xmf,984,-3.82525e-06,5.76583e-06,0,-1.81779e-06,-3.8126e+08,-3.80602e+08,-3.80998e+08,-124701,0.00968826,-0.187691,0,0.187941,-2432.5,-13873.6,-0,14085.2,124701
step02_gravity_refstate-crust.xmf,985,-4.19797e-06,6.60833e-06,0,-1.51936e-06,-4.1126e+08,-4.10518e+08,-4.10972e+08,-104228,0.00774481,-0.196201,0,0.196353,-1802.4,-14965.6,-0,15073.7,104228
step02_gravity_refstate-crust.xmf,986,-1.07948e-05,2.24373e-05,0,3.42261e-06,-7.15376e+08,-7.13096e+08,-7.14636e+08,234791,-0.0104059,-0.340751,-0,0.34091,947.666,-26035,0,26052.3,234791
step02_gravity_refstate-crust.xmf,987,-1.09626e-05,2.35916e-05,0,4.94595e-06,-7.31864e+08,-7.29494e+08,-7.31112e+08,339292,-0.0144756,-0.352125,-0,0.352423,1276.83,-26636.4,0,26667,339292
step02_gravity_refstate-crust.xmf,988,-1.09671e-05,2.4618e-05,0,6.57362e-06,-7.4795e+08,-7.45509e+08,-7.47198e+08,450950,-0.0184611,-0.362913,-0,0.363382,1594.48,-27223.6,0,27270.3,450950
step02_gravity_refstate-crust.xmf,989,-1.16003e-05,2.96407e-05,0,5.91688e-06,-7.89858e+08,-7.87029e+08,-7.89062e+08,405898,-0.0149873,-0.408571,-0,0.408846,1257.82,-28754.5,0,28782,405898
step02_gravity_refstate-crust.xmf,990,-1.13437e-05,2.77092e-05,0,7.15749e-06,-7.77069e+08,-7.7439e+08,-7.76291e+08,491004,-0.0186619,-0.391028,-0,0.391473,1569.34,-28287,0,28330.5,491004
step02_gravity_refstate-crust.xmf,991,-1.11769e-05,3.03978e-05,0,7.34453e-06,-8.01398e+08,-7.98546e+08,-8.00632e+08,503835,-0.0177632,-0.417504,-0,0.417882,1527.09,-29177.6,0,29217.5,503835
step02_gravity_refstate-crust.xmf,992,-1.04609e-05,3.27872e-05,0,7.46755e-06,-8.23808e+08,-8.20841e+08,-8.2309e+08,512274,-0.016241,-0.443927,-0,0.444224,1498.34,-30000,0,30037.4,512274
step02_gravity_refstate-crust.xmf,993,7.06669e-07,-9.93528e-06,0,-1.6108e-05,-9.4271e+08,-9.4344e+08,-9.42758e+08,-1.10501e+06,-0.0288116,-0.271705,-0,0.273229,-5593,-34307.8,-0,34760.7,1.10501e+06
step02_gravity_refstate-crust.xmf,994,3.45894e-06,-1.32025e-05,0,-2.94885e-05,-9.34083e+08,-9.35226e+08,-9.3432e+08,-2.02291e+06,-0.0208886,-0.368912,-0,0.369503,-4000,-33999.8,-0,34234.3,2.02291e+06
step02_gravity_refstate-crust.xmf,995,3.07654e-06,-1.36734e-05,0,-2.47353e-05,-9.4118e+08,-9.42329e+08,-9.41391e+08,-1.69684e+06,-0.0259929,-0.335263,-0,0.33627,-4441.26,-34255.9,-0,34542.6,1.69684e+06
step02_gravity_refstate-crust.xmf,996,1.8155e-06,-1.17612e-05,0,-1.9791e-05,-9.41865e+08,-9.42797e+08,-9.4199e+08,-1.35767e+06,-0.0277041,-0.300768,-0,0.302041,-5021.7,-34278.7,-0,34644.6,1.35767e+06
step02_gravity_refstate-crust.xmf,997,-1.00051e-06,-8.88711e-06,0,-1.27142e-05,-9.57896e+08,-9.58437e+08,-9.57827e+08,-872194,-0.0360664,-0.236012,-0,0.238752,-6320.26,-34855.4,-0,35423.7,872194
step02_gravity_refstate-crust.xmf,998,-1.99062e-06,-7.07787e-06,0,-1.02967e-05,-9.6567e+08,-9.66019e+08,-9.65533e+08,-706355,-0.037914,-0.203739,-0,0.207237,-7201.19,-35137.2,-0,35867.5,706355
step02_gravity_refstate-crust.xmf,999,-2.15806e-06,-4.29636e-06,0,-6.7954e-06,-9.66792e+08,-9.66938e+08,-9.66644e+08,-466164,-0.0339692,-0.150405,-0,0.154193,-9265.66,-35181.6,-0,36381.3,466164
step02_gravity_refstate-crust.xmf,1000,-2.1799e-06,-5.01443e-06,0,-7.73106e-06,-9.65816e+08,-9.66011e+08,-9.65667e+08,-530351,-0.035193,-0.166927,-0,0.170596,-8548.3,-35144.9,-0,36169.6,530351
step02_gravity_refstate-crust.xmf,1001,-2.12159e-06,-5.92405e-06,0,-8.89318e-06,-9.65083e+08,-9.65343e+08,-9.64937e+08,-610072,-0.0364088,-0.185004,-0,0.188553,-7851.03,-35117,-0,35984,610072
step02_gravity_refstate-crust.xmf,1002,-1.42665e-06,-2.22753e-06,0,-3.94232e-06,-9.64562e+08,-9.64617e+08,-9.64464e+08,-270443,-0.0266745,-0.0866724,-0,0.0906842,-13099.4,-35106.6,-0,37470.9,270443
step02_gravity_refstate-crust.xmf,1003,-1.05135e-06,-1.21911e-06,0,-2.70353e-06,-9.71183e+08,-9.71195e+08,-9.71111e+08,-185462,-0.0226851,-0.0423441,-0,0.0480379,-17238.6,-35350.8,-0,39330,185462
step02_gravity_refstate-crust.xmf,1004,-1.14933e-06,-1.42834e-06,0,-2.97821e-06,-9.70886e+08,-9.70905e+08,-9.70807e+08,-204305,-0.0237929,-0.0520567,-0,0.0572364,-16168.9,-35339.2,-0,38862.5,204305
step02_gravity_refstate-crust.xmf,1005,-1.25481e-06,-1.66163e-06,0,-3.27234e-06,-9.69315e+08,-9.69343e+08,-9.69229e+08,-224483,-0.0248133,-0.062764,-0,0.0674909,-15109.3,-35281.2,-0,38380.4,224483
step02_gravity_refstate-crust.xmf,1006,-1.37711e-06,-1.92204e-06,0,-3.60725e-06,-9.67806e+08,-9.67843e+08,-9.67711e+08,-247457,-0.0259008,-0.0743866,-0,0.0787669,-14072.9,-35225.4,-0,37932.5,247457
step02_gravity_refstate-crust.xmf,1007,-9.66998e-07,-1.05219e-06,0,-2.47459e-06,-9.70267e+08,-9.70273e+08,-9.70201e+08,-169757,-0.0216496,-0.0345647,-0,0.0407851,-18182.6,-35318,-0,39723.7,169757
step02_gravity_refstate-crust.xmf,1008,-9.9347e-07,3.24609e-07,0,-1.01358e-06,-9.78602e+08,-9.78512e+08,-9.78534e+08,-69531.9,-0.0132751,0.0183852,-0,0.022677,-28130.8,-35623.5,-0,45391.4,69531.9
step02_gravity_refstate-crust.xmf,1009,-9.31096e-07,1.3042e-07,0,-1.19322e-06,-9.73781e+08,-9.73708e+08,-9.73717e+08,-81854.6,-0.0146209,0.0125135,-0,0.0192447,-26467.2,-35447.9,-0,44238.8,81854.6
step02_gravity_refstate-crust.xmf,1010,-1.20344e-06,6.12378e-07,0,-8.43973e-07,-1.02419e+09,-1.02407e+09,-1.02411e+09,-57896.6,-0.012843,0.0231522,-0,0.0264758,-30061.2,-37282.8,-0,47892.4,57896.6
step02_gravity_refstate-crust.xmf,1011,-1.41096e-06,1.10592e-06,0,-2.5542e-07,-1.05115e+09,-1.05097e+09,-1.05105e+09,-17521.8,-0.00466136,0.0327854,-0,0.0331151,-36704.5,-38264.1,-0,53022.3,17521.8
step02_gravity_refstate-crust.xmf,1012,-3.26422e-06,3.59539e-06,0,-1.49599e-06,-2.64647e+08,-2.64177e+08,-2.64423e+08,-102625,0.0102577,-0.166482,0,0.166798,-3016.03,-9627.11,-0,10088.5,102625
step02_gravity_refstate-crust.xmf,1013,-3.18708e-06,3.04022e-06,0,-1.58436e-06,-2.27846e+08,-2.27419e+08,-2.27628e+08,-108687,0.0123978,-0.159992,0,0.160472,-3681.56,-8286.78,-0,9067.78,108687
step02_gravity_refstate-crust.xmf,1014,-3.4983e-06,2.34513e-06,0,-1.15602e-06,-1.52838e+08,-1.52437e+08,-1.52598e+08,-79302.6,0.0135884,-0.152625,0,0.153229,-3711.72,-5553.68,-0,6679.84,79302.6
step02_gravity_refstate-crust.xmf,1015,-4.22239e-06,2.01627e-06,0,-6.91053e-07,-8.04356e+07,-8.00076e+07,-8.01459e+07,-47406.3,0.0165832,-0.146791,0,0.147725,-3764.89,-2914.38,-0,4761.09,47406.3
step02_gravity_refstate-crust.xmf,1016,-6.50196e-06,1.17086e-05,0,-1.27828e-06,-5.53834e+08,-5.52584e+08,-5.53388e+08,-87689.9,0.00533435,-0.2447,0,0.244758,-816.081,-20154.7,-0,20171.2,87689.9
step02_gravity_refstate-crust.xmf,1017,-9.77731e-06,1.94446e-05,0,2.88528e-06,-6.81154e+08,-6.7915e+08,-6.80484e+08,197930,-0.00946108,-0.314678,-0,0.31482,952.169,-24788.7,0,24806.9,197930
step02_gravity_refstate-crust.xmf,1018,-3.43178e-06,4.22551e-06,0,-1.28554e-06,-2.99526e+08,-2.99e+08,-2.9929e+08,-88188.1,0.00796933,-0.173409,0,0.173592,-2265.63,-10897.2,-0,11130.2,88188.1
step02_gravity_refstate-crust.xmf,1019,-6.04522e-06,1.06616e-05,0,-5.25751e-07,-5.27923e+08,-5.26777e+08,-5.27508e+08,-36066.5,0.00226693,-0.234802,0,0.234813,-375.472,-19211.6,-0,19215.3,36066.5
step02_gravity_refstate-crust.xmf,1020,-4.59831e-06,7.49798e-06,0,-1.16228e-06,-4.4006e+08,-4.3923e+08,-4.39745e+08,-79732.3,0.00570911,-0.204859,0,0.204938,-1228.18,-16013.8,-0,16060.9,79732.3
step02_gravity_refstate-crust.xmf,1021,-5.12001e-06,8.61806e-06,0,-7.4369e-07,-4.73696e+08,-4.72754e+08,-4.73345e+08,-51017.2,0.00353165,-0.21555,0,0.215578,-689.574,-17238,-0,17251.8,51017.2
step02_gravity_refstate-crust.xmf,1022,-1.07999e-05,2.55023e-05,0,8.25268e-06,-7.63266e+08,-7.60776e+08,-7.62525e+08,566134,-0.0221546,-0.372666,-0,0.373324,1897.6,-27783.2,0,27848,566134
step02_gravity_refstate-crust.xmf,1023,-1.06195e-05,3.11002e-05,0,8.7165e-06,-8.12803e+08,-8.09941e+08,-8.12075e+08,597952,-0.0198444,-0.426138,-0,0.4266,1769.46,-29596.1,0,29648.9,597952
step02_gravity_refstate-crust.xmf,1024,-3.44094e-07,-1.0282e-05,0,-1.45077e-05,-9.57176e+08,-9.57858e+08,-9.57152e+08,-995230,-0.0360609,-0.255366,-0,0.2579,-5841.02,-34829.6,-0,35316,995230
step02_gravity_refstate-crust.xmf,1025,-1.81128e-06,-8.45216e-06,0,-1.17851e-05,-9.68242e+08,-9.68697e+08,-9.68117e+08,-808460,-0.0398813,-0.220685,-0,0.224259,-6656.77,-35229.4,-0,35852.8,808460
step02_gravity_refstate-crust.xmf,1026,-2.06307e-06,-2.77886e-06,0,-5.01923e-06,-9.80457e+08,-9.80506e+08,-9.80316e+08,-344319,-0.0320374,-0.104955,-0,0.109736,-11695.7,-35681.9,-0,37549.8,344319
step02_gravity_refstate-crust.xmf,1027,-2.2321e-06,-3.21678e-06,0,-5.58402e-06,-9.78811e+08,-9.78879e+08,-9.78658e+08,-383064,-0.0334925,-0.118701,-0,0.123335,-10846.3,-35620.6,-0,37235.3,383064
step02_gravity_refstate-crust.xmf,1028,-2.02636e-06,-3.8094e-06,0,-6.12174e-06,-9.64765e+08,-9.64887e+08,-9.64626e+08,-419951,-0.0322496,-0.139035,-0,0.142726,-9831.22,-35109.1,-0,36459.6,419951
step02_gravity_refstate-crust.xmf,1029,-1.89025e-06,-2.44575e-06,0,-4.57152e-06,-9.82747e+08,-9.82785e+08,-9.82618e+08,-313606,-0.0308462,-0.0929676,-0,0.0979513,-12513.5,-35766.5,-0,37892.3,313606
step02_gravity_refstate-crust.xmf,1030,-7.9725e-07,-7.82809e-07,0,-2.06731e-06,-9.5901e+08,-9.59009e+08,-9.58956e+08,-141817,-0.0189385,-0.0216993,-0,0.0288015,-19974.2,-34909.3,-0,40219.7,141817
step02_gravity_refstate-crust.xmf,1031,-8.72002e-07,-6.15947e-08,0,-1.36361e-06,-9.68526e+08,-9.6847e+08,-9.68466e+08,-93543.4,-0.015639,0.00637438,-0,0.0168882,-24983.3,-35256.5,-0,43211,93543.4
step02_gravity_refstate-crust.xmf,1032,-8.13311e-07,-5.82291e-07,0,-1.87392e-06,-9.6278e+08,-9.62764e+08,-9.62724e+08,-128551,-0.0182928,-0.013385,-0,0.0226668,-21237.5,-35046.8,-0,40979.3,128551
step02_gravity_refstate-crust.xmf,1033,-8.41798e-07,-2.21006e-07,0,-1.51276e-06,-9.66091e+08,-9.66049e+08,-9.66034e+08,-103776,-0.0164942,0.000724269,-0,0.0165101,-23780.4,-35167.8,-0,42453.3,103776
step02_gravity_refstate-crust.xmf,1034,-8.24339e-07,-3.95678e-07,0,-1.68675e-06,-9.64596e+08,-9.64567e+08,-9.6454e+08,-115711,-0.0174236,-0.00593747,-0,0.0184075,-22508.9,-35113.2,-0,41708.3,115711
step02_gravity_refstate-crust.xmf,1035,-1.20373e-06,-1.088e-06,0,-2.77119e-06,-9.95906e+08,-9.95898e+08,-9.95824e+08,-190104,-0.0245299,-0.0360836,-0,0.0436319,-17866.6,-36250.4,-0,40414.2,190104
step02_gravity_refstate-crust.xmf,1036,-1.05582e-06,-8.74282e-07,0,-2.39475e-06,-9.86258e+08,-9.86246e+08,-9.86186e+08,-164280,-0.022306,-0.026996,-0,0.0350192,-19106.3,-35900.1,-0,40667.8,164280
step02_gravity_refstate-crust.xmf,1037,-1.16117e-06,4.65742e-07,0,-9.92997e-07,-1.02028e+09,-1.02017e+09,-1.0202e+09,-68119.6,-0.0143478,0.0194584,-0,0.0241762,-28670.5,-37140.3,-0,46919.1,68119.6
step02_gravity_refstate-crust.xmf,1038,-1.38365e-06,1.01795e-06,0,-4.21334e-07,-1.05202e+09,-1.05186e+09,-1.05193e+09,-28903.5,-0.00747267,0.0307846,-0,0.0316785,-34686.5,-38296,-0,51669.5,28903.5
step02_gravity_refstate-crust.xmf,1039,-1.34301e-06,8.90688e-07,0,-5.94262e-07,-1.05119e+09,-1.05104e+09,-1.0511e+09,-40766.4,-0.0100918,0.0279969,-0,0.0297603,-32741.2,-38265.7,-0,50361.2,40766.4
step02_gravity_refstate-crust.xmf,1040,-1.30889e-06,7.4776e-07,0,-7.7488e-07,-1.05555e+09,-1.05541e+09,-1.05546e+09,-53156.8,-0.0125611,0.024397,-0,0.0274407,-30930.4,-38424.2,-0,49326.5,53156.8
step02_gravity_refstate-crust.xmf,1041,-3.4026e-06,2.71547e-06,0,-1.087e-06,-1.89542e+08,-1.89123e+08,-1.89309e+08,-74567.9,0.00996762,-0.158372,0,0.158685,-2847.33,-6890.92,-0,7456.01,74567.9
step02_gravity_refstate-crust.xmf,1042,-3.91411e-06,2.18488e-06,0,-7.2587e-07,-1.15525e+08,-1.15107e+08,-1.15257e+08,-49794.7,0.0116085,-0.151726,0,0.15217,-2891.74,-4193.35,-0,5093.76,49794.7
step02_gravity_refstate-crust.xmf,1043,-5.68121e-06,2.15963e-06,0,-2.41478e-08,-539511,-1629.47,-149780,-1656.54,0.0234639,-0.140349,0,0.142297,-3942.22,0,-0,3942.22,1656.54
step02_gravity_refstate-crust.xmf,1044,-4.96553e-06,2.06463e-06,0,-2.96926e-07,-4.19715e+07,-4.14892e+07,-4.16308e+07,-20369.1,0.014815,-0.146069,0,0.146819,-2913.14,-1511.12,-0,3281.75,20369.1
step02_gravity_refstate-crust.xmf,1045,-8.70324e-06,1.6747e-05,0,2.4275e-06,-6.45156e+08,-6.4341e+08,-6.44559e+08,166527,-0.00858836,-0.29093,-0,0.291057,972.183,-23478.3,0,23498.4,166527
step02_gravity_refstate-crust.xmf,1046,-8.29048e-06,1.5707e-05,0,1.40745e-06,-6.26707e+08,-6.2506e+08,-6.26138e+08,96550.8,-0.00515702,-0.28115,-0,0.281197,618.072,-22806.7,0,22815,96550.8
step02_gravity_refstate-crust.xmf,1047,-7.12053e-06,1.30057e-05,0,-3.76779e-07,-5.77856e+08,-5.76476e+08,-5.77368e+08,-25847.1,0.00148709,-0.256303,0,0.256307,-209.42,-21028.8,-0,21029.8,25847.1
step02_gravity_refstate-crust.xmf,1048,-7.70016e-06,1.42628e-05,0,8.34223e-07,-6.02415e+08,-6.00908e+08,-6.01887e+08,57227.7,-0.00312045,-0.268287,-0,0.268305,405.122,-21922.4,0,21926.2,57227.7
step02_gravity_refstate-crust.xmf,1049,-1.00434e-05,2.05832e-05,0,4.31186e-06,-6.98991e+08,-6.9689e+08,-6.98302e+08,295794,-0.0136331,-0.325462,-0,0.325748,1310.91,-25438.7,0,25472.5,295794
step02_gravity_refstate-crust.xmf,1050,-9.02317e-06,1.7754e-05,0,3.61135e-06,-6.63663e+08,-6.61826e+08,-6.63044e+08,247739,-0.0123218,-0.300798,-0,0.30105,1322.43,-24152.3,0,24188.5,247739
step02_gravity_refstate-crust.xmf,1051,-3.64683e-06,4.87376e-06,0,-9.3284e-07,-3.30116e+08,-3.29532e+08,-3.29866e+08,-63992.8,0.00532692,-0.180106,0,0.180185,-1446.22,-12011,-0,12097.8,63992.8
step02_gravity_refstate-crust.xmf,1052,-5.57821e-06,9.60657e-06,0,7.85954e-08,-5.01e+08,-4.99958e+08,-5.00617e+08,5391.64,-0.000313083,-0.225033,-0,0.225033,56.2454,-18231.7,0,18231.8,5391.64
step02_gravity_refstate-crust.xmf,1053,-3.77855e-06,5.3961e-06,0,-1.20072e-06,-3.58499e+08,-3.57869e+08,-3.58239e+08,-82369.2,0.00655663,-0.184938,0,0.185054,-1703.47,-13044.6,-0,13155.3,82369.2
step02_gravity_refstate-crust.xmf,1054,-4.0455e-06,6.06918e-06,0,-9.10435e-07,-3.84902e+08,-3.84208e+08,-3.84624e+08,-62455.8,0.00482323,-0.191385,0,0.191446,-1182.91,-14005.8,-0,14055.6,62455.8
step02_gravity_refstate-crust.xmf,1055,-4.36562e-06,6.83737e-06,0,-5.0235e-07,-4.13257e+08,-4.12489e+08,-4.12958e+08,-34461.2,0.00256848,-0.19875,0,0.198767,-588.24,-15038,-0,15049.5,34461.2
step02_gravity_refstate-crust.xmf,1056,-1.01691e-05,2.15061e-05,0,5.83514e-06,-7.15988e+08,-7.13815e+08,-7.1529e+08,400290,-0.017693,-0.335564,-0,0.336031,1640.53,-26058.4,0,26110,400290
step02_gravity_refstate-crust.xmf,1057,-1.01579e-05,2.23572e-05,0,7.43166e-06,-7.32551e+08,-7.30321e+08,-7.31854e+08,509812,-0.0216001,-0.345159,-0,0.345835,1948.71,-26662.8,0,26733.9,509812
step02_gravity_refstate-crust.xmf,1058,-9.99999e-06,2.3079e-05,0,9.09747e-06,-7.48615e+08,-7.46346e+08,-7.47929e+08,624086,-0.0252458,-0.354071,-0,0.35497,2239.13,-27249.4,0,27341.2,624086
step02_gravity_refstate-crust.xmf,1059,-1.09959e-05,2.8472e-05,0,8.64058e-06,-7.89877e+08,-7.8717e+08,-7.89123e+08,592744,-0.0214881,-0.399957,-0,0.400534,1833.4,-28755.9,0,28814.3,592744
step02_gravity_refstate-crust.xmf,1060,-1.05131e-05,2.6224e-05,0,9.83431e-06,-7.77259e+08,-7.74739e+08,-7.76538e+08,674633,-0.0251329,-0.381211,-0,0.382039,2161.54,-28295,0,28377.4,674633
step02_gravity_refstate-crust.xmf,1061,-9.93482e-06,3.17349e-05,0,1.00944e-05,-8.23794e+08,-8.20936e+08,-8.23113e+08,692478,-0.0213307,-0.434031,-0,0.434554,1997.54,-30000,0,30066.4,692478
step02_gravity_refstate-crust.xmf,1062,-1.04998e-05,2.9099e-05,0,1.00925e-05,-8.01584e+08,-7.98867e+08,-8.00863e+08,692346,-0.0237969,-0.407357,-0,0.408051,2084.75,-29185,0,29259.4,692346
step02_gravity_refstate-crust.xmf,1063,-1.37588e-06,-1.03352e-05,0,-1.36152e-05,-9.70523e+08,-9.71138e+08,-9.70429e+08,-934004,-0.0416525,-0.240567,-0,0.244146,-6084.73,-35311.3,-0,35831.7,934004
step02_gravity_refstate-crust.xmf,1064,9.09382e-07,-1.26305e-05,0,-1.74063e-05,-9.5637e+08,-9.57299e+08,-9.56432e+08,-1.19407e+06,-0.0355604,-0.280891,-0,0.283133,-5283.53,-34801.7,-0,35200.5,1.19407e+06
step02_gravity_refstate-crust.xmf,1065,4.36155e-06,-1.68661e-05,0,-2.88956e-05,-9.47846e+08,-9.49303e+08,-9.48146e+08,-1.98224e+06,-0.027843,-0.361406,-0,0.362477,-4000,-34498.8,-0,34729.9,1.98224e+06
step02_gravity_refstate-crust.xmf,1066,2.53835e-06,-1.52925e-05,0,-2.12108e-05,-9.55607e+08,-9.5683e+08,-9.55781e+08,-1.45506e+06,-0.0343312,-0.309656,-0,0.311554,-4740.42,-34776.4,-0,35098,1.45506e+06
step02_gravity_refstate-crust.xmf,1067,-2.47922e-06,-8.49104e-06,0,-1.15861e-05,-9.82089e+08,-9.82502e+08,-9.81919e+08,-794806,-0.0442003,-0.209752,-0,0.214359,-6860.2,-35730.8,-0,36383.4,794806
step02_gravity_refstate-crust.xmf,1068,-2.37362e-06,-3.7077e-06,0,-6.25351e-06,-9.80301e+08,-9.80393e+08,-9.80138e+08,-428991,-0.0355274,-0.131924,-0,0.136624,-10090.2,-35673.5,-0,37073,428991
step02_gravity_refstate-crust.xmf,1069,-2.66881e-06,-7.03264e-06,0,-1.01283e-05,-9.81767e+08,-9.82067e+08,-9.81584e+08,-694804,-0.0425481,-0.19121,-0,0.195887,-7486.37,-35720.5,-0,36496.6,694804
step02_gravity_refstate-crust.xmf,1070,-2.62607e-06,-4.31983e-06,0,-7.06406e-06,-9.82642e+08,-9.82758e+08,-9.82462e+08,-484595,-0.0376513,-0.144298,-0,0.149129,-9438.62,-35756.8,-0,36981.5,484595
step02_gravity_refstate-crust.xmf,1071,-2.73346e-06,-5.01711e-06,0,-7.90888e-06,-9.83351e+08,-9.83507e+08,-9.83163e+08,-542549,-0.0394778,-0.157819,-0,0.162681,-8801.77,-35781,-0,36847.7,542549
step02_gravity_refstate-crust.xmf,1072,-2.74643e-06,-5.89282e-06,0,-8.89856e-06,-9.82405e+08,-9.82621e+08,-9.82217e+08,-610441,-0.0409894,-0.173575,-0,0.178349,-8145.43,-35745.2,-0,36661.5,610441
step02_gravity_refstate-crust.xmf,1073,-2.28647e-06,-2.73696e-06,0,-5.31227e-06,-1.00113e+09,-1.00116e+09,-1.00097e+09,-364422,-0.0345084,-0.0977124,-0,0.103627,-12048.9,-36433.7,-0,38374.3,364422
step02_gravity_refstate-crust.xmf,1074,-1.88327e-06,-2.13816e-06,0,-4.34214e-06,-9.93647e+08,-9.93665e+08,-9.93518e+08,-297871,-0.0307395,-0.0801675,-0,0.0858589,-13431.5,-36163.8,-0,38577.5,297871
step02_gravity_refstate-crust.xmf,1075,-1.33956e-06,-1.31646e-06,0,-3.11933e-06,-9.96609e+08,-9.96607e+08,-9.96517e+08,-213986,-0.0260587,-0.0460139,-0,0.0528804,-16685.6,-36275.1,-0,39928.6,213986
step02_gravity_refstate-crust.xmf,1076,-1.49108e-06,-1.5583e-06,0,-3.48087e-06,-9.95876e+08,-9.95881e+08,-9.95774e+08,-238788,-0.0275125,-0.0564522,-0,0.0627996,-15575.2,-36247.4,-0,39452,238788
step02_gravity_refstate-crust.xmf,1077,-1.66531e-06,-1.82042e-06,0,-3.86688e-06,-9.94455e+08,-9.94466e+08,-9.94341e+08,-265268,-0.0289829,-0.0675972,-0,0.0735486,-14511.6,-36194.6,-0,38995.3,265268
step02_gravity_refstate-crust.xmf,1078,-1.05732e-06,7.49137e-08,0,-1.37824e-06,-1.00979e+09,-1.00971e+09,-1.00972e+09,-94547.1,-0.0174191,0.00848672,-0,0.0193765,-25483.5,-36758.3,-0,44727.9,94547.1
step02_gravity_refstate-crust.xmf,1079,-1.11679e-06,2.85617e-07,0,-1.17453e-06,-1.01616e+09,-1.01607e+09,-1.01609e+09,-80572.6,-0.0159474,0.0145473,-0,0.0215857,-27111.4,-36990.4,-0,45861.9,80572.6
step02_gravity_refstate-crust.xmf,1080,-1.27222e-06,5.84151e-07,0,-9.61779e-07,-1.05922e+09,-1.05909e+09,-1.05913e+09,-65978,-0.0147805,0.0203515,-0,0.0251524,-29261.7,-38557.7,-0,48404,65978
step02_gravity_refstate-crust.xmf,1081,-3.41773e-06,3.74491e-06,0,-8.11171e-07,-2.63871e+08,-2.6338e+08,-2.63637e+08,-55646.3,0.00556868,-0.16953,0,0.169622,-1612.51,-9598.47,-0,9732.98,55646.3
step02_gravity_refstate-crust.xmf,1082,-3.38885e-06,3.18471e-06,0,-8.68662e-07,-2.25151e+08,-2.24701e+08,-2.24919e+08,-59590.2,0.00681202,-0.164041,0,0.164182,-1980.88,-8188.08,-0,8424.29,59590.2
step02_gravity_refstate-crust.xmf,1083,-3.68313e-06,2.45047e-06,0,-6.54875e-07,-1.51775e+08,-1.51354e+08,-1.51522e+08,-44924.4,0.00772165,-0.156431,0,0.156622,-2071.29,-5514.41,-0,5890.58,44924.4
step02_gravity_refstate-crust.xmf,1084,-4.43555e-06,2.11345e-06,0,-3.63662e-07,-7.98064e+07,-7.93572e+07,-7.95022e+07,-24947.2,0.00878886,-0.150704,0,0.15096,-1959.31,-2890.76,-0,3492.19,24947.2
step02_gravity_refstate-crust.xmf,1085,-6.5472e-06,1.17523e-05,0,2.94154e-07,-5.52226e+08,-5.50971e+08,-5.51777e+08,20179,-0.00124724,-0.244809,-0,0.244812,191.103,-20096,0,20097,20179
step02_gravity_refstate-crust.xmf,1086,-9.21132e-06,1.86477e-05,0,5.01184e-06,-6.81941e+08,-6.8003e+08,-6.81309e+08,343812,-0.0164641,-0.310276,-0,0.310713,1686.15,-24818.4,0,24875.6,343812
step02_gravity_refstate-crust.xmf,1087,-3.5468e-06,4.32805e-06,0,-5.30112e-07,-2.97894e+08,-2.97354e+08,-2.97651e+08,-36365.7,0.00330587,-0.175388,0,0.175419,-930.605,-10837.5,-0,10877.4,36365.7
step02_gravity_refstate-crust.xmf,1088,-5.99396e-06,1.05823e-05,0,8.77566e-07,-5.26711e+08,-5.25574e+08,-5.263e+08,60201,-0.00383669,-0.234035,-0,0.234067,638.906,-19167.6,0,19178.2,60201
step02_gravity_refstate-crust.xmf,1089,-4.73467e-06,7.70205e-06,0,-2.02382e-08,-4.43311e+08,-4.42458e+08,-4.42986e+08,-1388.34,0.000137877,-0.206946,0,0.206946,-29.148,-16132,-0,16132,1388.34
step02_gravity_refstate-crust.xmf,1090,-5.11165e-06,8.58874e-06,0,6.11737e-07,-4.7274e+08,-4.718e+08,-4.72389e+08,41965.2,-0.0028307,-0.2154,-0,0.215418,553.867,-17203.2,0,17212.1,41965.2
step02_gravity_refstate-crust.xmf,1091,-9.72239e-06,2.37173e-05,0,1.07464e-05,-7.63675e+08,-7.61381e+08,-7.63008e+08,737205,-0.0283443,-0.362041,-0,0.363149,2499.7,-27799.7,0,27911.9,737205
step02_gravity_refstate-crust.xmf,1092,-9.90563e-06,2.97323e-05,0,1.13983e-05,-8.12967e+08,-8.10248e+08,-8.12288e+08,781925,-0.0251426,-0.414917,-0,0.415678,2287.31,-29602.9,0,29691.1,781925
step02_gravity_refstate-crust.xmf,1093,-5.18781e-07,-1.24985e-05,0,-1.55988e-05,-9.70831e+08,-9.71653e+08,-9.70796e+08,-1.07008e+06,-0.0422835,-0.262398,-0,0.265783,-5543.09,-35322.6,-0,35754.9,1.07008e+06
step02_gravity_refstate-crust.xmf,1094,3.84574e-06,-1.74287e-05,0,-2.51456e-05,-9.54948e+08,-9.56407e+08,-9.55211e+08,-1.72499e+06,-0.0326657,-0.336149,-0,0.337732,-4306.97,-34754.4,-0,35020.2,1.72499e+06
step02_gravity_refstate-crust.xmf,1095,-2.18352e-06,-1.02032e-05,0,-1.31334e-05,-9.83672e+08,-9.84223e+08,-9.83523e+08,-900951,-0.0458928,-0.227154,-0,0.231743,-6318.27,-35786.9,-0,36340.4,900951
step02_gravity_refstate-crust.xmf,1096,-2.50074e-06,-3.15777e-06,0,-5.87771e-06,-9.99928e+08,-9.99973e+08,-9.99757e+08,-403211,-0.0362575,-0.109989,-0,0.115811,-11231.9,-36388.4,-0,38082.4,403211
step02_gravity_refstate-crust.xmf,1097,-2.71286e-06,-3.70338e-06,0,-6.57036e-06,-9.99175e+08,-9.99243e+08,-9.98989e+08,-450727,-0.0382315,-0.123574,-0,0.129353,-10412.1,-36359.2,-0,37820.7,450727
step02_gravity_refstate-crust.xmf,1098,-2.10674e-06,-2.43249e-06,0,-4.88051e-06,-1.00102e+09,-1.00104e+09,-1.00087e+09,-334803,-0.0330087,-0.0883091,-0,0.0942766,-12740.2,-36430.7,-0,38594.1,334803
step02_gravity_refstate-crust.xmf,1099,-1.02188e-06,-6.48591e-07,0,-2.14209e-06,-9.91948e+08,-9.91922e+08,-9.91878e+08,-146947,-0.02137,-0.0173967,-0,0.0275558,-20493.7,-36107.7,-0,41518.2,146947
step02_gravity_refstate-crust.xmf,1100,-9.88779e-07,-9.20302e-08,0,-1.50651e-06,-9.97444e+08,-9.97382e+08,-9.97376e+08,-103346,-0.0179592,0.00351017,-0,0.018299,-24329.1,-36308.8,-0,43706.2,103346
step02_gravity_refstate-crust.xmf,1101,-1.01026e-06,-4.44906e-07,0,-1.91763e-06,-9.96517e+08,-9.96478e+08,-9.96447e+08,-131550,-0.0203887,-0.00937076,-0,0.0224391,-21808.9,-36274.4,-0,42325.7,131550
step02_gravity_refstate-crust.xmf,1102,-1.01386e-06,-2.42722e-07,0,-1.69755e-06,-1.00012e+09,-1.00007e+09,-1.00005e+09,-116452,-0.0192586,-0.00200249,-0,0.0193625,-23176.1,-36405.9,-0,43157,116452
step02_gravity_refstate-crust.xmf,1103,-1.37693e-06,-1.2482e-06,0,-3.20263e-06,-1.021e+09,-1.02099e+09,-1.0209e+09,-219700,-0.0272029,-0.0395599,-0,0.0480103,-17306.5,-37162.8,-0,40995,219700
step02_gravity_refstate-crust.xmf,1104,-1.24479e-06,-9.82444e-07,0,-2.77047e-06,-1.01759e+09,-1.01757e+09,-1.0175e+09,-190054,-0.0253181,-0.0295996,-0,0.0389505,-18604.7,-37039.8,-0,41449.7,190054
step02_gravity_refstate-crust.xmf,1105,-1.22838e-06,3.76321e-07,0,-1.18778e-06,-1.06045e+09,-1.06034e+09,-1.06037e+09,-81481.4,-0.0170132,0.0152415,-0,0.0228419,-27483.7,-38602.4,-0,47386.7,81481.4
step02_gravity_refstate-crust.xmf,1106,-3.53914e-06,2.80455e-06,0,-4.61384e-07,-1.87928e+08,-1.87493e+08,-1.87686e+08,-31651,0.00416932,-0.161124,0,0.161178,-1174.46,-6831.74,-0,6931.96,31651
step02_gravity_refstate-crust.xmf,1107,-4.01723e-06,2.25919e-06,0,-3.61964e-07,-1.16657e+08,-1.16227e+08,-1.16382e+08,-24830.8,0.0055757,-0.154403,0,0.154503,-1377.88,-4234.27,-0,4452.81,24830.8
step02_gravity_refstate-crust.xmf,1108,-6.00722e-06,2.28094e-06,0,-2.21765e-08,-570581,-2013.26,-158486,-1521.31,0.0119493,-0.144491,0,0.144984,-1971.11,0,-0,1971.11,1521.31
step02_gravity_refstate-crust.xmf,1109,-5.09769e-06,2.12602e-06,0,-8.74814e-08,-4.39772e+07,-4.34816e+07,-4.36275e+07,-6001.23,0.00500886,-0.149038,0,0.149122,-981.67,-1583.7,-0,1863.27,6001.23
step02_gravity_refstate-crust.xmf,1110,-8.03263e-06,1.53698e-05,0,3.11462e-06,-6.28619e+08,-6.27014e+08,-6.28068e+08,213663,-0.0114376,-0.279393,-0,0.279627,1379.74,-22876.8,0,22918.4,213663
step02_gravity_refstate-crust.xmf,1111,-8.22772e-06,1.60846e-05,0,4.22636e-06,-6.45673e+08,-6.44005e+08,-6.45108e+08,289928,-0.01502,-0.287045,-0,0.287438,1729.56,-23498,0,23561.6,289928
step02_gravity_refstate-crust.xmf,1112,-7.78274e-06,1.464e-05,0,2.24874e-06,-6.13131e+08,-6.11593e+08,-6.12597e+08,154264,-0.00844769,-0.272304,-0,0.272435,1066.07,-22312.8,0,22338.3,154264
step02_gravity_refstate-crust.xmf,1113,-6.9825e-06,1.27896e-05,0,1.34573e-06,-5.75621e+08,-5.74265e+08,-5.75142e+08,92317.3,-0.00543807,-0.254467,-0,0.254525,774.707,-20947.6,0,20961.9,92317.3
step02_gravity_refstate-crust.xmf,1114,-9.26899e-06,1.94804e-05,0,6.50795e-06,-6.99667e+08,-6.97695e+08,-6.99031e+08,446445,-0.0205744,-0.319216,-0,0.319879,2026.01,-25464.7,0,25545.2,446445
step02_gravity_refstate-crust.xmf,1115,-8.32653e-06,1.67777e-05,0,5.53391e-06,-6.64046e+08,-6.62323e+08,-6.63474e+08,379626,-0.019008,-0.295105,-0,0.295716,2090.49,-24167.5,0,24257.8,379626
step02_gravity_refstate-crust.xmf,1116,-3.87672e-06,5.50374e-06,0,-4.49324e-07,-3.57841e+08,-3.57197e+08,-3.57575e+08,-30823.6,0.00242579,-0.186327,0,0.186343,-625.711,-13020.4,-0,13035.4,30823.6
step02_gravity_refstate-crust.xmf,1117,-3.70683e-06,4.92088e-06,0,-6.85838e-08,-3.28516e+08,-3.27924e+08,-3.28261e+08,-4704.85,0.00036045,-0.180996,0,0.180996,-97.5318,-11952.6,-0,11953,4704.85
step02_gravity_refstate-crust.xmf,1118,-5.45402e-06,9.43337e-06,0,1.37715e-06,-5.00339e+08,-4.99318e+08,-4.99965e+08,94472.3,-0.00619473,-0.223554,-0,0.22364,1123.64,-18207.9,0,18242.5,94472.3
step02_gravity_refstate-crust.xmf,1119,-4.12348e-06,6.17938e-06,0,2.894e-08,-3.86568e+08,-3.85861e+08,-3.86285e+08,1985.28,-0.000116316,-0.192675,-0,0.192675,28.2096,-14066.3,0,14066.3,1985.28
step02_gravity_refstate-crust.xmf,1120,-4.39099e-06,6.89527e-06,0,5.43732e-07,-4.15689e+08,-4.14915e+08,-4.15388e+08,37300,-0.00270293,-0.199334,-0,0.199352,615.362,-15126.5,0,15139,37300
step02_gravity_refstate-crust.xmf,1121,-9.17814e-06,2.00329e-05,0,8.11647e-06,-7.16804e+08,-7.148e+08,-7.16174e+08,556790,-0.0245471,-0.327473,-0,0.328392,2343.97,-26089.8,0,26194.9,556790
step02_gravity_refstate-crust.xmf,1122,-8.71043e-06,2.10904e-05,0,1.13167e-05,-7.49648e+08,-7.47604e+08,-7.4905e+08,776323,-0.0310466,-0.343186,-0,0.344588,2853.79,-27289.1,0,27437.9,776323
step02_gravity_refstate-crust.xmf,1123,-8.95684e-06,2.05471e-05,0,9.78007e-06,-7.33711e+08,-7.31687e+08,-7.33096e+08,670913,-0.0282163,-0.335352,-0,0.336537,2633.63,-26707,0,26836.6,670913
step02_gravity_refstate-crust.xmf,1124,-1.00426e-05,2.67029e-05,0,1.14763e-05,-7.90175e+08,-7.87654e+08,-7.89486e+08,787272,-0.0277525,-0.387932,-0,0.388923,2429.66,-28767.8,0,28870.2,787272
step02_gravity_refstate-crust.xmf,1125,-8.30444e-06,2.13982e-05,0,1.29104e-05,-7.63686e+08,-7.61649e+08,-7.63117e+08,885656,-0.0335084,-0.349054,-0,0.350658,3072.53,-27802.3,0,27971.6,885656
step02_gravity_refstate-crust.xmf,1126,-9.2885e-06,2.4118e-05,0,1.24711e-05,-7.77564e+08,-7.75272e+08,-7.76927e+08,855519,-0.0310365,-0.368317,-0,0.369623,2757.78,-28307.8,0,28441.8,855519
step02_gravity_refstate-crust.xmf,1127,-9.15278e-06,3.02237e-05,0,1.28533e-05,-8.23772e+08,-8.2107e+08,-8.23144e+08,881737,-0.0261021,-0.421153,-0,0.421961,2497.35,-30000,0,30103.8,881737
step02_gravity_refstate-crust.xmf,1128,-9.48086e-06,2.72477e-05,0,1.29896e-05,-8.02235e+08,-7.99715e+08,-8.01584e+08,891090,-0.029512,-0.393887,-0,0.394991,2661.6,-29210,0,29331,891090
step02_gravity_refstate-crust.xmf,1129,-1.64455e-06,-1.2418e-05,0,-1.4934e-05,-9.84434e+08,-9.85173e+08,-9.84321e+08,-1.02447e+06,-0.0471213,-0.247091,-0,0.251544,-5766.68,-35813.4,-0,36274.7,1.02447e+06
step02_gravity_refstate-crust.xmf,1130,1.15763e-06,-1.58341e-05,0,-1.84935e-05,-9.7023e+08,-9.71396e+08,-9.70309e+08,-1.26865e+06,-0.0418978,-0.288737,-0,0.291761,-4979.34,-35302.4,-0,35651.8,1.26865e+06
step02_gravity_refstate-crust.xmf,1131,5.17233e-06,-2.06148e-05,0,-2.80806e-05,-9.61656e+08,-9.63425e+08,-9.62011e+08,-1.92633e+06,-0.0346748,-0.352035,-0,0.353739,-4000,-34999,-0,35226.9,1.92633e+06
step02_gravity_refstate-crust.xmf,1132,3.55166e-06,-1.97494e-05,0,-2.25412e-05,-9.69199e+08,-9.70798e+08,-9.69443e+08,-1.54632e+06,-0.0401744,-0.319731,-0,0.322245,-4417.04,-35268.5,-0,35544,1.54632e+06
step02_gravity_refstate-crust.xmf,1133,-2.62142e-06,-1.02263e-05,0,-1.2993e-05,-9.97938e+08,-9.9846e+08,-9.97758e+08,-891319,-0.0490683,-0.214663,-0,0.2202,-6534.9,-36304.5,-0,36888,891319
step02_gravity_refstate-crust.xmf,1134,-2.90633e-06,-8.50069e-06,0,-1.15269e-05,-9.97797e+08,-9.98181e+08,-9.97598e+08,-790744,-0.0474921,-0.197252,-0,0.202888,-7114.71,-36300.9,-0,36991.5,790744
step02_gravity_refstate-crust.xmf,1135,-2.83009e-06,-4.37074e-06,0,-7.35906e-06,-9.98862e+08,-9.98967e+08,-9.98667e+08,-504832,-0.040363,-0.138206,-0,0.143979,-9615.51,-36346.3,-0,37596.7,504832
step02_gravity_refstate-crust.xmf,1136,-3.05725e-06,-7.07457e-06,0,-1.02118e-05,-9.98912e+08,-9.99188e+08,-9.98702e+08,-700531,-0.0458392,-0.179465,-0,0.185227,-7760.1,-36343.1,-0,37162.3,700531
step02_gravity_refstate-crust.xmf,1137,-3.05805e-06,-5.12043e-06,0,-8.2583e-06,-1.00174e+09,-1.00188e+09,-1.00153e+09,-566519,-0.0425326,-0.149534,-0,0.155465,-9027.4,-36448.9,-0,37550.2,566519
step02_gravity_refstate-crust.xmf,1138,-3.09779e-06,-6.00687e-06,0,-9.17383e-06,-1.00078e+09,-1.00098e+09,-1.00057e+09,-629325,-0.0442871,-0.163733,-0,0.169616,-8389.44,-36412.6,-0,37366.6,629325
step02_gravity_refstate-crust.xmf,1139,-2.51817e-06,-3.18945e-06,0,-6.18681e-06,-1.02071e+09,-1.02075e+09,-1.02054e+09,-424415,-0.0375775,-0.10193,-0,0.108636,-11607.4,-37144.8,-0,38916.1,424415
step02_gravity_refstate-crust.xmf,1140,-2.27832e-06,-2.80849e-06,0,-5.60291e-06,-1.01897e+09,-1.019e+09,-1.01881e+09,-384359,-0.0357788,-0.0923329,-0,0.0990226,-12308.6,-37082.9,-0,39072.3,384359
step02_gravity_refstate-crust.xmf,1141,-2.14534e-06,-2.46162e-06,0,-5.13586e-06,-1.01876e+09,-1.01878e+09,-1.01861e+09,-352320,-0.0342069,-0.0831492,-0,0.0899106,-13020.1,-37076.5,-0,39296.2,352320
step02_gravity_refstate-crust.xmf,1142,-1.54943e-06,-1.54183e-06,0,-3.69137e-06,-1.02275e+09,-1.02275e+09,-1.02264e+09,-253228,-0.0291251,-0.0505066,-0,0.0583026,-16039.2,-37225.5,-0,40533.8,253228
step02_gravity_refstate-crust.xmf,1143,-1.72429e-06,-1.81705e-06,0,-4.12427e-06,-1.02058e+09,-1.02059e+09,-1.02046e+09,-282925,-0.0306844,-0.0610424,-0,0.0683207,-14967.4,-37145.5,-0,40047.6,282925
step02_gravity_refstate-crust.xmf,1144,-1.93511e-06,-2.13382e-06,0,-4.62456e-06,-1.0192e+09,-1.01921e+09,-1.01907e+09,-317245,-0.0324651,-0.0725162,-0,0.0794517,-13911.5,-37093.8,-0,39616.7,317245
step02_gravity_refstate-crust.xmf,1145,-1.16598e-06,-7.74647e-07,0,-2.46857e-06,-1.01897e+09,-1.01894e+09,-1.01889e+09,-169344,-0.0240138,-0.0213244,-0,0.0321153,-19783.2,-37090.6,-0,42036.7,169344
step02_gravity_refstate-crust.xmf,1146,-1.12236e-06,-9.91735e-08,0,-1.65591e-06,-1.03401e+09,-1.03394e+09,-1.03394e+09,-113595,-0.0200533,0.00241717,-0,0.0201984,-24059.6,-37639.6,-0,44672.1,113595
step02_gravity_refstate-crust.xmf,1147,-1.18731e-06,1.46625e-07,0,-1.43971e-06,-1.05868e+09,-1.05859e+09,-1.0586e+09,-98764.1,-0.0190157,0.00937034,-0,0.0211991,-25761.8,-38537.6,-0,46355.4,98764.1
step02_gravity_refstate-crust.xmf,1148,-3.48766e-06,3.88214e-06,0,-1.24428e-07,-2.69664e+08,-2.69158e+08,-2.69425e+08,-8535.76,0.000875516,-0.171587,0,0.171589,-251.289,-9809.28,-0,9812.5,8535.76
step02_gravity_refstate-crust.xmf,1149,-3.47298e-06,3.31557e-06,0,-1.17913e-07,-2.30465e+08,-2.29999e+08,-2.30227e+08,-8088.86,0.000990125,-0.166442,0,0.166444,-286.043,-8381.39,-0,8386.27,8088.86
step02_gravity_refstate-crust.xmf,1150,-3.78459e-06,2.46571e-06,0,-1.20498e-07,-1.48162e+08,-1.47733e+08,-1.47902e+08,-8266.14,0.00160217,-0.157818,0,0.157826,-424.612,-5382.49,-0,5399.21,8266.14
step02_gravity_refstate-crust.xmf,1151,-4.31098e-06,2.19389e-06,0,-3.72414e-08,-9.57677e+07,-9.53215e+07,-9.5472e+07,-2554.76,0.000216616,-0.153462,0,0.153462,-50.4903,-3472.48,-0,3472.84,2554.76
step02_gravity_refstate-crust.xmf,1152,-6.34877e-06,1.14785e-05,0,1.81198e-06,-5.51068e+08,-5.49845e+08,-5.50632e+08,124302,-0.00763534,-0.242612,-0,0.242733,1184.4,-20054.3,0,20089.2,124302
step02_gravity_refstate-crust.xmf,1153,-7.33101e-06,1.39985e-05,0,3.71778e-06,-6.11641e+08,-6.10178e+08,-6.11138e+08,255040,-0.0141909,-0.267763,-0,0.268139,1832.86,-22259.4,0,22334.8,255040
step02_gravity_refstate-crust.xmf,1154,-7.23224e-06,1.3478e-05,0,2.56564e-06,-5.95211e+08,-5.9379e+08,-5.94715e+08,176003,-0.0100052,-0.262021,-0,0.262212,1347.6,-21660.9,0,21702.7,176003
step02_gravity_refstate-crust.xmf,1155,-8.33472e-06,1.74086e-05,0,6.96057e-06,-6.82804e+08,-6.81038e+08,-6.82232e+08,477495,-0.0229727,-0.303288,-0,0.304157,2421.7,-24851.4,0,24969.1,477495
step02_gravity_refstate-crust.xmf,1156,-3.55705e-06,4.31581e-06,0,2.94931e-07,-2.96697e+08,-2.96157e+08,-2.96453e+08,20232.2,-0.00176294,-0.175525,-0,0.175534,496.008,-10793.8,0,10805.2,20232.2
step02_gravity_refstate-crust.xmf,1157,-5.73531e-06,1.02417e-05,0,2.24023e-06,-5.26126e+08,-5.2503e+08,-5.25733e+08,153680,-0.0098157,-0.231221,-0,0.231429,1660.35,-19146.8,0,19218.7,153680
step02_gravity_refstate-crust.xmf,1158,-4.66895e-06,7.6359e-06,0,1.10576e-06,-4.44722e+08,-4.43878e+08,-4.44402e+08,75854.8,-0.00534272,-0.206316,-0,0.206385,1134.13,-16183.5,0,16223.2,75854.8
step02_gravity_refstate-crust.xmf,1159,-4.94628e-06,8.38601e-06,0,1.76992e-06,-4.73576e+08,-4.72662e+08,-4.73237e+08,121416,-0.00828208,-0.213567,-0,0.213728,1635.26,-17234,0,17311.4,121416
step02_gravity_refstate-crust.xmf,1160,-7.47463e-06,1.93132e-05,0,1.28756e-05,-7.51631e+08,-7.49794e+08,-7.51119e+08,883267,-0.0349423,-0.334021,-0,0.335843,3322.86,-27363.6,0,27564.6,883267
step02_gravity_refstate-crust.xmf,1161,-8.9995e-06,2.82519e-05,0,1.38118e-05,-8.14373e+08,-8.11817e+08,-8.13755e+08,947487,-0.0291463,-0.404383,-0,0.405432,2724.57,-29655.4,0,29780.3,947487
step02_gravity_refstate-crust.xmf,1162,-6.2907e-07,-1.51924e-05,0,-1.68625e-05,-9.84921e+08,-9.8592e+08,-9.84877e+08,-1.15677e+06,-0.0478629,-0.269307,-0,0.273528,-5218.97,-35830.9,-0,36209,1.15677e+06
step02_gravity_refstate-crust.xmf,1163,-2.15479e-06,-1.23682e-05,0,-1.46486e-05,-9.98377e+08,-9.99078e+08,-9.9823e+08,-1.00489e+06,-0.050419,-0.232898,-0,0.238293,-5981.54,-36319.1,-0,36808.3,1.00489e+06
step02_gravity_refstate-crust.xmf,1164,-2.75022e-06,-3.74324e-06,0,-6.8867e-06,-1.01938e+09,-1.01945e+09,-1.01919e+09,-472428,-0.0396112,-0.114745,-0,0.12139,-10777.2,-37094.5,-0,38628.4,472428
step02_gravity_refstate-crust.xmf,1165,-2.95695e-06,-4.43871e-06,0,-7.7002e-06,-1.01835e+09,-1.01845e+09,-1.01815e+09,-528234,-0.0417943,-0.128627,-0,0.135246,-9962.97,-37055.3,-0,38371.3,528234
step02_gravity_refstate-crust.xmf,1166,-1.12623e-06,-5.72376e-07,0,-2.21461e-06,-1.02436e+09,-1.02432e+09,-1.02428e+09,-151922,-0.0229331,-0.0134448,-0,0.0265836,-21018.8,-37287.3,-0,42803.5,151922
step02_gravity_refstate-crust.xmf,1167,-1.12363e-06,-3.48779e-07,0,-1.95744e-06,-1.03154e+09,-1.03148e+09,-1.03146e+09,-134280,-0.0217667,-0.00562351,-0,0.0224814,-22403.2,-37549,-0,43724.5,134280
step02_gravity_refstate-crust.xmf,1168,-1.43781e-06,-1.54373e-06,0,-3.75576e-06,-1.04707e+09,-1.04708e+09,-1.04697e+09,-257645,-0.0294187,-0.0435117,-0,0.0525236,-16675.1,-38111.4,-0,41599.8,257645
step02_gravity_refstate-crust.xmf,1169,-1.23025e-06,-9.47865e-07,0,-2.81866e-06,-1.04486e+09,-1.04484e+09,-1.04477e+09,-193360,-0.0260347,-0.0243311,-0,0.0356344,-19214.2,-38032.6,-0,42610.6,193360
step02_gravity_refstate-crust.xmf,1170,-1.31581e-06,-1.2212e-06,0,-3.24005e-06,-1.04604e+09,-1.04603e+09,-1.04595e+09,-222268,-0.0276391,-0.0332131,-0,0.0432092,-17967.8,-38074.9,-0,42101.5,222268
step02_gravity_refstate-crust.xmf,1171,-3.57526e-06,2.80588e-06,0,1.82482e-07,-1.85338e+08,-1.849e+08,-1.85093e+08,12518.3,-0.00177374,-0.161352,-0,0.161362,497.082,-6737.29,0,6755.6,12518.3
step02_gravity_refstate-crust.xmf,1172,-6.11423e-06,2.31996e-06,0,-1.8583e-08,-580814,-2228.92,-161378,-1274.79,-3.27368e-06,-0.145893,-0,0.145893,7.0424e-08,0,0,7.0424e-08,1274.79
step02_gravity_refstate-crust.xmf,1173,-5.02643e-06,2.11698e-06,0,1.54751e-07,-4.81995e+07,-4.77095e+07,-4.78547e+07,10615.9,-0.00506282,-0.149349,-0,0.149434,1007.43,-1737.69,0,2008.61,10615.9
step02_gravity_refstate-crust.xmf,1174,-7.33629e-06,1.48254e-05,0,5.98199e-06,-6.44369e+08,-6.42848e+08,-6.43865e+08,410365,-0.0215479,-0.279062,-0,0.279893,2576.57,-23452.2,0,23593.3,410365
step02_gravity_refstate-crust.xmf,1175,-7.54958e-06,1.47565e-05,0,4.56359e-06,-6.29312e+08,-6.27781e+08,-6.28794e+08,313062,-0.0169014,-0.275328,-0,0.275846,2077.51,-22903,0,22997.1,313062
step02_gravity_refstate-crust.xmf,1176,-6.58185e-06,1.22203e-05,0,2.92744e-06,-5.73671e+08,-5.72381e+08,-5.73219e+08,200823,-0.0119367,-0.250205,-0,0.25049,1740.66,-20877.3,0,20949.8,200823
step02_gravity_refstate-crust.xmf,1177,-8.1529e-06,1.79016e-05,0,8.52734e-06,-7.00843e+08,-6.99056e+08,-7.00284e+08,584975,-0.0270038,-0.310437,-0,0.311609,2754.36,-25509.6,0,25657.9,584975
step02_gravity_refstate-crust.xmf,1178,-7.45287e-06,1.56542e-05,0,7.19853e-06,-6.65906e+08,-6.64321e+08,-6.65395e+08,493819,-0.0248587,-0.288359,-0,0.289428,2815.81,-24237.1,0,24400.1,493819
step02_gravity_refstate-crust.xmf,1179,-3.88141e-06,5.52086e-06,0,4.54256e-07,-3.58438e+08,-3.57793e+08,-3.58171e+08,31161.9,-0.00251391,-0.18643,-0,0.186447,647.666,-13042.1,0,13058.2,31161.9
step02_gravity_refstate-crust.xmf,1180,-3.65285e-06,4.85945e-06,0,8.00851e-07,-3.28199e+08,-3.27615e+08,-3.27948e+08,54938.4,-0.00465404,-0.180044,-0,0.180104,1265.16,-11941.1,0,12008,54938.4
step02_gravity_refstate-crust.xmf,1181,-3.44793e-06,3.71622e-06,0,5.54346e-07,-2.61154e+08,-2.60663e+08,-2.60917e+08,38028.1,-0.00371829,-0.169868,-0,0.169909,1074.06,-9499.38,0,9559.9,38028.1
step02_gravity_refstate-crust.xmf,1182,-5.15794e-06,9.04467e-06,0,2.56877e-06,-5.00244e+08,-4.9927e+08,-4.9989e+08,176218,-0.0116626,-0.220219,-0,0.220528,2154.52,-18205,0,18332.1,176218
step02_gravity_refstate-crust.xmf,1183,-4.06598e-06,6.13572e-06,0,1.03266e-06,-3.88737e+08,-3.88037e+08,-3.88458e+08,70840.2,-0.00536966,-0.192032,-0,0.192107,1307.37,-14145.4,0,14205.7,70840.2
step02_gravity_refstate-crust.xmf,1184,-4.24972e-06,6.75191e-06,0,1.57312e-06,-4.17322e+08,-4.16567e+08,-4.1703e+08,107916,-0.0079302,-0.197627,-0,0.197786,1819.68,-15186.3,0,15294.9,107916
step02_gravity_refstate-crust.xmf,1185,-7.81277e-06,1.8011e-05,0,1.01653e-05,-7.18018e+08,-7.16246e+08,-7.17482e+08,697337,-0.0307269,-0.316636,-0,0.318123,3060.61,-26136.4,0,26315,697337
step02_gravity_refstate-crust.xmf,1186,-7.27039e-06,1.80617e-05,0,1.19865e-05,-7.36528e+08,-7.3479e+08,-7.36029e+08,822272,-0.0342705,-0.322986,-0,0.324799,3354.9,-26812.6,0,27021.7,822272
step02_gravity_refstate-crust.xmf,1187,-8.49856e-06,2.42413e-05,0,1.46485e-05,-7.91881e+08,-7.89635e+08,-7.91298e+08,1.00489e+06,-0.0337356,-0.372117,-0,0.373644,3080.37,-28832.4,0,28996.5,1.00489e+06
step02_gravity_refstate-crust.xmf,1188,-6.64121e-06,1.86093e-05,0,1.43491e-05,-7.61219e+08,-7.59486e+08,-7.60763e+08,984346,-0.0373434,-0.333507,-0,0.335591,3599.54,-27714.9,0,27947.6,984346
step02_gravity_refstate-crust.xmf,1189,-7.65316e-06,2.14475e-05,0,1.47409e-05,-7.77419e+08,-7.75422e+08,-7.76894e+08,1.01123e+06,-0.0357787,-0.353153,-0,0.354961,3318.45,-28304.9,0,28498.8,1.01123e+06
step02_gravity_refstate-crust.xmf,1190,-7.9874e-06,2.81105e-05,0,1.57813e-05,-8.23732e+08,-8.21256e+08,-8.23184e+08,1.08259e+06,-0.0303975,-0.405172,-0,0.406311,2997.53,-30000,0,30149.4,1.08259e+06
step02_gravity_refstate-crust.xmf,1191,-8.03683e-06,2.54235e-05,0,1.59095e-05,-8.09131e+08,-8.06835e+08,-8.08579e+08,1.09139e+06,-0.033499,-0.384515,-0,0.385972,3179.05,-29464.1,0,29635.1,1.09139e+06
step02_gravity_refstate-crust.xmf,1192,-1.42168e-06,-1.51094e-05,0,-1.65646e-05,-9.986e+08,-9.99539e+08,-9.98502e+08,-1.13633e+06,-0.0513633,-0.252761,-0,0.257927,-5438.32,-36325.9,-0,36730.7,1.13633e+06
step02_gravity_refstate-crust.xmf,1193,3.57044e-07,-1.91497e-05,0,-1.95883e-05,-9.84218e+08,-9.85556e+08,-9.84242e+08,-1.34376e+06,-0.0474792,-0.29509,-0,0.298885,-4674.03,-35803.2,-0,36107,1.34376e+06
step02_gravity_refstate-crust.xmf,1194,6.07823e-06,-2.44874e-05,0,-2.72188e-05,-9.75431e+08,-9.77528e+08,-9.75848e+08,-1.86721e+06,-0.0413567,-0.340787,-0,0.343288,-4000,-35498.2,-0,35722.9,1.86721e+06
step02_gravity_refstate-crust.xmf,1195,-2.69895e-06,-1.0326e-05,0,-1.2935e-05,-1.01349e+09,-1.01402e+09,-1.01331e+09,-887344,-0.0508408,-0.201803,-0,0.208109,-6768.52,-36870.4,-0,37486.5,887344
step02_gravity_refstate-crust.xmf,1196,-2.18137e-06,-1.24802e-05,0,-1.44671e-05,-1.01293e+09,-1.01364e+09,-1.01278e+09,-992442,-0.0521607,-0.21936,-0,0.225476,-6190.85,-36848.7,-0,37365.2,992442
step02_gravity_refstate-crust.xmf,1197,-2.99382e-06,-8.58083e-06,0,-1.15691e-05,-1.01429e+09,-1.01467e+09,-1.01408e+09,-793641,-0.0492155,-0.184897,-0,0.191335,-7379.97,-36900.7,-0,37631.5,793641
step02_gravity_refstate-crust.xmf,1198,-3.02704e-06,-5.28424e-06,0,-8.58976e-06,-1.01799e+09,-1.01814e+09,-1.01778e+09,-589258,-0.0440234,-0.14296,-0,0.149585,-9199.07,-37040.4,-0,38165.6,589258
step02_gravity_refstate-crust.xmf,1199,-3.10281e-06,-7.34381e-06,0,-1.0525e-05,-1.01705e+09,-1.01734e+09,-1.01683e+09,-722014,-0.0477013,-0.169515,-0,0.176098,-7972.06,-37002.6,-0,37851.7,722014
step02_gravity_refstate-crust.xmf,1200,-3.14294e-06,-6.30401e-06,0,-9.64072e-06,-1.0212e+09,-1.02142e+09,-1.02099e+09,-661354,-0.0461075,-0.154541,-0,0.161273,-8598,-37155.4,-0,38137.3,661354
step02_gravity_refstate-crust.xmf,1201,-2.25935e-06,-3.07475e-06,0,-6.13176e-06,-1.03921e+09,-1.03927e+09,-1.03906e+09,-420639,-0.0368033,-0.0897767,-0,0.0970276,-12338.3,-37819.6,-0,39781.4,420639
step02_gravity_refstate-crust.xmf,1202,-2.53367e-06,-3.86991e-06,0,-7.17978e-06,-1.03994e+09,-1.04004e+09,-1.03977e+09,-492533,-0.0396104,-0.106149,-0,0.113299,-11150.1,-37844,-0,39452.4,492533
step02_gravity_refstate-crust.xmf,1203,-2.02129e-06,-2.58833e-06,0,-5.41975e-06,-1.03989e+09,-1.03993e+09,-1.03976e+09,-371795,-0.0347253,-0.0773408,-0,0.0847788,-13339.7,-37846.2,-0,40128.3,371795
step02_gravity_refstate-crust.xmf,1204,-1.59074e-06,-1.91248e-06,0,-4.36042e-06,-1.04814e+09,-1.04816e+09,-1.04803e+09,-299125,-0.0313163,-0.0547193,-0,0.0630469,-15418.7,-38149.1,-0,41147.2,299125
step02_gravity_refstate-crust.xmf,1205,-1.79315e-06,-2.2116e-06,0,-4.82681e-06,-1.04204e+09,-1.04207e+09,-1.04191e+09,-331119,-0.0328848,-0.0657801,-0,0.073542,-14361,-37925.8,-0,40553.7,331119
step02_gravity_refstate-crust.xmf,1206,-1.17101e-06,-7.39817e-07,0,-2.50839e-06,-1.04411e+09,-1.04408e+09,-1.04403e+09,-172076,-0.0247486,-0.0175012,-0,0.0303115,-20271.5,-38005.9,-0,43074.2,172076
step02_gravity_refstate-crust.xmf,1207,-1.15356e-06,-8.17747e-08,0,-1.71612e-06,-1.07174e+09,-1.07167e+09,-1.07166e+09,-117726,-0.0211278,0.00346861,-0,0.0214106,-24271.6,-39012.9,-0,45946.9,117726
step02_gravity_refstate-crust.xmf,1208,-3.80524e-06,2.40181e-06,0,3.97698e-07,-1.42369e+08,-1.41943e+08,-1.42108e+08,27282.1,-0.00472525,-0.156736,-0,0.156807,1238.71,-5171.41,0,5317.69,27282.1
step02_gravity_refstate-crust.xmf,1209,-4.22709e-06,2.14992e-06,0,4.46302e-07,-9.54145e+07,-9.49771e+07,-9.51245e+07,30616.3,-0.00888863,-0.151726,-0,0.151987,2081.16,-3459.89,0,4037.58,30616.3
step02_gravity_refstate-crust.xmf,1210,-5.9189e-06,1.0897e-05,0,3.23252e-06,-5.50038e+08,-5.48884e+08,-5.49632e+08,221751,-0.01373,-0.238082,-0,0.238477,2183.41,-20017.6,0,20136.3,221751
step02_gravity_refstate-crust.xmf,1211,-6.73032e-06,1.32862e-05,0,5.45356e-06,-6.17957e+08,-6.16584e+08,-6.17496e+08,374114,-0.0207144,-0.264278,-0,0.265089,2708.49,-22490.7,0,22653.2,374114
step02_gravity_refstate-crust.xmf,1212,-6.66239e-06,1.26896e-05,0,4.18325e-06,-5.94685e+08,-5.93357e+08,-5.94228e+08,286971,-0.0164953,-0.256593,-0,0.257122,2284.01,-21642.8,0,21763,286971
step02_gravity_refstate-crust.xmf,1213,-7.20242e-06,1.58088e-05,0,8.63385e-06,-6.83981e+08,-6.82403e+08,-6.83487e+08,592282,-0.0286965,-0.29424,-0,0.295636,3146.38,-24896.4,0,25094.4,592282
step02_gravity_refstate-crust.xmf,1214,-3.45727e-06,4.17728e-06,0,1.0775e-06,-2.94705e+08,-2.94181e+08,-2.94468e+08,73916.6,-0.00666149,-0.173472,-0,0.1736,1895,-10721.5,0,10887.7,73916.6
step02_gravity_refstate-crust.xmf,1215,-5.2885e-06,9.65406e-06,0,3.48052e-06,-5.25754e+08,-5.24729e+08,-5.25392e+08,238764,-0.0153832,-0.226359,-0,0.226881,2672.64,-19134.2,0,19319.9,238764
step02_gravity_refstate-crust.xmf,1216,-4.48479e-06,7.43648e-06,0,2.10365e-06,-4.4739e+08,-4.46572e+08,-4.47082e+08,144310,-0.0102236,-0.204273,-0,0.204529,2188.74,-16281,0,16427.5,144310
step02_gravity_refstate-crust.xmf,1217,-4.63343e-06,7.99052e-06,0,2.81358e-06,-4.74269e+08,-4.73403e+08,-4.73951e+08,193011,-0.0132678,-0.209892,-0,0.210311,2671.7,-17259.8,0,17465.4,193011
step02_gravity_refstate-crust.xmf,1218,-6.22011e-06,1.70885e-05,0,1.35202e-05,-7.47476e+08,-7.45877e+08,-7.47049e+08,927489,-0.0374484,-0.321367,-0,0.323542,3721.78,-27213.9,0,27467.2,927489
step02_gravity_refstate-crust.xmf,1219,-1.69924e-07,-1.86845e-05,0,-1.87544e-05,-9.98716e+08,-9.99986e+08,-9.98705e+08,-1.28655e+06,-0.0517633,-0.275022,-0,0.279851,-4890.23,-36329.6,-0,36657.3,1.28655e+06
step02_gravity_refstate-crust.xmf,1220,4.22028e-06,-2.40266e-05,0,-2.17086e-05,-9.82509e+08,-9.84447e+08,-9.82799e+08,-1.48921e+06,-0.045919,-0.318183,-0,0.32148,-4263.35,-35749.1,-0,36002.4,1.48921e+06
step02_gravity_refstate-crust.xmf,1221,-1.33736e-06,-1.51919e-05,0,-1.61636e-05,-1.0128e+09,-1.01376e+09,-1.01271e+09,-1.10882e+06,-0.0530914,-0.237503,-0,0.243365,-5641.21,-36843.2,-0,37272.6,1.10882e+06
step02_gravity_refstate-crust.xmf,1222,-2.54051e-06,-1.03396e-05,0,-1.28113e-05,-1.02914e+09,-1.02967e+09,-1.02897e+09,-878858,-0.0509221,-0.188661,-0,0.195412,-7035.9,-37440.6,-0,38095.9,878858
step02_gravity_refstate-crust.xmf,1223,-2.74061e-06,-4.54196e-06,0,-7.96899e-06,-1.03842e+09,-1.03854e+09,-1.03823e+09,-546672,-0.0416535,-0.118734,-0,0.125828,-10351.9,-37786.6,-0,39178.9,546672
step02_gravity_refstate-crust.xmf,1224,-2.89206e-06,-5.43486e-06,0,-8.9055e-06,-1.03748e+09,-1.03766e+09,-1.03729e+09,-610917,-0.0438654,-0.132628,-0,0.139694,-9545.99,-37750.5,-0,38938.8,610917
step02_gravity_refstate-crust.xmf,1225,-1.30567e-06,-1.91437e-06,0,-4.25908e-06,-1.07343e+09,-1.07348e+09,-1.07334e+09,-292173,-0.0303913,-0.0450704,-0,0.0543597,-16295.7,-39071.2,-0,42333.3,292173
step02_gravity_refstate-crust.xmf,1226,-1.15899e-06,-5.84028e-07,0,-2.33928e-06,-1.06256e+09,-1.06252e+09,-1.06248e+09,-160474,-0.0241795,-0.0107425,-0,0.0264584,-21350.8,-38677.9,-0,44179.6,160474
step02_gravity_refstate-crust.xmf,1227,-1.15052e-06,-3.0352e-07,0,-1.97601e-06,-1.06753e+09,-1.06747e+09,-1.06745e+09,-135554,-0.0224936,-0.00236192,-0,0.0226173,-22972.3,-38859.5,-0,45141.8,135554
step02_gravity_refstate-crust.xmf,1228,-1.23727e-06,-1.5439e-06,0,-3.69941e-06,-1.0727e+09,-1.07272e+09,-1.07261e+09,-253780,-0.0289275,-0.0356658,-0,0.0459222,-17469.2,-39045.3,-0,42775.1,253780
step02_gravity_refstate-crust.xmf,1229,-1.15742e-06,-9.02607e-07,0,-2.7696e-06,-1.07062e+09,-1.0706e+09,-1.07054e+09,-189995,-0.0259791,-0.0186372,-0,0.0319727,-19959.2,-38970.8,-0,43784.6,189995
step02_gravity_refstate-crust.xmf,1230,-1.18739e-06,-1.20758e-06,0,-3.20275e-06,-1.07181e+09,-1.07181e+09,-1.07173e+09,-219709,-0.0274541,-0.026794,-0,0.038362,-18699,-39013.6,-0,43263.3,219709
step02_gravity_refstate-crust.xmf,1231,-3.44115e-06,3.15851e-06,0,6.24119e-07,-2.20929e+08,-2.20476e+08,-2.20693e+08,42814.6,-0.00485191,-0.164445,-0,0.164516,1402.73,-8034.11,0,8155.64,42814.6
step02_gravity_refstate-crust.xmf,1232,-3.48973e-06,2.71998e-06,0,8.19757e-07,-1.83583e+08,-1.83157e+08,-1.83344e+08,56235.3,-0.00787467,-0.159146,-0,0.159341,2220.9,-6673.61,0,7033.46,56235.3
step02_gravity_refstate-crust.xmf,1233,-6.00105e-06,2.27905e-06,0,-1.04217e-08,-569976,-1961.08,-158304,-714.931,-0.0119496,-0.144491,-0,0.144985,1971.11,0,0,1971.11,714.931
step02_gravity_refstate-crust.xmf,1234,-4.84601e-06,2.03926e-06,0,3.92049e-07,-4.77458e+07,-4.72735e+07,-4.74134e+07,26894.6,-0.015026,-0.146263,-0,0.147033,3022.53,-1721.79,0,3478.54,26894.6
step02_gravity_refstate-crust.xmf,1235,-6.75994e-06,1.42198e-05,0,7.29989e-06,-6.52103e+08,-6.50664e+08,-6.51639e+08,500772,-0.0261453,-0.276785,-0,0.278017,3146.91,-23735.1,0,23942.8,500772
step02_gravity_refstate-crust.xmf,1236,-5.97412e-06,1.13883e-05,0,4.34512e-06,-5.72588e+08,-5.71397e+08,-5.72178e+08,298075,-0.0179175,-0.244013,-0,0.24467,2700.98,-20839.1,0,21013.4,298075
step02_gravity_refstate-crust.xmf,1237,-6.39519e-06,1.42461e-05,0,8.58953e-06,-6.68124e+08,-6.66708e+08,-6.67685e+08,589242,-0.0298675,-0.280138,-0,0.281726,3512.78,-24319.9,0,24572.3,589242
step02_gravity_refstate-crust.xmf,1238,-6.79824e-06,1.59333e-05,0,1.00815e-05,-7.011e+08,-6.9954e+08,-7.00633e+08,691588,-0.0322573,-0.299122,-0,0.300856,3453.86,-25521.4,0,25754.1,691588
step02_gravity_refstate-crust.xmf,1239,-3.7549e-06,5.39347e-06,0,1.39531e-06,-3.59621e+08,-3.58994e+08,-3.59364e+08,95718.4,-0.00766483,-0.184511,-0,0.18467,1993.56,-13085.5,0,13236.5,95718.4
step02_gravity_refstate-crust.xmf,1240,-3.47633e-06,4.66227e-06,0,1.6533e-06,-3.28005e+08,-3.27447e+08,-3.27767e+08,113416,-0.00962751,-0.176963,-0,0.177225,2660.54,-11934.5,0,12227.5,113416
step02_gravity_refstate-crust.xmf,1241,-3.32714e-06,3.55929e-06,0,1.24002e-06,-2.58738e+08,-2.58266e+08,-2.5851e+08,85065.4,-0.0085155,-0.167099,-0,0.167316,2491.62,-9411.67,0,9735.9,85065.4
step02_gravity_refstate-crust.xmf,1242,-4.71098e-06,8.46573e-06,0,3.64993e-06,-5.0062e+08,-4.99716e+08,-5.00297e+08,250385,-0.0167432,-0.215124,-0,0.215775,3180.67,-18219.6,0,18495.2,250385
step02_gravity_refstate-crust.xmf,1243,-4.12386e-06,6.69784e-06,0,2.35284e-06,-4.25794e+08,-4.25051e+08,-4.25511e+08,161405,-0.0117791,-0.196872,-0,0.197224,2690.47,-15495.1,0,15727,161405
step02_gravity_refstate-crust.xmf,1244,-3.86247e-06,5.99735e-06,0,2.11332e-06,-3.94588e+08,-3.93912e+08,-3.94323e+08,144974,-0.0110377,-0.189614,-0,0.189935,2708.82,-14359,0,14612.3,144974
step02_gravity_refstate-crust.xmf,1245,-6.02761e-06,1.54487e-05,0,1.1793e-05,-7.18674e+08,-7.17201e+08,-7.18261e+08,809002,-0.0360341,-0.302052,-0,0.304193,3818.95,-26163.6,0,26440.8,809002
step02_gravity_refstate-crust.xmf,1246,-5.25752e-06,1.50183e-05,0,1.33654e-05,-7.36743e+08,-7.35352e+08,-7.36382e+08,916870,-0.0387563,-0.306428,-0,0.308869,4066.22,-26823.8,0,27130.3,916870
step02_gravity_refstate-crust.xmf,1247,-6.19659e-06,1.98669e-05,0,1.68829e-05,-7.86861e+08,-7.85073e+08,-7.86436e+08,1.15816e+06,-0.0383541,-0.348501,-0,0.350606,3692.2,-28652.2,0,28889.1,1.15816e+06
step02_gravity_refstate-crust.xmf,1248,-4.60862e-06,1.51254e-05,0,1.50211e-05,-7.55214e+08,-7.5386e+08,-7.54898e+08,1.03044e+06,-0.040374,-0.313389,-0,0.315979,4185.82,-27499.1,0,27815.8,1.03044e+06
step02_gravity_refstate-crust.xmf,1249,-5.22367e-06,1.72131e-05,0,1.62005e-05,-7.72923e+08,-7.71384e+08,-7.72565e+08,1.11136e+06,-0.0397387,-0.331014,-0,0.333391,3942.58,-28144.6,0,28419.4,1.11136e+06
step02_gravity_refstate-crust.xmf,1250,-6.80809e-06,2.20373e-05,0,1.74156e-05,-7.99865e+08,-7.97886e+08,-7.99398e+08,1.19471e+06,-0.0369238,-0.363588,-0,0.365458,3542.79,-29126.5,0,29341.1,1.19471e+06
step02_gravity_refstate-crust.xmf,1251,-6.23041e-06,2.54197e-05,0,1.87231e-05,-8.23651e+08,-8.2148e+08,-8.23224e+08,1.2844e+06,-0.0339446,-0.385901,-0,0.387391,3497.18,-30000,0,30203.2,1.2844e+06
step02_gravity_refstate-crust.xmf,1252,6.82882e-08,-1.87615e-05,0,-1.80126e-05,-1.0126e+09,-1.01389e+09,-1.0126e+09,-1.23567e+06,-0.0534336,-0.256906,-0,0.262404,-5103.53,-36835.8,-0,37187.6,1.23567e+06
step02_gravity_refstate-crust.xmf,1253,2.71459e-06,-2.71019e-05,0,-2.32097e-05,-9.97897e+08,-9.99943e+08,-9.98084e+08,-1.59218e+06,-0.0510126,-0.302674,-0,0.306942,-4299.58,-36298.5,-0,36552.2,1.59218e+06
step02_gravity_refstate-crust.xmf,1254,6.0353e-06,-3.53832e-05,0,-2.43202e-05,-9.89682e+08,-9.92524e+08,-9.90096e+08,-1.66836e+06,-0.0482256,-0.327307,-0,0.330841,-4000,-36000,-0,36221.5,1.66836e+06
step02_gravity_refstate-crust.xmf,1255,-1.95314e-06,-1.25699e-05,0,-1.42155e-05,-1.02866e+09,-1.02939e+09,-1.02852e+09,-975185,-0.0522973,-0.205336,-0,0.211892,-6420.86,-37422,-0,37968.8,975185
step02_gravity_refstate-crust.xmf,1256,-1.03564e-06,-1.52978e-05,0,-1.56997e-05,-1.02756e+09,-1.02854e+09,-1.02749e+09,-1.077e+06,-0.0532004,-0.223031,-0,0.229288,-5834.17,-37381.4,-0,37834,1.077e+06
step02_gravity_refstate-crust.xmf,1257,-2.82637e-06,-8.77363e-06,0,-1.16728e-05,-1.02863e+09,-1.02903e+09,-1.02843e+09,-800752,-0.0494939,-0.175618,-0,0.182459,-7570.84,-37423.1,-0,38181.2,800752
step02_gravity_refstate-crust.xmf,1258,-2.86741e-06,-6.53397e-06,0,-9.91038e-06,-1.03751e+09,-1.03776e+09,-1.03731e+09,-679852,-0.0460032,-0.146682,-0,0.153727,-8795.55,-37749.9,-0,38761,679852
step02_gravity_refstate-crust.xmf,1259,-2.83402e-06,-7.98806e-06,0,-1.11343e-05,-1.03817e+09,-1.03853e+09,-1.03798e+09,-763813,-0.0480326,-0.161372,-0,0.168369,-8071.57,-37771.9,-0,38624.7,763813
step02_gravity_refstate-crust.xmf,1260,-2.2827e-06,-4.65145e-06,0,-8.09955e-06,-1.05858e+09,-1.05874e+09,-1.05842e+09,-555629,-0.0400045,-0.108013,-0,0.115183,-10826.9,-38522.1,-0,40014.7,555629
step02_gravity_refstate-crust.xmf,1261,-2.13828e-06,-3.84974e-06,0,-7.14654e-06,-1.05804e+09,-1.05816e+09,-1.05789e+09,-490253,-0.0380282,-0.0951171,-0,0.102437,-11753.5,-38504.4,-0,40258.3,490253
step02_gravity_refstate-crust.xmf,1262,-1.9246e-06,-3.20315e-06,0,-6.26963e-06,-1.0592e+09,-1.05928e+09,-1.05906e+09,-430097,-0.0359347,-0.0818025,-0,0.0893474,-12792.7,-38548.4,-0,40615.7,430097
step02_gravity_refstate-crust.xmf,1263,-1.74099e-06,-2.69784e-06,0,-5.53129e-06,-1.05972e+09,-1.05978e+09,-1.0596e+09,-379446,-0.0341294,-0.0702872,-0,0.0781352,-13794.3,-38568.9,-0,40961.5,379446
step02_gravity_refstate-crust.xmf,1264,-1.5603e-06,-2.28448e-06,0,-4.89734e-06,-1.06054e+09,-1.06059e+09,-1.06044e+09,-335957,-0.0325327,-0.0600572,-0,0.0683026,-14770.9,-38600.3,-0,41330,335957
step02_gravity_refstate-crust.xmf,1265,-1.35825e-06,-2.30754e-06,0,-4.83358e-06,-1.0758e+09,-1.07586e+09,-1.07571e+09,-331584,-0.03166,-0.0536329,-0,0.0622804,-15307.5,-39156.5,-0,42042.2,331584
step02_gravity_refstate-crust.xmf,1266,-3.65422e-06,2.30596e-06,0,9.40577e-07,-1.42156e+08,-1.41747e+08,-1.41905e+08,64523.6,-0.0115736,-0.153476,-0,0.153912,3073.02,-5164.12,0,6009.29,64523.6
step02_gravity_refstate-crust.xmf,1267,-3.95688e-06,2.02214e-06,0,8.88447e-07,-9.49759e+07,-9.45658e+07,-9.47045e+07,60947.5,-0.0175737,-0.146557,-0,0.147607,4195.55,-3444.82,0,5428.57,60947.5
step02_gravity_refstate-crust.xmf,1268,-6.33202e-06,1.31821e-05,0,6.98051e-06,-6.36113e+08,-6.34774e+08,-6.35678e+08,478863,-0.0258882,-0.266965,-0,0.268217,3298.66,-23153.1,0,23386.9,478863
step02_gravity_refstate-crust.xmf,1269,-5.31406e-06,1.00869e-05,0,4.47027e-06,-5.49523e+08,-5.48466e+08,-5.49158e+08,306660,-0.0192152,-0.231693,-0,0.232489,3164.17,-20000,0,20248.8,306660
step02_gravity_refstate-crust.xmf,1270,-5.89776e-06,1.16406e-05,0,5.54466e-06,-5.9446e+08,-5.93257e+08,-5.94055e+08,380364,-0.0221896,-0.249198,-0,0.250184,3192.54,-21636.1,0,21870.3,380364
step02_gravity_refstate-crust.xmf,1271,-5.79809e-06,1.28215e-05,0,8.29911e-06,-6.51369e+08,-6.50091e+08,-6.50971e+08,569319,-0.0301768,-0.26777,-0,0.269465,3798.03,-23710.1,0,24012.4,569319
step02_gravity_refstate-crust.xmf,1272,-5.78646e-06,1.38099e-05,0,9.98898e-06,-6.85033e+08,-6.83688e+08,-6.84636e+08,685244,-0.0337131,-0.282503,-0,0.284508,3903,-24937.3,0,25240.9,685244
step02_gravity_refstate-crust.xmf,1273,-3.25279e-06,3.93999e-06,0,1.82747e-06,-2.93528e+08,-2.93035e+08,-2.93305e+08,125364,-0.011466,-0.169464,-0,0.169851,3329.61,-10679.1,0,11186.2,125364
step02_gravity_refstate-crust.xmf,1274,-4.70122e-06,8.88087e-06,0,4.54814e-06,-5.25763e+08,-5.24832e+08,-5.25441e+08,312003,-0.0203482,-0.219813,-0,0.220753,3665.96,-19135.7,0,19483.7,312003
step02_gravity_refstate-crust.xmf,1275,-4.17734e-06,7.05628e-06,0,2.98034e-06,-4.4865e+08,-4.47879e+08,-4.48363e+08,204452,-0.0145631,-0.200445,-0,0.200974,3181.21,-16327.6,0,16634.6,204452
step02_gravity_refstate-crust.xmf,1276,-4.19846e-06,7.43528e-06,0,3.74542e-06,-4.75011e+08,-4.74213e+08,-4.74723e+08,256936,-0.0178289,-0.20457,-0,0.205345,3697.18,-17287.8,0,17678.7,256936
step02_gravity_refstate-crust.xmf,1277,-5.98564e-06,2.23998e-05,0,1.97997e-05,-8.11676e+08,-8.09729e+08,-8.11266e+08,1.35826e+06,-0.0371515,-0.36497,-0,0.366856,3749.01,-29560.4,0,29797.1,1.35826e+06
step02_gravity_refstate-crust.xmf,1278,-4.31433e-06,1.81995e-05,0,1.96118e-05,-7.99667e+08,-7.98122e+08,-7.99371e+08,1.34537e+06,-0.0395476,-0.345469,-0,0.347726,4013.31,-29123.4,0,29398.6,1.34537e+06
step02_gravity_refstate-crust.xmf,1279,2.34442e-06,-2.42935e-05,0,-2.00897e-05,-1.01291e+09,-1.01474e+09,-1.01307e+09,-1.37815e+06,-0.0528241,-0.277508,-0,0.282491,-4562.83,-36847.9,-0,37129.3,1.37815e+06
step02_gravity_refstate-crust.xmf,1280,8.59173e-06,-3.63696e-05,0,-1.99979e-05,-1.00088e+09,-1.00396e+09,-1.00147e+09,-1.37186e+06,-0.0481764,-0.324799,-0,0.328352,-3744.1,-36416.4,-0,36608.3,1.37186e+06
step02_gravity_refstate-crust.xmf,1281,8.97241e-06,-4.00581e-05,0,-1.89619e-05,-9.89555e+08,-9.92918e+08,-9.9017e+08,-1.30079e+06,-0.0447064,-0.350951,-0,0.353787,-3499.28,-36000,-0,36169.7,1.30079e+06
step02_gravity_refstate-crust.xmf,1282,1.07286e-05,-4.06264e-05,0,-1.63424e-05,-1.00146e+09,-1.00498e+09,-1.0022e+09,-1.12109e+06,-0.0430984,-0.34415,-0,0.346838,-3211.88,-36439.6,-0,36580.9,1.12109e+06
step02_gravity_refstate-crust.xmf,1283,1.09405e-05,-4.34659e-05,0,-1.55803e-05,-9.89481e+08,-9.93213e+08,-9.90231e+08,-1.06881e+06,-0.0397163,-0.369931,-0,0.372057,-2999.32,-36000,-0,36124.7,1.06881e+06
step02_gravity_refstate-crust.xmf,1284,1.21484e-05,-4.36499e-05,0,-1.33021e-05,-1.00142e+09,-1.00525e+09,-1.00225e+09,-912523,-0.0370865,-0.36068,-0,0.362582,-2682.75,-36439.2,-0,36537.8,912523
step02_gravity_refstate-crust.xmf,1285,1.21867e-05,-4.59061e-05,0,-1.25916e-05,-9.89446e+08,-9.93431e+08,-9.90282e+08,-863786,-0.033953,-0.385456,-0,0.386949,-2499.83,-36000,-0,36086.7,863786
step02_gravity_refstate-crust.xmf,1286,1.30841e-05,-4.57959e-05,0,-1.0627e-05,-1.00089e+09,-1.00493e+09,-1.00179e+09,-729009,-0.0308292,-0.37409,-0,0.375359,-2186.46,-36420.3,-0,36485.9,729009
step02_gravity_refstate-crust.xmf,1287,1.30283e-05,-4.77124e-05,0,-9.83711e-06,-9.89429e+08,-9.93596e+08,-9.90323e+08,-674826,-0.0276645,-0.397887,-0,0.398848,-2000,-36000,-0,36055.5,674826
step02_gravity_refstate-crust.xmf,1288,1.3605e-05,-4.74777e-05,0,-8.34087e-06,-9.98313e+08,-1.0025e+09,-9.99246e+08,-572183,-0.0246644,-0.387689,-0,0.388472,-1732.68,-36326.1,-0,36367.4,572183
step02_gravity_refstate-crust.xmf,1289,1.36076e-05,-4.90156e-05,0,-7.26092e-06,-9.8942e+08,-9.93716e+08,-9.90354e+08,-498099,-0.0210206,-0.407399,-0,0.407941,-1500.17,-36000,-0,36031.2,498099
step02_gravity_refstate-crust.xmf,1290,1.41484e-05,-4.83265e-05,0,-6.17903e-06,-1.00031e+09,-1.0046e+09,-1.00128e+09,-423881,-0.0186421,-0.390995,-0,0.391439,-1292.55,-36399.7,-0,36422.7,423881
step02_gravity_refstate-crust.xmf,1291,1.39999e-05,-4.99107e-05,0,-4.78384e-06,-9.89415e+08,-9.93799e+08,-9.90375e+08,-328172,-0.0141431,-0.41411,-0,0.414352,-1000.68,-36000,-0,36013.9,328172
step02_gravity_refstate-crust.xmf,1292,3.07229e-07,-1.85567e-05,0,-1.71061e-05,-1.02664e+09,-1.02794e+09,-1.02667e+09,-1.17348e+06,-0.0534513,-0.240491,-0,0.246359,-5298.83,-37348.5,-0,37722.5,1.17348e+06
step02_gravity_refstate-crust.xmf,1293,-2.31674e-06,-1.01223e-05,0,-1.25877e-05,-1.04388e+09,-1.04441e+09,-1.04372e+09,-863516,-0.0495358,-0.175344,-0,0.182207,-7357.81,-37978.4,-0,38684.5,863516
step02_gravity_refstate-crust.xmf,1294,-1.68195e-06,-1.23994e-05,0,-1.38801e-05,-1.04452e+09,-1.04525e+09,-1.0444e+09,-952177,-0.0507807,-0.190689,-0,0.197335,-6702.49,-38000.6,-0,38587.2,952177
step02_gravity_refstate-crust.xmf,1295,-2.41407e-06,-5.59992e-06,0,-9.10838e-06,-1.0579e+09,-1.05811e+09,-1.05773e+09,-624835,-0.0420624,-0.121682,-0,0.128747,-9947.46,-38495.3,-0,39759.8,624835
step02_gravity_refstate-crust.xmf,1296,-2.4389e-06,-6.71662e-06,0,-1.01261e-05,-1.05697e+09,-1.05726e+09,-1.0568e+09,-694652,-0.0440098,-0.135179,-0,0.142163,-9160.16,-38459.7,-0,39535.5,694652
step02_gravity_refstate-crust.xmf,1297,-1.39389e-06,-2.76421e-06,0,-5.48722e-06,-1.07718e+09,-1.07728e+09,-1.07709e+09,-376423,-0.0330161,-0.0633797,-0,0.0714636,-14285.6,-39205.9,-0,41727.5,376423
step02_gravity_refstate-crust.xmf,1298,-3.2755e-06,3.01074e-06,0,1.34463e-06,-2.20968e+08,-2.20537e+08,-2.20744e+08,92241.9,-0.0106503,-0.160917,-0,0.161269,3129.11,-8035.98,0,8623.71,92241.9
step02_gravity_refstate-crust.xmf,1299,-3.29402e-06,2.57004e-06,0,1.40421e-06,-1.83291e+08,-1.82889e+08,-1.83065e+08,96328.8,-0.0136074,-0.154718,-0,0.155316,3909.85,-6663.55,0,7725.92,96328.8
step02_gravity_refstate-crust.xmf,1300,-5.66693e-06,2.15557e-06,0,-1.4058e-09,-538096,-1472.75,-149345,-96.4382,-0.0234624,-0.14035,-0,0.142298,3942.22,0,0,3942.22,96.4382
step02_gravity_refstate-crust.xmf,1301,-4.5249e-06,1.90705e-06,0,5.82878e-07,-4.67965e+07,-4.63553e+07,-4.64861e+07,39985.4,-0.02406,-0.140606,-0,0.142649,4937.72,-1688.32,0,5218.38,39985.4
step02_gravity_refstate-crust.xmf,1302,-5.60715e-06,1.16797e-05,0,6.82843e-06,-6.15089e+08,-6.13903e+08,-6.14704e+08,468430,-0.026615,-0.252811,-0,0.254208,3697.3,-22388.3,0,22691.6,468430
step02_gravity_refstate-crust.xmf,1303,-5.21035e-06,1.03582e-05,0,5.54535e-06,-5.72386e+08,-5.71318e+08,-5.72029e+08,380411,-0.023195,-0.236219,-0,0.237355,3646.2,-20833.3,0,21149.9,380411
step02_gravity_refstate-crust.xmf,1304,-5.09015e-06,1.24327e-05,0,9.75045e-06,-6.70295e+08,-6.69093e+08,-6.69946e+08,668881,-0.0343773,-0.269261,-0,0.271447,4263.44,-24401.4,0,24771.1,668881
step02_gravity_refstate-crust.xmf,1305,-5.53009e-06,1.39886e-05,0,1.09716e-05,-6.9997e+08,-6.98631e+08,-6.9959e+08,752649,-0.0357686,-0.287559,-0,0.289775,4038.97,-25482.4,0,25800.5,752649
step02_gravity_refstate-crust.xmf,1306,-3.4829e-06,5.08296e-06,0,2.29771e-06,-3.59729e+08,-3.59142e+08,-3.5949e+08,157623,-0.0126937,-0.180087,-0,0.180534,3382.58,-13090.1,0,13520.1,157623
step02_gravity_refstate-crust.xmf,1307,-3.18884e-06,4.32383e-06,0,2.42047e-06,-3.26841e+08,-3.26326e+08,-3.26622e+08,166044,-0.0142613,-0.171689,-0,0.172281,4056.11,-11892.8,0,12565.4,166044
step02_gravity_refstate-crust.xmf,1308,-3.10185e-06,3.32601e-06,0,1.91885e-06,-2.5797e+08,-2.57529e+08,-2.57757e+08,131633,-0.0133855,-0.162343,-0,0.162894,4007.01,-9384.26,0,10203.9,131633
step02_gravity_refstate-crust.xmf,1309,-4.1399e-06,7.72213e-06,0,4.58063e-06,-5.0102e+08,-5.00207e+08,-5.00736e+08,314231,-0.0212913,-0.208311,-0,0.209396,4202.9,-18235.4,0,18713.4,314231
step02_gravity_refstate-crust.xmf,1310,-3.78533e-06,6.19337e-06,0,3.02587e-06,-4.20781e+08,-4.20096e+08,-4.20521e+08,207574,-0.0153443,-0.191471,-0,0.192084,3632.09,-15313.2,0,15738.1,207574
step02_gravity_refstate-crust.xmf,1311,-4.7241e-06,1.36596e-05,0,1.28153e-05,-7.24356e+08,-7.23095e+08,-7.24032e+08,879132,-0.0390815,-0.294181,-0,0.296766,4304.64,-26372.9,0,26721.9,879132
step02_gravity_refstate-crust.xmf,1312,-3.64097e-06,1.26948e-05,0,1.42163e-05,-7.41035e+08,-7.39914e+08,-7.40785e+08,975237,-0.0412769,-0.295481,-0,0.29835,4573.68,-26983,0,27367.9,975237
step02_gravity_refstate-crust.xmf,1313,-3.36034e-06,1.51816e-05,0,1.808e-05,-7.85861e+08,-7.84589e+08,-7.8563e+08,1.24029e+06,-0.0411147,-0.327667,-0,0.330236,4265.07,-28620,0,28936,1.24029e+06
step02_gravity_refstate-crust.xmf,1314,-2.73063e-06,1.30635e-05,0,1.6694e-05,-7.71324e+08,-7.7024e+08,-7.71136e+08,1.14521e+06,-0.0421116,-0.310698,-0,0.313538,4541.75,-28090,0,28454.8,1.14521e+06
step02_gravity_refstate-crust.xmf,1315,4.45712e-07,1.60746e-05,0,2.45431e-05,-8.23307e+08,-8.22235e+08,-8.23337e+08,1.68365e+06,-0.0360903,-0.362465,-0,0.364257,4000,-30000,0,30265.5,1.68365e+06
step02_gravity_refstate-crust.xmf,1316,1.44817e-05,-4.90846e-05,0,-3.67402e-06,-1.00056e+09,-1.00492e+09,-1.00155e+09,-252038,-0.0112993,-0.395939,-0,0.3961,-777.299,-36409,-0,36417.3,252038
step02_gravity_refstate-crust.xmf,1317,1.41656e-05,-5.04114e-05,0,-2.37468e-06,-9.89418e+08,-9.93848e+08,-9.9039e+08,-162903,-0.00711194,-0.418113,-0,0.418173,-500.717,-36000,-0,36003.5,162903
step02_gravity_refstate-crust.xmf,1318,2.25688e-06,-2.25137e-05,0,-1.81403e-05,-1.02666e+09,-1.02836e+09,-1.02681e+09,-1.24442e+06,-0.0528535,-0.257075,-0,0.262452,-4801.19,-37350.9,-0,37658.2,1.24442e+06
step02_gravity_refstate-crust.xmf,1319,-7.1225e-07,-1.52001e-05,0,-1.5174e-05,-1.0434e+09,-1.04439e+09,-1.04335e+09,-1.04094e+06,-0.0517078,-0.207936,-0,0.214269,-6053.54,-37959.5,-0,38439.1,1.04094e+06
step02_gravity_refstate-crust.xmf,1320,7.34272e-07,-1.8683e-05,0,-1.63769e-05,-1.042e+09,-1.04333e+09,-1.04205e+09,-1.12345e+06,-0.051928,-0.22615,-0,0.232036,-5425.81,-37909.2,-0,38295.5,1.12345e+06
step02_gravity_refstate-crust.xmf,1321,-2.24928e-06,-8.13337e-06,0,-1.12154e-05,-1.05794e+09,-1.05835e+09,-1.05779e+09,-769377,-0.0456208,-0.148459,-0,0.155311,-8421.61,-38493.8,-0,39404.3,769377
step02_gravity_refstate-crust.xmf,1322,-1.69066e-06,-5.7955e-06,0,-9.15303e-06,-1.07849e+09,-1.07878e+09,-1.07838e+09,-627898,-0.0388854,-0.110203,-0,0.116862,-10416.9,-39247.8,-0,40606.7,627898
step02_gravity_refstate-crust.xmf,1323,-1.65505e-06,-4.8066e-06,0,-8.10135e-06,-1.07863e+09,-1.07885e+09,-1.07852e+09,-555752,-0.0373637,-0.097355,-0,0.104279,-11341.7,-39254.5,-0,40860.1,555752
step02_gravity_refstate-crust.xmf,1324,-1.58038e-06,-4.009e-06,0,-7.1487e-06,-1.07871e+09,-1.07887e+09,-1.0786e+09,-490401,-0.0358581,-0.085273,-0,0.0925056,-12293.2,-39258.8,-0,41138.5,490401
step02_gravity_refstate-crust.xmf,1325,-1.48689e-06,-3.35074e-06,0,-6.28586e-06,-1.07881e+09,-1.07894e+09,-1.07871e+09,-431210,-0.0343679,-0.0737708,-0,0.0813835,-13285.5,-39263.9,-0,41450.7,431210
step02_gravity_refstate-crust.xmf,1326,-3.40662e-06,2.17984e-06,0,1.39559e-06,-1.43782e+08,-1.43399e+08,-1.43548e+08,95737.6,-0.0174687,-0.148326,-0,0.149351,4757.83,-5224.12,0,7066,95737.6
step02_gravity_refstate-crust.xmf,1327,-3.86428e-06,1.83651e-06,0,9.83103e-07,-7.7021e+07,-7.66299e+07,-7.67559e+07,67440.9,-0.0251674,-0.139215,-0,0.141472,5825.16,-2791.24,0,6459.37,67440.9
step02_gravity_refstate-crust.xmf,1328,-5.18704e-06,1.15201e-05,0,8.03332e-06,-6.3385e+08,-6.32704e+08,-6.33494e+08,551086,-0.0305382,-0.255271,-0,0.257091,4137.09,-23072.8,0,23440.8,551086
step02_gravity_refstate-crust.xmf,1329,-4.59753e-06,9.12821e-06,0,5.48392e-06,-5.49504e+08,-5.48563e+08,-5.49189e+08,376197,-0.02392,-0.223888,-0,0.225162,4113.14,-20000.8,0,20419.3,376197
step02_gravity_refstate-crust.xmf,1330,-4.95899e-06,1.03484e-05,0,6.64835e-06,-5.9387e+08,-5.9282e+08,-5.9353e+08,456076,-0.0271253,-0.239647,-0,0.241178,4108.78,-21616.4,0,22003.4,456076
step02_gravity_refstate-crust.xmf,1331,-4.53393e-06,1.1052e-05,0,9.27971e-06,-6.52681e+08,-6.51612e+08,-6.5237e+08,636588,-0.0344127,-0.256272,-0,0.258572,4594.48,-23760.3,0,24200.4,636588
step02_gravity_refstate-crust.xmf,1332,-4.33891e-06,1.19967e-05,0,1.11658e-05,-6.91136e+08,-6.90015e+08,-6.90838e+08,765973,-0.037781,-0.272355,-0,0.274963,4598.65,-25162.5,0,25579.3,765973
step02_gravity_refstate-crust.xmf,1333,-4.50976e-06,1.29129e-05,0,1.21363e-05,-7.10871e+08,-7.09676e+08,-7.10562e+08,832549,-0.0387037,-0.284499,-0,0.28712,4443.68,-25881.7,0,26260.4,832549
step02_gravity_refstate-crust.xmf,1334,-2.95734e-06,3.62023e-06,0,2.50345e-06,-2.93219e+08,-2.92768e+08,-2.93016e+08,171737,-0.0159451,-0.163614,-0,0.164389,4772.61,-10668.6,0,11687.4,171737
step02_gravity_refstate-crust.xmf,1335,-4.03013e-06,8.00059e-06,0,5.42362e-06,-5.26538e+08,-5.25713e+08,-5.26262e+08,372061,-0.0246115,-0.212086,-0,0.21351,4630.76,-19165.2,0,19716.8,372061
step02_gravity_refstate-crust.xmf,1336,-3.73804e-06,6.47881e-06,0,3.77871e-06,-4.47773e+08,-4.47073e+08,-4.47517e+08,259220,-0.0186851,-0.194336,-0,0.195232,4231.57,-16296.5,0,16837,259220
step02_gravity_refstate-crust.xmf,1337,-3.62017e-06,6.68811e-06,0,4.59043e-06,-4.7537e+08,-4.74663e+08,-4.75122e+08,314904,-0.0221609,-0.19704,-0,0.198283,4799.48,-17302,0,17955.4,314904
step02_gravity_refstate-crust.xmf,1338,-3.43114e-06,5.40676e-06,0,3.02159e-06,-3.90019e+08,-3.89413e+08,-3.89784e+08,207281,-0.0160714,-0.182482,-0,0.183189,4123.16,-14193.5,0,14780.3,207281
step02_gravity_refstate-crust.xmf,1339,-2.26785e-06,1.13989e-05,0,1.54281e-05,-7.56083e+08,-7.55145e+08,-7.55927e+08,1.05837e+06,-0.0426791,-0.294358,-0,0.297436,4846.53,-27534.4,0,27957.7,1.05837e+06
step02_gravity_refstate-crust.xmf,1340,-3.24064e-06,1.14301e-05,0,1.33056e-05,-7.25483e+08,-7.24476e+08,-7.2526e+08,912761,-0.0413043,-0.281683,-0,0.284696,4842.26,-26416.5,0,26856.7,912761
step02_gravity_refstate-crust.xmf,1341,-3.92298e-07,1.27174e-05,0,2.14996e-05,-8.14619e+08,-8.1372e+08,-8.14592e+08,1.47488e+06,-0.0385516,-0.341738,-0,0.343906,4295.59,-29675.1,0,29984.4,1.47488e+06
step02_gravity_refstate-crust.xmf,1342,-6.64617e-07,1.16117e-05,0,1.93677e-05,-7.99483e+08,-7.9864e+08,-7.99437e+08,1.32862e+06,-0.0409656,-0.322378,-0,0.32497,4573.57,-29121.3,0,29478.2,1.32862e+06
step02_gravity_refstate-crust.xmf,1343,1.45451e-05,-4.95102e-05,0,-1.7159e-06,-9.99384e+08,-1.00378e+09,-1.00038e+09,-117711,-0.00534308,-0.40044,-0,0.400476,-367.066,-36365.8,-0,36367.6,117711
step02_gravity_refstate-crust.xmf,1344,1.42728e-05,-5.05856e-05,0,1.62174e-08,-9.89413e+08,-9.93863e+08,-9.90392e+08,1112.52,6.07389e-08,-0.419444,0,0.419444,0,-36000,0,36000,1112.52
step02_gravity_refstate-crust.xmf,1345,6.59614e-06,-3.16213e-05,0,-1.97239e-05,-1.01364e+09,-1.01626e+09,-1.01409e+09,-1.35306e+06,-0.050248,-0.299214,-0,0.303403,-3990.84,-36880.4,-0,37095.7,1.35306e+06
step02_gravity_refstate-crust.xmf,1346,5.02905e-06,-2.80168e-05,0,-1.85902e-05,-1.02689e+09,-1.02915e+09,-1.02723e+09,-1.27529e+06,-0.0508918,-0.275253,-0,0.279918,-4261.26,-37361.8,-0,37604,1.27529e+06
step02_gravity_refstate-crust.xmf,1347,9.71614e-06,-3.71159e-05,0,-1.71673e-05,-1.01376e+09,-1.01697e+09,-1.01442e+09,-1.17768e+06,-0.0458313,-0.318503,-0,0.321784,-3451.99,-36888.6,-0,37049.8,1.17768e+06
step02_gravity_refstate-crust.xmf,1348,1.16473e-05,-4.09874e-05,0,-1.41404e-05,-1.01384e+09,-1.01745e+09,-1.01464e+09,-970030,-0.0398589,-0.33554,-0,0.337899,-2893.82,-36893.6,-0,37006.9,970030
step02_gravity_refstate-crust.xmf,1349,1.38918e-05,-4.62062e-05,0,-8.10701e-06,-1.01099e+09,-1.01511e+09,-1.01194e+09,-556141,-0.0245855,-0.36644,-0,0.367264,-1703.26,-36790.7,-0,36830.1,556141
step02_gravity_refstate-crust.xmf,1350,1.29808e-05,-4.38557e-05,0,-1.10139e-05,-1.01409e+09,-1.01798e+09,-1.01498e+09,-755552,-0.0324624,-0.350104,-0,0.351605,-2291.87,-36903.4,-0,36974.5,755552
step02_gravity_refstate-crust.xmf,1351,1.44602e-05,-4.74109e-05,0,-5.05734e-06,-1.01246e+09,-1.0167e+09,-1.01345e+09,-346934,-0.0157043,-0.372254,-0,0.372585,-1073.61,-36844.6,-0,36860.3,346934
step02_gravity_refstate-crust.xmf,1352,1.95317e-06,-2.1541e-05,0,-1.72638e-05,-1.03819e+09,-1.0398e+09,-1.03833e+09,-1.1843e+06,-0.0519251,-0.241592,-0,0.247109,-4995.2,-37771,-0,38099.9,1.1843e+06
step02_gravity_refstate-crust.xmf,1353,-1.93973e-06,-9.88975e-06,0,-1.2402e-05,-1.06007e+09,-1.06062e+09,-1.05994e+09,-850777,-0.0467645,-0.161453,-0,0.168089,-7726.51,-38569.9,-0,39336.2,850777
step02_gravity_refstate-crust.xmf,1354,-1.31347e-06,-1.21667e-05,0,-1.36274e-05,-1.0612e+09,-1.06195e+09,-1.06111e+09,-934840,-0.0477092,-0.176073,-0,0.182422,-7009.7,-38610,-0,39241.1,934840
step02_gravity_refstate-crust.xmf,1355,-4.95938e-07,-1.47233e-05,0,-1.46978e-05,-1.05952e+09,-1.0605e+09,-1.05949e+09,-1.00827e+06,-0.0486725,-0.191897,-0,0.197973,-6342.89,-38548.1,-0,39066.5,1.00827e+06
step02_gravity_refstate-crust.xmf,1356,-1.59544e-06,-7.14211e-06,0,-1.03825e-05,-1.07878e+09,-1.07916e+09,-1.07867e+09,-712243,-0.0403722,-0.124507,-0,0.130889,-9467.9,-39256.6,-0,40382.2,712243
step02_gravity_refstate-crust.xmf,1357,-1.76955e-06,-8.02264e-06,0,-1.11185e-05,-1.07211e+09,-1.07253e+09,-1.07198e+09,-762727,-0.0426807,-0.137281,-0,0.143763,-8807.2,-39011.5,-0,39993.3,762727
step02_gravity_refstate-crust.xmf,1358,-3.02147e-06,2.79058e-06,0,1.95551e-06,-2.21298e+08,-2.209e+08,-2.21091e+08,134148,-0.0157282,-0.155358,-0,0.156152,4742.56,-8048.68,0,9342.01,134148
step02_gravity_refstate-crust.xmf,1359,-3.01693e-06,2.36567e-06,0,1.90229e-06,-1.83274e+08,-1.82905e+08,-1.83067e+08,130497,-0.0187377,-0.148382,-0,0.149561,5535.88,-6663.73,0,8663.21,130497
step02_gravity_refstate-crust.xmf,1360,-3.51328e-06,1.94833e-06,0,1.31224e-06,-1.1228e+08,-1.11905e+08,-1.12039e+08,90019.7,-0.0219866,-0.14245,-0,0.144137,5635.12,-4076.46,0,6955.01,90019.7
step02_gravity_refstate-crust.xmf,1361,-5.13461e-06,1.95472e-06,0,4.68262e-09,-487481,-1152.79,-135247,321.227,-0.0341414,-0.133652,-0,0.137944,5915.08,0,0,5915.08,321.227
step02_gravity_refstate-crust.xmf,1362,-3.98774e-06,1.73089e-06,0,7.62243e-07,-4.9715e+07,-4.93227e+07,-4.94415e+07,52289.9,-0.0321507,-0.132546,-0,0.13639,6912.27,-1796.47,0,7141.9,52289.9
step02_gravity_refstate-crust.xmf,1363,-4.55747e-06,1.02086e-05,0,7.75776e-06,-6.14464e+08,-6.13451e+08,-6.14151e+08,532182,-0.0308874,-0.242095,-0,0.244058,4546.79,-22367.5,0,22825,532182
step02_gravity_refstate-crust.xmf,1364,-4.3572e-06,9.20187e-06,0,6.48689e-06,-5.72636e+08,-5.71706e+08,-5.72338e+08,445001,-0.027598,-0.227136,-0,0.228806,4561.78,-20844,0,21337.4,445001
step02_gravity_refstate-crust.xmf,1365,-3.70199e-06,1.04703e-05,0,1.05135e-05,-6.72158e+08,-6.71186e+08,-6.71904e+08,721228,-0.0378428,-0.256679,-0,0.259453,5013.18,-24471.8,0,24980,721228
step02_gravity_refstate-crust.xmf,1366,-3.10609e-06,4.6257e-06,0,3.05756e-06,-3.58731e+08,-3.582e+08,-3.58518e+08,209749,-0.0171261,-0.173594,-0,0.174436,4735.06,-13054.5,0,13886.8,209749
step02_gravity_refstate-crust.xmf,1367,-2.83181e-06,3.9177e-06,0,3.0691e-06,-3.26583e+08,-3.2612e+08,-3.26389e+08,210540,-0.0183321,-0.164952,-0,0.165968,5409.71,-11884.2,0,13057.5,210540
step02_gravity_refstate-crust.xmf,1368,-2.78509e-06,3.01907e-06,0,2.53243e-06,-2.58273e+08,-2.57875e+08,-2.58082e+08,173725,-0.0179448,-0.155602,-0,0.156634,5554.98,-9396.1,0,10915.3,173725
step02_gravity_refstate-crust.xmf,1369,-3.48535e-06,6.88887e-06,0,5.36465e-06,-5.02882e+08,-5.0217e+08,-5.02643e+08,368015,-0.0253336,-0.200281,-0,0.201877,5232.6,-18304.5,0,19037.7,368015
step02_gravity_refstate-crust.xmf,1370,-3.32919e-06,5.59919e-06,0,3.77475e-06,-4.19232e+08,-4.1862e+08,-4.19004e+08,258948,-0.0194413,-0.184453,-0,0.185475,4800.26,-15257.8,0,15995.1,258948
step02_gravity_refstate-crust.xmf,1371,-1.91027e-06,9.9531e-06,0,1.42999e-05,-7.40798e+08,-7.39984e+08,-7.40666e+08,980975,-0.0428985,-0.279398,-0,0.282672,5159.95,-26977.2,0,27466.2,980975
step02_gravity_refstate-crust.xmf,1372,-6.03773e-07,1.03158e-05,0,1.76696e-05,-7.85255e+08,-7.84506e+08,-7.85214e+08,1.21214e+06,-0.0423088,-0.305743,-0,0.308656,4854.4,-28601.5,0,29010.6,1.21214e+06
step02_gravity_refstate-crust.xmf,1373,-5.09862e-07,9.18596e-06,0,1.62296e-05,-7.70598e+08,-7.69933e+08,-7.70563e+08,1.11335e+06,-0.0431092,-0.290155,-0,0.29334,5152.43,-28066.6,0,28535.6,1.11335e+06
step02_gravity_refstate-crust.xmf,1374,-4.02095e-07,1.11726e-05,0,2.15296e-05,-8.29652e+08,-8.28858e+08,-8.29625e+08,1.47693e+06,-0.0334956,-0.348468,-0,0.350074,4294.63,-30220,0,30523.6,1.47693e+06
step02_gravity_refstate-crust.xmf,1375,-3.03466e-06,1.27377e-05,0,2.60627e-05,-8.37631e+08,-8.36549e+08,-8.37423e+08,1.7879e+06,-0.0290277,-0.370079,-0,0.371216,4000,-30502.3,0,30763.4,1.7879e+06
step02_gravity_refstate-crust.xmf,1376,1.47469e-05,-4.8193e-05,0,-2.2782e-06,-1.01159e+09,-1.01591e+09,-1.0126e+09,-156285,-0.00711662,-0.378109,-0,0.378176,-483.437,-36813.1,-0,36816.2,156285
step02_gravity_refstate-crust.xmf,1377,1.46888e-05,-4.92654e-05,0,2.41382e-08,-1.00293e+09,-1.00732e+09,-1.00394e+09,1655.88,2.51534e-07,-0.394695,0,0.394695,0,-36495.8,0,36495.8,1655.88
step02_gravity_refstate-crust.xmf,1378,3.97138e-06,-2.52153e-05,0,-1.72773e-05,-1.04058e+09,-1.04258e+09,-1.04085e+09,-1.18522e+06,-0.0501797,-0.253205,-0,0.25813,-4540.07,-37860.2,-0,38131.5,1.18522e+06
step02_gravity_refstate-crust.xmf,1379,6.28193e-07,-1.78381e-05,0,-1.57146e-05,-1.05619e+09,-1.05746e+09,-1.05624e+09,-1.07802e+06,-0.0493963,-0.209661,-0,0.215401,-5689,-38426.7,-0,38845.5,1.07802e+06
step02_gravity_refstate-crust.xmf,1380,2.63677e-06,-2.21271e-05,0,-1.64079e-05,-1.05314e+09,-1.05483e+09,-1.05332e+09,-1.12558e+06,-0.0489726,-0.230305,-0,0.235454,-4972.44,-38316.9,-0,38638.2,1.12558e+06
step02_gravity_refstate-crust.xmf,1381,-1.25284e-06,-9.73972e-06,0,-1.22737e-05,-1.0794e+09,-1.07998e+09,-1.07931e+09,-841976,-0.0420822,-0.146158,-0,0.152096,-8166.13,-39276.5,-0,40116.4,841976
step02_gravity_refstate-crust.xmf,1382,-3.09546e-06,1.98662e-06,0,1.77742e-06,-1.44212e+08,-1.43864e+08,-1.44e+08,121931,-0.0226342,-0.141487,-0,0.143286,6352.55,-5240.74,0,8235.31,121931
step02_gravity_refstate-crust.xmf,1383,-3.31533e-06,1.76275e-06,0,1.43832e-06,-1.01414e+08,-1.01066e+08,-1.01187e+08,98669,-0.027552,-0.135149,-0,0.137929,7044.51,-3681.41,0,7948.45,98669
step02_gravity_refstate-crust.xmf,1384,-3.99293e-06,9.83992e-06,0,8.84005e-06,-6.34274e+08,-6.33325e+08,-6.34e+08,606427,-0.034401,-0.243381,-0,0.245801,4969.25,-23090.5,0,23619.1,606427
step02_gravity_refstate-crust.xmf,1385,-3.80586e-06,8.07714e-06,0,6.30007e-06,-5.50447e+08,-5.49631e+08,-5.50185e+08,432185,-0.027932,-0.214967,-0,0.216774,5051.35,-20036.7,0,20663.6,432185
step02_gravity_refstate-crust.xmf,1386,-4.00629e-06,9.03698e-06,0,7.46632e-06,-5.94446e+08,-5.93551e+08,-5.94171e+08,512190,-0.0310202,-0.229664,-0,0.23175,4965.9,-21639.2,0,22201.7,512190
step02_gravity_refstate-crust.xmf,1387,-3.24669e-06,9.2251e-06,0,9.88957e-06,-6.53965e+08,-6.53109e+08,-6.53742e+08,678425,-0.0375853,-0.243565,-0,0.246448,5379.92,-23809.4,0,24409.6,678425
step02_gravity_refstate-crust.xmf,1388,-2.98389e-06,1.05221e-05,0,1.24245e-05,-7.0856e+08,-7.07634e+08,-7.08355e+08,852319,-0.0409826,-0.268891,-0,0.271996,5095.77,-25800.1,0,26298.5,852319
step02_gravity_refstate-crust.xmf,1389,-2.65828e-06,9.4428e-06,0,1.15825e-05,-6.90783e+08,-6.89953e+08,-6.906e+08,794557,-0.0406259,-0.255415,-0,0.258626,5417.29,-25152.5,0,25729.3,794557
step02_gravity_refstate-crust.xmf,1390,-2.60099e-06,3.25364e-06,0,3.06808e-06,-2.9388e+08,-2.93478e+08,-2.93701e+08,210471,-0.0198659,-0.156329,-0,0.157586,6179.85,-10693.5,0,12350.8,210471
step02_gravity_refstate-crust.xmf,1391,-3.31008e-06,7.051e-06,0,6.11025e-06,-5.27901e+08,-5.2719e+08,-5.27673e+08,419163,-0.0281741,-0.203344,-0,0.205286,5575.71,-19216.3,0,20008.8,419163
step02_gravity_refstate-crust.xmf,1392,-3.1651e-06,5.74697e-06,0,4.54694e-06,-4.48344e+08,-4.47733e+08,-4.48127e+08,311920,-0.0228258,-0.186151,-0,0.187545,5422.56,-16318.5,0,17195.9,311920
step02_gravity_refstate-crust.xmf,1393,-2.88129e-06,5.78083e-06,0,5.40948e-06,-4.80059e+08,-4.79464e+08,-4.79861e+08,371090,-0.0265211,-0.187586,-0,0.189452,6052.59,-17474.3,0,18492.8,371090
step02_gravity_refstate-crust.xmf,1394,-2.97883e-06,4.84427e-06,0,3.72884e-06,-3.89288e+08,-3.88751e+08,-3.89084e+08,255799,-0.0201099,-0.174999,-0,0.176151,5390.56,-14167.9,0,15158.7,255799
step02_gravity_refstate-crust.xmf,1395,-4.78295e-07,8.32845e-06,0,1.50052e-05,-7.55557e+08,-7.54953e+08,-7.55524e+08,1.02936e+06,-0.0434951,-0.276179,-0,0.279583,5443.85,-27517.8,0,28051.1,1.02936e+06
step02_gravity_refstate-crust.xmf,1396,-1.65626e-06,8.92409e-06,0,1.33304e-05,-7.25256e+08,-7.2453e+08,-7.25142e+08,914468,-0.042837,-0.265813,-0,0.269242,5470.4,-26410.8,0,26971.4,914468
step02_gravity_refstate-crust.xmf,1397,-5.18824e-07,8.06951e-06,0,2.17214e-05,-8.41355e+08,-8.40766e+08,-8.4132e+08,1.49009e+06,-0.0279036,-0.342663,-0,0.343797,4467.8,-30640.8,0,30964.8,1.49009e+06
step02_gravity_refstate-crust.xmf,1398,1.57919e-06,6.90969e-06,0,1.75703e-05,-7.98376e+08,-7.9801e+08,-7.98484e+08,1.20532e+06,-0.0408263,-0.297689,-0,0.300475,5175.49,-29082.8,0,29539.7,1.20532e+06
step02_gravity_refstate-crust.xmf,1399,1.86818e-06,7.15318e-06,0,1.8737e-05,-8.12412e+08,-8.12049e+08,-8.1254e+08,1.28536e+06,-0.0385791,-0.312604,-0,0.314976,4906.23,-29595.3,0,29999.2,1.28536e+06
step02_gravity_refstate-crust.xmf,1400,1.6869e-06,7.25428e-06,0,1.92951e-05,-8.26325e+08,-8.25943e+08,-8.2644e+08,1.32364e+06,-0.0346363,-0.325826,-0,0.327662,4703.07,-30101.2,0,30466.4,1.32364e+06
step02_gravity_refstate-crust.xmf,1401,-2.3869e-06,8.87821e-06,0,2.75662e-05,-8.51435e+08,-8.50662e+08,-8.51271e+08,1.89104e+06,-0.0220144,-0.375489,-0,0.376134,4000,-31001.4,0,31258.4,1.89104e+06
step02_gravity_refstate-crust.xmf,1402,1.45227e-05,-4.95258e-05,0,1.68964e-06,-9.99215e+08,-1.00361e+09,-1.00021e+09,115909,0.00522736,-0.400781,0,0.400815,359.223,-36359.5,0,36361.3,115909
step02_gravity_refstate-crust.xmf,1403,1.42111e-05,-5.04213e-05,0,2.37764e-06,-9.89413e+08,-9.93847e+08,-9.90388e+08,163106,0.00711194,-0.418113,0,0.418173,500.717,-36000,0,36003.5,163106
step02_gravity_refstate-crust.xmf,1404,1.44917e-05,-4.90803e-05,0,3.54521e-06,-1.00085e+09,-1.00521e+09,-1.00184e+09,243201,0.010934,-0.395623,0,0.395774,751.618,-36419.5,0,36427.3,243201
step02_gravity_refstate-crust.xmf,1405,1.40013e-05,-4.99094e-05,0,4.77964e-06,-9.89415e+08,-9.93799e+08,-9.90375e+08,327884,0.0141433,-0.41411,0,0.414351,1000.68,-36000,0,36013.9,327884
step02_gravity_refstate-crust.xmf,1406,8.18388e-06,-3.34955e-05,0,-1.72712e-05,-1.02691e+09,-1.02977e+09,-1.02747e+09,-1.1848e+06,-0.0471712,-0.293588,-0,0.297354,-3699.81,-37367,-0,37549.7,1.1848e+06
step02_gravity_refstate-crust.xmf,1407,6.56144e-06,-3.00928e-05,0,-1.68225e-05,-1.04072e+09,-1.04324e+09,-1.04117e+09,-1.15402e+06,-0.0471877,-0.269416,-0,0.273517,-3977.91,-37868.5,-0,38076.8,1.15402e+06
step02_gravity_refstate-crust.xmf,1408,1.05364e-05,-3.78415e-05,0,-1.48361e-05,-1.02673e+09,-1.03005e+09,-1.02745e+09,-1.01775e+06,-0.0418802,-0.310401,-0,0.313213,-3134.06,-37363.2,-0,37494.4,1.01775e+06
step02_gravity_refstate-crust.xmf,1409,1.21781e-05,-4.11523e-05,0,-1.20871e-05,-1.02654e+09,-1.0302e+09,-1.02737e+09,-829176,-0.035352,-0.324919,-0,0.326836,-2558.07,-37357.6,-0,37445.1,829176
step02_gravity_refstate-crust.xmf,1410,1.33194e-05,-4.36385e-05,0,-9.25187e-06,-1.02581e+09,-1.02972e+09,-1.02672e+09,-634678,-0.0279,-0.337663,-0,0.338814,-1968.74,-37332,-0,37383.9,634678
step02_gravity_refstate-crust.xmf,1411,1.44979e-05,-4.64218e-05,0,-3.75817e-06,-1.02457e+09,-1.02875e+09,-1.02556e+09,-257810,-0.011783,-0.353773,-0,0.353969,-808.809,-37287.2,-0,37296,257810
step02_gravity_refstate-crust.xmf,1412,1.40686e-05,-4.5369e-05,0,-6.43057e-06,-1.02515e+09,-1.02923e+09,-1.02612e+09,-441137,-0.019851,-0.347371,-0,0.347938,-1376.9,-37308.4,-0,37333.8,441137
step02_gravity_refstate-crust.xmf,1413,5.69402e-07,-1.67966e-05,0,-1.51461e-05,-1.0699e+09,-1.07109e+09,-1.06994e+09,-1.03902e+06,-0.0459361,-0.193895,-0,0.199262,-5991.29,-38927.1,-0,39385.4,1.03902e+06
step02_gravity_refstate-crust.xmf,1414,-7.01492e-07,-1.20491e-05,0,-1.35025e-05,-1.07973e+09,-1.08051e+09,-1.07968e+09,-926272,-0.0427812,-0.161377,-0,0.166951,-7329.27,-39287.1,-0,39965,926272
step02_gravity_refstate-crust.xmf,1415,1.34965e-07,-1.49344e-05,0,-1.45695e-05,-1.07885e+09,-1.07988e+09,-1.07886e+09,-999464,-0.0432758,-0.177953,-0,0.183139,-6502.54,-39254,-0,39788.9,999464
step02_gravity_refstate-crust.xmf,1416,-1.00981e-06,-8.72829e-06,0,-1.15158e-05,-1.08741e+09,-1.08794e+09,-1.08735e+09,-789986,-0.0393548,-0.132376,-0,0.138102,-8820.19,-39570.8,-0,40541.9,789986
step02_gravity_refstate-crust.xmf,1417,-2.68049e-06,2.49994e-06,0,2.4888e-06,-2.21798e+08,-2.21443e+08,-2.21614e+08,170731,-0.0204253,-0.147613,-0,0.149019,6392.01,-8067.81,0,10293.1,170731
step02_gravity_refstate-crust.xmf,1418,-2.67202e-06,2.11188e-06,0,2.31375e-06,-1.82967e+08,-1.82639e+08,-1.82784e+08,158724,-0.0233699,-0.140186,-0,0.142121,7161.44,-6653.57,0,9775.29,158724
step02_gravity_refstate-crust.xmf,1419,-4.44532e-06,1.69483e-06,0,1.30988e-08,-421933,-718.851,-116984,898.577,-0.0436517,-0.12466,-0,0.132081,7895.49,0,0,7895.49,898.577
step02_gravity_refstate-crust.xmf,1420,-3.36247e-06,1.60103e-06,0,1.20219e-06,-7.49744e+07,-7.46339e+07,-7.47437e+07,82469.9,-0.0329225,-0.129013,-0,0.133148,7907.27,-2718.39,0,8361.49,82469.9
step02_gravity_refstate-crust.xmf,1421,-3.45957e-06,8.66653e-06,0,8.40511e-06,-6.14533e+08,-6.13702e+08,-6.14296e+08,576590,-0.0343501,-0.230193,-0,0.232742,5408.04,-22372.1,0,23016.5,576590
step02_gravity_refstate-crust.xmf,1422,-3.39062e-06,7.90288e-06,0,7.24783e-06,-5.73874e+08,-5.73099e+08,-5.73641e+08,497201,-0.0314515,-0.216308,-0,0.218582,5530.63,-20891,0,21610.7,497201
step02_gravity_refstate-crust.xmf,1423,-2.32118e-06,8.41492e-06,0,1.08343e-05,-6.72839e+08,-6.72103e+08,-6.7268e+08,743232,-0.0402123,-0.242269,-0,0.245584,5779.46,-24499,0,25171.5,743232
step02_gravity_refstate-crust.xmf,1424,-2.68e-06,4.11644e-06,0,3.66765e-06,-3.58253e+08,-3.57787e+08,-3.5807e+08,251601,-0.0208577,-0.165853,-0,0.167159,6029.26,-13038.1,0,14364.7,251601
step02_gravity_refstate-crust.xmf,1425,-2.43671e-06,3.47169e-06,0,3.58617e-06,-3.26607e+08,-3.26202e+08,-3.2644e+08,246011,-0.0217595,-0.157071,-0,0.158572,6710.64,-11886,0,13649.5,246011
step02_gravity_refstate-crust.xmf,1426,-2.33092e-06,2.66392e-06,0,3.13641e-06,-2.62808e+08,-2.62465e+08,-2.62648e+08,215157,-0.0225106,-0.146032,-0,0.147757,7335.02,-9562.48,0,12051.7,215157
step02_gravity_refstate-crust.xmf,1427,-2.92947e-06,6.24724e-06,0,5.94561e-06,-5.08171e+08,-5.07541e+08,-5.0797e+08,407869,-0.0283117,-0.193738,-0,0.195795,6054.09,-18498.3,0,19463.8,407869
step02_gravity_refstate-crust.xmf,1428,-2.78847e-06,4.91614e-06,0,4.42857e-06,-4.19094e+08,-4.18565e+08,-4.18903e+08,303800,-0.0231906,-0.175861,-0,0.177383,6027.44,-15253.9,0,16401.5,303800
step02_gravity_refstate-crust.xmf,1429,-3.73826e-07,7.41618e-06,0,1.39536e-05,-7.40886e+08,-7.40352e+08,-7.4086e+08,957215,-0.0435892,-0.262909,-0,0.266498,5758.3,-26982.7,0,27590.3,957215
step02_gravity_refstate-crust.xmf,1430,1.35795e-06,6.43259e-06,0,1.62719e-05,-7.83887e+08,-7.83538e+08,-7.8398e+08,1.11625e+06,-0.0421683,-0.282505,-0,0.285635,5487.79,-28553.6,0,29076.2,1.11625e+06
step02_gravity_refstate-crust.xmf,1431,1.08599e-06,6.1043e-06,0,1.51582e-05,-7.69182e+08,-7.68838e+08,-7.69257e+08,1.03986e+06,-0.0429925,-0.26995,-0,0.273352,5761.08,-28016.7,0,28602.9,1.03986e+06
step02_gravity_refstate-crust.xmf,1432,-4.1585e-07,4.74489e-06,0,2.29987e-05,-8.57603e+08,-8.57249e+08,-8.57575e+08,1.57771e+06,-0.0194437,-0.343668,-0,0.344217,4513.87,-31227.6,0,31552.1,1.57771e+06
step02_gravity_refstate-crust.xmf,1433,-1.50526e-06,5.15497e-06,0,2.86207e-05,-8.65235e+08,-8.64778e+08,-8.65132e+08,1.96338e+06,-0.0148997,-0.379002,-0,0.379295,4000,-31501.6,0,31754.6,1.96338e+06
step02_gravity_refstate-crust.xmf,1434,1.41806e-05,-4.832e-05,0,6.01854e-06,-1.00086e+09,-1.00515e+09,-1.00184e+09,412872,0.0182464,-0.390396,0,0.390823,1263.31,-36420,0,36441.9,412872
step02_gravity_refstate-crust.xmf,1435,1.35922e-05,-4.90531e-05,0,7.22953e-06,-9.89424e+08,-9.93721e+08,-9.90356e+08,495946,0.0210205,-0.407399,0,0.407941,1500.17,-36000,0,36031.2,495946
step02_gravity_refstate-crust.xmf,1436,1.46426e-05,-4.68517e-05,0,-1.63668e-06,-1.02423e+09,-1.02844e+09,-1.02523e+09,-112276,-0.00521985,-0.356664,-0,0.356703,-356.744,-37274.7,-0,37276.4,112276
step02_gravity_refstate-crust.xmf,1437,1.4762e-05,-4.77921e-05,0,-1.20603e-08,-1.01706e+09,-1.02135e+09,-1.01808e+09,-827.339,3.98165e-07,-0.369612,0,0.369612,0,-37012.9,0,37012.9,827.339
step02_gravity_refstate-crust.xmf,1438,1.47571e-05,-4.82868e-05,0,2.03557e-06,-1.01104e+09,-1.01536e+09,-1.01205e+09,139640,0.00636547,-0.379313,0,0.379366,432.345,-36792.7,0,36795.2,139640
step02_gravity_refstate-crust.xmf,1439,5.17514e-06,-2.70381e-05,0,-1.61407e-05,-1.05495e+09,-1.05716e+09,-1.05531e+09,-1.10725e+06,-0.0458412,-0.246496,-0,0.250722,-4284.03,-38385.6,-0,38624,1.10725e+06
step02_gravity_refstate-crust.xmf,1440,1.93784e-06,-2.02081e-05,0,-1.57953e-05,-1.06913e+09,-1.07065e+09,-1.06927e+09,-1.08356e+06,-0.0453678,-0.208819,-0,0.21369,-5348.04,-38899.4,-0,39265.3,1.08356e+06
step02_gravity_refstate-crust.xmf,1441,-2.73948e-06,1.75377e-06,0,2.06058e-06,-1.42321e+08,-1.42013e+08,-1.42133e+08,141356,-0.0274484,-0.132773,-0,0.13558,7968.58,-5172.98,0,9500.42,141356
step02_gravity_refstate-crust.xmf,1442,-3.42462e-06,1.48859e-06,0,8.6101e-07,-4.747e+07,-4.71329e+07,-4.72351e+07,59065.3,-0.0395784,-0.122275,-0,0.128521,8838.7,-1716.64,0,9003.85,59065.3
step02_gravity_refstate-crust.xmf,1443,-2.85007e-06,1.5322e-06,0,1.66224e-06,-1.01308e+08,-1.01007e+08,-1.01112e+08,114030,-0.0330777,-0.125239,-0,0.129534,8833.61,-3679.05,0,9569.12,114030
step02_gravity_refstate-crust.xmf,1444,-2.88132e-06,8.28287e-06,0,9.33257e-06,-6.35846e+08,-6.3508e+08,-6.35648e+08,640214,-0.0371736,-0.231756,-0,0.234718,5736.08,-23149.8,0,23849.8,640214
step02_gravity_refstate-crust.xmf,1445,-2.95391e-06,6.92681e-06,0,6.90538e-06,-5.51383e+08,-5.50706e+08,-5.51181e+08,473709,-0.0312339,-0.204577,-0,0.206947,6006.76,-20072.4,0,20951.9,473709
step02_gravity_refstate-crust.xmf,1446,-2.69915e-06,7.36414e-06,0,8.27221e-06,-5.99204e+08,-5.98513e+08,-5.99019e+08,567474,-0.0351827,-0.215965,-0,0.218812,6087.04,-21815.1,0,22648.4,567474
step02_gravity_refstate-crust.xmf,1447,-2.02088e-06,7.45207e-06,0,1.01684e-05,-6.55513e+08,-6.54863e+08,-6.55374e+08,697554,-0.0397454,-0.23023,-0,0.233636,6151.84,-23868,0,24648,697554
step02_gravity_refstate-crust.xmf,1448,-1.44282e-06,8.09392e-06,0,1.2422e-05,-7.08354e+08,-7.077e+08,-7.08255e+08,852150,-0.0425547,-0.25234,-0,0.255903,5808.8,-25795,0,26441,852150
step02_gravity_refstate-crust.xmf,1449,-1.26816e-06,7.26841e-06,0,1.15601e-05,-6.90635e+08,-6.90049e+08,-6.90548e+08,793024,-0.0420867,-0.239469,-0,0.243139,6163.54,-25149.4,0,25893.6,793024
step02_gravity_refstate-crust.xmf,1450,-2.26046e-06,2.95978e-06,0,3.49898e-06,-2.97917e+08,-2.97559e+08,-2.97762e+08,240030,-0.0228105,-0.14937,-0,0.151102,7372.03,-10841.4,0,13110.4,240030
step02_gravity_refstate-crust.xmf,1451,-2.59262e-06,6.0795e-06,0,6.56463e-06,-5.27979e+08,-5.27384e+08,-5.27801e+08,450334,-0.0308456,-0.193678,-0,0.196119,6478.73,-19220.5,0,20283.1,450334
step02_gravity_refstate-crust.xmf,1452,-2.37094e-06,5.42334e-06,0,6.15255e-06,-5.01448e+08,-5.00913e+08,-5.01285e+08,422065,-0.0299451,-0.184274,-0,0.186692,6837.55,-18254.5,0,19493.1,422065
step02_gravity_refstate-crust.xmf,1453,-2.48468e-06,4.87163e-06,0,5.16443e-06,-4.48443e+08,-4.47939e+08,-4.48273e+08,354280,-0.0264491,-0.175615,-0,0.177595,6702.1,-16323.5,0,17645.8,354280
step02_gravity_refstate-crust.xmf,1454,-2.48083e-06,4.23495e-06,0,4.29234e-06,-3.89213e+08,-3.88753e+08,-3.89043e+08,294455,-0.0235209,-0.166286,-0,0.167941,6640.52,-14166.2,0,15645.4,294455
step02_gravity_refstate-crust.xmf,1455,7.33011e-07,6.05817e-06,0,1.42993e-05,-7.54635e+08,-7.5427e+08,-7.54686e+08,980933,-0.0434523,-0.26065,-0,0.264247,5958.14,-27485.6,0,28124,980933
step02_gravity_refstate-crust.xmf,1456,-1.72166e-07,6.49203e-06,0,1.29723e-05,-7.25684e+08,-7.25227e+08,-7.25672e+08,889902,-0.0434756,-0.248694,-0,0.252466,6149.12,-26428.6,0,27134.5,889902
step02_gravity_refstate-crust.xmf,1457,2.87931e-06,3.71375e-06,0,1.55502e-05,-7.97115e+08,-7.97058e+08,-7.97312e+08,1.06674e+06,-0.0395923,-0.272995,-0,0.275851,5822.99,-29037.2,0,29615.3,1.06674e+06
step02_gravity_refstate-crust.xmf,1458,1.96937e-06,4.42537e-06,0,1.82224e-05,-8.36232e+08,-8.36064e+08,-8.36368e+08,1.25006e+06,-0.0298989,-0.313103,-0,0.314527,5004.3,-30458.7,0,30867.1,1.25006e+06
step02_gravity_refstate-crust.xmf,1459,3.06569e-06,3.78604e-06,0,1.63704e-05,-8.10593e+08,-8.10543e+08,-8.10803e+08,1.12301e+06,-0.0374907,-0.285979,-0,0.288426,5531.48,-29528.7,0,30042.3,1.12301e+06
step02_gravity_refstate-crust.xmf,1460,2.85696e-06,4.02722e-06,0,1.71408e-05,-8.24252e+08,-8.24172e+08,-8.24448e+08,1.17586e+06,-0.0341582,-0.299735,-0,0.301675,5251.09,-30025.5,0,30481.2,1.17586e+06
step02_gravity_refstate-crust.xmf,1461,9.46774e-07,4.29151e-06,0,1.94783e-05,-8.47273e+08,-8.47044e+08,-8.47338e+08,1.33621e+06,-0.0247653,-0.322329,-0,0.323279,4858.6,-30856.3,0,31236.5,1.33621e+06
step02_gravity_refstate-crust.xmf,1462,-7.39164e-08,1.64281e-06,0,2.46757e-05,-8.73475e+08,-8.73357e+08,-8.7347e+08,1.69276e+06,-0.0108325,-0.350363,-0,0.35053,4436.28,-31802,0,32109.9,1.69276e+06
step02_gravity_refstate-crust.xmf,1463,-5.80973e-07,1.43178e-06,0,2.93072e-05,-8.78999e+08,-8.78861e+08,-8.78959e+08,2.01048e+06,-0.00773588,-0.380652,-0,0.380731,4000,-32000.7,0,32249.7,2.01048e+06
step02_gravity_refstate-crust.xmf,1464,4.21946e-07,-2.23391e-06,0,2.97404e-05,-8.92779e+08,-8.92961e+08,-8.92808e+08,2.04019e+06,-0.000527359,-0.380462,-0,0.380463,4000,-32500.8,0,32746,2.04019e+06
step02_gravity_refstate-crust.xmf,1465,4.87899e-07,-1.60286e-06,0,2.56716e-05,-8.87857e+08,-8.88001e+08,-8.87891e+08,1.76107e+06,-0.00299168,-0.353774,-0,0.353786,4384.77,-32322.8,0,32618.9,1.76107e+06
step02_gravity_refstate-crust.xmf,1466,1.36018e-05,-4.70937e-05,0,8.64504e-06,-1.00094e+09,-1.00511e+09,-1.00187e+09,593050,0.0256808,-0.381925,0,0.382787,1799.42,-36422.4,0,36466.8,593050
step02_gravity_refstate-crust.xmf,1467,1.45046e-05,-4.75544e-05,0,4.68404e-06,-1.01226e+09,-1.01651e+09,-1.01325e+09,321325,0.014588,-0.373364,0,0.373649,996.179,-36837.2,0,36850.7,321325
step02_gravity_refstate-crust.xmf,1468,1.44594e-05,-4.60332e-05,0,2.07159e-08,-1.03191e+09,-1.03606e+09,-1.0329e+09,1421.11,4.11315e-07,-0.344201,0,0.344201,0,-37554.8,0,37554.8,1421.11
step02_gravity_refstate-crust.xmf,1469,9.03469e-06,-3.45616e-05,0,-1.51772e-05,-1.04041e+09,-1.0434e+09,-1.04103e+09,-1.04116e+06,-0.0427145,-0.285438,-0,0.288617,-3398.78,-37860.1,-0,38012.4,1.04116e+06
step02_gravity_refstate-crust.xmf,1470,7.43177e-06,-3.13868e-05,0,-1.51451e-05,-1.05473e+09,-1.0574e+09,-1.05524e+09,-1.03895e+06,-0.042088,-0.26142,-0,0.264786,-3681.24,-38380.1,-0,38556.3,1.03895e+06
step02_gravity_refstate-crust.xmf,1471,1.42866e-05,-4.53877e-05,0,-2.2373e-06,-1.03603e+09,-1.04013e+09,-1.03701e+09,-153479,-0.00701028,-0.336332,-0,0.336405,-491.473,-37705.3,-0,37708.5,153479
step02_gravity_refstate-crust.xmf,1472,1.09441e-05,-3.81544e-05,0,-1.28488e-05,-1.03988e+09,-1.04325e+09,-1.04063e+09,-881425,-0.0370134,-0.299869,-0,0.302144,-2820.53,-37843,-0,37948,881425
step02_gravity_refstate-crust.xmf,1473,1.23212e-05,-4.09505e-05,0,-1.0296e-05,-1.03929e+09,-1.04295e+09,-1.04014e+09,-706307,-0.0303742,-0.31212,-0,0.313594,-2242.72,-37823,-0,37889.4,706307
step02_gravity_refstate-crust.xmf,1474,1.32733e-05,-4.30019e-05,0,-7.59925e-06,-1.03885e+09,-1.04271e+09,-1.03976e+09,-521308,-0.022896,-0.321841,-0,0.322655,-1653.17,-37807.6,-0,37843.8,521308
step02_gravity_refstate-crust.xmf,1475,1.39019e-05,-4.44453e-05,0,-4.89207e-06,-1.03786e+09,-1.04186e+09,-1.03881e+09,-335596,-0.0150043,-0.329768,-0,0.330109,-1065.42,-37771.6,-0,37786.7,335596
step02_gravity_refstate-crust.xmf,1476,3.8854e-06,-2.42397e-05,0,-1.57206e-05,-1.06901e+09,-1.07094e+09,-1.06928e+09,-1.07843e+06,-0.0433889,-0.224527,-0,0.228681,-4656.93,-38896.7,-0,39174.5,1.07843e+06
step02_gravity_refstate-crust.xmf,1477,1.5168e-06,-1.83406e-05,0,-1.53214e-05,-1.0833e+09,-1.08466e+09,-1.0834e+09,-1.05104e+06,-0.0410176,-0.190175,-0,0.194548,-5758.19,-39416.4,-0,39834.7,1.05104e+06
step02_gravity_refstate-crust.xmf,1478,-2.28119e-06,2.15733e-06,0,2.90374e-06,-2.21412e+08,-2.21108e+08,-2.21256e+08,199196,-0.024539,-0.13793,-0,0.140096,8048.15,-8054.85,0,11386.5,199196
step02_gravity_refstate-crust.xmf,1479,-2.28358e-06,1.82052e-06,0,2.6175e-06,-1.81629e+08,-1.81347e+08,-1.81472e+08,179561,-0.0274385,-0.130383,-0,0.133239,8782.97,-6605.95,0,10990,179561
step02_gravity_refstate-crust.xmf,1480,-3.62986e-06,1.38765e-06,0,1.40494e-08,-344374,-172.594,-95365.6,963.787,-0.0517288,-0.113693,-0,0.124908,9889.84,0,0,9889.84,963.787
step02_gravity_refstate-crust.xmf,1481,-2.63083e-06,7.62229e-06,0,8.86612e-06,-6.18786e+08,-6.18083e+08,-6.18606e+08,608216,-0.0366164,-0.222031,-0,0.22503,6037.22,-22528.7,0,23323.6,608216
step02_gravity_refstate-crust.xmf,1482,-2.37496e-06,6.49504e-06,0,7.73648e-06,-5.75325e+08,-5.74717e+08,-5.75162e+08,530723,-0.034448,-0.203881,-0,0.206771,6529.03,-20945.7,0,21939.7,530723
step02_gravity_refstate-crust.xmf,1483,-1.08141e-06,6.50863e-06,0,1.08211e-05,-6.73658e+08,-6.73137e+08,-6.73584e+08,742329,-0.0415589,-0.227514,-0,0.231279,6536.07,-24530.9,0,25386.7,742329
step02_gravity_refstate-crust.xmf,1484,-2.2206e-06,3.57042e-06,0,4.14273e-06,-3.57916e+08,-3.57518e+08,-3.57763e+08,284192,-0.023975,-0.156925,-0,0.158746,7305.3,-13026.8,0,14935.4,284192
step02_gravity_refstate-crust.xmf,1485,-2.02914e-06,3.00813e-06,0,3.96557e-06,-3.25842e+08,-3.25497e+08,-3.25703e+08,272038,-0.0245254,-0.148308,-0,0.150322,7956.67,-11859.1,0,14281,272038
step02_gravity_refstate-crust.xmf,1486,-1.92566e-06,2.5448e-06,0,3.7255e-06,-2.91054e+08,-2.90747e+08,-2.90922e+08,255569,-0.025146,-0.140708,-0,0.142937,8521.29,-10592.3,0,13594.4,255569
step02_gravity_refstate-crust.xmf,1487,-2.11325e-06,4.71065e-06,0,5.82757e-06,-4.75888e+08,-4.7542e+08,-4.75743e+08,399771,-0.0294156,-0.174728,-0,0.177187,7309.5,-17323.9,0,18802.9,399771
step02_gravity_refstate-crust.xmf,1488,-2.18462e-06,4.14984e-06,0,4.9341e-06,-4.18788e+08,-4.18353e+08,-4.18638e+08,338480,-0.0263712,-0.165436,-0,0.167525,7311.56,-15244,0,16906.7,338480
step02_gravity_refstate-crust.xmf,1489,9.60416e-07,5.12814e-06,0,1.33555e-05,-7.43433e+08,-7.43147e+08,-7.43499e+08,916186,-0.0433972,-0.246928,-0,0.250713,6361.29,-27077.2,0,27814.4,916186
step02_gravity_refstate-crust.xmf,1490,2.07304e-06,3.87891e-06,0,1.37584e-05,-7.63326e+08,-7.63202e+08,-7.63469e+08,943829,-0.04233,-0.248127,-0,0.251712,6436.34,-27804.1,0,28539.3,943829
step02_gravity_refstate-crust.xmf,1491,2.62599e-06,3.5494e-06,0,1.45802e-05,-7.82864e+08,-7.828e+08,-7.83044e+08,1.0002e+06,-0.0409341,-0.259424,-0,0.262633,6160.38,-28517.1,0,29174.9,1.0002e+06
step02_gravity_refstate-crust.xmf,1492,2.25023e-06,2.14415e-06,0,1.70643e-05,-8.45571e+08,-8.45578e+08,-8.45725e+08,1.17061e+06,-0.0249064,-0.300414,-0,0.301445,5289.7,-30796.3,0,31247.3,1.17061e+06
step02_gravity_refstate-crust.xmf,1493,1.23917e-06,1.9632e-06,0,1.89442e-05,-8.57637e+08,-8.57587e+08,-8.57722e+08,1.29957e+06,-0.0191486,-0.313711,-0,0.314295,5043.97,-31231.2,0,31635.9,1.29957e+06
step02_gravity_refstate-crust.xmf,1494,6.28181e-07,1.25924e-06,0,2.10063e-05,-8.68449e+08,-8.68406e+08,-8.68493e+08,1.44103e+06,-0.0134696,-0.326,-0,0.326278,4832.67,-31621.3,0,31988.4,1.44103e+06
step02_gravity_refstate-crust.xmf,1495,1.04167e-06,-4.20541e-06,0,2.68891e-05,-8.99564e+08,-8.99923e+08,-8.99635e+08,1.84459e+06,0.00330428,-0.359326,0,0.359341,4285.05,-32747.2,0,33026.4,1.84459e+06
step02_gravity_refstate-crust.xmf,1496,1.4475e-06,-5.85362e-06,0,2.98959e-05,-9.06539e+08,-9.07039e+08,-9.06638e+08,2.05086e+06,0.00666289,-0.378442,0,0.378501,4000,-33000.2,0,33241.8,2.05086e+06
step02_gravity_refstate-crust.xmf,1497,1.30364e-05,-4.77097e-05,0,9.86286e-06,-9.89428e+08,-9.93596e+08,-9.90323e+08,676592,0.027663,-0.397887,0,0.398847,2000,-36000,0,36055.5,676592
step02_gravity_refstate-crust.xmf,1498,1.28164e-05,-4.53355e-05,0,1.14937e-05,-1.00011e+09,-1.0041e+09,-1.00099e+09,788468,0.0326848,-0.371936,0,0.373369,2333.65,-36391.8,0,36466.6,788468
step02_gravity_refstate-crust.xmf,1499,1.21618e-05,-4.58924e-05,0,1.26232e-05,-9.89448e+08,-9.93431e+08,-9.90283e+08,865951,0.0339511,-0.385456,0,0.386949,2499.83,-36000,0,36086.7,865951
step02_gravity_refstate-crust.xmf,1500,1.40306e-05,-4.63856e-05,0,7.37268e-06,-1.01275e+09,-1.01689e+09,-1.01371e+09,505766,0.0225265,-0.365778,0,0.366471,1554.45,-36855.1,0,36887.8,505766
step02_gravity_refstate-crust.xmf,1501,1.46191e-05,-4.68479e-05,0,1.35286e-06,-1.02448e+09,-1.0287e+09,-1.02548e+09,92806.5,0.00431377,-0.356411,0,0.356437,294.887,-37283.9,0,37285,92806.5
step02_gravity_refstate-crust.xmf,1502,5.89726e-06,-2.83109e-05,0,-1.49916e-05,-1.06929e+09,-1.07164e+09,-1.0697e+09,-1.02843e+06,-0.0400921,-0.23852,-0,0.241866,-4002.88,-38908.8,-0,39114.1,1.02843e+06
step02_gravity_refstate-crust.xmf,1503,2.95096e-06,-2.19271e-05,0,-1.55788e-05,-1.0839e+09,-1.08561e+09,-1.08411e+09,-1.06871e+06,-0.0391974,-0.203657,-0,0.207394,-5056.49,-39438.6,-0,39761.5,1.06871e+06
step02_gravity_refstate-crust.xmf,1504,-1.90248e-06,2.18959e-06,0,3.44787e-06,-2.56308e+08,-2.56028e+08,-2.56178e+08,236524,-0.0259974,-0.134528,-0,0.137017,8969.76,-9326.86,0,12940.1,236524
step02_gravity_refstate-crust.xmf,1505,-2.34651e-06,1.50797e-06,0,2.24596e-06,-1.39534e+08,-1.3927e+08,-1.39373e+08,154073,-0.0316697,-0.122854,-0,0.12687,9555.52,-5072.72,0,10818.5,154073
step02_gravity_refstate-crust.xmf,1506,-2.69928e-06,1.18784e-06,0,9.13618e-07,-4.47075e+07,-4.44408e+07,-4.45223e+07,62674.2,-0.0466136,-0.108864,-0,0.118424,10996.1,-1618.54,0,11114.6,62674.2
step02_gravity_refstate-crust.xmf,1507,-2.3997e-06,1.28337e-06,0,1.73094e-06,-9.61445e+07,-9.58919e+07,-9.59799e+07,118743,-0.0380105,-0.114414,-0,0.120562,10503.2,-3492.52,0,11068.7,118743
step02_gravity_refstate-crust.xmf,1508,-1.84655e-06,6.79814e-06,0,9.56269e-06,-6.37498e+08,-6.36905e+08,-6.37372e+08,656001,-0.039044,-0.219896,-0,0.223336,6471.2,-23211.8,0,24097,656001
step02_gravity_refstate-crust.xmf,1509,-2.09816e-06,5.7287e-06,0,7.26412e-06,-5.51282e+08,-5.50745e+08,-5.51138e+08,498319,-0.0336754,-0.192808,-0,0.195727,6974.82,-20070.3,0,21247.8,498319
step02_gravity_refstate-crust.xmf,1510,-1.73292e-06,6.31416e-06,0,9.0207e-06,-6.18823e+08,-6.18271e+08,-6.18704e+08,618820,-0.0382037,-0.210654,-0,0.214091,6760.97,-22531.6,0,23524.1,618820
step02_gravity_refstate-crust.xmf,1511,-1.61408e-06,5.7619e-06,0,8.45163e-06,-5.97701e+08,-5.97195e+08,-5.97591e+08,579782,-0.0372442,-0.20091,-0,0.204333,7093.07,-21762.3,0,22889.1,579782
step02_gravity_refstate-crust.xmf,1512,-9.55713e-07,5.83768e-06,0,1.01379e-05,-6.56144e+08,-6.55678e+08,-6.56078e+08,695462,-0.0408987,-0.216645,-0,0.220471,6895.64,-23892.7,0,24867.9,695462
step02_gravity_refstate-crust.xmf,1513,-5.3794e-08,5.28742e-06,0,1.1229e-05,-6.90957e+08,-6.9059e+08,-6.90953e+08,770307,-0.0426067,-0.223196,-0,0.227226,6924.03,-25162.9,0,26098.2,770307
step02_gravity_refstate-crust.xmf,1514,-7.06388e-08,5.85213e-06,0,1.20718e-05,-7.08919e+08,-7.08513e+08,-7.08914e+08,828127,-0.0431364,-0.235288,-0,0.239209,6545.28,-25817.7,0,26634.4,828127
step02_gravity_refstate-crust.xmf,1515,-1.85982e-06,5.04163e-06,0,6.82558e-06,-5.26187e+08,-5.25714e+08,-5.26059e+08,468235,-0.0328538,-0.182334,-0,0.185271,7434.83,-19156.6,0,20548.8,468235
step02_gravity_refstate-crust.xmf,1516,-1.68139e-06,4.45916e-06,0,6.41418e-06,-5.00304e+08,-4.99883e+08,-5.00189e+08,440013,-0.0319699,-0.172882,-0,0.175813,7872.01,-18214.2,0,19842.5,440013
step02_gravity_refstate-crust.xmf,1517,-1.74376e-06,3.93717e-06,0,5.60709e-06,-4.48857e+08,-4.48468e+08,-4.48738e+08,384646,-0.0293943,-0.162843,-0,0.165475,8082.28,-16340.1,0,18229.7,384646
step02_gravity_refstate-crust.xmf,1518,-1.94341e-06,3.56515e-06,0,4.71151e-06,-3.88412e+08,-3.88034e+08,-3.88279e+08,323209,-0.0263434,-0.155962,-0,0.158171,7929.67,-14138.2,0,16210.1,323209
step02_gravity_refstate-crust.xmf,1519,1.29783e-06,4.04985e-06,0,1.23103e-05,-7.30064e+08,-7.29875e+08,-7.30153e+08,844483,-0.043043,-0.230074,-0,0.234065,6919.49,-26590.2,0,27475.8,844483
step02_gravity_refstate-crust.xmf,1520,3.59923e-06,1.55041e-06,0,1.37113e-05,-7.95965e+08,-7.96105e+08,-7.96212e+08,940596,-0.0377033,-0.250208,-0,0.253033,6476.55,-28994.9,0,29709.4,940596
step02_gravity_refstate-crust.xmf,1521,3.76804e-06,1.42517e-06,0,1.43231e-05,-8.10245e+08,-8.10406e+08,-8.10503e+08,982563,-0.035417,-0.261775,-0,0.26416,6166.65,-29515.2,0,30152.5,982563
step02_gravity_refstate-crust.xmf,1522,3.02932e-06,2.14326e-06,0,1.62492e-05,-8.35046e+08,-8.35107e+08,-8.35254e+08,1.11469e+06,-0.0292671,-0.291346,-0,0.292812,5468.23,-30416.3,0,30903.9,1.11469e+06
step02_gravity_refstate-crust.xmf,1523,3.65066e-06,1.29886e-06,0,1.49092e-05,-8.26599e+08,-8.2676e+08,-8.26849e+08,1.02277e+06,-0.0312794,-0.273812,-0,0.275593,5872.21,-30109.9,0,30677.2,1.02277e+06
step02_gravity_refstate-crust.xmf,1524,1.49917e-06,-5.64075e-07,0,1.80461e-05,-8.70625e+08,-8.70767e+08,-8.70728e+08,1.23796e+06,-0.0117952,-0.302558,-0,0.302788,5264.77,-31701.2,0,32135.4,1.23796e+06
step02_gravity_refstate-crust.xmf,1525,9.90395e-07,-1.64388e-06,0,2.09766e-05,-8.82902e+08,-8.83083e+08,-8.8297e+08,1.439e+06,-0.00536928,-0.321817,-0,0.321861,4904.49,-32144.4,0,32516.4,1.439e+06
step02_gravity_refstate-crust.xmf,1526,2.44859e-06,-9.50907e-06,0,2.97918e-05,-9.20302e+08,-9.21122e+08,-9.2047e+08,2.04371e+06,0.0138104,-0.374595,0,0.374849,4000,-33499.7,0,33737.7,2.04371e+06
step02_gravity_refstate-crust.xmf,1527,1.67413e-06,-6.84306e-06,0,2.59499e-05,-9.11166e+08,-9.1175e+08,-9.11281e+08,1.78016e+06,0.00974136,-0.350223,0,0.350359,4384.61,-33168.1,0,33456.6,1.78016e+06
step02_gravity_refstate-crust.xmf,1528,1.19041e-06,-4.45188e-06,0,2.31516e-05,-8.99411e+08,-8.99798e+08,-8.99493e+08,1.5882e+06,0.00366819,-0.333379,0,0.333399,4682.83,-32741.9,0,33075.1,1.5882e+06
step02_gravity_refstate-crust.xmf,1529,1.17762e-05,-4.36001e-05,0,1.39013e-05,-9.97831e+08,-1.00163e+09,-9.98639e+08,953630,0.0378682,-0.363999,0,0.365964,2767.09,-36307.2,0,36412.5,953630
step02_gravity_refstate-crust.xmf,1530,1.09343e-05,-4.35033e-05,0,1.55615e-05,-9.89483e+08,-9.93218e+08,-9.90233e+08,1.06752e+06,0.039717,-0.369931,0,0.372057,2999.32,-36000,0,36124.7,1.06752e+06
step02_gravity_refstate-crust.xmf,1531,1.32061e-05,-4.46084e-05,0,1.02512e-05,-1.01296e+09,-1.01692e+09,-1.01386e+09,703233,0.0305606,-0.355033,0,0.356346,2145.57,-36862,0,36924.4,703233
step02_gravity_refstate-crust.xmf,1532,1.45756e-05,-4.66492e-05,0,3.32068e-06,-1.02358e+09,-1.02778e+09,-1.02458e+09,227799,0.0104352,-0.35608,0,0.356233,714.602,-37251.2,0,37258,227799
step02_gravity_refstate-crust.xmf,1533,1.41828e-05,-4.56663e-05,0,5.9134e-06,-1.02464e+09,-1.02875e+09,-1.02561e+09,405659,0.0183129,-0.3495,0,0.349979,1266.34,-37289.7,0,37311.2,405659
step02_gravity_refstate-crust.xmf,1534,1.37328e-05,-4.4112e-05,0,2.8892e-08,-1.04751e+09,-1.05148e+09,-1.04845e+09,1981.99,8.06142e-07,-0.318589,0,0.318589,0,-38123,0,38123,1981.99
step02_gravity_refstate-crust.xmf,1535,1.42249e-05,-4.53553e-05,0,1.93195e-06,-1.03645e+09,-1.04054e+09,-1.03743e+09,132532,0.00601105,-0.335902,0,0.335955,421.819,-37720.5,0,37722.9,132532
step02_gravity_refstate-crust.xmf,1536,9.38992e-06,-3.50991e-05,0,-1.3345e-05,-1.05432e+09,-1.05737e+09,-1.05497e+09,-915466,-0.0371988,-0.274955,-0,0.27746,-3090.04,-38367.3,-0,38491.5,915466
step02_gravity_refstate-crust.xmf,1537,7.73585e-06,-3.20752e-05,0,-1.36555e-05,-1.06907e+09,-1.0718e+09,-1.0696e+09,-936768,-0.035897,-0.251311,-0,0.253862,-3378.62,-38902.3,-0,39048.7,936768
step02_gravity_refstate-crust.xmf,1538,1.34415e-05,-4.33769e-05,0,-3.24629e-06,-1.05016e+09,-1.05406e+09,-1.05108e+09,-222696,-0.00966461,-0.312491,-0,0.31264,-717.329,-38219.3,-0,38226,222696
step02_gravity_refstate-crust.xmf,1539,1.09465e-05,-3.80738e-05,0,-1.10207e-05,-1.05395e+09,-1.05732e+09,-1.0547e+09,-756023,-0.0312355,-0.286667,-0,0.288364,-2496.18,-38355.6,-0,38436.7,756023
step02_gravity_refstate-crust.xmf,1540,1.20686e-05,-4.03863e-05,0,-8.55354e-06,-1.05331e+09,-1.05691e+09,-1.05414e+09,-586773,-0.0246404,-0.296507,-0,0.297529,-1912.19,-38333,-0,38380.7,586773
step02_gravity_refstate-crust.xmf,1541,1.28424e-05,-4.20734e-05,0,-5.99032e-06,-1.05238e+09,-1.05615e+09,-1.05326e+09,-410936,-0.017549,-0.304533,-0,0.305038,-1331.66,-38299.7,-0,38322.9,410936
step02_gravity_refstate-crust.xmf,1542,4.49314e-06,-2.54395e-05,0,-1.50818e-05,-1.08417e+09,-1.08622e+09,-1.08448e+09,-1.03461e+06,-0.0365886,-0.21636,-0,0.219432,-4386.58,-39449.1,-0,39692.3,1.03461e+06
step02_gravity_refstate-crust.xmf,1543,-1.88765e-06,1.80374e-06,0,3.15105e-06,-2.17842e+08,-2.17589e+08,-2.17712e+08,216162,-0.0278705,-0.127242,-0,0.130259,9606.73,-7925.9,0,12454.3,216162
step02_gravity_refstate-crust.xmf,1544,-2.72973e-06,1.04711e-06,0,1.63362e-08,-258824,266.553,-71565.1,1120.67,-0.0581615,-0.101116,-0,0.11665,11904.5,0,0,11904.5,1120.67
step02_gravity_refstate-crust.xmf,1545,-1.91464e-06,1.5293e-06,0,2.77306e-06,-1.76988e+08,-1.76752e+08,-1.76857e+08,190232,-0.0308363,-0.119928,-0,0.123829,10295.3,-6438.05,0,12142.6,190232
step02_gravity_refstate-crust.xmf,1546,-1.4461e-06,5.14132e-06,0,7.90916e-06,-5.74699e+08,-5.74247e+08,-5.74599e+08,542569,-0.0362874,-0.190326,-0,0.193755,7513.34,-20924.6,0,22232.6,542569
step02_gravity_refstate-crust.xmf,1547,-2.00466e-08,4.7918e-06,0,1.05254e-05,-6.73954e+08,-6.73624e+08,-6.73953e+08,722045,-0.0419967,-0.212348,-0,0.216461,7298.41,-24543.3,0,25605.5,722045
step02_gravity_refstate-crust.xmf,1548,-1.74457e-06,3.00215e-06,0,4.48696e-06,-3.57194e+08,-3.56868e+08,-3.57074e+08,307806,-0.0265023,-0.146819,-0,0.149192,8590.32,-13001.6,0,15583.2,307806
step02_gravity_refstate-crust.xmf,1549,-1.60278e-06,2.51785e-06,0,4.23809e-06,-3.24124e+08,-3.23841e+08,-3.24014e+08,290733,-0.0268433,-0.138199,-0,0.140782,9250.75,-11797.5,0,14991.9,290733
step02_gravity_refstate-crust.xmf,1550,-1.52539e-06,2.12819e-06,0,3.96616e-06,-2.90457e+08,-2.90206e+08,-2.90352e+08,272079,-0.0274399,-0.130624,-0,0.133475,9852.26,-10571.5,0,14450.7,272079
step02_gravity_refstate-crust.xmf,1551,-1.54505e-06,3.98435e-06,0,6.08116e-06,-4.77294e+08,-4.76915e+08,-4.77188e+08,417167,-0.0312537,-0.165036,-0,0.167969,8270.26,-17376.3,0,19244,417167
step02_gravity_refstate-crust.xmf,1552,-1.58546e-06,3.3769e-06,0,5.25296e-06,-4.17522e+08,-4.17181e+08,-4.17413e+08,360353,-0.0287286,-0.153839,-0,0.156498,8590.42,-15199.1,0,17458.8,360353
step02_gravity_refstate-crust.xmf,1553,2.00278e-06,3.36511e-06,0,1.27369e-05,-7.49365e+08,-7.49271e+08,-7.49502e+08,873752,-0.0424034,-0.234079,-0,0.237889,6867.17,-27294.7,0,28145.3,873752
step02_gravity_refstate-crust.xmf,1554,3.27462e-06,1.75344e-06,0,1.30785e-05,-7.80056e+08,-7.8016e+08,-7.8028e+08,897184,-0.0394573,-0.239044,-0,0.242279,6796.88,-28414.7,0,29216.3,897184
step02_gravity_refstate-crust.xmf,1555,3.14957e-06,1.58131e-07,0,1.47404e-05,-8.44768e+08,-8.44974e+08,-8.44984e+08,1.01119e+06,-0.0237686,-0.275359,-0,0.276383,5846.59,-30767.6,0,31318.2,1.01119e+06
step02_gravity_refstate-crust.xmf,1556,2.24077e-06,1.23968e-07,0,1.62692e-05,-8.57708e+08,-8.57853e+08,-8.57862e+08,1.11607e+06,-0.0182692,-0.290045,-0,0.29062,5519.62,-31235,0,31718.9,1.11607e+06
step02_gravity_refstate-crust.xmf,1557,3.46222e-06,-1.31952e-05,0,2.94805e-05,-9.34082e+08,-9.35225e+08,-9.3432e+08,2.02236e+06,0.020889,-0.368911,0,0.369502,4000,-33999.8,0,34234.3,2.02236e+06
step02_gravity_refstate-crust.xmf,1558,2.39587e-06,-1.02669e-05,0,2.54527e-05,-9.25839e+08,-9.26708e+08,-9.26003e+08,1.74605e+06,0.0177411,-0.343659,0,0.344116,4414.58,-33699.9,0,33987.8,1.74605e+06
step02_gravity_refstate-crust.xmf,1559,1.06395e-05,-4.09266e-05,0,1.62541e-05,-9.99915e+08,-1.00345e+09,-1.00064e+09,1.11503e+06,0.0428446,-0.346958,0,0.349594,3197.74,-36382.6,0,36522.8,1.11503e+06
step02_gravity_refstate-crust.xmf,1560,1.19904e-05,-4.20872e-05,0,1.36904e-05,-1.00999e+09,-1.0137e+09,-1.01081e+09,939159,0.0386063,-0.34435,0,0.346507,2786.85,-36752.9,0,36858.4,939159
step02_gravity_refstate-crust.xmf,1561,1.35206e-05,-4.41685e-05,0,8.70259e-06,-1.02462e+09,-1.02858e+09,-1.02555e+09,596998,0.0263795,-0.341534,0,0.342551,1850.94,-37288.8,0,37334.7,596998
step02_gravity_refstate-crust.xmf,1562,6.07055e-06,-2.89749e-05,0,-1.39956e-05,-1.08419e+09,-1.08659e+09,-1.0846e+09,-960099,-0.033071,-0.228383,-0,0.230765,-3721.63,-39450.7,-0,39625.8,960099
step02_gravity_refstate-crust.xmf,1563,1.25468e-05,-4.1976e-05,0,-2.10384e-06,-1.06213e+09,-1.06587e+09,-1.06299e+09,-144324,-0.00584937,-0.294992,-0,0.29505,-464.377,-38653.6,-0,38656.4,144324
step02_gravity_refstate-crust.xmf,1564,-1.50048e-06,1.78915e-06,0,3.64119e-06,-2.52963e+08,-2.52737e+08,-2.5286e+08,249786,-0.0285563,-0.123332,-0,0.126595,10451.9,-9206.07,0,13928.2,249786
step02_gravity_refstate-crust.xmf,1565,-1.97425e-06,8.97319e-07,0,9.23949e-07,-4.29263e+07,-4.27293e+07,-4.27909e+07,63382.9,-0.0514337,-0.0956952,-0,0.108642,12924.3,-1556.18,0,13017.6,63382.9
step02_gravity_refstate-crust.xmf,1566,-1.97296e-06,1.31208e-06,0,2.35689e-06,-1.39015e+08,-1.3879e+08,-1.3888e+08,161683,-0.0346807,-0.113503,-0,0.118684,10933.2,-5055.04,0,12045.3,161683
step02_gravity_refstate-crust.xmf,1567,-2.04349e-06,1.0556e-06,0,1.54609e-06,-7.89568e+07,-7.87442e+07,-7.88166e+07,106062,-0.0436397,-0.10325,-0,0.112094,12029.2,-2867.87,0,12366.4,106062
step02_gravity_refstate-crust.xmf,1568,-8.54634e-07,5.31308e-06,0,9.55254e-06,-6.38674e+08,-6.38251e+08,-6.38615e+08,655304,-0.0401761,-0.206739,-0,0.210606,7247.84,-23256.3,0,24359.6,655304
step02_gravity_refstate-crust.xmf,1569,-1.28015e-06,4.54203e-06,0,7.40307e-06,-5.50225e+08,-5.49825e+08,-5.50137e+08,507851,-0.0353003,-0.179798,-0,0.18323,7977.79,-20033.3,0,21563.4,507851
step02_gravity_refstate-crust.xmf,1570,-7.69347e-07,4.87476e-06,0,9.01056e-06,-6.19982e+08,-6.19595e+08,-6.1993e+08,618124,-0.0393555,-0.197084,-0,0.200975,7614.74,-22575.5,0,23825.2,618124
step02_gravity_refstate-crust.xmf,1571,-6.99049e-07,4.39145e-06,0,8.43328e-06,-5.981e+08,-5.97751e+08,-5.98052e+08,578523,-0.0383587,-0.186873,-0,0.190769,8029.99,-21778.4,0,23211.6,578523
step02_gravity_refstate-crust.xmf,1572,7.70156e-09,4.32064e-06,0,9.89581e-06,-6.57067e+08,-6.56771e+08,-6.57067e+08,678852,-0.0413166,-0.202395,-0,0.20657,7669.48,-23927.9,0,25127,678852
step02_gravity_refstate-crust.xmf,1573,9.2246e-07,3.57879e-06,0,1.06476e-05,-6.90532e+08,-6.9035e+08,-6.90595e+08,730423,-0.0422582,-0.206558,-0,0.210836,7705.71,-25148.8,0,26302.8,730423
step02_gravity_refstate-crust.xmf,1574,1.07074e-06,3.83718e-06,0,1.13932e-05,-7.09345e+08,-7.09156e+08,-7.09419e+08,781571,-0.0427567,-0.217476,-0,0.221639,7321.61,-25834.7,0,26852.1,781571
step02_gravity_refstate-crust.xmf,1575,-1.14725e-06,4.01132e-06,0,6.93761e-06,-5.24707e+08,-5.24353e+08,-5.24629e+08,475920,-0.0342822,-0.169946,-0,0.173369,8446.75,-19104.1,0,20888.1,475920
step02_gravity_refstate-crust.xmf,1576,-1.08635e-06,3.58875e-06,0,6.4874e-06,-4.97023e+08,-4.96702e+08,-4.96948e+08,445036,-0.0331385,-0.161298,-0,0.164667,8856.65,-18095.8,0,20146.9,445036
step02_gravity_refstate-crust.xmf,1577,-1.11157e-06,3.27909e-06,0,6.03636e-06,-4.66555e+08,-4.66254e+08,-4.66479e+08,414094,-0.0318419,-0.154258,-0,0.15751,9150.43,-16986,0,19293.9,414094
step02_gravity_refstate-crust.xmf,1578,-1.39188e-06,2.89121e-06,0,5.01162e-06,-3.89299e+08,-3.89005e+08,-3.89204e+08,343797,-0.0285946,-0.144531,-0,0.147332,9257.29,-14171.7,0,16927.3,343797
step02_gravity_refstate-crust.xmf,1579,-1.21828e-06,3.14546e-06,0,5.671e-06,-4.41028e+08,-4.40729e+08,-4.40944e+08,389031,-0.0306349,-0.150964,-0,0.154041,9179.57,-16056,0,18494.9,389031
step02_gravity_refstate-crust.xmf,1580,2.94332e-06,1.85632e-06,0,1.23749e-05,-7.63727e+08,-7.63802e+08,-7.63929e+08,848921,-0.0405098,-0.227804,-0,0.231378,7146.01,-27819,0,28722.2,848921
step02_gravity_refstate-crust.xmf,1581,2.559e-06,2.03916e-06,0,1.17727e-05,-7.46416e+08,-7.46452e+08,-7.46591e+08,807605,-0.0412585,-0.218351,-0,0.222215,7453.54,-27187.5,0,28190.7,807605
step02_gravity_refstate-crust.xmf,1582,3.97703e-06,6.08232e-08,0,1.21196e-05,-7.95137e+08,-7.95405e+08,-7.95409e+08,831402,-0.0354568,-0.229788,-0,0.232507,7118.16,-28963.9,0,29825.8,831402
step02_gravity_refstate-crust.xmf,1583,4.13088e-06,-2.21582e-07,0,1.25074e-05,-8.10429e+08,-8.10728e+08,-8.10713e+08,858011,-0.0328254,-0.239496,-0,0.241735,6811.31,-29520.9,0,30296.5,858011
step02_gravity_refstate-crust.xmf,1584,4.05119e-06,-4.37234e-07,0,1.29281e-05,-8.25263e+08,-8.25571e+08,-8.25541e+08,886870,-0.029338,-0.249903,-0,0.251619,6503.96,-30060.2,0,30755.8,886870
step02_gravity_refstate-crust.xmf,1585,3.0281e-06,-1.35277e-05,0,2.48368e-05,-9.40236e+08,-9.41372e+08,-9.40444e+08,1.7038e+06,0.0254459,-0.336782,0,0.337742,4424.86,-34221.6,0,34506.4,1.7038e+06
step02_gravity_refstate-crust.xmf,1586,2.15987e-06,-1.96333e-06,0,1.51792e-05,-8.718e+08,-8.72083e+08,-8.71949e+08,1.04129e+06,-0.0101859,-0.27717,-0,0.277357,5788.45,-31744.5,0,32267.9,1.04129e+06
step02_gravity_refstate-crust.xmf,1587,1.61336e-06,-2.9748e-06,0,1.68511e-05,-8.85079e+08,-8.85394e+08,-8.8519e+08,1.15598e+06,-0.00333811,-0.28899,-0,0.28901,5516.1,-32224.1,0,32692.8,1.15598e+06
step02_gravity_refstate-crust.xmf,1588,1.62706e-06,-7.71504e-06,0,2.13954e-05,-9.16282e+08,-9.16923e+08,-9.16394e+08,1.46773e+06,0.0134097,-0.317329,0,0.317613,4888.29,-33352.8,0,33709.1,1.46773e+06
step02_gravity_refstate-crust.xmf,1589,1.37309e-06,-4.76661e-06,0,1.89316e-05,-8.99666e+08,-9.00088e+08,-8.99761e+08,1.29871e+06,0.00450471,-0.302304,0,0.302337,5220.53,-32751.4,0,33164.9,1.29871e+06
step02_gravity_refstate-crust.xmf,1590,9.07511e-06,-4.04908e-05,0,1.85296e-05,-9.89562e+08,-9.92962e+08,-9.90184e+08,1.27113e+06,0.0447138,-0.350952,0,0.353789,3499.28,-36000,0,36169.7,1.27113e+06
step02_gravity_refstate-crust.xmf,1591,1.24274e-05,-4.1843e-05,0,1.16825e-05,-1.02452e+09,-1.02824e+09,-1.02537e+09,801422,0.0343235,-0.330043,0,0.331823,2463.97,-37284.2,0,37365.5,801422
step02_gravity_refstate-crust.xmf,1592,1.40114e-05,-4.46489e-05,0,4.37656e-06,-1.03776e+09,-1.04178e+09,-1.03872e+09,300232,0.0134481,-0.330831,0,0.331104,952.797,-37768.2,0,37780.2,300232
step02_gravity_refstate-crust.xmf,1593,1.34852e-05,-4.34925e-05,0,7.10218e-06,-1.03735e+09,-1.04126e+09,-1.03828e+09,487210,0.0215175,-0.325621,0,0.326331,1541.33,-37753.1,0,37784.5,487210
step02_gravity_refstate-crust.xmf,1594,1.32241e-05,-4.31168e-05,0,2.55627e-06,-1.05354e+09,-1.05741e+09,-1.05445e+09,175360,0.00754208,-0.307874,0,0.307967,568.628,-38342,0,38346.2,175360
step02_gravity_refstate-crust.xmf,1595,9.28709e-06,-3.52316e-05,0,-1.16869e-05,-1.0687e+09,-1.07175e+09,-1.06933e+09,-801723,-0.030738,-0.262671,-0,0.264464,-2761.31,-38890,-0,38987.9,801723
step02_gravity_refstate-crust.xmf,1596,7.45317e-06,-3.22254e-05,0,-1.23693e-05,-1.08407e+09,-1.08679e+09,-1.08458e+09,-848536,-0.0286819,-0.239178,-0,0.240891,-3065.35,-39446.7,-0,39565.7,848536
step02_gravity_refstate-crust.xmf,1597,1.25122e-05,-4.19156e-05,0,-2.22057e-08,-1.06393e+09,-1.06766e+09,-1.06478e+09,-1523.31,4.97989e-07,-0.292954,0,0.292954,0,-38719,0,38719,1523.31
step02_gravity_refstate-crust.xmf,1598,1.21503e-05,-4.11239e-05,0,-4.10097e-06,-1.06484e+09,-1.06849e+09,-1.06567e+09,-281327,-0.0113869,-0.288813,-0,0.289038,-927.448,-38752,-0,38763.1,281327
step02_gravity_refstate-crust.xmf,1599,1.0527e-05,-3.76745e-05,0,-9.27465e-06,-1.06858e+09,-1.07188e+09,-1.0693e+09,-636241,-0.024659,-0.271853,-0,0.272969,-2143.37,-38886.9,-0,38945.9,636241
step02_gravity_refstate-crust.xmf,1600,1.14249e-05,-3.95588e-05,0,-6.80261e-06,-1.06758e+09,-1.07108e+09,-1.06837e+09,-466659,-0.0183826,-0.279929,-0,0.280532,-1551.26,-38851.5,-0,38882.4,466659
step02_gravity_refstate-crust.xmf,1601,-1.50549e-06,1.4735e-06,0,3.28197e-06,-2.13791e+08,-2.13586e+08,-2.13687e+08,225143,-0.0305283,-0.116102,-0,0.120048,11097.3,-7779.45,0,13552.5,225143
step02_gravity_refstate-crust.xmf,1602,-1.78627e-06,6.89865e-07,0,1.96712e-08,-169170,692.633,-46632.1,1349.44,-0.0627964,-0.0873244,-0,0.107559,13945.9,0,0,13945.9,1349.44
step02_gravity_refstate-crust.xmf,1603,-1.54243e-06,1.25321e-06,0,2.83264e-06,-1.71536e+08,-1.71344e+08,-1.7143e+08,194319,-0.0337177,-0.108929,-0,0.114028,11774,-6240.62,0,13325.7,194319
step02_gravity_refstate-crust.xmf,1604,-1.65784e-06,1.07171e-06,0,2.23077e-06,-1.23184e+08,-1.22997e+08,-1.2307e+08,153031,-0.038738,-0.102688,-0,0.109752,12345,-4479.6,0,13132.6,153031
step02_gravity_refstate-crust.xmf,1605,-6.1623e-07,3.89582e-06,0,7.87311e-06,-5.74029e+08,-5.73719e+08,-5.73987e+08,540096,-0.0372725,-0.176278,-0,0.180175,8506.73,-20901.6,0,22566.4,540096
step02_gravity_refstate-crust.xmf,1606,8.41065e-07,3.31084e-06,0,1.00377e-05,-6.73915e+08,-6.73746e+08,-6.73973e+08,688583,-0.0416805,-0.19711,-0,0.201468,8070.18,-24543.1,0,25835.8,688583
step02_gravity_refstate-crust.xmf,1607,-1.24189e-06,2.41949e-06,0,4.73866e-06,-3.58395e+08,-3.58143e+08,-3.58309e+08,325072,-0.0285796,-0.135336,-0,0.138321,9959.22,-13046.4,0,16413.3,325072
step02_gravity_refstate-crust.xmf,1608,-1.15559e-06,2.02688e-06,0,4.43286e-06,-3.24627e+08,-3.24409e+08,-3.24548e+08,304094,-0.0287358,-0.126955,-0,0.130166,10617.1,-11816.8,0,15885.9,304094
step02_gravity_refstate-crust.xmf,1609,-1.11406e-06,1.69796e-06,0,4.10345e-06,-2.88658e+08,-2.88465e+08,-2.88582e+08,281496,-0.0293038,-0.119111,-0,0.122663,11264.5,-10507,0,15404.1,281496
step02_gravity_refstate-crust.xmf,1610,-1.03512e-06,2.68827e-06,0,5.45331e-06,-4.19878e+08,-4.19623e+08,-4.19807e+08,374097,-0.0304405,-0.142358,-0,0.145576,9819.37,-15286.1,0,18168.2,374097
step02_gravity_refstate-crust.xmf,1611,2.1538e-06,2.26451e-06,0,1.12052e-05,-7.27323e+08,-7.27316e+08,-7.27471e+08,768676,-0.041716,-0.209831,-0,0.213937,7738.42,-26491.1,0,27598.3,768676
step02_gravity_refstate-crust.xmf,1612,3.71496e-06,2.97732e-07,0,1.16405e-05,-7.79393e+08,-7.79627e+08,-7.79647e+08,798539,-0.0372479,-0.219646,-0,0.222782,7460.53,-28390.1,0,29354,798539
step02_gravity_refstate-crust.xmf,1613,4.36827e-06,-1.68732e-05,0,2.88878e-05,-9.47846e+08,-9.49303e+08,-9.48146e+08,1.9817e+06,0.0278431,-0.361408,0,0.362479,4000,-34498.8,0,34729.9,1.9817e+06
step02_gravity_refstate-crust.xmf,1614,3.70667e-06,-6.82479e-07,0,1.32099e-05,-8.38448e+08,-8.38749e+08,-8.38702e+08,906202,-0.02498,-0.256976,-0,0.258187,6305.75,-30538.5,0,31182.7,906202
step02_gravity_refstate-crust.xmf,1615,2.77267e-06,-1.40826e-06,0,1.41727e-05,-8.60126e+08,-8.60413e+08,-8.60317e+08,972250,-0.0158413,-0.268836,-0,0.269302,5992.82,-31322.8,0,31890.9,972250
step02_gravity_refstate-crust.xmf,1616,2.12442e-06,-1.09988e-05,0,2.18656e-05,-9.33111e+08,-9.34011e+08,-9.33257e+08,1.49998e+06,0.0225174,-0.317691,0,0.318488,4786.21,-33962.4,0,34298,1.49998e+06
step02_gravity_refstate-crust.xmf,1617,8.77208e-06,-3.67909e-05,0,1.95626e-05,-1.00081e+09,-1.00393e+09,-1.00141e+09,1.34199e+06,0.047719,-0.326975,0,0.330439,3693.46,-36413.9,0,36600.8,1.34199e+06
step02_gravity_refstate-crust.xmf,1618,1.00691e-05,-3.77533e-05,0,1.70891e-05,-1.01184e+09,-1.01512e+09,-1.01253e+09,1.17231e+06,0.0453011,-0.322994,0,0.326155,3395.59,-36819.4,0,36975.7,1.17231e+06
step02_gravity_refstate-crust.xmf,1619,1.25889e-05,-4.15539e-05,0,9.89013e-06,-1.03758e+09,-1.04129e+09,-1.03844e+09,678463,0.0293344,-0.316391,0,0.317748,2144.71,-37760.7,0,37821.6,678463
step02_gravity_refstate-crust.xmf,1620,1.14447e-05,-4.0348e-05,0,-2.14673e-06,-1.07388e+09,-1.07743e+09,-1.07466e+09,-147266,-0.00544383,-0.27743,-0,0.277483,-475.592,-39079.5,-0,39082.4,147266
step02_gravity_refstate-crust.xmf,1621,-1.10411e-06,1.42015e-06,0,3.74244e-06,-2.50726e+08,-2.50553e+08,-2.5065e+08,256731,-0.0305104,-0.111614,-0,0.115709,11921.1,-9125.67,0,15013,256731
step02_gravity_refstate-crust.xmf,1622,-1.46217e-06,8.30242e-07,0,1.68057e-06,-8.55285e+07,-8.53712e+07,-8.54282e+07,115287,-0.0455152,-0.0918266,-0,0.102488,13646.5,-3109.12,0,13996.2,115287
step02_gravity_refstate-crust.xmf,1623,-1.09457e-06,5.67826e-07,0,1.01562e-06,-4.79751e+07,-4.7861e+07,-4.79e+07,69671.7,-0.0538238,-0.0800979,-0,0.0965022,15109.9,-1743.03,0,15210.1,69671.7
step02_gravity_refstate-crust.xmf,1624,-8.42464e-07,3.26373e-07,0,1.51593e-08,-79743.4,438.838,-21950.4,1039.93,-0.0655462,-0.0727297,-0,0.0979077,16020.4,0,0,16020.4,1039.93
step02_gravity_refstate-crust.xmf,1625,6.73847e-08,3.86942e-06,0,9.31977e-06,-6.39693e+08,-6.39432e+08,-6.39697e+08,639336,-0.0405634,-0.192244,-0,0.196477,8088.33,-23294.9,0,24659.2,639336
step02_gravity_refstate-crust.xmf,1626,-5.48681e-07,3.44945e-06,0,7.36569e-06,-5.49067e+08,-5.48793e+08,-5.49029e+08,505287,-0.0361626,-0.166296,-0,0.170183,8994.68,-19992.5,0,21922.7,505287
step02_gravity_refstate-crust.xmf,1627,1.0833e-07,3.49727e-06,0,8.77712e-06,-6.20534e+08,-6.20301e+08,-6.20541e+08,602110,-0.0396924,-0.182145,-0,0.186419,8534.93,-22597,0,24155.1,602110
step02_gravity_refstate-crust.xmf,1628,1.0946e-07,3.11684e-06,0,8.19877e-06,-5.97514e+08,-5.97307e+08,-5.97521e+08,562436,-0.0386236,-0.171688,-0,0.175979,9025.22,-21758.4,0,23555.9,562436
step02_gravity_refstate-crust.xmf,1629,8.43964e-07,2.91786e-06,0,9.4542e-06,-6.57748e+08,-6.57606e+08,-6.57806e+08,648558,-0.040988,-0.187147,-0,0.191583,8500.21,-23953.9,0,25417.4,648558
step02_gravity_refstate-crust.xmf,1630,1.67316e-06,2.15615e-06,0,9.94442e-06,-6.90698e+08,-6.90665e+08,-6.90813e+08,682187,-0.0412365,-0.190393,-0,0.194808,8493.04,-25155.7,0,26550.7,682187
step02_gravity_refstate-crust.xmf,1631,1.90493e-06,2.21093e-06,0,1.05393e-05,-7.09143e+08,-7.09122e+08,-7.09274e+08,722993,-0.041567,-0.199621,-0,0.203903,8123.02,-25828.2,0,27075.4,722993
step02_gravity_refstate-crust.xmf,1632,-5.23071e-07,3.07638e-06,0,6.88949e-06,-5.22014e+08,-5.21768e+08,-5.21979e+08,472619,-0.0349806,-0.157127,-0,0.160973,9462.94,-19007.1,0,21232.5,472619
step02_gravity_refstate-crust.xmf,1633,-5.40793e-07,2.76805e-06,0,6.43418e-06,-4.92342e+08,-4.92115e+08,-4.92305e+08,441384,-0.0337408,-0.148807,-0,0.152584,9897.26,-17926.3,0,20477,441384
step02_gravity_refstate-crust.xmf,1634,-6.42146e-07,2.5419e-06,0,5.94422e-06,-4.55582e+08,-4.55364e+08,-4.55538e+08,407774,-0.0322767,-0.141533,-0,0.145167,10234.1,-16587.3,0,19490.3,407774
step02_gravity_refstate-crust.xmf,1635,-7.97494e-07,2.18712e-06,0,5.22723e-06,-3.95295e+08,-3.95091e+08,-3.95241e+08,358588,-0.0303886,-0.131555,-0,0.135019,10709,-14391.3,0,17938.5,358588
step02_gravity_refstate-crust.xmf,1636,3.40425e-06,5.10645e-07,0,1.11347e-05,-7.62909e+08,-7.63107e+08,-7.63142e+08,763839,-0.0384783,-0.209762,-0,0.213262,7817.17,-27789,0,28867.6,763839
step02_gravity_refstate-crust.xmf,1637,3.07674e-06,7.10551e-07,0,1.06409e-05,-7.45488e+08,-7.45651e+08,-7.45699e+08,729966,-0.0393078,-0.200469,-0,0.204286,8173.85,-27153.8,0,28357.4,729966
step02_gravity_refstate-crust.xmf,1638,4.14153e-06,-1.06216e-06,0,1.0608e-05,-7.94711e+08,-7.95068e+08,-7.94995e+08,727708,-0.0327208,-0.209485,-0,0.212025,7817.6,-28947.3,0,29984.4,727708
step02_gravity_refstate-crust.xmf,1639,3.51873e-06,-1.66366e-05,0,2.40393e-05,-9.5407e+08,-9.55453e+08,-9.54311e+08,1.6491e+06,0.0326387,-0.329318,0,0.330931,4423.53,-34722.3,0,35003,1.6491e+06
step02_gravity_refstate-crust.xmf,1640,4.25276e-06,-1.35146e-06,0,1.09139e-05,-8.10392e+08,-8.10777e+08,-8.10684e+08,748693,-0.0300714,-0.218744,-0,0.220801,7472.93,-29518.2,0,30449.5,748693
step02_gravity_refstate-crust.xmf,1641,4.17801e-06,-1.62251e-06,0,1.12348e-05,-8.26029e+08,-8.26427e+08,-8.26315e+08,770705,-0.0264876,-0.228487,-0,0.230017,7133.14,-30086.8,0,30920.8,770705
step02_gravity_refstate-crust.xmf,1642,3.85131e-06,-1.86387e-06,0,1.16188e-05,-8.40878e+08,-8.4127e+08,-8.41143e+08,797048,-0.0220026,-0.237927,-0,0.238942,6824.92,-30625.7,0,31377,797048
step02_gravity_refstate-crust.xmf,1643,3.29368e-06,-2.05131e-06,0,1.23839e-05,-8.54768e+08,-8.55134e+08,-8.54994e+08,849538,-0.0170132,-0.249517,-0,0.250096,6481.07,-31128.8,0,31796.3,849538
step02_gravity_refstate-crust.xmf,1644,2.54514e-06,-2.83194e-06,0,1.28348e-05,-8.7162e+08,-8.71989e+08,-8.71795e+08,880464,-0.00901106,-0.254094,-0,0.254254,6328.35,-31738.1,0,32362.9,880464
step02_gravity_refstate-crust.xmf,1645,1.94077e-06,-1.27961e-05,0,2.02855e-05,-9.45344e+08,-9.46355e+08,-9.45477e+08,1.39159e+06,0.0293524,-0.305169,0,0.306577,4913.49,-34404.2,0,34753.3,1.39159e+06
step02_gravity_refstate-crust.xmf,1646,1.92792e-06,-3.66868e-06,0,1.38145e-05,-8.85779e+08,-8.86163e+08,-8.85912e+08,947674,-0.00191046,-0.262012,-0,0.262019,6099.8,-32249.8,0,32821.6,947674
step02_gravity_refstate-crust.xmf,1647,1.46046e-06,-4.92595e-06,0,1.52916e-05,-9.00051e+08,-9.00489e+08,-9.00151e+08,1.049e+06,0.0055614,-0.272768,0,0.272825,5811.04,-32765.5,0,33276.8,1.049e+06
step02_gravity_refstate-crust.xmf,1648,1.42097e-06,-9.38886e-06,0,1.86123e-05,-9.29736e+08,-9.30477e+08,-9.29833e+08,1.2768e+06,0.0214254,-0.294498,0,0.295277,5224.86,-33839.2,0,34240.2,1.2768e+06
step02_gravity_refstate-crust.xmf,1649,1.27513e-06,-6.86942e-06,0,1.70331e-05,-9.15019e+08,-9.15578e+08,-9.15106e+08,1.16847e+06,0.0135902,-0.284412,0,0.284737,5504.41,-33306.7,0,33758.5,1.16847e+06
step02_gravity_refstate-crust.xmf,1650,5.11281e-06,-2.0767e-05,0,2.79473e-05,-9.61669e+08,-9.63444e+08,-9.6202e+08,1.91718e+06,0.0346742,-0.352035,0,0.353739,4000,-34999,0,35226.9,1.91718e+06
step02_gravity_refstate-crust.xmf,1651,6.09311e-06,-2.46255e-05,0,2.71e-05,-9.75435e+08,-9.77543e+08,-9.75853e+08,1.85906e+06,0.0413552,-0.340799,0,0.343299,4000,-35498.2,0,35722.9,1.85906e+06
step02_gravity_refstate-crust.xmf,1652,3.49539e-06,-1.95722e-05,0,2.25407e-05,-9.68653e+08,-9.70236e+08,-9.68893e+08,1.54629e+06,0.0399696,-0.319216,0,0.321709,4432.3,-35248.6,0,35526.2,1.54629e+06
step02_gravity_refstate-crust.xmf,1653,4.69412e-06,-3.29942e-05,0,2.5951e-05,-9.8973e+08,-9.92315e+08,-9.90052e+08,1.78024e+06,0.0482394,-0.327325,0,0.330861,4000,-36000,0,36221.5,1.78024e+06
step02_gravity_refstate-crust.xmf,1654,1.08079e-05,-3.85132e-05,0,1.47275e-05,-1.02414e+09,-1.02752e+09,-1.02488e+09,1.01031e+06,0.0415496,-0.315383,0,0.318109,3083.33,-37268.9,0,37396.2,1.01031e+06
step02_gravity_refstate-crust.xmf,1655,1.12084e-05,-3.86904e-05,0,1.27185e-05,-1.03775e+09,-1.04117e+09,-1.03852e+09,872489,0.0366139,-0.304185,0,0.306381,2758.89,-37765.8,0,37866.4,872489
step02_gravity_refstate-crust.xmf,1656,1.29853e-05,-4.2381e-05,0,5.47327e-06,-1.05191e+09,-1.05571e+09,-1.0528e+09,375467,0.0160596,-0.306327,0,0.306747,1212.45,-38282.8,0,38302,375467
step02_gravity_refstate-crust.xmf,1657,1.23098e-05,-4.08747e-05,0,8.17551e-06,-1.05184e+09,-1.05549e+09,-1.05269e+09,560840,0.0237011,-0.299896,0,0.300831,1818.81,-38279.9,0,38323,560840
step02_gravity_refstate-crust.xmf,1658,1.16067e-05,-4.06513e-05,0,2.0332e-06,-1.07246e+09,-1.07605e+09,-1.07326e+09,139478,0.00527732,-0.279565,0,0.279615,454.987,-39028.1,0,39030.8,139478
step02_gravity_refstate-crust.xmf,1659,8.60024e-06,-3.48752e-05,0,-1.01734e-05,-1.08389e+09,-1.08688e+09,-1.08448e+09,-697893,-0.0234735,-0.248402,-0,0.249509,-2410.24,-39441,-0,39514.6,697893
step02_gravity_refstate-crust.xmf,1660,1.06641e-05,-3.94372e-05,0,-1.50376e-08,-1.0812e+09,-1.08463e+09,-1.08193e+09,-1031.58,8.47472e-08,-0.267522,0,0.267522,0,-39344.2,0,39344.2,1031.58
step02_gravity_refstate-crust.xmf,1661,1.02378e-05,-3.84568e-05,0,-4.50243e-06,-1.08297e+09,-1.08631e+09,-1.08367e+09,-308866,-0.0105654,-0.262146,-0,0.262358,-1024.47,-39408.5,-0,39421.8,308866
step02_gravity_refstate-crust.xmf,1662,9.51329e-06,-3.68632e-05,0,-7.46953e-06,-1.08413e+09,-1.08731e+09,-1.08478e+09,-512410,-0.0172657,-0.255401,-0,0.255983,-1729.06,-39450.3,-0,39488.2,512410
step02_gravity_refstate-crust.xmf,1663,-1.1184e-06,1.1592e-06,0,3.32274e-06,-2.09551e+08,-2.09395e+08,-2.09475e+08,227940,-0.0326904,-0.104171,-0,0.10918,12611.3,-7626.2,0,14737.8,227940
step02_gravity_refstate-crust.xmf,1664,-1.12617e-06,9.77438e-07,0,2.83494e-06,-1.66956e+08,-1.66811e+08,-1.66879e+08,194477,-0.0361757,-0.0965578,-0,0.103112,13371.6,-6075.15,0,14686.9,194477
step02_gravity_refstate-crust.xmf,1665,-1.06121e-06,7.88542e-07,0,2.30616e-06,-1.27022e+08,-1.26895e+08,-1.26949e+08,158202,-0.0409533,-0.0882265,-0,0.0972681,14286.2,-4621.28,0,15015.1,158202
step02_gravity_refstate-crust.xmf,1666,-3.79613e-07,2.49112e-07,0,7.23118e-07,-3.421e+07,-3.41668e+07,-3.41839e+07,49605.9,-0.0581301,-0.0654732,-0,0.0875549,17077.4,-1244.3,0,17122.7,49605.9
step02_gravity_refstate-crust.xmf,1667,1.0138e-07,2.77485e-06,0,7.67038e-06,-5.73323e+08,-5.7314e+08,-5.7333e+08,526188,-0.0375004,-0.161793,-0,0.166082,9526.02,-20877.1,0,22947.7,526188
step02_gravity_refstate-crust.xmf,1668,1.45443e-06,2.16052e-06,0,9.49614e-06,-6.74036e+08,-6.73987e+08,-6.74136e+08,651435,-0.0408843,-0.183673,-0,0.188169,8768.86,-24548.2,0,26067.3,651435
step02_gravity_refstate-crust.xmf,1669,-7.60656e-07,1.85296e-06,0,4.85256e-06,-3.59196e+08,-3.59016e+08,-3.59143e+08,332885,-0.0299868,-0.122957,-0,0.12656,11345.4,-13076.7,0,17312.3,332885
step02_gravity_refstate-crust.xmf,1670,-7.24779e-07,1.55173e-06,0,4.51208e-06,-3.24429e+08,-3.24272e+08,-3.24379e+08,309528,-0.0300547,-0.114744,-0,0.118615,12021.1,-11810.6,0,16852.2,309528
step02_gravity_refstate-crust.xmf,1671,-7.10758e-07,1.29229e-06,0,4.14989e-06,-2.87429e+08,-2.87291e+08,-2.8738e+08,284683,-0.0306403,-0.106765,-0,0.111075,12720.3,-10463.3,0,16470.8,284683
step02_gravity_refstate-crust.xmf,1672,-5.75219e-07,2.17802e-06,0,5.59444e-06,-4.28268e+08,-4.28079e+08,-4.28228e+08,383779,-0.0315635,-0.13306,-0,0.136753,10822,-15592.6,0,18980.1,383779
step02_gravity_refstate-crust.xmf,1673,2.78429e-06,8.15547e-07,0,1.01112e-05,-7.27821e+08,-7.27956e+08,-7.28012e+08,693626,-0.0396493,-0.190981,-0,0.195053,8563.58,-26509.6,0,27858.4,693626
step02_gravity_refstate-crust.xmf,1674,3.93194e-06,-7.87504e-07,0,1.02815e-05,-7.79023e+08,-7.79347e+08,-7.79293e+08,705314,-0.0346156,-0.200645,-0,0.203609,8167.19,-28375.8,0,29527.8,705314
step02_gravity_refstate-crust.xmf,1675,1.86363e-06,-2.17001e-05,0,2.03835e-05,-9.82583e+08,-9.84199e+08,-9.82711e+08,1.39831e+06,0.0464304,-0.308009,0,0.311489,4447.3,-35745.9,0,36021.4,1.39831e+06
step02_gravity_refstate-crust.xmf,1676,4.97265e-06,-2.9377e-05,0,2.20843e-05,-1.00184e+09,-1.00419e+09,-1.00218e+09,1.51499e+06,0.050725,-0.307801,0,0.311953,4103.16,-36447.6,0,36677.8,1.51499e+06
step02_gravity_refstate-crust.xmf,1677,6.92412e-06,-3.21273e-05,0,1.96164e-05,-1.01222e+09,-1.0149e+09,-1.01269e+09,1.34568e+06,0.0499624,-0.302802,0,0.306896,3940.1,-36829.1,0,37039.2,1.34568e+06
step02_gravity_refstate-crust.xmf,1678,8.37372e-06,-3.36622e-05,0,1.75099e-05,-1.02422e+09,-1.0271e+09,-1.02479e+09,1.20118e+06,0.0472118,-0.29775,0,0.301469,3672.07,-37269.4,0,37449.8,1.20118e+06
step02_gravity_refstate-crust.xmf,1679,1.12065e-05,-3.8585e-05,0,1.08198e-05,-1.05204e+09,-1.05546e+09,-1.05281e+09,742239,0.0308714,-0.290398,0,0.292034,2433.36,-38286.3,0,38363.5,742239
step02_gravity_refstate-crust.xmf,1680,1.20556e-05,-4.10448e-05,0,4.11287e-06,-1.06534e+09,-1.06898e+09,-1.06617e+09,282143,0.0112685,-0.288111,0,0.288331,921.132,-38770,0,38781,282143
step02_gravity_refstate-crust.xmf,1681,9.96331e-06,-3.84921e-05,0,2.00565e-06,-1.08674e+09,-1.09006e+09,-1.08742e+09,137588,0.00452716,-0.259166,0,0.259205,456.577,-39544.4,0,39547,137588
step02_gravity_refstate-crust.xmf,1682,9.88059e-06,-3.84114e-05,0,-1.92088e-06,-1.08735e+09,-1.09066e+09,-1.08802e+09,-131772,-0.00429468,-0.258365,-0,0.2584,-436.61,-39566.4,-0,39568.9,131772
step02_gravity_refstate-crust.xmf,1683,-7.16335e-07,1.07537e-06,0,3.75193e-06,-2.4809e+08,-2.47967e+08,-2.48041e+08,257382,-0.0319514,-0.0991158,-0,0.104139,13427.8,-9030.72,0,16182.1,257382
step02_gravity_refstate-crust.xmf,1684,-9.18108e-07,6.15457e-07,0,1.7775e-06,-9.32138e+07,-9.31086e+07,-9.31508e+07,121937,-0.0462669,-0.0801159,-0,0.0925158,15237.6,-3390.78,0,15610.3,121937
step02_gravity_refstate-crust.xmf,1685,7.84671e-08,-1.90861e-08,0,2.12372e-08,7908.44,1216.28,2525.59,1456.87,-0.0663674,-0.0577374,-0,0.0879673,18134.4,0,0,18134.4,1456.87
step02_gravity_refstate-crust.xmf,1686,-3.46435e-07,3.46828e-07,0,1.51141e-06,-7.9047e+07,-7.89995e+07,-7.90232e+07,103683,-0.0496404,-0.0660225,-0,0.0826023,17068.7,-2876.92,0,17309.4,103683
step02_gravity_refstate-crust.xmf,1687,9.09023e-07,2.49913e-06,0,8.91384e-06,-6.42247e+08,-6.42138e+08,-6.42309e+08,611489,-0.0402029,-0.176699,-0,0.181215,9002.65,-23389.2,0,25062,611489
step02_gravity_refstate-crust.xmf,1688,8.05108e-08,2.47538e-06,0,7.18835e-06,-5.47838e+08,-5.47674e+08,-5.47844e+08,493121,-0.0363456,-0.152521,-0,0.156792,10028.7,-19948.8,0,22327.8,493121
step02_gravity_refstate-crust.xmf,1689,8.69768e-07,2.23046e-06,0,8.35682e-06,-6.21214e+08,-6.21121e+08,-6.21274e+08,573278,-0.0392278,-0.166085,-0,0.170655,9533.57,-22622.9,0,24549.6,573278
step02_gravity_refstate-crust.xmf,1690,7.76054e-07,2.00922e-06,0,7.82319e-06,-5.97232e+08,-5.97147e+08,-5.97285e+08,536671,-0.0381616,-0.156336,-0,0.160926,10047.2,-21749.1,0,23957.6,536671
step02_gravity_refstate-crust.xmf,1691,1.60177e-06,1.649e-06,0,8.96371e-06,-6.64249e+08,-6.64245e+08,-6.64358e+08,614910,-0.040052,-0.172833,-0,0.177413,9318.64,-24191.7,0,25924.4,614910
step02_gravity_refstate-crust.xmf,1692,2.18135e-06,1.03956e-06,0,9.11372e-06,-6.87363e+08,-6.87441e+08,-6.87512e+08,625201,-0.0396304,-0.173194,-0,0.17767,9361.91,-25034.6,0,26727.8,625201
step02_gravity_refstate-crust.xmf,1693,2.49452e-06,9.07867e-07,0,9.6062e-06,-7.09175e+08,-7.09284e+08,-7.09346e+08,658985,-0.0397302,-0.181984,-0,0.186271,8956.94,-25829.7,0,27338.6,658985
step02_gravity_refstate-crust.xmf,1694,4.33688e-08,2.21596e-06,0,6.74177e-06,-5.20609e+08,-5.2046e+08,-5.20612e+08,462486,-0.0351717,-0.14385,-0,0.148088,10527.6,-18956.9,0,21684,462486
step02_gravity_refstate-crust.xmf,1695,-2.11759e-08,1.98887e-06,0,6.29701e-06,-4.89124e+08,-4.88986e+08,-4.89123e+08,431975,-0.0339232,-0.135416,-0,0.1396,11034.1,-17810,0,20951.1,431975
step02_gravity_refstate-crust.xmf,1696,-3.48537e-07,1.59752e-06,0,5.18864e-06,-3.91621e+08,-3.91488e+08,-3.91597e+08,355941,-0.0310632,-0.118297,-0,0.122307,12053.6,-14258.4,0,18670.6,355941
step02_gravity_refstate-crust.xmf,1697,-7.74126e-08,1.69946e-06,0,5.82443e-06,-4.528e+08,-4.52678e+08,-4.52795e+08,399556,-0.0326762,-0.126159,-0,0.130322,11646.3,-16487,0,20185.6,399556
step02_gravity_refstate-crust.xmf,1698,-3.04651e-07,1.73698e-06,0,5.46698e-06,-4.17783e+08,-4.17643e+08,-4.17762e+08,375035,-0.0316134,-0.123378,-0,0.127364,11701.3,-15211.3,0,19191.2,375035
step02_gravity_refstate-crust.xmf,1699,3.67084e-06,-5.30042e-07,0,9.92597e-06,-7.62425e+08,-7.62714e+08,-7.62677e+08,680921,-0.0360019,-0.191832,-0,0.195181,8537.02,-27770.9,0,29053.5,680921
step02_gravity_refstate-crust.xmf,1700,3.43005e-06,-4.07502e-07,0,9.47209e-06,-7.46456e+08,-7.46719e+08,-7.46691e+08,649785,-0.036632,-0.182226,-0,0.185872,8964.27,-27188.7,0,28628.4,649785
step02_gravity_refstate-crust.xmf,1701,4.13448e-06,-1.80286e-06,0,9.31823e-06,-7.94405e+08,-7.94812e+08,-7.94688e+08,639231,-0.0299195,-0.191085,-0,0.193413,8513.71,-28935,0,30161.6,639231
step02_gravity_refstate-crust.xmf,1702,4.20587e-06,-2.10693e-06,0,9.50138e-06,-8.10078e+08,-8.10511e+08,-8.10366e+08,651795,-0.0272268,-0.198988,-0,0.200842,8169.42,-29505.5,0,30615.5,651795
step02_gravity_refstate-crust.xmf,1703,1.97786e-06,-1.56954e-05,0,1.98313e-05,-9.61238e+08,-9.6245e+08,-9.61374e+08,1.36043e+06,0.0373744,-0.301149,0,0.303459,4837.99,-34978.5,0,35311.5,1.36043e+06
step02_gravity_refstate-crust.xmf,1704,4.12449e-06,-2.41277e-06,0,9.6929e-06,-8.26254e+08,-8.26702e+08,-8.26537e+08,664933,-0.0235713,-0.207471,-0,0.208806,7819.67,-30093.5,0,31092.9,664933
step02_gravity_refstate-crust.xmf,1705,3.8306e-06,-2.68039e-06,0,9.98477e-06,-8.42084e+08,-8.42531e+08,-8.42347e+08,684955,-0.0190434,-0.216584,-0,0.21742,7468.98,-30668.3,0,31564.7,684955
step02_gravity_refstate-crust.xmf,1706,3.36382e-06,-2.919e-06,0,1.04375e-05,-8.56203e+08,-8.56634e+08,-8.56434e+08,716015,-0.0141289,-0.225559,-0,0.226001,7148.23,-31180,0,31988.9,716015
step02_gravity_refstate-crust.xmf,1707,2.72481e-06,-3.37715e-06,0,1.0889e-05,-8.71219e+08,-8.71638e+08,-8.71406e+08,746989,-0.00768335,-0.232126,-0,0.232254,6909.92,-31723.4,0,32467.2,746989
step02_gravity_refstate-crust.xmf,1708,2.07515e-06,-4.00668e-06,0,1.14822e-05,-8.85523e+08,-8.85941e+08,-8.85666e+08,787680,-0.000873512,-0.238406,-0,0.238408,6687.75,-32240.6,0,32926.9,787680
step02_gravity_refstate-crust.xmf,1709,8.14136e-07,-1.05292e-05,0,1.66528e-05,-9.43654e+08,-9.44432e+08,-9.43709e+08,1.14238e+06,0.0292105,-0.27716,0,0.278695,5470.42,-34341.6,0,34774.6,1.14238e+06
step02_gravity_refstate-crust.xmf,1710,1.44895e-06,-4.92364e-06,0,1.2452e-05,-9.00286e+08,-9.00724e+08,-9.00386e+08,854206,0.00657127,-0.246653,0,0.246741,6416.09,-32774.1,0,33396.2,854206
step02_gravity_refstate-crust.xmf,1711,9.92888e-07,-6.28158e-06,0,1.38029e-05,-9.14963e+08,-9.15462e+08,-9.15031e+08,946879,0.0142274,-0.257035,0,0.257428,6096.53,-33304.4,0,33857.8,946879
step02_gravity_refstate-crust.xmf,1712,7.77272e-07,-8.15761e-06,0,1.52328e-05,-9.29552e+08,-9.30165e+08,-9.29605e+08,1.04497e+06,0.0219276,-0.267264,0,0.268162,5781.67,-33831.8,0,34322.3,1.04497e+06
step02_gravity_refstate-crust.xmf,1713,1.07545e-06,-1.68643e-05,0,1.8754e-05,-9.75414e+08,-9.76645e+08,-9.75488e+08,1.28652e+06,0.0440971,-0.290646,0,0.293972,4878.9,-35489.2,0,35823,1.28652e+06
step02_gravity_refstate-crust.xmf,1714,1.46181e-06,-2.31042e-05,0,2.09348e-05,-9.96455e+08,-9.9814e+08,-9.96555e+08,1.43613e+06,0.0510396,-0.295966,0,0.300335,4465.07,-36247.1,0,36521,1.43613e+06
step02_gravity_refstate-crust.xmf,1715,3.02837e-06,-2.50679e-05,0,2.03641e-05,-1.01012e+09,-1.01204e+09,-1.01032e+09,1.39698e+06,0.0523662,-0.285879,0,0.290636,4417.19,-36747.7,0,37012.3,1.39698e+06
step02_gravity_refstate-crust.xmf,1716,9.22434e-06,-3.49295e-05,0,1.5175e-05,-1.03789e+09,-1.04092e+09,-1.03852e+09,1.041e+06,0.042867,-0.289326,0,0.292485,3371.22,-37768.6,0,37918.7,1.041e+06
step02_gravity_refstate-crust.xmf,1717,9.61831e-06,-3.53836e-05,0,1.33322e-05,-1.05208e+09,-1.05517e+09,-1.05274e+09,914590,0.0373246,-0.278563,0,0.281053,3053.99,-38286.2,0,38407.8,914590
step02_gravity_refstate-crust.xmf,1718,1.15596e-05,-3.98412e-05,0,6.4785e-06,-1.067e+09,-1.07053e+09,-1.0678e+09,444425,0.0175427,-0.281526,0,0.282072,1470.15,-38830.4,0,38858.2,444425
step02_gravity_refstate-crust.xmf,1719,1.06983e-05,-3.79833e-05,0,9.11963e-06,-1.06735e+09,-1.07069e+09,-1.06808e+09,625606,0.0244356,-0.274109,0,0.275196,2098.89,-38842.4,0,38899.1,625606
step02_gravity_refstate-crust.xmf,1720,1.01731e-05,-3.84666e-05,0,4.53379e-06,-1.08267e+09,-1.08601e+09,-1.08337e+09,311018,0.0106953,-0.262528,0,0.262745,1033.33,-39397.3,0,39410.9,311018
step02_gravity_refstate-crust.xmf,1721,-7.05092e-07,8.61604e-07,0,3.31554e-06,-2.08246e+08,-2.08139e+08,-2.08198e+08,227446,-0.0342162,-0.0912565,-0,0.0974603,14212.8,-7579.89,0,16107.7,227446
step02_gravity_refstate-crust.xmf,1722,-6.46933e-07,7.02342e-07,0,2.82085e-06,-1.67309e+08,-1.67216e+08,-1.67265e+08,193510,-0.0377078,-0.082684,-0,0.0908763,15134.1,-6089.52,0,16313.3,193510
step02_gravity_refstate-crust.xmf,1723,-5.27642e-07,5.32709e-07,0,2.26224e-06,-1.27232e+08,-1.2716e+08,-1.27196e+08,155190,-0.0423799,-0.0740348,-0,0.0853066,16121,-4630.71,0,16772.9,155190
step02_gravity_refstate-crust.xmf,1724,3.04324e-07,1.80535e-08,0,9.24252e-07,-4.87644e+07,-4.87841e+07,-4.87853e+07,63403.7,-0.0552026,-0.0512241,-0,0.0753077,19047.1,-1776.58,0,19129.8,63403.7
step02_gravity_refstate-crust.xmf,1725,6.85646e-07,1.81427e-06,0,7.34441e-06,-5.72341e+08,-5.72263e+08,-5.72388e+08,503826,-0.037056,-0.147213,-0,0.151806,10563.5,-20842.2,0,23366.3,503826
step02_gravity_refstate-crust.xmf,1726,-3.39174e-07,1.35289e-06,0,4.84597e-06,-3.58853e+08,-3.58736e+08,-3.58829e+08,332433,-0.0307322,-0.110315,-0,0.114516,12707.4,-13065.1,0,18225.7,332433
step02_gravity_refstate-crust.xmf,1727,-3.25866e-07,1.11792e-06,0,4.48878e-06,-3.23718e+08,-3.23619e+08,-3.23696e+08,307930,-0.0308099,-0.101845,-0,0.106404,13460.6,-11785.7,0,17891,307930
step02_gravity_refstate-crust.xmf,1728,-3.28467e-07,9.23707e-07,0,4.10933e-06,-2.86449e+08,-2.86363e+08,-2.86426e+08,281900,-0.0314322,-0.0937817,-0,0.098909,14217.2,-10428.5,0,17631.9,281900
step02_gravity_refstate-crust.xmf,1729,3.17597e-06,-3.08858e-07,0,9.0069e-06,-7.29369e+08,-7.29608e+08,-7.29587e+08,617873,-0.0369501,-0.172564,-0,0.176475,9424.99,-26565.8,0,28188.2,617873
step02_gravity_refstate-crust.xmf,1730,3.98383e-06,-1.49882e-06,0,9.11971e-06,-7.78983e+08,-7.79359e+08,-7.79256e+08,625612,-0.0318644,-0.183388,-0,0.186136,8865.64,-28373.5,0,29726.3,625612
step02_gravity_refstate-crust.xmf,1731,9.59213e-07,-1.27677e-05,0,1.76048e-05,-9.55281e+08,-9.56222e+08,-9.55346e+08,1.20769e+06,0.0349688,-0.283729,0,0.285875,5235.66,-34762.1,0,35154.1,1.20769e+06
step02_gravity_refstate-crust.xmf,1732,-1.58681e-07,-1.79034e-05,0,1.83808e-05,-9.89569e+08,-9.90786e+08,-9.89558e+08,1.26092e+06,0.0494622,-0.28038,0,0.284709,4907.39,-35997.9,0,36330.8,1.26092e+06
step02_gravity_refstate-crust.xmf,1733,5.16377e-06,-2.81484e-05,0,1.87072e-05,-1.02374e+09,-1.02602e+09,-1.02409e+09,1.28331e+06,0.0510694,-0.279378,0,0.284008,4234.47,-37247.5,0,37487.4,1.28331e+06
step02_gravity_refstate-crust.xmf,1734,6.63422e-06,-3.00304e-05,0,1.70812e-05,-1.03756e+09,-1.04008e+09,-1.03802e+09,1.17177e+06,0.0476697,-0.273182,0,0.27731,3966.96,-37753.7,0,37961.6,1.17177e+06
step02_gravity_refstate-crust.xmf,1735,9.4722e-06,-3.54199e-05,0,1.15766e-05,-1.06743e+09,-1.07051e+09,-1.06808e+09,794157,0.0308355,-0.264657,0,0.266447,2737.99,-38844.5,0,38940.9,794157
step02_gravity_refstate-crust.xmf,1736,-3.21531e-07,7.56107e-07,0,3.70378e-06,-2.4803e+08,-2.47956e+08,-2.48008e+08,254079,-0.0327789,-0.085758,-0,0.091809,15018.8,-9029.63,0,17524.2,254079
step02_gravity_refstate-crust.xmf,1737,9.45512e-07,-3.50456e-07,0,1.96239e-08,90171.1,1267.67,25308.9,1346.2,-0.0652822,-0.0427643,-0,0.078042,20294.4,0,0,20294.4,1346.2
step02_gravity_refstate-crust.xmf,1738,1.96826e-07,1.41345e-07,0,1.60825e-06,-9.25129e+07,-9.25167e+07,-9.25264e+07,110326,-0.0476147,-0.0528759,-0,0.0711549,18838.9,-3369.04,0,19137.8,110326
step02_gravity_refstate-crust.xmf,1739,1.6797e-06,1.1868e-06,0,8.32995e-06,-6.48188e+08,-6.48222e+08,-6.48304e+08,571435,-0.038925,-0.159613,-0,0.164291,10032.7,-23606.6,0,25650.1,571435
step02_gravity_refstate-crust.xmf,1740,5.9944e-07,1.63581e-06,0,6.90614e-06,-5.46306e+08,-5.46235e+08,-5.46347e+08,473761,-0.0359299,-0.138583,-0,0.143165,11086.8,-19893.8,0,22774.5,473761
step02_gravity_refstate-crust.xmf,1741,1.45077e-06,1.17242e-06,0,7.80941e-06,-6.21587e+08,-6.21606e+08,-6.21687e+08,535726,-0.0380459,-0.150015,-0,0.154764,10558.7,-22637.2,0,24978.6,535726
step02_gravity_refstate-crust.xmf,1742,1.28906e-06,1.09657e-06,0,7.35958e-06,-5.97145e+08,-5.97158e+08,-5.97233e+08,504867,-0.0370918,-0.141221,-0,0.146011,11081.9,-21746.6,0,24407.4,504867
step02_gravity_refstate-crust.xmf,1743,2.11367e-06,7.77692e-07,0,8.51787e-06,-6.7222e+08,-6.72312e+08,-6.72365e+08,584326,-0.0387738,-0.161941,-0,0.166518,9948.4,-24482.6,0,26426.7,584326
step02_gravity_refstate-crust.xmf,1744,2.87648e-06,-8.53609e-08,0,8.6874e-06,-7.10061e+08,-7.10264e+08,-7.10258e+08,595956,-0.0374341,-0.165347,-0,0.169531,9792.59,-25862,0,27653.9,595956
step02_gravity_refstate-crust.xmf,1745,5.18091e-07,1.46799e-06,0,6.49928e-06,-5.19024e+08,-5.18959e+08,-5.1906e+08,445850,-0.0348097,-0.130342,-0,0.134911,11621.4,-18900,0,22187,445850
step02_gravity_refstate-crust.xmf,1746,4.40132e-07,1.29659e-06,0,6.09321e-06,-4.88648e+08,-4.88589e+08,-4.88678e+08,417994,-0.0336627,-0.121833,-0,0.126398,12214.7,-17793.5,0,21582.6,417994
step02_gravity_refstate-crust.xmf,1747,6.17047e-08,1.07672e-06,0,5.08703e-06,-3.91434e+08,-3.91365e+08,-3.91438e+08,348970,-0.0312569,-0.105004,-0,0.109558,13412.9,-14252.5,0,19571.4,348970
step02_gravity_refstate-crust.xmf,1748,9.54472e-08,1.26152e-06,0,5.47163e-06,-4.26594e+08,-4.26514e+08,-4.26601e+08,375354,-0.0319489,-0.113577,-0,0.117985,12707.6,-15532.9,0,20068.8,375354
step02_gravity_refstate-crust.xmf,1749,3.81035e-06,-1.36685e-06,0,8.75478e-06,-7.64361e+08,-7.64716e+08,-7.64623e+08,600578,-0.0328389,-0.174149,-0,0.177219,9302.67,-27840.6,0,29353.7,600578
step02_gravity_refstate-crust.xmf,1750,3.60522e-06,-1.32297e-06,0,8.25657e-06,-7.50167e+08,-7.50505e+08,-7.50414e+08,566401,-0.03305,-0.163368,-0,0.166677,9842.08,-27323.1,0,29041.7,566401
step02_gravity_refstate-crust.xmf,1751,4.03023e-06,-2.28168e-06,0,8.26535e-06,-7.9536e+08,-7.95793e+08,-7.95637e+08,567003,-0.02707,-0.175428,-0,0.177504,9156.51,-28968.7,0,30381.3,567003
step02_gravity_refstate-crust.xmf,1752,4.05652e-06,-2.57894e-06,0,8.33502e-06,-8.10374e+08,-8.10829e+08,-8.10652e+08,571783,-0.0243682,-0.181607,-0,0.183234,8843.45,-29514.9,0,30811.3,571783
step02_gravity_refstate-crust.xmf,1753,3.94869e-06,-2.88131e-06,0,8.37775e-06,-8.26176e+08,-8.26644e+08,-8.26447e+08,574714,-0.0207447,-0.187996,-0,0.189137,8529.65,-30089.3,0,31274.9,574714
step02_gravity_refstate-crust.xmf,1754,1.84428e-07,-1.37341e-05,0,1.67241e-05,-9.67728e+08,-9.68683e+08,-9.67741e+08,1.14727e+06,0.0409519,-0.274743,0,0.277778,5299.45,-35210.6,0,35607.2,1.14727e+06
step02_gravity_refstate-crust.xmf,1755,3.6693e-06,-3.16318e-06,0,8.54245e-06,-8.42722e+08,-8.4319e+08,-8.42973e+08,586012,-0.0161973,-0.19604,-0,0.196708,8164.16,-30690.1,0,31757.4,586012
step02_gravity_refstate-crust.xmf,1756,3.22193e-06,-3.40223e-06,0,8.89439e-06,-8.58138e+08,-8.58592e+08,-8.58359e+08,610155,-0.0111747,-0.205153,-0,0.205457,7785.57,-31249.1,0,32204.4,610155
step02_gravity_refstate-crust.xmf,1757,2.78496e-06,-3.5382e-06,0,9.53632e-06,-8.69426e+08,-8.69859e+08,-8.69617e+08,654191,-0.00712525,-0.21481,-0,0.214928,7428.64,-31658.1,0,32518,654191
step02_gravity_refstate-crust.xmf,1758,2.16185e-06,-4.09894e-06,0,9.62541e-06,-8.83772e+08,-8.84201e+08,-8.8392e+08,660303,-0.00046792,-0.216792,-0,0.216792,7307.73,-32177,0,32996.4,660303
step02_gravity_refstate-crust.xmf,1759,1.38866e-06,-4.7739e-06,0,1.0233e-05,-8.99946e+08,-9.00369e+08,-9.00041e+08,701983,0.00728393,-0.223054,0,0.223173,7048.82,-32761.7,0,33511.4,701983
step02_gravity_refstate-crust.xmf,1760,-1.08502e-07,-1.11027e-05,0,1.51711e-05,-9.5754e+08,-9.58294e+08,-9.57532e+08,1.04074e+06,0.036259,-0.26212,0,0.264616,5680.44,-34842.6,0,35302.6,1.04074e+06
step02_gravity_refstate-crust.xmf,1761,-4.40631e-08,-8.90957e-06,0,1.38089e-05,-9.44475e+08,-9.45083e+08,-9.44472e+08,947292,0.0298409,-0.251811,0,0.253573,6030.74,-34370.6,0,34895.7,947292
step02_gravity_refstate-crust.xmf,1762,7.19716e-07,-5.75496e-06,0,1.12494e-05,-9.15524e+08,-9.15968e+08,-9.15574e+08,771709,0.0150627,-0.231934,0,0.232423,6721.81,-33324.6,0,33995.7,771709
step02_gravity_refstate-crust.xmf,1763,2.39243e-07,-7.10834e-06,0,1.24756e-05,-9.30165e+08,-9.30669e+08,-9.30181e+08,855823,0.0225531,-0.241737,0,0.242787,6379.04,-33853.5,0,34449.3,855823
step02_gravity_refstate-crust.xmf,1764,-7.59125e-07,-1.42147e-05,0,1.64003e-05,-9.81924e+08,-9.82847e+08,-9.81872e+08,1.12506e+06,0.0467294,-0.264856,0,0.268947,5359.81,-35722.8,0,36122.7,1.12506e+06
step02_gravity_refstate-crust.xmf,1765,2.35816e-07,-1.95482e-05,0,1.87453e-05,-1.00448e+09,-1.00584e+09,-1.0045e+09,1.28593e+06,0.0526891,-0.270259,0,0.275348,4907.03,-36539.8,0,36867.9,1.28593e+06
step02_gravity_refstate-crust.xmf,1766,1.64944e-06,-2.16007e-05,0,1.84411e-05,-1.02171e+09,-1.02331e+09,-1.02182e+09,1.26506e+06,0.0532384,-0.259754,0,0.265154,4839.95,-37169.6,0,37483.4,1.26506e+06
step02_gravity_refstate-crust.xmf,1767,7.52954e-06,-3.15043e-05,0,1.52206e-05,-1.05201e+09,-1.05469e+09,-1.05253e+09,1.04413e+06,0.042726,-0.264552,0,0.26798,3680.08,-38281.2,0,38457.7,1.04413e+06
step02_gravity_refstate-crust.xmf,1768,7.8104e-06,-3.20169e-05,0,1.37359e-05,-1.06738e+09,-1.07011e+09,-1.06792e+09,942285,0.0364249,-0.253186,0,0.255793,3383.06,-38841.1,0,38988.1,942285
step02_gravity_refstate-crust.xmf,1769,9.64705e-06,-3.70042e-05,0,7.49619e-06,-1.08302e+09,-1.08622e+09,-1.08368e+09,514239,0.0175688,-0.256818,0,0.257419,1736.28,-39410.1,0,39448.3,514239
step02_gravity_refstate-crust.xmf,1770,8.77456e-06,-3.49664e-05,0,1.0059e-05,-1.08315e+09,-1.08615e+09,-1.08375e+09,690044,0.0235557,-0.249514,0,0.250623,2395.55,-39414.4,0,39487.1,690044
step02_gravity_refstate-crust.xmf,1771,-2.85746e-07,5.83429e-07,0,3.26033e-06,-2.09554e+08,-2.09494e+08,-2.09534e+08,223658,-0.0349624,-0.0777419,-0,0.0852418,15869.7,-7628.77,0,17608.1,223658
step02_gravity_refstate-crust.xmf,1772,-1.09948e-08,2.92011e-07,0,2.15958e-06,-1.27647e+08,-1.27627e+08,-1.27647e+08,148147,-0.0428237,-0.0596611,-0,0.0734393,17978.2,-4647.54,0,18569.2,148147
step02_gravity_refstate-crust.xmf,1773,-1.50929e-07,4.38947e-07,0,2.75536e-06,-1.70242e+08,-1.70201e+08,-1.70231e+08,189018,-0.0382028,-0.0676036,-0,0.0776511,17033.6,-6197.89,0,18126.2,189018
step02_gravity_refstate-crust.xmf,1774,1.02837e-06,-2.57909e-07,0,8.50407e-07,-4.91009e+07,-4.91891e+07,-4.91714e+07,58338,-0.0536371,-0.0355034,-0,0.0643228,21279.4,-1791.33,0,21354.7,58338
step02_gravity_refstate-crust.xmf,1775,6.26462e-07,-4.923e-08,0,1.38785e-06,-8.30839e+07,-8.31302e+07,-8.31268e+07,95206.3,-0.0485213,-0.0425176,-0,0.064514,20253.1,-3027.21,0,20478,95206.3
step02_gravity_refstate-crust.xmf,1776,1.1471e-06,1.01737e-06,0,6.95096e-06,-5.72157e+08,-5.72166e+08,-5.72236e+08,476836,-0.0360965,-0.13297,-0,0.137782,11606.8,-20836.2,0,23850.9,476836
step02_gravity_refstate-crust.xmf,1777,2.60887e-06,4.86963e-08,0,8.3077e-06,-6.90433e+08,-6.90609e+08,-6.90612e+08,569908,-0.0374544,-0.157371,-0,0.161767,10219.9,-25146.6,0,27144,569908
step02_gravity_refstate-crust.xmf,1778,5.5853e-08,8.91171e-07,0,4.74507e-06,-3.58959e+08,-3.58902e+08,-3.58963e+08,325512,-0.0309409,-0.0966385,-0,0.101471,14166.3,-13069.9,0,19274.5,325512
step02_gravity_refstate-crust.xmf,1779,5.3218e-08,7.21043e-07,0,4.38176e-06,-3.23957e+08,-3.23911e+08,-3.2396e+08,300589,-0.0310184,-0.0879888,-0,0.0932962,14997,-11795.3,0,19079.8,300589
step02_gravity_refstate-crust.xmf,1780,3.04499e-08,5.94348e-07,0,3.9944e-06,-2.86742e+08,-2.86703e+08,-2.86744e+08,274016,-0.0316561,-0.0802786,-0,0.0862946,15769,-10440.2,0,18911.8,274016
step02_gravity_refstate-crust.xmf,1781,3.97555e-07,1.12121e-06,0,5.75594e-06,-4.62891e+08,-4.62842e+08,-4.62919e+08,394858,-0.0327696,-0.114235,-0,0.118842,12795.4,-16855.4,0,21161.9,394858
step02_gravity_refstate-crust.xmf,1782,3.35309e-06,-1.06194e-06,0,8.05922e-06,-7.3146e+08,-7.31763e+08,-7.3169e+08,552863,-0.0341566,-0.156776,-0,0.160454,10214.2,-26641.4,0,28532.4,552863
step02_gravity_refstate-crust.xmf,1783,3.95382e-06,-2.03912e-06,0,8.17611e-06,-7.81549e+08,-7.8196e+08,-7.8182e+08,560881,-0.0290284,-0.169818,-0,0.172282,9450.77,-28465.9,0,29993.7,560881
step02_gravity_refstate-crust.xmf,1784,-1.2151e-06,-1.53122e-05,0,1.6594e-05,-9.96876e+08,-9.97843e+08,-9.96793e+08,1.13835e+06,0.0510622,-0.255712,0,0.26076,5386.96,-36263.6,0,36661.6,1.13835e+06
step02_gravity_refstate-crust.xmf,1785,3.83129e-06,-2.51036e-05,0,1.75586e-05,-1.03657e+09,-1.03855e+09,-1.03683e+09,1.20452e+06,0.0508793,-0.256641,0,0.261636,4548.2,-37713.9,0,37987.1,1.20452e+06
step02_gravity_refstate-crust.xmf,1786,5.0521e-06,-2.67783e-05,0,1.64668e-05,-1.05158e+09,-1.05376e+09,-1.05193e+09,1.12962e+06,0.0468017,-0.249181,0,0.253538,4308.29,-38262.8,0,38504.6,1.12962e+06
step02_gravity_refstate-crust.xmf,1787,7.56761e-06,-3.22356e-05,0,1.23106e-05,-1.08325e+09,-1.08598e+09,-1.08377e+09,844507,0.0289691,-0.240092,0,0.241833,3066.8,-39417.6,0,39536.8,844507
step02_gravity_refstate-crust.xmf,1788,5.57289e-08,4.52503e-07,0,3.57341e-06,-2.49275e+08,-2.49248e+08,-2.49279e+08,245136,-0.0329477,-0.0717807,-0,0.0789811,16680.9,-9076.03,0,18990.2,245136
step02_gravity_refstate-crust.xmf,1789,4.59541e-07,7.63833e-08,0,1.97059e-06,-1.24485e+08,-1.24511e+08,-1.24516e+08,135182,-0.0427979,-0.0457087,-0,0.0626175,19819.3,-4533.97,0,20331.3,135182
step02_gravity_refstate-crust.xmf,1790,1.7348e-06,-6.51085e-07,0,2.10855e-08,165100,1428.21,46092.6,1446.47,-0.0623337,-0.0282015,-0,0.0684165,22506.7,0,0,22506.7,1446.47
step02_gravity_refstate-crust.xmf,1791,2.33003e-06,1.89296e-07,0,7.947e-06,-6.68574e+08,-6.68721e+08,-6.68734e+08,545164,-0.0373136,-0.149723,-0,0.154302,10652.9,-24349.8,0,26578.2,545164
step02_gravity_refstate-crust.xmf,1792,1.03188e-06,9.16661e-07,0,6.56365e-06,-5.46421e+08,-5.46429e+08,-5.46492e+08,450266,-0.0350484,-0.124701,-0,0.129533,12172.6,-19898.6,0,23326.5,450266
step02_gravity_refstate-crust.xmf,1793,2.06595e-06,3.14029e-07,0,7.59815e-06,-6.4532e+08,-6.4544e+08,-6.45461e+08,521233,-0.0369883,-0.142488,-0,0.147211,11083.7,-23502.4,0,25984.8,521233
step02_gravity_refstate-crust.xmf,1794,1.84889e-06,3.57141e-07,0,7.21339e-06,-6.21507e+08,-6.21609e+08,-6.21634e+08,494838,-0.0363331,-0.134393,-0,0.139218,11596.6,-22634.6,0,25432.4,494838
step02_gravity_refstate-crust.xmf,1795,1.65604e-06,3.86242e-07,0,6.86876e-06,-5.97616e+08,-5.97703e+08,-5.9773e+08,471197,-0.0356076,-0.127016,-0,0.131913,12092,-21764.1,0,24897.7,471197
step02_gravity_refstate-crust.xmf,1796,3.08504e-06,-8.38068e-07,0,7.78589e-06,-7.11433e+08,-7.11702e+08,-7.11645e+08,534112,-0.0347392,-0.149139,-0,0.153131,10660.4,-25911.6,0,28018.8,534112
step02_gravity_refstate-crust.xmf,1797,9.24234e-07,8.09258e-07,0,6.18447e-06,-5.18621e+08,-5.18629e+08,-5.18684e+08,424255,-0.0339615,-0.116332,-0,0.121188,12785.8,-18885.9,0,22806.9,424255
step02_gravity_refstate-crust.xmf,1798,4.201e-07,6.32981e-07,0,4.92135e-06,-3.93082e+08,-3.93068e+08,-3.93111e+08,337605,-0.030938,-0.0915119,-0,0.0966002,14802.7,-14313.2,0,20591,337605
step02_gravity_refstate-crust.xmf,1799,8.17493e-07,7.14367e-07,0,5.82841e-06,-4.89437e+08,-4.89444e+08,-4.89493e+08,399829,-0.0329306,-0.108391,-0,0.113283,13405.4,-17822.9,0,22301.6,399829
step02_gravity_refstate-crust.xmf,1800,4.21038e-07,7.83181e-07,0,5.22363e-06,-4.1907e+08,-4.19046e+08,-4.19099e+08,358341,-0.0314759,-0.0996469,-0,0.1045,14046.7,-15259.6,0,20740.4,358341
step02_gravity_refstate-crust.xmf,1801,6.81344e-07,6.27183e-07,0,5.45408e-06,-4.54842e+08,-4.54845e+08,-4.54888e+08,374150,-0.0319541,-0.100785,-0,0.105729,14027,-16562.7,0,21704.4,374150
step02_gravity_refstate-crust.xmf,1802,3.59075e-06,-1.86722e-06,0,7.28336e-06,-7.5283e+08,-7.53204e+08,-7.53076e+08,499638,-0.0298034,-0.147634,-0,0.150612,10633.8,-27419.2,0,29409,499638
step02_gravity_refstate-crust.xmf,1803,3.80011e-06,-2.16561e-06,0,7.49978e-06,-7.73841e+08,-7.7425e+08,-7.74101e+08,514485,-0.0281276,-0.156835,-0,0.159338,10088.6,-28184.5,0,29935.7,514485
step02_gravity_refstate-crust.xmf,1804,3.86042e-06,-2.58734e-06,0,7.34161e-06,-7.96123e+08,-7.96565e+08,-7.96388e+08,503635,-0.0243461,-0.160945,-0,0.162776,9801.73,-28995.3,0,30607.2,503635
step02_gravity_refstate-crust.xmf,1805,3.88183e-06,-2.77274e-06,0,7.51841e-06,-8.10135e+08,-8.10592e+08,-8.10402e+08,515763,-0.0221444,-0.167942,-0,0.169395,9423.11,-29505.2,0,30973.4,515763
step02_gravity_refstate-crust.xmf,1806,3.70962e-06,-3.12142e-06,0,7.27569e-06,-8.25966e+08,-8.26435e+08,-8.26221e+08,499112,-0.0180279,-0.169985,-0,0.170939,9261.35,-30080.3,0,31473.8,499112
step02_gravity_refstate-crust.xmf,1807,3.41795e-06,-3.38859e-06,0,7.32433e-06,-8.42991e+08,-8.43458e+08,-8.43225e+08,502449,-0.0135028,-0.176695,-0,0.177211,8900.04,-30698.5,0,31962.6,502449
step02_gravity_refstate-crust.xmf,1808,-1.12318e-06,-1.16143e-05,0,1.45255e-05,-9.73e+08,-9.73719e+08,-9.72922e+08,996449,0.0429563,-0.250323,0,0.253982,5810.74,-35400.5,0,35874.2,996449
step02_gravity_refstate-crust.xmf,1809,2.94329e-06,-3.66223e-06,0,7.51703e-06,-8.6051e+08,-8.60964e+08,-8.60712e+08,515668,-0.00797421,-0.184704,-0,0.184876,8501.31,-31334,0,32466.8,515668
step02_gravity_refstate-crust.xmf,1810,2.30359e-06,-3.99654e-06,0,8.06612e-06,-8.78007e+08,-8.78439e+08,-8.78165e+08,553336,-0.00165377,-0.195847,-0,0.195854,8012.51,-31967.9,0,32956.7,553336
step02_gravity_refstate-crust.xmf,1811,1.34728e-06,-4.50299e-06,0,8.44599e-06,-8.98118e+08,-8.98519e+08,-8.9821e+08,579395,0.00731411,-0.200845,0,0.200978,7741.44,-32695.4,0,33599.3,579395
step02_gravity_refstate-crust.xmf,1812,4.86146e-07,-5.22577e-06,0,9.25369e-06,-9.15968e+08,-9.1636e+08,-9.16001e+08,634803,0.0156897,-0.208841,0,0.20943,7387.09,-33340.6,0,34149.2,634803
step02_gravity_refstate-crust.xmf,1813,-1.08199e-06,-9.2791e-06,0,1.28481e-05,-9.60439e+08,-9.61001e+08,-9.60364e+08,881380,0.0372485,-0.237671,0,0.240572,6254.38,-34947,0,35502.2,881380
step02_gravity_refstate-crust.xmf,1814,-6.90565e-07,-7.48669e-06,0,1.1451e-05,-9.45573e+08,-9.46039e+08,-9.45526e+08,785541,0.0301435,-0.227192,0,0.229183,6657.23,-34410.1,0,35048.2,785541
step02_gravity_refstate-crust.xmf,1815,-1.88477e-07,-6.19131e-06,0,1.02675e-05,-9.31366e+08,-9.31778e+08,-9.31353e+08,704349,0.0231759,-0.217621,0,0.218852,7028.23,-33897,0,34617.9,704349
step02_gravity_refstate-crust.xmf,1816,-1.81147e-06,-1.20754e-05,0,1.4619e-05,-9.88126e+08,-9.8883e+08,-9.88002e+08,1.00286e+06,0.0480792,-0.241337,0,0.246079,5874.5,-35947.7,0,36424.5,1.00286e+06
step02_gravity_refstate-crust.xmf,1817,-7.28475e-07,-1.67717e-05,0,1.689e-05,-1.01263e+09,-1.01373e+09,-1.01258e+09,1.15866e+06,0.0533307,-0.246524,0,0.252226,5386.78,-36836.8,0,37228.6,1.15866e+06
step02_gravity_refstate-crust.xmf,1818,1.76036e-06,-2.11809e-05,0,1.72062e-05,-1.03644e+09,-1.03801e+09,-1.03656e+09,1.18034e+06,0.0522472,-0.241862,0,0.247441,5031.15,-37707,0,38041.1,1.18034e+06
step02_gravity_refstate-crust.xmf,1819,-6.47897e-09,-1.77253e-05,0,1.6753e-05,-1.02785e+09,-1.02907e+09,-1.02785e+09,1.14926e+06,0.0534048,-0.236088,0,0.242053,5410.45,-37392.4,0,37781.8,1.14926e+06
step02_gravity_refstate-crust.xmf,1820,5.8444e-06,-2.81921e-05,0,1.51356e-05,-1.06722e+09,-1.06956e+09,-1.06762e+09,1.0383e+06,0.0409714,-0.239857,0,0.243331,4039.87,-38833.3,0,39042.9,1.0383e+06
step02_gravity_refstate-crust.xmf,1821,6.0432e-06,-2.88315e-05,0,1.41232e-05,-1.08326e+09,-1.08565e+09,-1.08367e+09,968855,0.0335528,-0.229008,0,0.231453,3741.73,-39417,0,39594.2,968855
step02_gravity_refstate-crust.xmf,1822,2.39996e-07,2.86935e-07,0,3.16532e-06,-2.19381e+08,-2.19378e+08,-2.19398e+08,217141,-0.0343828,-0.059731,-0,0.06892,18094.7,-7988.21,0,19779.6,217141
step02_gravity_refstate-crust.xmf,1823,3.09657e-07,1.94779e-07,0,2.58347e-06,-1.70471e+08,-1.70479e+08,-1.70492e+08,177226,-0.0380213,-0.0522488,-0,0.0646186,18986.7,-6207.72,0,19975.8,177226
step02_gravity_refstate-crust.xmf,1824,1.00022e-06,-1.60533e-07,0,1.59484e-06,-1.07206e+08,-1.07286e+08,-1.07275e+08,109406,-0.0435963,-0.0309282,-0,0.0534527,21879.6,-3906.75,0,22225.7,109406
step02_gravity_refstate-crust.xmf,1825,1.64753e-06,-4.82112e-07,0,8.06915e-07,-5.42098e+07,-5.43559e+07,-5.43229e+07,55354.4,-0.0496736,-0.0204682,-0,0.0537254,23551,-1979.48,0,23634,55354.4
step02_gravity_refstate-crust.xmf,1826,2.36337e-06,-9.0609e-07,0,1.47798e-08,224108,-176.678,61981.1,1013.89,-0.0576106,-0.0144327,-0,0.0593909,24778,0,0,24778,1013.89
step02_gravity_refstate-crust.xmf,1827,1.49628e-06,3.80515e-07,0,6.53257e-06,-5.73529e+08,-5.73605e+08,-5.73631e+08,448135,-0.0347663,-0.119561,-0,0.124513,12624.1,-20886.5,0,24405.2,448135
step02_gravity_refstate-crust.xmf,1828,2.82619e-06,-6.61294e-07,0,7.48649e-06,-6.90727e+08,-6.90966e+08,-6.90921e+08,513573,-0.0349409,-0.141365,-0,0.145619,11138.3,-25157,0,27512.5,513573
step02_gravity_refstate-crust.xmf,1829,2.98892e-07,3.54225e-07,0,3.83523e-06,-2.85358e+08,-2.85354e+08,-2.85378e+08,263097,-0.031483,-0.0688414,-0,0.0756988,17092,-10390.5,0,20002.5,263097
step02_gravity_refstate-crust.xmf,1830,3.98713e-07,5.02314e-07,0,4.57372e-06,-3.60694e+08,-3.60687e+08,-3.60722e+08,313757,-0.0306069,-0.0829708,-0,0.0884361,15634.5,-13133.8,0,20419,313757
step02_gravity_refstate-crust.xmf,1831,4.24056e-07,3.54726e-07,0,4.1868e-06,-3.26004e+08,-3.26009e+08,-3.26033e+08,287215,-0.0305811,-0.0726026,-0,0.0787803,16720.2,-11870.8,0,20505.6,287215
step02_gravity_refstate-crust.xmf,1832,3.37507e-06,-1.5943e-06,0,7.13441e-06,-7.32808e+08,-7.33149e+08,-7.33039e+08,489420,-0.0310792,-0.140667,-0,0.144059,11081.4,-26689.8,0,28898.8,489420
step02_gravity_refstate-crust.xmf,1833,-1.9086e-06,-1.32364e-05,0,1.50412e-05,-1.00436e+09,-1.00514e+09,-1.00423e+09,1.03183e+06,0.0516853,-0.233162,0,0.238822,5893.52,-36536.7,0,37009,1.03183e+06
step02_gravity_refstate-crust.xmf,1834,8.06699e-07,-1.88474e-05,0,1.63133e-05,-1.04338e+09,-1.04473e+09,-1.04344e+09,1.11909e+06,0.0517075,-0.225324,0,0.23118,5421.64,-37959.4,0,38344.6,1.11909e+06
step02_gravity_refstate-crust.xmf,1835,2.70825e-06,-2.24538e-05,0,1.65612e-05,-1.05072e+09,-1.05245e+09,-1.05091e+09,1.1361e+06,0.0493966,-0.233644,0,0.238808,4920.77,-38228.8,0,38544.2,1.1361e+06
step02_gravity_refstate-crust.xmf,1836,3.69885e-06,-2.38399e-05,0,1.59388e-05,-1.0663e+09,-1.06819e+09,-1.06655e+09,1.0934e+06,0.0444504,-0.225845,0,0.230178,4704.01,-38797.6,0,39081.8,1.0934e+06
step02_gravity_refstate-crust.xmf,1837,2.13937e-06,-6.57469e-07,0,7.68553e-07,-6.34019e+07,-6.35937e+07,-6.35486e+07,52722.7,-0.0435642,-0.00575536,-0,0.0439428,25985.2,-2315.85,0,26088.2,52722.7
step02_gravity_refstate-crust.xmf,1838,3.04093e-06,-1.15563e-06,0,1.6669e-08,288793,908.961,80185.4,1143.49,-0.0512392,-0.00182625,-0,0.0512717,27114.8,0,0,27114.8,1143.49
step02_gravity_refstate-crust.xmf,1839,3.41537e-07,2.7681e-07,0,3.53076e-06,-2.59233e+08,-2.59237e+08,-2.59256e+08,242210,-0.0322447,-0.0615959,-0,0.0695254,17916.5,-9439.43,0,20251,242210
step02_gravity_refstate-crust.xmf,1840,7.23179e-07,-5.91233e-09,0,2.32468e-06,-1.6592e+08,-1.6597e+08,-1.6597e+08,159473,-0.0374482,-0.0374825,-0,0.052984,20938,-6043.4,0,21792.8,159473
step02_gravity_refstate-crust.xmf,1841,2.56969e-06,-4.95419e-07,0,7.2019e-06,-6.68639e+08,-6.68849e+08,-6.68815e+08,494051,-0.0349576,-0.134071,-0,0.138554,11613.3,-24352.1,0,26979.5,494051
step02_gravity_refstate-crust.xmf,1842,1.39544e-06,2.96389e-07,0,6.17278e-06,-5.49187e+08,-5.49262e+08,-5.49282e+08,423453,-0.0337119,-0.110735,-0,0.115753,13301.8,-19999.8,0,24019.4,423453
step02_gravity_refstate-crust.xmf,1843,2.32453e-06,-3.55135e-07,0,6.91464e-06,-6.45421e+08,-6.45605e+08,-6.4558e+08,474344,-0.0347428,-0.126898,-0,0.131568,12105.3,-23506,0,26440,474344
step02_gravity_refstate-crust.xmf,1844,2.10333e-06,-2.47263e-07,0,6.63421e-06,-6.21971e+08,-6.22132e+08,-6.22115e+08,455107,-0.0343383,-0.12001,-0,0.124826,12602.2,-22651.6,0,25921.2,455107
step02_gravity_refstate-crust.xmf,1845,1.90879e-06,-1.54189e-07,0,6.39811e-06,-5.99501e+08,-5.99642e+08,-5.99632e+08,438911,-0.033912,-0.114287,-0,0.119212,13035.3,-21832.9,0,25428.2,438911
step02_gravity_refstate-crust.xmf,1846,3.15004e-06,-1.37784e-06,0,6.92132e-06,-7.12918e+08,-7.13228e+08,-7.13134e+08,474803,-0.0317414,-0.133199,-0,0.136929,11576.7,-25965.1,0,28429,474803
step02_gravity_refstate-crust.xmf,1847,1.26167e-06,2.47849e-07,0,5.82596e-06,-5.21424e+08,-5.21493e+08,-5.2151e+08,399661,-0.0326859,-0.102408,-0,0.107498,13982.1,-18988.4,0,23580.9,399661
step02_gravity_refstate-crust.xmf,1848,8.00704e-07,3.18123e-07,0,5.04605e-06,-4.31222e+08,-4.31255e+08,-4.31277e+08,346159,-0.0307686,-0.0866298,-0,0.0919317,15366.9,-15702.8,0,21970.9,346159
step02_gravity_refstate-crust.xmf,1849,7.17848e-07,2.596e-07,0,4.68672e-06,-3.95651e+08,-3.95683e+08,-3.957e+08,321509,-0.0301394,-0.0780676,-0,0.0836835,16209.2,-14407.4,0,21686.6,321509
step02_gravity_refstate-crust.xmf,1850,1.11895e-06,2.27954e-07,0,5.50067e-06,-4.90622e+08,-4.90683e+08,-4.90699e+08,377346,-0.0317535,-0.0948423,-0,0.100017,14636.1,-17866.5,0,23096,377346
step02_gravity_refstate-crust.xmf,1851,3.45257e-06,-2.1847e-06,0,6.39773e-06,-7.54265e+08,-7.54651e+08,-7.54502e+08,438885,-0.0265446,-0.131944,-0,0.134588,11494.7,-27470.3,0,29778.3,438885
step02_gravity_refstate-crust.xmf,1852,3.57684e-06,-2.47222e-06,0,6.45129e-06,-7.7492e+08,-7.75335e+08,-7.75165e+08,442558,-0.0244744,-0.138637,-0,0.140781,11023.1,-28222.4,0,30298.7,442558
step02_gravity_refstate-crust.xmf,1853,3.54019e-06,-3.11584e-06,0,6.49909e-06,-8.19e+08,-8.19457e+08,-8.19243e+08,445838,-0.0174639,-0.154253,-0,0.155239,10005.6,-29826,0,31459.6,445838
step02_gravity_refstate-crust.xmf,1854,3.61731e-06,-2.78667e-06,0,6.45579e-06,-7.96479e+08,-7.96918e+08,-7.96727e+08,442867,-0.0214635,-0.145559,-0,0.147133,10551.1,-29006.9,0,30866.3,442867
step02_gravity_refstate-crust.xmf,1855,3.16041e-06,-3.41708e-06,0,6.33839e-06,-8.41461e+08,-8.41912e+08,-8.41677e+08,434814,-0.0115158,-0.158814,-0,0.159231,9672.51,-30641.7,0,32132.1,434814
step02_gravity_refstate-crust.xmf,1856,2.65879e-06,-3.65567e-06,0,6.39564e-06,-8.6083e+08,-8.61263e+08,-8.61012e+08,438741,-0.00568173,-0.165312,-0,0.16541,9278.75,-31344.5,0,32689,438741
step02_gravity_refstate-crust.xmf,1857,-1.98783e-06,-9.73749e-06,0,1.2716e-05,-9.77746e+08,-9.78277e+08,-9.77609e+08,872320,0.0438395,-0.2271,0,0.231293,6381.17,-35572.7,0,36140.5,872320
step02_gravity_refstate-crust.xmf,1858,2.01011e-06,-3.90616e-06,0,6.62984e-06,-8.79183e+08,-8.79589e+08,-8.79321e+08,454807,0.000708205,-0.172622,0,0.172623,8872.93,-32009.6,0,33216.6,454807
step02_gravity_refstate-crust.xmf,1859,1.23343e-06,-4.22861e-06,0,7.07094e-06,-8.97023e+08,-8.97398e+08,-8.97108e+08,485066,0.0077412,-0.180489,0,0.180655,8465.71,-32655.5,0,33735,485066
step02_gravity_refstate-crust.xmf,1860,3.24131e-07,-4.71683e-06,0,7.70494e-06,-9.15808e+08,-9.16154e+08,-9.1583e+08,528559,0.0159001,-0.18778,0,0.188452,8088.79,-33334.9,0,34302.3,528559
step02_gravity_refstate-crust.xmf,1861,-4.81692e-07,-5.39857e-06,0,8.5645e-06,-9.32465e+08,-9.32802e+08,-9.32431e+08,587525,0.0234675,-0.195719,0,0.19712,7709.63,-33937,0,34801.7,587525
step02_gravity_refstate-crust.xmf,1862,-1.80823e-06,-7.5312e-06,0,1.08357e-05,-9.64626e+08,-9.65019e+08,-9.64502e+08,743327,0.0379587,-0.211533,0,0.214912,6963.42,-35099.2,0,35783.3,743327
step02_gravity_refstate-crust.xmf,1863,-1.14062e-06,-6.30834e-06,0,9.60778e-06,-9.47415e+08,-9.4777e+08,-9.47337e+08,659094,0.0303667,-0.204144,0,0.20639,7330.26,-34477.2,0,35247.9,659094
step02_gravity_refstate-crust.xmf,1864,-2.45573e-06,-1.03831e-05,0,1.31624e-05,-9.95137e+08,-9.95681e+08,-9.94968e+08,902938,0.0487396,-0.219361,0,0.22471,6421.54,-36202.9,0,36768,902938
step02_gravity_refstate-crust.xmf,1865,-1.4542e-06,-1.4423e-05,0,1.53537e-05,-1.02068e+09,-1.02157e+09,-1.02058e+09,1.05326e+06,0.0531283,-0.224414,0,0.230618,5909.89,-37130.5,0,37597.9,1.05326e+06
step02_gravity_refstate-crust.xmf,1866,-7.85461e-07,-1.53657e-05,0,1.54377e-05,-1.03712e+09,-1.03812e+09,-1.03707e+09,1.05903e+06,0.0525127,-0.214997,0,0.221318,5924.5,-37730.5,0,38192.9,1.05903e+06
step02_gravity_refstate-crust.xmf,1867,4.4412e-06,-2.52776e-05,0,1.51323e-05,-1.08297e+09,-1.085e+09,-1.08327e+09,1.03807e+06,0.0372531,-0.216755,0,0.219933,4424.36,-39405.3,0,39652.9,1.03807e+06
step02_gravity_refstate-crust.xmf,1868,2.71752e-06,-9.01015e-07,0,5.40418e-07,-5.43348e+07,-5.4583e+07,-5.45212e+07,37072.7,-0.0387046,0.00695086,-0,0.0393238,28503.7,-1987.71,0,28573,37072.7
step02_gravity_refstate-crust.xmf,1869,3.53512e-06,-1.34509e-06,0,1.41805e-08,335655,873.422,93146.3,972.784,-0.0433358,0.00926289,-0,0.0443147,29522.7,0,0,29522.7,972.784
step02_gravity_refstate-crust.xmf,1870,6.0828e-07,1.32387e-07,0,3.7991e-06,-3.05538e+08,-3.0557e+08,-3.0558e+08,260618,-0.030254,-0.0581163,-0,0.0655196,18373.4,-11126.1,0,21479.5,260618
step02_gravity_refstate-crust.xmf,1871,5.92202e-07,1.02611e-07,0,3.36049e-06,-2.61478e+08,-2.61512e+08,-2.61519e+08,230530,-0.0315002,-0.0504481,-0,0.0594749,19280.2,-9521.92,0,21503.3,230530
step02_gravity_refstate-crust.xmf,1872,6.09136e-07,6.87665e-08,0,2.88729e-06,-2.1515e+08,-2.15187e+08,-2.15192e+08,198068,-0.0338343,-0.0441822,-0,0.0556491,20056.5,-7835.34,0,21532.7,198068
step02_gravity_refstate-crust.xmf,1873,1.5091e-06,-3.59366e-07,0,1.4097e-06,-1.11187e+08,-1.11315e+08,-1.11291e+08,96705.2,-0.0401093,-0.0152802,-0,0.0429214,24235.4,-4053.43,0,24572.1,96705.2
step02_gravity_refstate-crust.xmf,1874,1.12227e-06,-1.81444e-07,0,2.04411e-06,-1.62276e+08,-1.62365e+08,-1.62353e+08,140226,-0.0359335,-0.0230855,-0,0.0427101,22969.5,-5912.06,0,23718.1,140226
step02_gravity_refstate-crust.xmf,1875,1.73561e-06,-1.03881e-07,0,6.13086e-06,-5.76298e+08,-5.76424e+08,-5.76417e+08,420577,-0.033287,-0.107943,-0,0.112959,13535.9,-20987.6,0,24974,420577
step02_gravity_refstate-crust.xmf,1876,2.922e-06,-1.19178e-06,0,6.69013e-06,-6.92107e+08,-6.92389e+08,-6.92307e+08,458943,-0.032076,-0.125723,-0,0.12975,12098.9,-25206.8,0,27960.1,458943
step02_gravity_refstate-crust.xmf,1877,6.58558e-07,2.10334e-07,0,4.38749e-06,-3.65795e+08,-3.65826e+08,-3.6584e+08,300982,-0.0298873,-0.0712837,-0,0.0772957,16912.8,-13320.1,0,21528.3,300982
step02_gravity_refstate-crust.xmf,1878,1.01881e-06,1.92505e-07,0,5.22331e-06,-4.64712e+08,-4.64769e+08,-4.64782e+08,358319,-0.0309924,-0.0881516,-0,0.0934411,15248.6,-16922.7,0,22779.3,358319
step02_gravity_refstate-crust.xmf,1879,3.29228e-06,-1.93576e-06,0,6.3076e-06,-7.34595e+08,-7.34954e+08,-7.34821e+08,432701,-0.0279043,-0.125497,-0,0.128562,11964,-26754,0,29307.2,432701
step02_gravity_refstate-crust.xmf,1880,-2.38404e-06,-1.14906e-05,0,1.37036e-05,-1.01235e+09,-1.01298e+09,-1.01219e+09,940070,0.0515625,-0.212127,0,0.218304,6433.14,-36828.2,0,37385.9,940070
step02_gravity_refstate-crust.xmf,1881,2.81844e-08,-1.65696e-05,0,1.54344e-05,-1.05175e+09,-1.05289e+09,-1.05176e+09,1.0588e+06,0.0504003,-0.207613,0,0.213643,5880.36,-38264.6,0,38713.8,1.0588e+06
step02_gravity_refstate-crust.xmf,1882,1.50262e-06,-1.94333e-05,0,1.58094e-05,-1.06311e+09,-1.06455e+09,-1.06321e+09,1.08453e+06,0.0473246,-0.211334,0,0.216568,5427.47,-38679.6,0,39058.5,1.08453e+06
step02_gravity_refstate-crust.xmf,1883,2.81827e-06,-2.15076e-05,0,1.55855e-05,-1.08218e+09,-1.08385e+09,-1.08238e+09,1.06916e+06,0.0400354,-0.204087,0,0.207977,5103.33,-39376,0,39705.3,1.06916e+06
step02_gravity_refstate-crust.xmf,1884,2.15009e-06,-6.13308e-07,0,1.0246e-06,-1.07872e+08,-1.08062e+08,-1.0802e+08,70287.5,-0.0337856,0.00529891,-0,0.0341986,27862.7,-3934.94,0,28139.1,70287.5
step02_gravity_refstate-crust.xmf,1885,3.10152e-06,-1.04677e-06,0,4.0919e-07,-5.25219e+07,-5.28064e+07,-5.27346e+07,28070.4,-0.0321738,0.0167407,-0,0.0362686,30822.7,-1923.04,0,30882.7,28070.4
step02_gravity_refstate-crust.xmf,1886,9.33099e-07,-9.94945e-08,0,2.59921e-06,-2.1296e+08,-2.13031e+08,-2.13024e+08,178306,-0.0325149,-0.0298465,-0,0.0441365,21971.1,-7756.64,0,23300.1,178306
step02_gravity_refstate-crust.xmf,1887,1.79209e-06,-4.7046e-07,0,1.28122e-06,-1.18017e+08,-1.18173e+08,-1.1814e+08,87892,-0.0362668,-0.00427511,-0,0.0365179,26047.4,-4303.06,0,26400.5,87892
step02_gravity_refstate-crust.xmf,1888,2.68742e-06,-1.00804e-06,0,6.47513e-06,-6.69475e+08,-6.69728e+08,-6.69659e+08,444194,-0.0322732,-0.118762,-0,0.123069,12616.5,-24382.2,0,27453,444194
step02_gravity_refstate-crust.xmf,1889,1.72563e-06,-3.01381e-07,0,5.71691e-06,-5.60018e+08,-5.60157e+08,-5.60136e+08,392180,-0.0317909,-0.0963098,-0,0.101421,14504,-20394.5,0,25026.1,392180
step02_gravity_refstate-crust.xmf,1890,2.45629e-06,-8.3558e-07,0,6.26667e-06,-6.45669e+08,-6.45895e+08,-6.45837e+08,429893,-0.0322802,-0.112194,-0,0.116746,13131.3,-23514.9,0,26932.9,429893
step02_gravity_refstate-crust.xmf,1891,2.24704e-06,-7.013e-07,0,6.05163e-06,-6.22124e+08,-6.22326e+08,-6.22278e+08,415142,-0.0320488,-0.105814,-0,0.110561,13652.6,-22657,0,26452.5,415142
step02_gravity_refstate-crust.xmf,1892,2.06651e-06,-6.12764e-07,0,5.82014e-06,-5.99514e+08,-5.99698e+08,-5.99656e+08,399262,-0.0315922,-0.0993431,-0,0.104246,14201.2,-21833.3,0,26045.5,399262
step02_gravity_refstate-crust.xmf,1893,3.11417e-06,-1.74085e-06,0,6.13643e-06,-7.15701e+08,-7.16034e+08,-7.15915e+08,420959,-0.0285436,-0.11821,-0,0.121608,12501.7,-26065.7,0,28908.7,420959
step02_gravity_refstate-crust.xmf,1894,8.05522e-07,2.76325e-08,0,4.09351e-06,-3.53998e+08,-3.54052e+08,-3.54053e+08,280815,-0.0291131,-0.05949,-0,0.0662317,18230.4,-12891,0,22327.6,280815
step02_gravity_refstate-crust.xmf,1895,9.30002e-07,-1.74259e-08,0,4.39352e-06,-3.94724e+08,-3.94789e+08,-3.94788e+08,301395,-0.0289749,-0.0648526,-0,0.071031,17630.1,-14374.1,0,22747.2,301395
step02_gravity_refstate-crust.xmf,1896,1.49813e-06,-2.03847e-07,0,5.39467e-06,-5.22715e+08,-5.22832e+08,-5.22818e+08,370074,-0.0309112,-0.087963,-0,0.0932362,15268,-19035.7,0,24402.2,370074
step02_gravity_refstate-crust.xmf,1897,1.03402e-06,-2.90199e-08,0,4.68836e-06,-4.28579e+08,-4.28652e+08,-4.2865e+08,321621,-0.0293728,-0.0716812,-0,0.0774659,16895.4,-15607,0,23000.7,321621
step02_gravity_refstate-crust.xmf,1898,1.33761e-06,-1.52597e-07,0,5.14017e-06,-4.92404e+08,-4.92506e+08,-4.92496e+08,352616,-0.0302179,-0.0815478,-0,0.0869664,15886.3,-17931.6,0,23956.6,352616
step02_gravity_refstate-crust.xmf,1899,1.18245e-06,-9.06638e-08,0,4.91646e-06,-4.61504e+08,-4.61591e+08,-4.61585e+08,337269,-0.0297228,-0.0764033,-0,0.0819811,16404.4,-16806.1,0,23485.1,337269
step02_gravity_refstate-crust.xmf,1900,3.25143e-06,-2.33924e-06,0,5.64441e-06,-7.55087e+08,-7.55471e+08,-7.5531e+08,387207,-0.0234861,-0.117396,-0,0.119722,12368.1,-27499.2,0,30152.6,387207
step02_gravity_refstate-crust.xmf,1901,3.31828e-06,-2.58727e-06,0,5.64121e-06,-7.75552e+08,-7.75957e+08,-7.75779e+08,386987,-0.0213217,-0.123153,-0,0.124985,11903.2,-28244.2,0,30649.9,386987
step02_gravity_refstate-crust.xmf,1902,3.30526e-06,-2.84803e-06,0,5.60325e-06,-7.96736e+08,-7.97158e+08,-7.96963e+08,384383,-0.0183519,-0.129124,-0,0.130421,11434.7,-29014.9,0,31186.8,384383
step02_gravity_refstate-crust.xmf,1903,3.1744e-06,-3.10501e-06,0,5.55768e-06,-8.18283e+08,-8.18714e+08,-8.18501e+08,381257,-0.0144977,-0.135561,-0,0.136334,10952.6,-29798.5,0,31747.6,381257
step02_gravity_refstate-crust.xmf,1904,2.86753e-06,-3.33411e-06,0,5.50332e-06,-8.3972e+08,-8.40145e+08,-8.39917e+08,377528,-0.0095898,-0.141691,-0,0.142015,10503.4,-30577.3,0,32331,377528
step02_gravity_refstate-crust.xmf,1905,2.37992e-06,-3.52857e-06,0,5.50509e-06,-8.60284e+08,-8.60689e+08,-8.60447e+08,377649,-0.00385851,-0.147602,-0,0.147652,10085.8,-31323.7,0,32907.4,377649
step02_gravity_refstate-crust.xmf,1906,1.75221e-06,-3.71559e-06,0,5.65808e-06,-8.79587e+08,-8.79962e+08,-8.79707e+08,388144,0.00233929,-0.154233,0,0.154251,9657.58,-32023.6,0,33448.1,388144
step02_gravity_refstate-crust.xmf,1907,-2.57216e-06,-8.35554e-06,0,1.13571e-05,-9.85076e+08,-9.85473e+08,-9.849e+08,779099,0.044805,-0.205458,0,0.210287,6969.06,-35839.3,0,36510.6,779099
step02_gravity_refstate-crust.xmf,1908,9.95293e-07,-3.94157e-06,0,5.9887e-06,-8.98269e+08,-8.98608e+08,-8.98338e+08,410825,0.00912374,-0.161268,0,0.161526,9232.74,-32700.3,0,33978.7,410825
step02_gravity_refstate-crust.xmf,1909,1.64583e-07,-4.25505e-06,0,6.50689e-06,-9.16229e+08,-9.16532e+08,-9.16241e+08,446373,0.0162672,-0.168295,0,0.169079,8828.52,-33350.3,0,34499.1,446373
step02_gravity_refstate-crust.xmf,1910,-6.77649e-07,-4.72701e-06,0,7.24161e-06,-9.33679e+08,-9.33956e+08,-9.33632e+08,496774,0.0235799,-0.175599,0,0.177175,8427.87,-33981.4,0,35011,496774
step02_gravity_refstate-crust.xmf,1911,-1.39976e-06,-5.41265e-06,0,8.19487e-06,-9.49249e+08,-9.49524e+08,-9.49153e+08,562168,0.0302731,-0.183941,0,0.186416,8008.34,-34544.3,0,35460.4,562168
step02_gravity_refstate-crust.xmf,1912,-1.88739e-06,-6.20369e-06,0,9.22159e-06,-9.60856e+08,-9.61152e+08,-9.60726e+08,632601,0.0353563,-0.192631,0,0.195849,7612.51,-34963.7,0,35782.8,632601
step02_gravity_refstate-crust.xmf,1913,-2.83396e-06,-9.06811e-06,0,1.20098e-05,-1.00309e+09,-1.00352e+09,-1.0029e+09,823871,0.0488633,-0.199477,0,0.205374,6977.86,-36493,0,37154.1,823871
step02_gravity_refstate-crust.xmf,1914,-1.91313e-06,-1.25625e-05,0,1.41121e-05,-1.0299e+09,-1.03063e+09,-1.02977e+09,968091,0.0522123,-0.203874,0,0.210454,6452.83,-37467.5,0,38019.1,968091
step02_gravity_refstate-crust.xmf,1915,-1.16941e-06,-1.36062e-05,0,1.43827e-05,-1.04953e+09,-1.05038e+09,-1.04945e+09,986656,0.0504392,-0.193901,0,0.200354,6475.63,-38183.2,0,38728.4,986656
step02_gravity_refstate-crust.xmf,1916,2.48523e-06,-7.36743e-07,0,8.20158e-07,-1.03506e+08,-1.03727e+08,-1.03677e+08,56262.9,-0.0296934,0.0142988,-0,0.0329568,29812.9,-3777.16,0,30051.2,56262.9
step02_gravity_refstate-crust.xmf,1917,3.92525e-06,-1.49368e-06,0,1.18785e-08,372691,953.356,103420,814.865,-0.0340715,0.0184893,-0,0.0387649,32008.2,0,0,32008.2,814.865
step02_gravity_refstate-crust.xmf,1918,8.75332e-07,-8.85032e-08,0,3.50986e-06,-3.09849e+08,-3.09915e+08,-3.09909e+08,240776,-0.0287707,-0.0433171,-0,0.0520012,20167.7,-11283.8,0,23109.7,240776
step02_gravity_refstate-crust.xmf,1919,8.64977e-07,-7.49551e-08,0,3.06381e-06,-2.59908e+08,-2.59973e+08,-2.59968e+08,210177,-0.030262,-0.0362468,-0,0.0472188,21089.7,-9465.61,0,23116.5,210177
step02_gravity_refstate-crust.xmf,1920,1.46449e-06,-3.2101e-07,0,1.78096e-06,-1.62005e+08,-1.62128e+08,-1.62106e+08,122174,-0.0333566,-0.0100027,-0,0.034824,24979.9,-5903.39,0,25668,122174
step02_gravity_refstate-crust.xmf,1921,1.21994e-06,-2.30995e-07,0,2.29529e-06,-2.11685e+08,-2.11785e+08,-2.11769e+08,157457,-0.0305125,-0.016334,-0,0.0346094,23916.6,-7711.19,0,25129,157457
step02_gravity_refstate-crust.xmf,1922,2.91038e-06,-1.56609e-06,0,5.92636e-06,-6.94497e+08,-6.94804e+08,-6.94697e+08,406548,-0.0289105,-0.110365,-0,0.114089,13112.1,-25293.2,0,28489.9,406548
step02_gravity_refstate-crust.xmf,1923,8.19017e-07,-2.72935e-08,0,3.8084e-06,-3.32111e+08,-3.32169e+08,-3.32167e+08,261256,-0.0289347,-0.0519643,-0,0.059477,19109.4,-12094.1,0,22615,261256
step02_gravity_refstate-crust.xmf,1924,3.16914e-06,-2.11628e-06,0,5.67214e-06,-7.36537e+08,-7.369e+08,-7.36755e+08,389108,-0.0251493,-0.113171,-0,0.115931,12735.6,-26823.9,0,29693.7,389108
step02_gravity_refstate-crust.xmf,1925,-2.45449e-06,-6.73162e-06,0,9.80366e-06,-9.76482e+08,-9.76776e+08,-9.76314e+08,672531,0.0408162,-0.190663,0,0.194982,7552.87,-35529.5,0,36323.4,672531
step02_gravity_refstate-crust.xmf,1926,-2.66828e-06,-1.00605e-05,0,1.26105e-05,-1.02099e+09,-1.0215e+09,-1.02081e+09,865081,0.0508247,-0.192888,0,0.199472,6990.11,-37143.8,0,37795.9,865081
step02_gravity_refstate-crust.xmf,1927,1.01446e-07,-1.58299e-05,0,1.49472e-05,-1.06596e+09,-1.06705e+09,-1.06597e+09,1.02538e+06,0.0471227,-0.192426,0,0.198112,6162.67,-38783.3,0,39269.9,1.02538e+06
step02_gravity_refstate-crust.xmf,1928,1.37728e-06,-1.79695e-05,0,1.5326e-05,-1.08217e+09,-1.0835e+09,-1.08226e+09,1.05137e+06,0.0415418,-0.189756,0,0.19425,5816.55,-39375.2,0,39802.5,1.05137e+06
step02_gravity_refstate-crust.xmf,1929,1.7364e-06,-4.29564e-07,0,1.51085e-06,-1.59307e+08,-1.59456e+08,-1.59426e+08,103644,-0.0305249,0.00115828,-0,0.0305468,26894.2,-5806.09,0,27513.8,103644
step02_gravity_refstate-crust.xmf,1930,2.00173e-06,-5.25837e-07,0,1.24189e-06,-1.53687e+08,-1.5386e+08,-1.53824e+08,85193.6,-0.0274753,0.0107134,-0,0.0294902,28770.3,-5602.4,0,29310.7,85193.6
step02_gravity_refstate-crust.xmf,1931,2.75727e-06,-8.36631e-07,0,6.20639e-07,-1.01632e+08,-1.01879e+08,-1.01822e+08,42575.8,-0.0240598,0.0227501,-0,0.0331125,32024.3,-3709.89,0,32238.4,42575.8
step02_gravity_refstate-crust.xmf,1932,3.38068e-06,-1.14803e-06,0,3.00362e-07,-5.35517e+07,-5.38624e+07,-5.37837e+07,20604.8,-0.0242244,0.0248262,-0,0.0346867,33246.5,-1961.5,0,33304.3,20604.8
step02_gravity_refstate-crust.xmf,1933,1.10664e-06,-2.06981e-07,0,2.72894e-06,-2.57786e+08,-2.57876e+08,-2.57862e+08,187205,-0.028502,-0.0222801,-0,0.0361769,22994.9,-9389.11,0,24837.9,187205
step02_gravity_refstate-crust.xmf,1934,2.70119e-06,-1.35888e-06,0,5.79792e-06,-6.70722e+08,-6.71e+08,-6.70907e+08,397738,-0.0294273,-0.104184,-0,0.10826,13640.9,-24427.1,0,27977.8,397738
step02_gravity_refstate-crust.xmf,1935,1.83436e-06,-6.42166e-07,0,5.18139e-06,-5.57211e+08,-5.57381e+08,-5.57337e+08,355443,-0.0294111,-0.0808446,-0,0.0860282,15868.4,-20292.3,0,25760.1,355443
step02_gravity_refstate-crust.xmf,1936,2.49023e-06,-1.17123e-06,0,5.64697e-06,-6.45996e+08,-6.46248e+08,-6.46167e+08,387382,-0.0296257,-0.0979132,-0,0.102297,14197.6,-23526.4,0,27478.4,387382
step02_gravity_refstate-crust.xmf,1937,2.28299e-06,-1.00075e-06,0,5.49293e-06,-6.20219e+08,-6.20444e+08,-6.20375e+08,376815,-0.0296394,-0.0919652,-0,0.0966235,14750.7,-22587.4,0,26977.2,376815
step02_gravity_refstate-crust.xmf,1938,2.05861e-06,-8.12944e-07,0,5.35511e-06,-5.90473e+08,-5.9067e+08,-5.90614e+08,367361,-0.0296439,-0.0866396,-0,0.0915707,15278.5,-21503.8,0,26378.9,367361
step02_gravity_refstate-crust.xmf,1939,2.98331e-06,-2.04479e-06,0,5.29898e-06,-7.23571e+08,-7.23916e+08,-7.23775e+08,363510,-0.0244762,-0.102594,-0,0.105474,13522.6,-26351.2,0,29618.4,363510
step02_gravity_refstate-crust.xmf,1940,1.00675e-06,-1.8042e-07,0,3.78676e-06,-3.57691e+08,-3.57772e+08,-3.5776e+08,259772,-0.0275862,-0.0459473,-0,0.0535925,19818.1,-13025.9,0,23715.6,259772
step02_gravity_refstate-crust.xmf,1941,1.09416e-06,-2.25566e-07,0,4.06539e-06,-3.93689e+08,-3.93779e+08,-3.93764e+08,278886,-0.0274957,-0.0517103,-0,0.0585659,19108.1,-14336.7,0,23888.5,278886
step02_gravity_refstate-crust.xmf,1942,1.21163e-06,-2.89939e-07,0,4.31973e-06,-4.29915e+08,-4.30018e+08,-4.29998e+08,296334,-0.0276389,-0.0574187,-0,0.0637245,18426.2,-15655.9,0,24179.2,296334
step02_gravity_refstate-crust.xmf,1943,1.64498e-06,-5.25754e-07,0,4.963e-06,-5.24862e+08,-5.25011e+08,-5.24975e+08,340462,-0.0288803,-0.0743003,-0,0.0797158,16544.4,-19114,0,25279.6,340462
step02_gravity_refstate-crust.xmf,1944,1.34412e-06,-3.63904e-07,0,4.54045e-06,-4.62923e+08,-4.63041e+08,-4.63016e+08,311475,-0.0279357,-0.0627494,-0,0.068687,17808.8,-16858.1,0,24522.4,311475
step02_gravity_refstate-crust.xmf,1945,1.49236e-06,-4.47672e-07,0,4.7434e-06,-4.94746e+08,-4.94879e+08,-4.94849e+08,325397,-0.0283156,-0.0680373,-0,0.0736943,17214.2,-18017.1,0,24918.8,325397
step02_gravity_refstate-crust.xmf,1946,3.0221e-06,-2.36607e-06,0,5.01885e-06,-7.53723e+08,-7.54093e+08,-7.53931e+08,344293,-0.020855,-0.103665,-0,0.105742,13280.8,-27448.6,0,30492.7,344293
step02_gravity_refstate-crust.xmf,1947,3.04351e-06,-2.58608e-06,0,4.97543e-06,-7.75097e+08,-7.75484e+08,-7.75306e+08,341314,-0.0185453,-0.108813,-0,0.110382,12805.7,-28226.5,0,30995.5,341314
step02_gravity_refstate-crust.xmf,1948,2.98877e-06,-2.80719e-06,0,4.90706e-06,-7.96882e+08,-7.9728e+08,-7.97087e+08,336624,-0.0155257,-0.114188,-0,0.115239,12324.5,-29019,0,31527.7,336624
step02_gravity_refstate-crust.xmf,1949,2.82971e-06,-3.00866e-06,0,4.83565e-06,-8.18124e+08,-8.18524e+08,-8.18318e+08,331726,-0.0118472,-0.11968,-0,0.120265,11852.3,-29791.4,0,32062.5,331726
step02_gravity_refstate-crust.xmf,1950,2.5389e-06,-3.18553e-06,0,4.78304e-06,-8.3912e+08,-8.39513e+08,-8.39294e+08,328116,-0.00739893,-0.125374,-0,0.125592,11383.9,-30554.3,0,32606.2,328116
step02_gravity_refstate-crust.xmf,1951,2.0862e-06,-3.33462e-06,0,4.77917e-06,-8.59998e+08,-8.6037e+08,-8.60141e+08,327851,-0.00208085,-0.131138,-0,0.131155,10928.3,-31312.4,0,33164.6,327851
step02_gravity_refstate-crust.xmf,1952,1.48806e-06,-3.46826e-06,0,4.8848e-06,-8.80103e+08,-8.80443e+08,-8.80205e+08,335097,0.00385517,-0.137185,0,0.137239,10479.5,-32041.7,0,33711.9,335097
step02_gravity_refstate-crust.xmf,1953,7.87438e-07,-3.62123e-06,0,5.15114e-06,-8.99053e+08,-8.99356e+08,-8.99107e+08,353368,0.0101363,-0.143762,0,0.144119,10029.5,-32728.5,0,34230.8,353368
step02_gravity_refstate-crust.xmf,1954,-2.90512e-06,-7.384e-06,0,1.04231e-05,-9.93814e+08,-9.94121e+08,-9.93614e+08,715026,0.0454734,-0.186873,0,0.192326,7529.22,-36157.6,0,36933.2,715026
step02_gravity_refstate-crust.xmf,1955,8.51347e-09,-3.8345e-06,0,5.59558e-06,-9.17281e+08,-9.17545e+08,-9.17282e+08,383857,0.016753,-0.150569,0,0.151498,9590.78,-33388.6,0,34738.8,383857
step02_gravity_refstate-crust.xmf,1956,-8.04438e-07,-4.15515e-06,0,6.22768e-06,-9.35032e+08,-9.35262e+08,-9.34977e+08,427219,0.0235648,-0.157342,0,0.159097,9171.12,-34031.1,0,35245.2,427219
step02_gravity_refstate-crust.xmf,1957,-2.26473e-06,-5.50273e-06,0,8.29512e-06,-9.68987e+08,-9.69209e+08,-9.68832e+08,569045,0.0368901,-0.17422,0,0.178082,8229.63,-35259.3,0,36206.9,569045
step02_gravity_refstate-crust.xmf,1958,-1.57532e-06,-4.65805e-06,0,7.0808e-06,-9.52065e+08,-9.52276e+08,-9.51957e+08,485743,0.0302421,-0.164712,0,0.167466,8740.14,-34647.3,0,35732.7,485743
step02_gravity_refstate-crust.xmf,1959,-3.03302e-06,-7.97025e-06,0,1.10737e-05,-1.01164e+09,-1.01198e+09,-1.01143e+09,759655,0.0484166,-0.181258,0,0.187613,7552.89,-36805.3,0,37572.2,759655
step02_gravity_refstate-crust.xmf,1960,-2.19628e-06,-1.09997e-05,0,1.30991e-05,-1.03872e+09,-1.03932e+09,-1.03857e+09,898600,0.050696,-0.185703,0,0.192498,7005.05,-37789.7,0,38433.5,898600
step02_gravity_refstate-crust.xmf,1961,-8.54168e-07,-1.30603e-05,0,1.40055e-05,-1.06645e+09,-1.06728e+09,-1.06639e+09,960775,0.0467384,-0.177564,0,0.183612,6827.9,-38801.3,0,39397.5,960775
step02_gravity_refstate-crust.xmf,1962,2.26499e-06,-6.12732e-07,0,9.74728e-07,-1.50942e+08,-1.51139e+08,-1.51097e+08,66866.3,-0.0230662,0.0200323,-0,0.0305506,30926.9,-5503.39,0,31412.7,66866.3
step02_gravity_refstate-crust.xmf,1963,4.2063e-06,-1.59772e-06,0,1.38516e-08,399500,1344.57,110948,950.223,-0.0236172,0.0255106,-0,0.0347644,34578.2,0,0,34578.2,950.223
step02_gravity_refstate-crust.xmf,1964,1.07542e-06,-2.25608e-07,0,3.11828e-06,-3.03438e+08,-3.03527e+08,-3.03511e+08,213914,-0.0271398,-0.0283579,-0,0.0392522,22106.1,-11051,0,24714.4,213914
step02_gravity_refstate-crust.xmf,1965,1.47057e-06,-3.30727e-07,0,1.97623e-06,-2.08844e+08,-2.08967e+08,-2.08945e+08,135569,-0.0280941,-0.00404251,-0,0.0283835,25869.2,-7608.6,0,26964.9,135569
step02_gravity_refstate-crust.xmf,1966,1.31082e-06,-2.99542e-07,0,2.38797e-06,-2.56731e+08,-2.56842e+08,-2.56821e+08,163815,-0.0262358,-0.00936518,-0,0.0278572,24919.1,-9351.39,0,26616,163815
step02_gravity_refstate-crust.xmf,1967,2.80299e-06,-1.7794e-06,0,5.24565e-06,-6.96096e+08,-6.96411e+08,-6.96288e+08,359851,-0.0257778,-0.0958192,-0,0.0992261,14154.5,-25350.7,0,29034.6,359851
step02_gravity_refstate-crust.xmf,1968,-2.76363e-06,-6.21938e-06,0,9.20865e-06,-9.85638e+08,-9.85875e+08,-9.85448e+08,631713,0.0421771,-0.176176,0,0.181155,8014.11,-35862.3,0,36746.9,631713
step02_gravity_refstate-crust.xmf,1969,-2.78606e-06,-8.86798e-06,0,1.17219e-05,-1.03022e+09,-1.03063e+09,-1.03003e+09,804121,0.0495154,-0.175145,0,0.18201,7569.13,-37481.1,0,38237.7,804121
step02_gravity_refstate-crust.xmf,1970,-1.67057e-06,-1.16658e-05,0,1.34416e-05,-1.05288e+09,-1.05356e+09,-1.05276e+09,922095,0.0491633,-0.17952,0,0.18613,7018.24,-38306.2,0,38943.8,922095
step02_gravity_refstate-crust.xmf,1971,2.91931e-07,-1.49266e-05,0,1.45852e-05,-1.08265e+09,-1.08369e+09,-1.08267e+09,1.00055e+06,0.0419759,-0.174995,0,0.179959,6546.97,-39393,0,39933.4,1.00055e+06
step02_gravity_refstate-crust.xmf,1972,1.67853e-06,-4.0539e-07,0,1.65616e-06,-2.05405e+08,-2.05548e+08,-2.05521e+08,113612,-0.0252288,0.00690966,-0,0.0261579,27835.5,-7484.15,0,28824.1,113612
step02_gravity_refstate-crust.xmf,1973,1.87665e-06,-4.67413e-07,0,1.33958e-06,-2.01014e+08,-2.01175e+08,-2.01143e+08,91895,-0.0218962,0.0165629,-0,0.0274549,29857.1,-7325,0,30742.5,91895
step02_gravity_refstate-crust.xmf,1974,2.47445e-06,-6.82977e-07,0,7.09844e-07,-1.4761e+08,-1.47826e+08,-1.47779e+08,48695.3,-0.0179625,0.0276706,-0,0.0329896,33170.4,-5382.83,0,33604.4,48695.3
step02_gravity_refstate-crust.xmf,1975,2.92991e-06,-9.01316e-07,0,4.407e-07,-1.01896e+08,-1.02159e+08,-1.02097e+08,30232,-0.0179959,0.0290362,-0,0.0341607,34148,-3720.08,0,34350,30232
step02_gravity_refstate-crust.xmf,1976,3.40572e-06,-1.13111e-06,0,2.21647e-07,-6.63314e+07,-6.66426e+07,-6.6565e+07,15205,-0.0145878,0.0313193,-0,0.03455,35832.5,-2426.89,0,35914.6,15205
step02_gravity_refstate-crust.xmf,1977,4.38715e-06,-1.66969e-06,0,1.6743e-09,416537,1038.06,115579,114.857,-0.0121909,0.0299814,-0,0.0323652,37239.8,0,0,37239.8,114.857
step02_gravity_refstate-crust.xmf,1978,1.12342e-06,-2.87711e-07,0,3.43082e-06,-3.491e+08,-3.49196e+08,-3.49177e+08,235354,-0.0261502,-0.0332466,-0,0.0422985,21407.3,-12713.4,0,24897.9,235354
step02_gravity_refstate-crust.xmf,1979,1.24107e-06,-3.17488e-07,0,2.74892e-06,-3.02487e+08,-3.02593e+08,-3.02572e+08,188576,-0.0249784,-0.0148476,-0,0.0290581,24008.4,-11016.9,0,26415.4,188576
step02_gravity_refstate-crust.xmf,1980,1.87756e-06,-8.59333e-07,0,4.71339e-06,-5.57222e+08,-5.5741e+08,-5.57351e+08,323338,-0.0270703,-0.0674335,-0,0.0726642,17129.8,-20292.5,0,26555.9,323338
step02_gravity_refstate-crust.xmf,1981,2.62663e-06,-1.56921e-06,0,5.16657e-06,-6.7141e+08,-6.71698e+08,-6.71591e+08,354427,-0.02648,-0.0898921,-0,0.0937112,14727.2,-24451.6,0,28544.2,354427
step02_gravity_refstate-crust.xmf,1982,2.06076e-06,-1.01191e-06,0,4.85895e-06,-5.87986e+08,-5.88197e+08,-5.88127e+08,333324,-0.0272477,-0.0731907,-0,0.0780982,16485.6,-21413,0,27023.9,333324
step02_gravity_refstate-crust.xmf,1983,2.4432e-06,-1.37449e-06,0,5.07454e-06,-6.45588e+08,-6.4585e+08,-6.45756e+08,348114,-0.0269201,-0.0841652,-0,0.0883656,15304.8,-23511,0,28053.6,348114
step02_gravity_refstate-crust.xmf,1984,2.25323e-06,-1.18431e-06,0,4.98374e-06,-6.17627e+08,-6.17863e+08,-6.17782e+08,341884,-0.0272279,-0.0788612,-0,0.0834293,15869.3,-22492.6,0,27527.3,341884
step02_gravity_refstate-crust.xmf,1985,2.74579e-06,-2.06365e-06,0,4.65459e-06,-7.21124e+08,-7.21454e+08,-7.21312e+08,319305,-0.0214736,-0.0872255,-0,0.0898299,14680,-26261.1,0,30085.7,319305
step02_gravity_refstate-crust.xmf,1986,1.21447e-06,-3.73129e-07,0,3.7085e-06,-3.93291e+08,-3.934e+08,-3.93374e+08,254403,-0.0257025,-0.0385977,-0,0.0463724,20668.4,-14322.5,0,25145.9,254403
step02_gravity_refstate-crust.xmf,1987,1.31904e-06,-4.5663e-07,0,3.94625e-06,-4.30505e+08,-4.30627e+08,-4.30596e+08,270713,-0.0257222,-0.0441726,-0,0.051116,19932,-15677.6,0,25358.9,270713
step02_gravity_refstate-crust.xmf,1988,1.44763e-06,-5.57912e-07,0,4.14712e-06,-4.66176e+08,-4.66313e+08,-4.66275e+08,284493,-0.0258562,-0.0493996,-0,0.0557572,19256.8,-16976.6,0,25671.6,284493
step02_gravity_refstate-crust.xmf,1989,1.73095e-06,-7.56384e-07,0,4.51671e-06,-5.28563e+08,-5.28734e+08,-5.28682e+08,309846,-0.0265303,-0.0606534,-0,0.0662019,17890.4,-19248.7,0,26278.9,309846
step02_gravity_refstate-crust.xmf,1990,1.59163e-06,-6.74705e-07,0,4.28948e-06,-4.99624e+08,-4.9978e+08,-4.99734e+08,294258,-0.025884,-0.0534601,-0,0.0593967,18727.1,-18194.7,0,26110.3,294258
step02_gravity_refstate-crust.xmf,1991,2.8031e-06,-2.28859e-06,0,4.57195e-06,-7.47192e+08,-7.47541e+08,-7.47384e+08,313635,-0.0192478,-0.091633,-0,0.0936327,14185.5,-27210.1,0,30685.7,313635
step02_gravity_refstate-crust.xmf,1992,2.77812e-06,-2.50424e-06,0,4.43798e-06,-7.72705e+08,-7.73067e+08,-7.72895e+08,304446,-0.0162809,-0.0955045,-0,0.0968823,13738.2,-28138.4,0,31313.1,304446
step02_gravity_refstate-crust.xmf,1993,2.68038e-06,-2.69282e-06,0,4.33059e-06,-7.9616e+08,-7.96529e+08,-7.96344e+08,297079,-0.0130463,-0.100116,-0,0.100963,13256.6,-28991.7,0,31878.7,297079
step02_gravity_refstate-crust.xmf,1994,2.4911e-06,-2.85769e-06,0,4.24111e-06,-8.18664e+08,-8.1903e+08,-8.18834e+08,290940,-0.00929576,-0.105137,-0,0.105547,12763.8,-29809.9,0,32427.5,290940
step02_gravity_refstate-crust.xmf,1995,2.19726e-06,-2.99206e-06,0,4.18426e-06,-8.39903e+08,-8.40259e+08,-8.40054e+08,287041,-0.00505953,-0.110322,-0,0.110438,12282.4,-30581.8,0,32956.1,287041
step02_gravity_refstate-crust.xmf,1996,1.77866e-06,-3.10194e-06,0,4.18068e-06,-8.60655e+08,-8.6099e+08,-8.60777e+08,286795,-0.000192351,-0.115769,-0,0.115769,11803.7,-31335.4,0,33484.8,286795
step02_gravity_refstate-crust.xmf,1997,1.22652e-06,-3.19262e-06,0,4.2657e-06,-8.80959e+08,-8.81262e+08,-8.81043e+08,292627,0.00529566,-0.121425,0,0.12154,11332.9,-32072.2,0,34015.6,292627
step02_gravity_refstate-crust.xmf,1998,5.83976e-07,-3.29497e-06,0,4.4938e-06,-9.00178e+08,-9.00444e+08,-9.00218e+08,308275,0.011098,-0.127652,0,0.128134,10855.7,-32769.1,0,34520.5,308275
step02_gravity_refstate-crust.xmf,1999,-1.19749e-07,-3.44334e-06,0,4.88519e-06,-9.18402e+08,-9.1863e+08,-9.18393e+08,335124,0.0171142,-0.134301,0,0.135387,10381.8,-33429.5,0,35004.5,335124
step02_gravity_refstate-crust.xmf,2000,-3.05809e-06,-6.47034e-06,0,9.57321e-06,-1.00131e+09,-1.00155e+09,-1.0011e+09,656722,0.045158,-0.169674,0,0.175581,8131.49,-36431.4,0,37327.8,656722
step02_gravity_refstate-crust.xmf,2001,-8.65827e-07,-3.66684e-06,0,5.44055e-06,-9.36118e+08,-9.3631e+08,-9.36058e+08,373222,0.0233184,-0.140864,0,0.142781,9933.15,-34071.1,0,35489.6,373222
step02_gravity_refstate-crust.xmf,2002,-1.61252e-06,-4.01329e-06,0,6.17936e-06,-9.53687e+08,-9.53852e+08,-9.53576e+08,423904,0.0295758,-0.147305,0,0.150244,9503.51,-34707.2,0,35984.8,423904
step02_gravity_refstate-crust.xmf,2003,-2.2853e-06,-4.56552e-06,0,7.14448e-06,-9.70921e+08,-9.71078e+08,-9.70765e+08,490112,0.0355938,-0.154258,0,0.158312,9058.36,-35331,0,36473.8,490112
step02_gravity_refstate-crust.xmf,2004,-2.7978e-06,-5.35097e-06,0,8.27771e-06,-9.87571e+08,-9.87746e+08,-9.87379e+08,567851,0.0409446,-0.16098,0,0.166106,8627.34,-35933.9,0,36955,567851
step02_gravity_refstate-crust.xmf,2005,-3.08936e-06,-6.98902e-06,0,1.02612e-05,-1.02049e+09,-1.02076e+09,-1.02028e+09,703917,0.0473377,-0.163833,0,0.170534,8180.13,-37128.6,0,38019.1,703917
step02_gravity_refstate-crust.xmf,2006,-2.23815e-06,-9.83284e-06,0,1.23438e-05,-1.04878e+09,-1.04931e+09,-1.04863e+09,846785,0.0486345,-0.169151,0,0.176004,7554.48,-38157.8,0,38898.4,846785
step02_gravity_refstate-crust.xmf,2007,-1.53937e-06,-1.07706e-05,0,1.29246e-05,-1.06503e+09,-1.06566e+09,-1.06492e+09,886630,0.0462641,-0.164418,0,0.170803,7488.12,-38750.4,0,39467.3,886630
step02_gravity_refstate-crust.xmf,2008,-4.56485e-07,-1.23405e-05,0,1.36563e-05,-1.08241e+09,-1.08323e+09,-1.08238e+09,936822,0.0419899,-0.161188,0,0.166567,7275.43,-39385.4,0,40051.7,936822
step02_gravity_refstate-crust.xmf,2009,2.0637e-06,-5.17149e-07,0,1.02653e-06,-1.98832e+08,-1.99009e+08,-1.98974e+08,70420.3,-0.0176664,0.0251965,-0,0.0307728,32058.4,-7246.23,0,32867.1,70420.3
step02_gravity_refstate-crust.xmf,2010,3.69823e-06,-1.2781e-06,0,7.7306e-08,-5.14553e+07,-5.17967e+07,-5.1709e+07,5303.19,-0.00700375,0.0335915,-0,0.0343139,38114.3,-1886.26,0,38160.9,5303.19
step02_gravity_refstate-crust.xmf,2011,4.40348e-06,-1.67293e-06,0,-9.22148e-09,418214,1372.7,116136,-632.593,-5.14967e-19,0.0315539,-0,0.0315539,40000,0,0,40000,632.593
step02_gravity_refstate-crust.xmf,2012,1.23975e-06,-3.71922e-07,0,3.06139e-06,-3.46921e+08,-3.47032e+08,-3.47006e+08,210011,-0.0241739,-0.0203093,-0,0.0315728,23144.7,-12634.4,0,26368.7,210011
step02_gravity_refstate-crust.xmf,2013,1.48011e-06,-3.60579e-07,0,2.04581e-06,-2.55609e+08,-2.55735e+08,-2.55711e+08,140343,-0.0235972,0.00227171,-0,0.0237063,26854.7,-9311.14,0,28423.1,140343
step02_gravity_refstate-crust.xmf,2014,1.36979e-06,-3.70028e-07,0,2.38247e-06,-3.02256e+08,-3.02376e+08,-3.0235e+08,163438,-0.0224998,-0.00261896,-0,0.0226517,25914.5,-11008.9,0,28155.9,163438
step02_gravity_refstate-crust.xmf,2015,2.63249e-06,-1.85478e-06,0,4.6519e-06,-6.9629e+08,-6.96598e+08,-6.96471e+08,319120,-0.022799,-0.0819435,-0,0.0850561,15243.9,-25356.9,0,29586.3,319120
step02_gravity_refstate-crust.xmf,2016,1.87485e-06,-9.89419e-07,0,4.30767e-06,-5.58954e+08,-5.59151e+08,-5.59083e+08,295506,-0.0248756,-0.0560168,-0,0.0612918,18269.1,-20355.3,0,27351.4,295506
step02_gravity_refstate-crust.xmf,2017,-2.74239e-06,-7.9027e-06,0,1.10084e-05,-1.04022e+09,-1.04057e+09,-1.04003e+09,755178,0.0477068,-0.158775,0,0.165788,8165.75,-37846.8,0,38717.7,755178
step02_gravity_refstate-crust.xmf,2018,1.61967e-06,-3.98232e-07,0,1.69725e-06,-2.52322e+08,-2.52461e+08,-2.52433e+08,116431,-0.0206977,0.0126353,-0,0.0242497,28835.3,-9191.98,0,30265,116431
step02_gravity_refstate-crust.xmf,2019,1.74337e-06,-4.23362e-07,0,1.35009e-06,-2.50699e+08,-2.50848e+08,-2.50819e+08,92615.8,-0.0172337,0.0218657,-0,0.0278407,30929.4,-9133.36,0,32249.8,92615.8
step02_gravity_refstate-crust.xmf,2020,2.64928e-06,-7.37671e-07,0,4.40482e-07,-1.43335e+08,-1.43568e+08,-1.43517e+08,30217,-0.0119217,0.033511,-0,0.0355684,35606.6,-5227.84,0,35988.3,30217
step02_gravity_refstate-crust.xmf,2021,2.18016e-06,-5.43539e-07,0,7.35695e-07,-1.99207e+08,-1.99394e+08,-1.99356e+08,50468.7,-0.0129836,0.031808,-0,0.0343559,34256.7,-7260.3,0,35017.6,50468.7
step02_gravity_refstate-crust.xmf,2022,3.02664e-06,-9.13262e-07,0,1.75045e-07,-1.10339e+08,-1.1061e+08,-1.10547e+08,12008.1,-0.00653111,0.0357133,-0,0.0363056,37857.9,-4027.85,0,38071.6,12008.1
step02_gravity_refstate-crust.xmf,2023,3.43647e-06,-1.1241e-06,0,-4.47499e-09,-7.41919e+07,-7.45047e+07,-7.44276e+07,-306.984,-4.66149e-19,0.0353533,-0,0.0353533,40000,-2713.19,0,40091.9,306.984
step02_gravity_refstate-crust.xmf,2024,1.29062e-06,-4.5461e-07,0,3.32419e-06,-3.8988e+08,-3.89999e+08,-3.89968e+08,228039,-0.0237121,-0.0255997,-0,0.0348942,22335.8,-14198.5,0,26466.7,228039
step02_gravity_refstate-crust.xmf,2025,1.3296e-06,-4.18426e-07,0,2.67906e-06,-3.46794e+08,-3.46914e+08,-3.46885e+08,183783,-0.0218136,-0.00779541,-0,0.0231647,24985.2,-12630.1,0,27996.1,183783
step02_gravity_refstate-crust.xmf,2026,2.01987e-06,-1.13389e-06,0,4.39651e-06,-5.8737e+08,-5.87586e+08,-5.87508e+08,301600,-0.0247943,-0.0605274,-0,0.0654089,17701.3,-21390.2,0,27764.7,301600
step02_gravity_refstate-crust.xmf,2027,2.49539e-06,-1.66459e-06,0,4.60961e-06,-6.71806e+08,-6.72091e+08,-6.71977e+08,316219,-0.0236168,-0.0764997,-0,0.0800622,15832.4,-24465.3,0,29141.3,316219
step02_gravity_refstate-crust.xmf,2028,2.18483e-06,-1.30562e-06,0,4.47967e-06,-6.1752e+08,-6.17759e+08,-6.1767e+08,307306,-0.0245729,-0.0657215,-0,0.0701651,17068.5,-22488.2,0,28232.2,307306
step02_gravity_refstate-crust.xmf,2029,2.34327e-06,-1.48031e-06,0,4.54997e-06,-6.45432e+08,-6.45694e+08,-6.45593e+08,312128,-0.0241902,-0.0709985,-0,0.0750064,16450,-23504.8,0,28689.3,312128
step02_gravity_refstate-crust.xmf,2030,2.5142e-06,-2.02508e-06,0,4.13038e-06,-7.20447e+08,-7.20759e+08,-7.2062e+08,283344,-0.0187069,-0.0740304,-0,0.0763574,15765,-26235.6,0,30607.9,283344
step02_gravity_refstate-crust.xmf,2031,2.56077e-06,-2.19864e-06,0,4.10408e-06,-7.43157e+08,-7.43484e+08,-7.43333e+08,281540,-0.0171036,-0.0789331,-0,0.0807649,15208.3,-27062.3,0,31042.9,281540
step02_gravity_refstate-crust.xmf,2032,1.37693e-06,-5.55232e-07,0,3.55037e-06,-4.30294e+08,-4.30427e+08,-4.30389e+08,243556,-0.0235655,-0.0310248,-0,0.0389599,21535.6,-15670,0,26633.3,243556
step02_gravity_refstate-crust.xmf,2033,1.49032e-06,-6.70955e-07,0,3.75358e-06,-4.68776e+08,-4.68924e+08,-4.68878e+08,257496,-0.0236435,-0.0367786,-0,0.0437227,20718.9,-17071.2,0,26845.9,257496
step02_gravity_refstate-crust.xmf,2034,1.6221e-06,-8.06235e-07,0,3.88254e-06,-5.05526e+08,-5.05693e+08,-5.05637e+08,266342,-0.023536,-0.041155,-0,0.0474097,20086.2,-18409.5,0,27246.3,266342
step02_gravity_refstate-crust.xmf,2035,1.77989e-06,-9.68463e-07,0,4.01639e-06,-5.44015e+08,-5.44203e+08,-5.44137e+08,275525,-0.0235208,-0.0467051,-0,0.0522933,19320.3,-19811.1,0,27672.3,275525
step02_gravity_refstate-crust.xmf,2036,2.52755e-06,-2.38149e-06,0,3.99742e-06,-7.6911e+08,-7.69447e+08,-7.69283e+08,274223,-0.0143928,-0.0832464,-0,0.0844814,14688,-28006.8,0,31624.6,274223
step02_gravity_refstate-crust.xmf,2037,2.39125e-06,-2.53817e-06,0,3.85472e-06,-7.94959e+08,-7.95298e+08,-7.95123e+08,264434,-0.0108702,-0.0870728,-0,0.0877487,14212.8,-28947,0,32248,264434
step02_gravity_refstate-crust.xmf,2038,2.17901e-06,-2.66692e-06,0,3.75341e-06,-8.18714e+08,-8.19046e+08,-8.18863e+08,257484,-0.0070823,-0.0915727,-0,0.0918462,13709.2,-29810.8,0,32812,257484
step02_gravity_refstate-crust.xmf,2039,1.88114e-06,-2.76684e-06,0,3.69691e-06,-8.40758e+08,-8.41077e+08,-8.40887e+08,253608,-0.0029601,-0.0964017,-0,0.0964471,13206.6,-30612,0,33339.3,253608
step02_gravity_refstate-crust.xmf,2040,1.50527e-06,-2.83193e-06,0,3.71085e-06,-8.61798e+08,-8.62096e+08,-8.61901e+08,254564,0.00160965,-0.101428,0,0.101441,12712.8,-31376.3,0,33853.9,254564
step02_gravity_refstate-crust.xmf,2041,9.5157e-07,-2.89802e-06,0,3.7603e-06,-8.83164e+08,-8.83428e+08,-8.83229e+08,257957,0.00693719,-0.10647,0,0.106696,12232.9,-32151.8,0,34400.4,257957
step02_gravity_refstate-crust.xmf,2042,3.45938e-07,-2.9652e-06,0,3.96948e-06,-9.02905e+08,-9.03132e+08,-9.02928e+08,272306,0.0123616,-0.112617,0,0.113293,11712.5,-32868,0,34892.5,272306
step02_gravity_refstate-crust.xmf,2043,-2.53271e-07,-3.07814e-06,0,4.3329e-06,-9.20284e+08,-9.20478e+08,-9.20267e+08,297237,0.017576,-0.119367,0,0.120654,11193.6,-33498.1,0,35318.8,297237
step02_gravity_refstate-crust.xmf,2044,-8.84779e-07,-3.24023e-06,0,4.81506e-06,-9.37046e+08,-9.37207e+08,-9.36985e+08,330313,0.0229268,-0.125678,0,0.127752,10724.9,-34105.5,0,35752,330313
step02_gravity_refstate-crust.xmf,2045,-3.06788e-06,-5.50908e-06,0,8.71886e-06,-1.0091e+09,-1.00926e+09,-1.00889e+09,598114,0.0440275,-0.151112,0,0.157395,8884.01,-36716.2,0,37775.8,598114
step02_gravity_refstate-crust.xmf,2046,-1.56845e-06,-3.48289e-06,0,5.4511e-06,-9.54607e+08,-9.54738e+08,-9.54499e+08,373945,0.0286144,-0.1316,0,0.134675,10286.6,-34741.7,0,36232.5,373945
step02_gravity_refstate-crust.xmf,2047,-2.21912e-06,-3.88261e-06,0,6.30035e-06,-9.72506e+08,-9.7262e+08,-9.72354e+08,432204,0.0342614,-0.137758,0,0.141954,9841.23,-35390.1,0,36732.9,432204
step02_gravity_refstate-crust.xmf,2048,-2.73824e-06,-4.50652e-06,0,7.35048e-06,-9.90097e+08,-9.90218e+08,-9.89909e+08,504243,0.0393941,-0.144161,0,0.149447,9386.59,-36027.4,0,37230.1,504243
step02_gravity_refstate-crust.xmf,2049,-2.99405e-06,-6.30619e-06,0,9.68553e-06,-1.03049e+09,-1.03071e+09,-1.03028e+09,664427,0.0459963,-0.148654,0,0.155607,8779.49,-37494,0,38508.2,664427
step02_gravity_refstate-crust.xmf,2050,-2.13124e-06,-8.79459e-06,0,1.16568e-05,-1.05914e+09,-1.05959e+09,-1.05899e+09,799656,0.0460434,-0.153218,0,0.159987,8155.76,-38536.7,0,39390.2,799656
step02_gravity_refstate-crust.xmf,2051,-1.0937e-06,-9.98004e-06,0,1.2394e-05,-1.08046e+09,-1.08107e+09,-1.08038e+09,850227,0.0418919,-0.147002,0,0.152855,8096.9,-39315.3,0,40140.4,850227
step02_gravity_refstate-crust.xmf,2052,1.85144e-06,-4.37772e-07,0,1.01716e-06,-2.50471e+08,-2.50628e+08,-2.50598e+08,69777.3,-0.0134011,0.0293705,-0,0.0322833,33060.7,-9125.45,0,34296.9,69777.3
step02_gravity_refstate-crust.xmf,2053,1.3422e-06,-4.95093e-07,0,2.9432e-06,-3.89174e+08,-3.893e+08,-3.89266e+08,201903,-0.0214895,-0.0133651,-0,0.0253066,24041.9,-14172.9,0,27908.5,201903
step02_gravity_refstate-crust.xmf,2054,1.47144e-06,-3.9344e-07,0,2.01469e-06,-3.01509e+08,-3.01637e+08,-3.0161e+08,138208,-0.0197617,0.00842376,-0,0.0214822,27865.4,-10982.1,0,29951.4,138208
step02_gravity_refstate-crust.xmf,2055,1.39172e-06,-4.31332e-07,0,2.29327e-06,-3.47635e+08,-3.4776e+08,-3.47731e+08,157318,-0.0191751,0.00381874,-0,0.0195517,26899.1,-12661,0,29729.8,157318
step02_gravity_refstate-crust.xmf,2056,2.44086e-06,-1.84734e-06,0,4.15745e-06,-6.96284e+08,-6.96578e+08,-6.96451e+08,285201,-0.020087,-0.0694471,-0,0.0722937,16314.1,-25355.9,0,30150.8,285201
step02_gravity_refstate-crust.xmf,2057,1.93503e-06,-1.17592e-06,0,3.97715e-06,-5.85313e+08,-5.85526e+08,-5.85445e+08,272832,-0.0224609,-0.0486899,-0,0.0536209,18931.7,-21314.9,0,28508.5,272832
step02_gravity_refstate-crust.xmf,2058,-2.56968e-06,-7.06216e-06,0,1.03661e-05,-1.05028e+09,-1.05059e+09,-1.0501e+09,711113,0.0454437,-0.143293,0,0.150326,8806.68,-38215.2,0,39216.8,711113
step02_gravity_refstate-crust.xmf,2059,1.54447e-06,-3.95768e-07,0,1.65043e-06,-3.00937e+08,-3.0107e+08,-3.01043e+08,113220,-0.0167565,0.018147,-0,0.0247001,29869.5,-10961.6,0,31817.3,113220
step02_gravity_refstate-crust.xmf,2060,1.60647e-06,-3.88696e-07,0,1.29295e-06,-3.00653e+08,-3.0079e+08,-3.00763e+08,88696.6,-0.0135265,0.0263338,-0,0.0296046,31918.2,-10951.5,0,33744.7,88696.6
step02_gravity_refstate-crust.xmf,2061,1.87914e-06,-4.29901e-07,0,6.79744e-07,-2.57811e+08,-2.5797e+08,-2.5794e+08,46630.4,-0.00886096,0.0353949,-0,0.0364872,35368.4,-9392.82,0,36594.4,46630.4
step02_gravity_refstate-crust.xmf,2062,2.19834e-06,-5.44853e-07,0,4.89496e-07,-2.06509e+08,-2.06697e+08,-2.0666e+08,33579.4,-0.00854854,0.0360052,-0,0.0370061,36174.8,-7526.21,0,36949.4,33579.4
step02_gravity_refstate-crust.xmf,2063,2.42536e-06,-6.26261e-07,0,2.44235e-07,-1.79314e+08,-1.79523e+08,-1.7948e+08,16754.5,-0.00510252,0.0376945,-0,0.0380383,37911.9,-6536.94,0,38471.3,16754.5
step02_gravity_refstate-crust.xmf,2064,2.71124e-06,-7.54187e-07,0,-2.10461e-09,-1.46626e+08,-1.46864e+08,-1.46812e+08,-144.376,-3.61748e-19,0.0378249,-0,0.0378249,40000,-5347.88,0,40355.9,144.376
step02_gravity_refstate-crust.xmf,2065,1.39621e-06,-5.93501e-07,0,3.1534e-06,-4.29539e+08,-4.29675e+08,-4.29635e+08,216323,-0.021283,-0.0184975,-0,0.0281979,23198.2,-15642.5,0,27979.4,216323
step02_gravity_refstate-crust.xmf,2066,1.36961e-06,-4.9992e-07,0,2.54393e-06,-3.9046e+08,-3.90588e+08,-3.90554e+08,174513,-0.0189245,-0.00133643,-0,0.0189716,25899.8,-14219.9,0,29546.6,174513
step02_gravity_refstate-crust.xmf,2067,2.07107e-06,-1.34597e-06,0,4.01185e-06,-6.17231e+08,-6.17465e+08,-6.17373e+08,275213,-0.0219208,-0.0530336,-0,0.0573854,18323.2,-22477.2,0,28999.4,275213
step02_gravity_refstate-crust.xmf,2068,2.33139e-06,-1.6803e-06,0,4.11606e-06,-6.72937e+08,-6.73213e+08,-6.73097e+08,282362,-0.0208128,-0.0639493,-0,0.0672509,16953.1,-24505.8,0,29798.3,282362
step02_gravity_refstate-crust.xmf,2069,2.20293e-06,-1.51849e-06,0,4.04747e-06,-6.46851e+08,-6.47106e+08,-6.47002e+08,277656,-0.0213199,-0.0580165,-0,0.0618098,17667.5,-23555.8,0,29445.2,277656
step02_gravity_refstate-crust.xmf,2070,2.24036e-06,-2.22641e-06,0,3.54993e-06,-7.68228e+08,-7.68534e+08,-7.68382e+08,243526,-0.0119795,-0.0703672,-0,0.0713796,15762.4,-27973.7,0,32108.9,243526
step02_gravity_refstate-crust.xmf,2071,2.28756e-06,-1.93251e-06,0,3.70497e-06,-7.18834e+08,-7.19123e+08,-7.1899e+08,254161,-0.016323,-0.062137,-0,0.0642452,16841,-26176.1,0,31125.7,254161
step02_gravity_refstate-crust.xmf,2072,2.29062e-06,-2.08063e-06,0,3.63828e-06,-7.42943e+08,-7.43243e+08,-7.431e+08,249586,-0.0144578,-0.0661292,-0,0.0676912,16313,-27053.6,0,31591.4,249586
step02_gravity_refstate-crust.xmf,2073,1.48033e-06,-7.1092e-07,0,3.32655e-06,-4.68757e+08,-4.68908e+08,-4.68859e+08,228201,-0.0211677,-0.0235711,-0,0.0316807,22386,-17070.5,0,28152,228201
step02_gravity_refstate-crust.xmf,2074,1.58597e-06,-8.45599e-07,0,3.45925e-06,-5.07148e+08,-5.07315e+08,-5.07257e+08,237304,-0.0210258,-0.028447,-0,0.0353739,21616.9,-18468.3,0,28431.8,237304
step02_gravity_refstate-crust.xmf,2075,1.70229e-06,-9.94853e-07,0,3.54501e-06,-5.44628e+08,-5.44813e+08,-5.44745e+08,243188,-0.0207257,-0.0329081,-0,0.0388908,20911.6,-19833.1,0,28820.9,243188
step02_gravity_refstate-crust.xmf,2076,1.81917e-06,-1.15666e-06,0,3.58207e-06,-5.81781e+08,-5.81986e+08,-5.81906e+08,245730,-0.0201563,-0.0370031,-0,0.0421367,20254.1,-21185.9,0,29309.9,245730
step02_gravity_refstate-crust.xmf,2077,2.10838e-06,-2.35402e-06,0,3.442e-06,-7.939e+08,-7.94206e+08,-7.94044e+08,236121,-0.00880101,-0.074546,-0,0.0750638,15223.2,-28907.6,0,32671,236121
step02_gravity_refstate-crust.xmf,2078,1.88711e-06,-2.45299e-06,0,3.3424e-06,-8.18691e+08,-8.18988e+08,-8.1882e+08,229289,-0.00507919,-0.0787401,-0,0.0789038,14699.1,-29809.1,0,33236.2,229289
step02_gravity_refstate-crust.xmf,2079,1.58778e-06,-2.52688e-06,0,3.29157e-06,-8.41879e+08,-8.42162e+08,-8.41988e+08,225802,-0.0010446,-0.0834265,-0,0.0834331,14160.3,-30652,0,33764.7,225802
step02_gravity_refstate-crust.xmf,2080,1.23316e-06,-2.58565e-06,0,3.31493e-06,-8.62807e+08,-8.63069e+08,-8.62892e+08,227404,0.00309238,-0.0886314,0,0.0886853,13615,-31412.3,0,34236,227404
step02_gravity_refstate-crust.xmf,2081,7.62626e-07,-2.60201e-06,0,3.38315e-06,-8.83654e+08,-8.83885e+08,-8.83706e+08,232084,0.00785388,-0.0930465,0,0.0933774,13146.9,-32169.4,0,34752.1,232084
step02_gravity_refstate-crust.xmf,2082,6.80567e-08,-2.60466e-06,0,3.55217e-06,-9.08773e+08,-9.08956e+08,-9.08778e+08,243679,0.0142078,-0.0972511,0,0.0982835,12680.7,-33081,0,35428.2,243679
step02_gravity_refstate-crust.xmf,2083,-4.68134e-07,-2.75158e-06,0,3.94508e-06,-9.25437e+08,-9.25593e+08,-9.25405e+08,270633,0.018796,-0.106365,0,0.108013,11960,-33685.3,0,35745.5,270633
step02_gravity_refstate-crust.xmf,2084,-9.09118e-07,-2.89537e-06,0,4.37293e-06,-9.37955e+08,-9.38091e+08,-9.37893e+08,299983,0.0225635,-0.113402,0,0.115624,11435.9,-34139,0,36003.5,299983
step02_gravity_refstate-crust.xmf,2085,-1.46582e-06,-3.04178e-06,0,4.84785e-06,-9.54705e+08,-9.54813e+08,-9.54604e+08,332563,0.0274223,-0.117263,0,0.120427,11093.8,-34746.3,0,36474.4,332563
step02_gravity_refstate-crust.xmf,2086,-2.917e-06,-4.52485e-06,0,7.64355e-06,-1.0089e+09,-1.00901e+09,-1.0087e+09,524347,0.0415456,-0.134817,0,0.141073,9708.05,-36711.3,0,37973.2,524347
step02_gravity_refstate-crust.xmf,2087,-2.08642e-06,-3.32847e-06,0,5.59237e-06,-9.73286e+08,-9.73372e+08,-9.73143e+08,383637,0.0327233,-0.122788,0,0.127074,10646.4,-35419.9,0,36985.3,383637
step02_gravity_refstate-crust.xmf,2088,-2.59671e-06,-3.80753e-06,0,6.53861e-06,-9.91663e+08,-9.91746e+08,-9.91485e+08,448549,0.0375768,-0.128651,0,0.134026,10183.6,-36086.1,0,37495.5,448549
step02_gravity_refstate-crust.xmf,2089,-2.99487e-06,-5.28449e-06,0,8.61145e-06,-1.02324e+09,-1.02339e+09,-1.02303e+09,590745,0.0439584,-0.138983,0,0.14577,9352.33,-37231.6,0,38388.3,590745
step02_gravity_refstate-crust.xmf,2090,-2.81224e-06,-5.67204e-06,0,9.14343e-06,-1.04004e+09,-1.04024e+09,-1.03985e+09,627239,0.0442242,-0.134465,0,0.14155,9414.69,-37843.7,0,38997.2,627239
step02_gravity_refstate-crust.xmf,2091,-1.87057e-06,-7.87909e-06,0,1.099e-05,-1.06982e+09,-1.07023e+09,-1.06969e+09,753917,0.0430498,-0.137683,0,0.144256,8822.27,-38928.1,0,39915.2,753917
step02_gravity_refstate-crust.xmf,2092,1.67155e-06,-3.84072e-07,0,9.76118e-07,-2.96013e+08,-2.96154e+08,-2.96128e+08,66961.7,-0.010626,0.0321342,-0,0.0338455,33778,-10782.8,0,35457.3,66961.7
step02_gravity_refstate-crust.xmf,2093,1.39016e-06,-5.90104e-07,0,2.76297e-06,-4.30146e+08,-4.30282e+08,-4.30241e+08,189540,-0.0188788,-0.00677665,-0,0.0200582,24909.4,-15664.6,0,29425.5,189540
step02_gravity_refstate-crust.xmf,2094,1.43043e-06,-4.19248e-07,0,1.91133e-06,-3.4874e+08,-3.48866e+08,-3.48838e+08,131117,-0.0163577,0.0141841,-0,0.0216509,28865.2,-12701.4,0,31536.1,131117
step02_gravity_refstate-crust.xmf,2095,1.36997e-06,-4.75766e-07,0,2.14017e-06,-3.94662e+08,-3.94788e+08,-3.94755e+08,146816,-0.0160817,0.00986914,-0,0.0188685,27864.5,-14372.9,0,31353,146816
step02_gravity_refstate-crust.xmf,2096,2.26923e-06,-1.79798e-06,0,3.78306e-06,-6.96778e+08,-6.97057e+08,-6.96934e+08,259518,-0.0178486,-0.0593708,-0,0.0619956,17244.5,-25373.3,0,30678.6,259518
step02_gravity_refstate-crust.xmf,2097,1.92716e-06,-1.32215e-06,0,3.58508e-06,-6.16689e+08,-6.16912e+08,-6.16821e+08,245937,-0.0193569,-0.0409669,-0,0.0453098,19622.6,-22456.9,0,29822.1,245937
step02_gravity_refstate-crust.xmf,2098,6.83365e-07,-2.39427e-06,0,3.11671e-06,-8.8158e+08,-8.81791e+08,-8.81627e+08,213806,0.00790414,-0.08299,0,0.0833656,13916.5,-32093.9,0,34981.2,213806
step02_gravity_refstate-crust.xmf,2099,-2.26909e-06,-6.40562e-06,0,9.81659e-06,-1.06071e+09,-1.06099e+09,-1.06055e+09,673418,0.0429309,-0.129029,0,0.135984,9464.81,-38597,0,39740.5,673418
step02_gravity_refstate-crust.xmf,2100,-1.01266e-06,-8.6848e-06,0,1.15103e-05,-1.08718e+09,-1.08771e+09,-1.08711e+09,789605,0.0394019,-0.132287,0,0.13803,8830.27,-39562.5,0,40535.9,789605
step02_gravity_refstate-crust.xmf,2101,1.44817e-06,-3.88545e-07,0,1.53394e-06,-3.49851e+08,-3.49977e+08,-3.4995e+08,105228,-0.0133874,0.0231802,-0,0.0267684,30898.4,-12741.9,0,33422.6,105228
step02_gravity_refstate-crust.xmf,2102,1.47519e-06,-3.53421e-07,0,1.1095e-06,-3.48568e+08,-3.48694e+08,-3.4867e+08,76111.5,-0.0099369,0.0314301,-0,0.0329635,33285.2,-12695.4,0,35624.1,76111.5
step02_gravity_refstate-crust.xmf,2103,1.58176e-06,-3.45486e-07,0,7.58583e-07,-3.22561e+08,-3.22693e+08,-3.22669e+08,52038.8,-0.00755661,0.0360715,-0,0.0368546,35257.4,-11749,0,37163.4,52038.8
step02_gravity_refstate-crust.xmf,2104,1.95527e-06,-4.39277e-07,0,3.26875e-07,-2.51173e+08,-2.51338e+08,-2.51308e+08,22423.7,-0.00444688,0.0389121,-0,0.0391653,37735.6,-9151.45,0,38829.4,22423.7
step02_gravity_refstate-crust.xmf,2105,2.17581e-06,-5.18839e-07,0,-1.26915e-09,-2.17082e+08,-2.17267e+08,-2.17231e+08,-87.0635,-3.15981e-19,0.0394528,-0,0.0394528,40000,-7911.08,0,40774.8,87.0635
step02_gravity_refstate-crust.xmf,2106,1.44117e-06,-6.98472e-07,0,2.92793e-06,-4.68936e+08,-4.69083e+08,-4.69035e+08,200856,-0.0187489,-0.0116799,-0,0.0220893,24037.7,-17076.8,0,29486.1,200856
step02_gravity_refstate-crust.xmf,2107,1.36275e-06,-5.57932e-07,0,2.37257e-06,-4.34559e+08,-4.34691e+08,-4.34653e+08,162758,-0.0162541,0.00425721,-0,0.0168023,26704.6,-15825.2,0,31041.5,162758
step02_gravity_refstate-crust.xmf,2108,2.0278e-06,-1.48723e-06,0,3.59167e-06,-6.48354e+08,-6.48595e+08,-6.48493e+08,246388,-0.018521,-0.0455977,-0,0.0492156,18937.3,-23609.9,0,30266.3,246388
step02_gravity_refstate-crust.xmf,2109,2.1175e-06,-1.66721e-06,0,3.57469e-06,-6.80483e+08,-6.80742e+08,-6.80628e+08,245224,-0.0173301,-0.0506802,-0,0.0535613,18210.1,-24779.6,0,30751.2,245224
step02_gravity_refstate-crust.xmf,2110,1.8255e-06,-2.14897e-06,0,3.0725e-06,-7.93972e+08,-7.94244e+08,-7.94097e+08,210774,-0.00669089,-0.0624367,-0,0.0627942,16291.2,-28909.4,0,33183.7,210774
step02_gravity_refstate-crust.xmf,2111,2.08069e-06,-1.79426e-06,0,3.3782e-06,-7.11547e+08,-7.11813e+08,-7.1169e+08,231745,-0.0147131,-0.0511637,-0,0.0532372,17961.5,-25910.2,0,31527.1,231745
step02_gravity_refstate-crust.xmf,2112,1.96324e-06,-2.04655e-06,0,3.16324e-06,-7.67891e+08,-7.68166e+08,-7.68026e+08,216998,-0.0097036,-0.0582623,-0,0.0590648,16871.5,-27960.6,0,32656.4,216998
step02_gravity_refstate-crust.xmf,2113,2.03713e-06,-1.92711e-06,0,3.25444e-06,-7.41388e+08,-7.4166e+08,-7.41528e+08,223254,-0.012222,-0.054301,-0,0.0556594,17443.9,-26996.2,0,32141.6,223254
step02_gravity_refstate-crust.xmf,2114,1.51369e-06,-8.23594e-07,0,3.04756e-06,-5.07613e+08,-5.07773e+08,-5.07717e+08,209062,-0.0185096,-0.0162797,-0,0.0246502,23229.1,-18485,0,29686.4,209062
step02_gravity_refstate-crust.xmf,2115,1.59734e-06,-9.61147e-07,0,3.12435e-06,-5.4577e+08,-5.45945e+08,-5.45879e+08,214331,-0.0181136,-0.0206517,-0,0.0274699,22464.7,-19874.3,0,29994.1,214331
step02_gravity_refstate-crust.xmf,2116,1.76031e-06,-1.24946e-06,0,3.17904e-06,-6.16959e+08,-6.17165e+08,-6.1708e+08,218082,-0.0167819,-0.0291596,-0,0.0336439,21009.7,-22466.2,0,30759.3,218082
step02_gravity_refstate-crust.xmf,2117,1.68203e-06,-1.10598e-06,0,3.16224e-06,-5.83094e+08,-5.83285e+08,-5.83209e+08,216930,-0.0175056,-0.0248825,-0,0.0304235,21728.7,-21233.2,0,30380.7,216930
step02_gravity_refstate-crust.xmf,2118,1.60945e-06,-2.22441e-06,0,2.99132e-06,-8.19146e+08,-8.19409e+08,-8.19257e+08,205205,-0.00318607,-0.0665742,-0,0.0666504,15732.7,-29824.9,0,33720.1,205205
step02_gravity_refstate-crust.xmf,2119,1.29984e-06,-2.27713e-06,0,2.94023e-06,-8.44257e+08,-8.44502e+08,-8.44346e+08,201700,0.000905877,-0.0710633,0,0.0710691,15158,-30737.8,0,34272.1,201700
step02_gravity_refstate-crust.xmf,2120,9.57107e-07,-2.33047e-06,0,2.98858e-06,-8.66229e+08,-8.66454e+08,-8.66294e+08,205016,0.00487003,-0.0769621,0,0.077116,14506.1,-31536.2,0,34712.5,205016
step02_gravity_refstate-crust.xmf,2121,1.16569e-07,-2.31937e-06,0,3.16227e-06,-9.03403e+08,-9.0357e+08,-9.03411e+08,216932,0.0129813,-0.0838315,0,0.0848306,13704.6,-32886.2,0,35627.4,216932
step02_gravity_refstate-crust.xmf,2122,-1.23817e-06,-2.64802e-06,0,4.23419e-06,-9.50577e+08,-9.50674e+08,-9.50492e+08,290465,0.0251969,-0.103378,0,0.106405,11994.5,-34597.6,0,36617.8,290465
step02_gravity_refstate-crust.xmf,2123,-7.03159e-07,-2.47681e-06,0,3.74082e-06,-9.33911e+08,-9.34032e+08,-9.33863e+08,256620,0.0205882,-0.0956363,0,0.0978273,12631.6,-33993.3,0,36264.3,256620
step02_gravity_refstate-crust.xmf,2124,-2.86074e-06,-4.67894e-06,0,8.01206e-06,-1.02755e+09,-1.02767e+09,-1.02735e+09,549627,0.0424053,-0.127037,0,0.133928,9966.36,-37390.1,0,38695.6,549627
step02_gravity_refstate-crust.xmf,2125,-1.92375e-06,-2.86441e-06,0,4.98755e-06,-9.73838e+08,-9.73903e+08,-9.73706e+08,342146,0.0311422,-0.108664,0,0.113038,11498.6,-35441.3,0,37260,342146
step02_gravity_refstate-crust.xmf,2126,-2.7456e-06,-3.8588e-06,0,6.90794e-06,-1.01193e+09,-1.01201e+09,-1.01174e+09,473885,0.0396881,-0.120494,0,0.126862,10489.6,-36823.4,0,38288.3,473885
step02_gravity_refstate-crust.xmf,2127,-2.42631e-06,-3.25413e-06,0,5.87537e-06,-9.9386e+08,-9.93917e+08,-9.93693e+08,403050,0.0358981,-0.114316,0,0.11982,11004.4,-36167.6,0,37804.7,403050
step02_gravity_refstate-crust.xmf,2128,-2.59095e-06,-5.05789e-06,0,8.55659e-06,-1.04766e+09,-1.04783e+09,-1.04748e+09,586982,0.0422342,-0.121265,0,0.128409,10096.4,-38122.7,0,39437,586982
step02_gravity_refstate-crust.xmf,2129,-1.49601e-06,-7.07489e-06,0,1.03058e-05,-1.08063e+09,-1.08102e+09,-1.08053e+09,706981,0.0398807,-0.122466,0,0.128795,9567.17,-39324.6,0,40471.6,706981
step02_gravity_refstate-crust.xmf,2130,-5.25327e-07,-2.26998e-06,0,3.38953e-06,-9.28706e+08,-9.28826e+08,-9.2867e+08,232522,0.0189043,-0.0856887,0,0.0877492,13397.9,-33804.8,0,36363,232522
step02_gravity_refstate-crust.xmf,2131,1.72217e-06,-3.71424e-07,0,5.30877e-07,-2.93875e+08,-2.94018e+08,-2.93993e+08,36418.2,-0.00593556,0.0380712,-0,0.0385311,36571.5,-10705.2,0,38106.1,36418.2
step02_gravity_refstate-crust.xmf,2132,1.38483e-06,-6.53904e-07,0,2.55398e-06,-4.70549e+08,-4.70688e+08,-4.70644e+08,175203,-0.0163684,-0.00100294,-0,0.0163991,25681.3,-17135.4,0,30873.1,175203
step02_gravity_refstate-crust.xmf,2133,1.2946e-06,-5.03996e-07,0,1.95089e-06,-4.47634e+08,-4.47757e+08,-4.47723e+08,133831,-0.0131472,0.0150289,-0,0.0199679,28700.9,-16301,0,33007,133831
step02_gravity_refstate-crust.xmf,2134,1.35192e-06,-4.29943e-07,0,1.75135e-06,-3.97413e+08,-3.97536e+08,-3.97506e+08,120143,-0.013293,0.0194658,-0,0.0235716,29844.7,-14473,0,33168.9,120143
step02_gravity_refstate-crust.xmf,2135,1.84121e-06,-1.38369e-06,0,3.1875e-06,-6.48114e+08,-6.48335e+08,-6.4824e+08,218662,-0.0158924,-0.0334564,-0,0.0370392,20310.4,-23600.5,0,31136.8,218662
step02_gravity_refstate-crust.xmf,2136,3.34689e-07,-2.15442e-06,0,2.88355e-06,-8.9181e+08,-8.9198e+08,-8.91833e+08,197812,0.0105858,-0.0736341,0,0.0743911,14609.9,-32465.2,0,35601.2,197812
step02_gravity_refstate-crust.xmf,2137,-2.09957e-06,-5.72517e-06,0,9.1821e-06,-1.06584e+09,-1.06608e+09,-1.06569e+09,629892,0.0410308,-0.117747,0,0.124691,10091.9,-38785.5,0,40076.9,629892
step02_gravity_refstate-crust.xmf,2138,-1.2193e-06,-2.29603e-06,0,3.84172e-06,-9.53026e+08,-9.531e+08,-9.52942e+08,263542,0.0246122,-0.0898502,0,0.0931602,12931.1,-34687.4,0,37019.3,263542
step02_gravity_refstate-crust.xmf,2139,1.3279e-06,-3.69166e-07,0,1.35895e-06,-3.98276e+08,-3.98392e+08,-3.98367e+08,93224.2,-0.0104179,0.0278482,-0,0.0297331,31969.9,-14504.4,0,35106.3,93224.2
step02_gravity_refstate-crust.xmf,2140,1.40158e-06,-3.11482e-07,0,8.00957e-07,-3.69091e+08,-3.69208e+08,-3.69187e+08,54945.7,-0.00681594,0.036356,-0,0.0369894,35128.5,-13442.3,0,37612.6,54945.7
step02_gravity_refstate-crust.xmf,2141,1.4565e-06,-3.02798e-07,0,5.33768e-07,-3.54762e+08,-3.54883e+08,-3.54862e+08,36616.5,-0.00478865,0.039026,-0,0.0393187,36713.2,-12920.9,0,38920.5,36616.5
step02_gravity_refstate-crust.xmf,2142,1.6052e-06,-3.29339e-07,0,2.92836e-07,-3.20499e+08,-3.20631e+08,-3.20609e+08,20088.6,-0.00297804,0.0402561,-0,0.0403661,38148,-11674.1,0,39894.3,20088.6
step02_gravity_refstate-crust.xmf,2143,1.7737e-06,-3.74619e-07,0,3.79203e-10,-2.85754e+08,-2.85901e+08,-2.85875e+08,26.0133,-2.11432e-19,0.0405692,-0,0.0405692,40000,-10409.7,0,41332.3,26.0133
step02_gravity_refstate-crust.xmf,2144,1.42363e-06,-7.62273e-07,0,2.6637e-06,-5.08045e+08,-5.08195e+08,-5.08142e+08,182730,-0.0161027,-0.00521458,-0,0.016926,24856.4,-18500.5,0,30985.6,182730
step02_gravity_refstate-crust.xmf,2145,1.32664e-06,-5.95895e-07,0,2.23284e-06,-4.73907e+08,-4.74039e+08,-4.73998e+08,153173,-0.0142294,0.00768844,-0,0.0161736,27171.7,-17257.5,0,32188.9,153173
step02_gravity_refstate-crust.xmf,2146,1.34534e-06,-1.98526e-06,0,2.68613e-06,-8.20194e+08,-8.20423e+08,-8.20287e+08,184268,-0.00139183,-0.0549312,-0,0.0549488,16821.5,-29862.4,0,34274.2,184268
step02_gravity_refstate-crust.xmf,2147,1.88368e-06,-1.53379e-06,0,3.166e-06,-6.77462e+08,-6.77696e+08,-6.77591e+08,217187,-0.0148265,-0.0380252,-0,0.0408135,19599.2,-24668.9,0,31506.9,217187
step02_gravity_refstate-crust.xmf,2148,1.86331e-06,-1.65326e-06,0,3.0498e-06,-7.09187e+08,-7.09428e+08,-7.09315e+08,209216,-0.0127162,-0.0406036,-0,0.0425483,19102.9,-25823.6,0,32121.4,209216
step02_gravity_refstate-crust.xmf,2149,1.55223e-06,-1.9275e-06,0,2.74779e-06,-7.94705e+08,-7.94944e+08,-7.94811e+08,188499,-0.00467385,-0.0508223,-0,0.0510367,17416.9,-28935.3,0,33772.8,188499
step02_gravity_refstate-crust.xmf,2150,1.79654e-06,-1.75435e-06,0,2.92545e-06,-7.39481e+08,-7.39725e+08,-7.39604e+08,200686,-0.0102351,-0.04325,-0,0.0444445,18605.9,-26926.1,0,32729.1,200686
step02_gravity_refstate-crust.xmf,2151,1.69643e-06,-1.84685e-06,0,2.82581e-06,-7.67875e+08,-7.68119e+08,-7.67992e+08,193850,-0.00758651,-0.0467536,-0,0.0473651,18031.2,-27959.3,0,33269.3,193850
step02_gravity_refstate-crust.xmf,2152,1.47219e-06,-8.82573e-07,0,2.72933e-06,-5.46443e+08,-5.46605e+08,-5.46544e+08,187232,-0.0156064,-0.00918188,-0,0.0181071,24078.8,-19898.4,0,31236.8,187232
step02_gravity_refstate-crust.xmf,2153,1.62181e-06,-1.25859e-06,0,2.80403e-06,-6.48754e+08,-6.48952e+08,-6.48866e+08,192357,-0.0134032,-0.0220786,-0,0.0258285,21726.4,-23623.2,0,32095,192357
step02_gravity_refstate-crust.xmf,2154,1.52316e-06,-1.00964e-06,0,2.7616e-06,-5.84282e+08,-5.84456e+08,-5.84387e+08,189446,-0.0149153,-0.0131851,-0,0.0199077,23306,-21276,0,31556.9,189446
step02_gravity_refstate-crust.xmf,2155,1.57362e-06,-1.13478e-06,0,2.78724e-06,-6.19079e+08,-6.19265e+08,-6.19187e+08,191205,-0.0141626,-0.0175946,-0,0.0225865,22500.1,-22542.8,0,31850.2,191205
step02_gravity_refstate-crust.xmf,2156,1.65596e-06,-1.36871e-06,0,2.78524e-06,-6.78495e+08,-6.78703e+08,-6.78609e+08,191067,-0.0121925,-0.0259538,-0,0.028675,21043.4,-24705.9,0,32453.1,191067
step02_gravity_refstate-crust.xmf,2157,1.04723e-06,-2.01656e-06,0,2.64937e-06,-8.46117e+08,-8.46327e+08,-8.46189e+08,181747,0.00252445,-0.0591535,0,0.0592074,16227.5,-30804.9,0,34817.7,181747
step02_gravity_refstate-crust.xmf,2158,6.14525e-07,-2.02626e-06,0,2.68154e-06,-8.74636e+08,-8.74817e+08,-8.74678e+08,183953,0.00747261,-0.0641994,0,0.0646328,15558.1,-31841.3,0,35439,183953
step02_gravity_refstate-crust.xmf,2159,-3.63696e-07,-1.99585e-06,0,2.98713e-06,-9.22069e+08,-9.22181e+08,-9.22044e+08,204917,0.0169899,-0.0724311,0,0.0743971,14517.9,-33564.3,0,36569.5,204917
step02_gravity_refstate-crust.xmf,2160,-1.76247e-06,-2.48115e-06,0,4.48542e-06,-9.74959e+08,-9.75009e+08,-9.74839e+08,307700,0.0297281,-0.0954247,0,0.0999482,12386.5,-35483.4,0,37583.2,307700
step02_gravity_refstate-crust.xmf,2161,-2.64516e-06,-4.08252e-06,0,7.38405e-06,-1.03348e+09,-1.03358e+09,-1.0333e+09,506546,0.0405239,-0.113369,0,0.120394,10737,-37608,0,39110.7,506546
step02_gravity_refstate-crust.xmf,2162,-2.23302e-06,-2.79155e-06,0,5.30218e-06,-9.96458e+08,-9.96496e+08,-9.96304e+08,363730,0.0342565,-0.100603,0,0.106275,11880,-36263.7,0,38160.1,363730
step02_gravity_refstate-crust.xmf,2163,-2.53519e-06,-3.31557e-06,0,6.27606e-06,-1.01603e+09,-1.01609e+09,-1.01586e+09,430538,0.0378814,-0.106595,0,0.113126,11329.3,-36974.3,0,38671.1,430538
step02_gravity_refstate-crust.xmf,2164,-2.22583e-06,-4.60175e-06,0,8.02939e-06,-1.0581e+09,-1.05826e+09,-1.05795e+09,550816,0.0398971,-0.107217,0,0.114399,10886.8,-38505,0,40014.5,550816
step02_gravity_refstate-crust.xmf,2165,-1.56013e-06,-5.79316e-06,0,9.11246e-06,-1.0806e+09,-1.08089e+09,-1.08049e+09,625115,0.0384548,-0.108559,0,0.115169,10500.1,-39324.9,0,40702.6,625115
step02_gravity_refstate-crust.xmf,2166,-1.03281e-06,-2.0166e-06,0,3.43442e-06,-9.51056e+08,-9.51123e+08,-9.50985e+08,235601,0.0231289,-0.0773874,0,0.0807698,13921.7,-34616.8,0,37311.4,235601
step02_gravity_refstate-crust.xmf,2167,1.29278e-06,-3.16226e-07,0,9.90627e-07,-4.03658e+08,-4.03768e+08,-4.03746e+08,67957,-0.0075703,0.0341869,-0,0.0350151,34040.9,-14700.3,0,37079.4,67957
step02_gravity_refstate-crust.xmf,2168,1.32882e-06,-6.76784e-07,0,2.31404e-06,-5.07352e+08,-5.0749e+08,-5.07443e+08,158743,-0.013916,0.00451859,-0,0.0146313,26465.4,-18475,0,32276.1,158743
step02_gravity_refstate-crust.xmf,2169,1.24696e-06,-5.56339e-07,0,1.96376e-06,-4.9595e+08,-4.96074e+08,-4.96035e+08,134714,-0.0119432,0.0141829,-0,0.0185417,28336.4,-18059.7,0,33602.2,134714
step02_gravity_refstate-crust.xmf,2170,1.24006e-06,-4.14831e-07,0,1.54507e-06,-4.43828e+08,-4.43941e+08,-4.43913e+08,105991,-0.0105412,0.024364,-0,0.0265466,30852.8,-16162.4,0,34829.8,105991
step02_gravity_refstate-crust.xmf,2171,1.42262e-06,-1.20178e-06,0,2.45404e-06,-6.78637e+08,-6.78817e+08,-6.78734e+08,168347,-0.0100225,-0.0153991,-0,0.0183734,22453.2,-24710.3,0,33387.9,168347
step02_gravity_refstate-crust.xmf,2172,5.33897e-08,-1.90466e-06,0,2.71213e-06,-9.02165e+08,-9.023e+08,-9.02169e+08,186052,0.0128796,-0.0641771,0,0.0654567,15379.4,-32841.5,0,36264.2,186052
step02_gravity_refstate-crust.xmf,2173,-1.63552e-06,-2.12866e-06,0,4.03136e-06,-9.75874e+08,-9.75908e+08,-9.75762e+08,276551,0.0282625,-0.082469,0,0.0871774,13357.6,-35517.8,0,37946.5,276551
step02_gravity_refstate-crust.xmf,2174,1.18518e-06,-3.3472e-07,0,1.174e-06,-4.4602e+08,-4.46124e+08,-4.46101e+08,80536.6,-0.00797618,0.0315516,-0,0.0325442,32921.3,-16242.1,0,36709.9,80536.6
step02_gravity_refstate-crust.xmf,2175,1.24021e-06,-2.65913e-07,0,6.2466e-07,-4.13376e+08,-4.13479e+08,-4.13461e+08,42851.7,-0.00467313,0.038825,-0,0.0391052,36191.8,-15054,0,39197.8,42851.7
step02_gravity_refstate-crust.xmf,2176,1.33141e-06,-2.62098e-07,0,2.88345e-07,-3.85673e+08,-3.85782e+08,-3.85764e+08,19780.4,-0.00235754,0.0410205,-0,0.0410882,38228.4,-14045.8,0,40727.1,19780.4
step02_gravity_refstate-crust.xmf,2177,1.46244e-06,-2.88025e-07,0,9.13529e-10,-3.52834e+08,-3.52954e+08,-3.52934e+08,62.6681,-1.66862e-19,0.0413773,-0,0.0413773,40000,-12850.7,0,42013.6,62.6681
step02_gravity_refstate-crust.xmf,2178,1.33809e-06,-7.72453e-07,0,2.35948e-06,-5.46369e+08,-5.46514e+08,-5.46461e+08,161861,-0.0132558,0.00140095,-0,0.0133297,25754.3,-19895.3,0,32543.9,161861
step02_gravity_refstate-crust.xmf,2179,1.15831e-06,-4.6075e-07,0,1.62568e-06,-4.92875e+08,-4.92986e+08,-4.92955e+08,111522,-0.00991346,0.0221744,-0,0.0242895,30116.4,-17947.6,0,35058.7,111522
step02_gravity_refstate-crust.xmf,2180,8.39011e-07,-1.7637e-06,0,2.40146e-06,-8.46848e+08,-8.47026e+08,-8.46905e+08,164740,0.00371786,-0.0478846,0,0.0480287,17357.5,-30831,0,35381.3,164740
step02_gravity_refstate-crust.xmf,2181,1.10814e-06,-1.74454e-06,0,2.42464e-06,-8.21016e+08,-8.21212e+08,-8.21092e+08,166331,0.000139407,-0.0439177,0,0.0439179,17961.9,-29891.7,0,34873.3,166331
step02_gravity_refstate-crust.xmf,2182,1.62402e-06,-1.48309e-06,0,2.71157e-06,-7.09527e+08,-7.09741e+08,-7.09639e+08,186014,-0.0104413,-0.0295958,-0,0.0313836,20388.4,-25835.3,0,32911.2,186014
step02_gravity_refstate-crust.xmf,2183,1.55468e-06,-1.56474e-06,0,2.61828e-06,-7.38922e+08,-7.39136e+08,-7.39029e+08,179614,-0.00823927,-0.0325163,-0,0.0335439,19836.8,-26905.1,0,33427.2,179614
step02_gravity_refstate-crust.xmf,2184,1.30286e-06,-1.70035e-06,0,2.46961e-06,-7.9516e+08,-7.95366e+08,-7.9525e+08,169416,-0.00293628,-0.0399027,-0,0.0400106,18588.1,-28951.2,0,34404.8,169416
step02_gravity_refstate-crust.xmf,2185,1.44329e-06,-1.63543e-06,0,2.52941e-06,-7.68107e+08,-7.68319e+08,-7.68206e+08,173517,-0.00566019,-0.0358662,-0,0.0363101,19239.8,-27967,0,33945.9,173517
step02_gravity_refstate-crust.xmf,2186,1.348e-06,-8.78573e-07,0,2.37608e-06,-5.87174e+08,-5.87327e+08,-5.87266e+08,162999,-0.0123524,-0.00203507,-0,0.0125189,24986.1,-21380.8,0,32885.3,162999
step02_gravity_refstate-crust.xmf,2187,1.43827e-06,-1.1191e-06,0,2.49613e-06,-6.51113e+08,-6.51288e+08,-6.51212e+08,171234,-0.0112509,-0.0125549,-0,0.0168585,23024.9,-23708.5,0,33049,171234
step02_gravity_refstate-crust.xmf,2188,1.36032e-06,-9.87769e-07,0,2.36342e-06,-6.30922e+08,-6.31083e+08,-6.31016e+08,162131,-0.0110234,-0.00587087,-0,0.0124893,24143,-22973.3,0,33326.5,162131
step02_gravity_refstate-crust.xmf,2189,1.40228e-06,-1.28267e-06,0,2.41189e-06,-7.08569e+08,-7.08753e+08,-7.08665e+08,165456,-0.00841663,-0.0188058,-0,0.0206034,21793,-25799.9,0,33772.3,165456
step02_gravity_refstate-crust.xmf,2190,4.87461e-07,-1.76042e-06,0,2.42664e-06,-8.73052e+08,-8.73206e+08,-8.73085e+08,166467,0.00783274,-0.051988,0,0.0525748,16754.6,-31783.6,0,35929.3,166467
step02_gravity_refstate-crust.xmf,2191,7.71894e-08,-1.74105e-06,0,2.522e-06,-8.98214e+08,-8.98339e+08,-8.98219e+08,173009,0.0121873,-0.055995,0,0.0573059,16188.2,-32698,0,36485.9,173009
step02_gravity_refstate-crust.xmf,2192,-4.15015e-07,-1.71508e-06,0,2.72656e-06,-9.24778e+08,-9.24867e+08,-9.2475e+08,187042,0.0170757,-0.0600047,0,0.0623871,15632.7,-33663.1,0,37115.9,187042
step02_gravity_refstate-crust.xmf,2193,-9.26622e-07,-1.75245e-06,0,3.09804e-06,-9.50517e+08,-9.50574e+08,-9.50453e+08,212526,0.0220128,-0.0654682,0,0.0690698,14965.7,-34598.1,0,37696.1,212526
step02_gravity_refstate-crust.xmf,2194,-2.02477e-06,-2.40056e-06,0,4.7844e-06,-9.98753e+08,-9.98779e+08,-9.98614e+08,328210,0.0325902,-0.0876138,0,0.0934789,12808.7,-36348.7,0,38539.5,328210
step02_gravity_refstate-crust.xmf,2195,-2.3834e-06,-3.54802e-06,0,6.73812e-06,-1.03948e+09,-1.03956e+09,-1.03932e+09,462235,0.0384974,-0.099677,0,0.106853,11603.6,-37828.3,0,39568,462235
step02_gravity_refstate-crust.xmf,2196,-2.29525e-06,-2.85128e-06,0,5.70013e-06,-1.02071e+09,-1.02075e+09,-1.02055e+09,391029,0.0360503,-0.0929415,0,0.0996882,12250,-37146.4,0,39114.1,391029
step02_gravity_refstate-crust.xmf,2197,-1.59255e-06,-4.79905e-06,0,8.06873e-06,-1.07898e+09,-1.0792e+09,-1.07887e+09,553515,0.0372619,-0.0967661,0,0.103693,11381.5,-39267.4,0,40883.5,553515
step02_gravity_refstate-crust.xmf,2198,-1.41126e-06,-1.84069e-06,0,3.60818e-06,-9.75748e+08,-9.75778e+08,-9.75652e+08,247521,0.0266871,-0.0701103,0,0.0750177,14397.6,-35514.5,0,38322,247521
step02_gravity_refstate-crust.xmf,2199,1.14538e-06,-2.7941e-07,0,8.71371e-07,-4.47259e+08,-4.47357e+08,-4.47338e+08,59776,-0.0059176,0.036179,-0,0.0366597,34668.7,-16287.1,0,38303.9,59776
step02_gravity_refstate-crust.xmf,2200,1.20756e-06,-6.43196e-07,0,2.00879e-06,-5.43493e+08,-5.4362e+08,-5.43576e+08,137803,-0.0111196,0.0111579,-0,0.0157526,27529.4,-19790.3,0,33904.6,137803
step02_gravity_refstate-crust.xmf,2201,1.09769e-06,-5.0785e-07,0,1.67611e-06,-5.3946e+08,-5.39571e+08,-5.39536e+08,114981,-0.00913348,0.0199284,-0,0.0219217,29395.2,-19643.2,0,35354.4,114981
step02_gravity_refstate-crust.xmf,2202,1.07613e-06,-3.61391e-07,0,1.27988e-06,-4.93221e+08,-4.9332e+08,-4.93295e+08,87799.8,-0.00773657,0.0294039,-0,0.0304047,32055.2,-17960,0,36743.7,87799.8
step02_gravity_refstate-crust.xmf,2203,1.23502e-06,-1.02656e-06,0,2.18614e-06,-6.75085e+08,-6.75241e+08,-6.7517e+08,149970,-0.00840483,-0.00596293,-0,0.0103052,23876.6,-24580.6,0,34268,149970
step02_gravity_refstate-crust.xmf,2204,1.17511e-06,-1.09023e-06,0,2.13191e-06,-7.07301e+08,-7.07457e+08,-7.07382e+08,146249,-0.00669389,-0.00895119,-0,0.0111773,23223.5,-25753.1,0,34677.8,146249
step02_gravity_refstate-crust.xmf,2205,-2.04645e-06,-3.85897e-06,0,7.138e-06,-1.05997e+09,-1.0601e+09,-1.05983e+09,489667,0.0378163,-0.0939438,0,0.101269,11821.4,-38575.1,0,40345.7,489667
step02_gravity_refstate-crust.xmf,2206,-1.85729e-06,-2.03709e-06,0,4.27509e-06,-1.00002e+09,-1.00003e+09,-9.99893e+08,293271,0.0307916,-0.0749256,0,0.081006,13829,-36396.1,0,38934.8,293271
step02_gravity_refstate-crust.xmf,2207,1.02298e-06,-2.80835e-07,0,9.71967e-07,-4.91704e+08,-4.91794e+08,-4.91775e+08,66677,-0.00584977,0.0347646,-0,0.0352533,33892.7,-17904.7,0,38331.4,66677
step02_gravity_refstate-crust.xmf,2208,9.86255e-07,-2.1559e-07,0,5.99237e-07,-4.85277e+08,-4.85359e+08,-4.85344e+08,41107.7,-0.0036638,0.0394552,-0,0.039625,36193.8,-17670.6,0,40277.1,41107.7
step02_gravity_refstate-crust.xmf,2209,1.08987e-06,-2.08779e-07,0,2.85792e-07,-4.49644e+08,-4.49733e+08,-4.49719e+08,19605.3,-0.00194352,0.0415551,-0,0.0416005,38210.9,-16373.8,0,41571.3,19605.3
step02_gravity_refstate-crust.xmf,2210,1.20015e-06,-2.26825e-07,0,1.73058e-09,-4.18512e+08,-4.18609e+08,-4.18594e+08,118.718,-1.37345e-19,0.041992,-0,0.041992,40000,-15240.8,0,42805.2,118.718
step02_gravity_refstate-crust.xmf,2211,1.18496e-06,-7.28513e-07,0,2.03642e-06,-5.86266e+08,-5.86397e+08,-5.86347e+08,139699,-0.0102271,0.00784529,-0,0.0128896,26700.2,-21347.2,0,34184.8,139699
step02_gravity_refstate-crust.xmf,2212,9.82291e-07,-3.90026e-07,0,1.3466e-06,-5.38646e+08,-5.3874e+08,-5.38713e+08,92376.8,-0.00722211,0.0273122,-0,0.0282509,31267.2,-19613.3,0,36909.7,92376.8
step02_gravity_refstate-crust.xmf,2213,6.64151e-07,-1.52234e-06,0,2.18789e-06,-8.46792e+08,-8.46942e+08,-8.46838e+08,150089,0.00459058,-0.0373504,0,0.0376315,18532.8,-30828.6,0,35970.4,150089
step02_gravity_refstate-crust.xmf,2214,3.48495e-07,-1.51457e-06,0,2.21639e-06,-8.73535e+08,-8.73663e+08,-8.73559e+08,152044,0.00839676,-0.0412491,0,0.0420951,17911.8,-31801,0,36498.4,152044
step02_gravity_refstate-crust.xmf,2215,9.02108e-07,-1.51324e-06,0,2.20286e-06,-8.21395e+08,-8.21561e+08,-8.21457e+08,151116,0.00136203,-0.0337828,0,0.0338102,19124,-29905,0,35497,151116
step02_gravity_refstate-crust.xmf,2216,1.31572e-06,-1.35868e-06,0,2.33321e-06,-7.39042e+08,-7.39226e+08,-7.39132e+08,160058,-0.00633575,-0.0220742,-0,0.0229655,21155.1,-26908.8,0,34229,160058
step02_gravity_refstate-crust.xmf,2217,1.19811e-06,-1.41549e-06,0,2.2581e-06,-7.69286e+08,-7.69465e+08,-7.69368e+08,154905,-0.00383998,-0.0254612,-0,0.0257492,20511.2,-28009.3,0,34716.4,154905
step02_gravity_refstate-crust.xmf,2218,1.05991e-06,-1.46708e-06,0,2.21695e-06,-7.96576e+08,-7.96749e+08,-7.96648e+08,152083,-0.00129265,-0.0294862,-0,0.0295145,19817.2,-29002.2,0,35126.1,152083
step02_gravity_refstate-crust.xmf,2219,1.14497e-06,-8.05199e-07,0,2.01748e-06,-6.28765e+08,-6.28899e+08,-6.28844e+08,138399,-0.00892032,0.00481687,-0,0.0101378,25934.6,-22894.2,0,34594,138399
step02_gravity_refstate-crust.xmf,2220,1.1024e-06,-1.14095e-06,0,2.08044e-06,-7.38869e+08,-7.39023e+08,-7.38945e+08,142718,-0.00467249,-0.0121294,-0,0.0129983,22553,-26902,0,35104.9,142718
step02_gravity_refstate-crust.xmf,2221,-1.69741e-08,-1.49764e-06,0,2.31294e-06,-8.99569e+08,-8.99671e+08,-8.99568e+08,158668,0.0124539,-0.0452602,0,0.0469424,17303.2,-32747.3,0,37037.7,158668
step02_gravity_refstate-crust.xmf,2222,-4.18557e-07,-1.4892e-06,0,2.50062e-06,-9.24997e+08,-9.2507e+08,-9.24968e+08,171543,0.0166753,-0.0495783,0,0.0523075,16686.5,-33671.4,0,37579.3,171543
step02_gravity_refstate-crust.xmf,2223,-8.52824e-07,-1.50361e-06,0,2.8079e-06,-9.50972e+08,-9.51017e+08,-9.50914e+08,192622,0.0210984,-0.0539961,0,0.0579717,16077.9,-34615.3,0,38167,192622
step02_gravity_refstate-crust.xmf,2224,-1.26744e-06,-1.58492e-06,0,3.25645e-06,-9.76261e+08,-9.76282e+08,-9.76174e+08,223393,0.0253536,-0.0588402,0,0.0640701,15448.8,-35534.2,0,38747.1,223393
step02_gravity_refstate-crust.xmf,2225,-2.04026e-06,-2.42814e-06,0,5.10141e-06,-1.02406e+09,-1.02409e+09,-1.02392e+09,349957,0.0340752,-0.0796003,0,0.0865871,13271.2,-37270,0,39562.3,349957
step02_gravity_refstate-crust.xmf,2226,-2.05204e-06,-3.12463e-06,0,6.19478e-06,-1.04945e+09,-1.04952e+09,-1.04931e+09,424962,0.036381,-0.0851967,0,0.0926394,12607.2,-38193.1,0,40220.1,424962
step02_gravity_refstate-crust.xmf,2227,-1.58358e-06,-3.96602e-06,0,7.10055e-06,-1.07707e+09,-1.07723e+09,-1.07696e+09,487098,0.035958,-0.0853066,0,0.0925753,12310.1,-39199.1,0,41086.6,487098
step02_gravity_refstate-crust.xmf,2228,-1.60561e-06,-1.75632e-06,0,3.83131e-06,-1.00076e+09,-1.00077e+09,-1.00065e+09,262828,0.0291124,-0.0634145,0,0.0697778,14862.9,-36424.3,0,39340,262828
step02_gravity_refstate-crust.xmf,2229,1.03007e-06,-5.71944e-07,0,1.70742e-06,-5.8515e+08,-5.85259e+08,-5.8522e+08,117129,-0.0082551,0.0169365,-0,0.0188412,28526.8,-21306.2,0,35605.2,117129
step02_gravity_refstate-crust.xmf,2230,9.04049e-07,-4.2371e-07,0,1.40401e-06,-5.83971e+08,-5.84062e+08,-5.84033e+08,96314.8,-0.00652038,0.0246968,-0,0.0255431,30377.3,-21263,0,37079.6,96314.8
step02_gravity_refstate-crust.xmf,2231,8.92471e-07,-2.84248e-07,0,1.03356e-06,-5.38244e+08,-5.38325e+08,-5.38306e+08,70902.4,-0.0054448,0.0333378,-0,0.0337795,33175.6,-19598.5,0,38532.1,70902.4
step02_gravity_refstate-crust.xmf,2232,1.08581e-06,-8.56322e-07,0,1.96382e-06,-6.69681e+08,-6.69814e+08,-6.69755e+08,134718,-0.00716953,0.00229371,-0,0.0075275,25271.2,-24383.5,0,35116.8,134718
step02_gravity_refstate-crust.xmf,2233,9.66514e-07,-8.90759e-07,0,1.87325e-06,-7.07893e+08,-7.0802e+08,-7.07959e+08,128505,-0.00506444,0.000218811,-0,0.00506916,24702.7,-25774.1,0,35700.5,128505
step02_gravity_refstate-crust.xmf,2234,8.61001e-07,-9.2714e-07,0,1.82234e-06,-7.42043e+08,-7.42166e+08,-7.42102e+08,125012,-0.00298619,-0.00286197,-0,0.00413621,23991.2,-27016.9,0,36131.6,125012
step02_gravity_refstate-crust.xmf,2235,-1.87133e-06,-2.04789e-06,0,4.53054e-06,-1.02485e+09,-1.02486e+09,-1.02472e+09,310795,0.0321468,-0.0677804,0,0.0750173,14299,-37300,0,39946.9,310795
step02_gravity_refstate-crust.xmf,2236,8.27603e-07,-1.98198e-07,0,7.30836e-07,-5.37987e+08,-5.38057e+08,-5.38043e+08,50135.4,-0.00377999,0.0379445,-0,0.0381323,35123.6,-19589,0,40216.8,50135.4
step02_gravity_refstate-crust.xmf,2237,8.53296e-07,-1.48989e-07,0,2.64385e-07,-5.13518e+08,-5.13587e+08,-5.13577e+08,18136.8,-0.00148028,0.0420008,-0,0.0420269,38252.8,-18698.4,0,42578.3,18136.8
step02_gravity_refstate-crust.xmf,2238,9.58312e-07,-1.68947e-07,0,2.14132e-09,-4.82975e+08,-4.83052e+08,-4.83041e+08,146.894,-1.0495e-19,0.0424559,-0,0.0424559,40000,-17586.8,0,43695.5,146.894
step02_gravity_refstate-crust.xmf,2239,9.65215e-07,-6.28906e-07,0,1.71186e-06,-6.28928e+08,-6.29037e+08,-6.28994e+08,117433,-0.00707292,0.0138869,-0,0.0155843,27677.4,-22899.7,0,35922.6,117433
step02_gravity_refstate-crust.xmf,2240,7.81617e-07,-2.96868e-07,0,1.10414e-06,-5.83222e+08,-5.83296e+08,-5.83275e+08,75744.3,-0.00496568,0.0311514,-0,0.0315447,32261.3,-21235.5,0,38623,75744.3
step02_gravity_refstate-crust.xmf,2241,5.37884e-07,-1.30286e-06,0,2.00502e-06,-8.44068e+08,-8.44194e+08,-8.44105e+08,137544,0.00492854,-0.0276811,0,0.0281165,19741.9,-30729.3,0,36524.4,137544
step02_gravity_refstate-crust.xmf,2242,2.28431e-07,-1.28102e-06,0,2.02635e-06,-8.73601e+08,-8.73704e+08,-8.73616e+08,139008,0.00875385,-0.0311755,0,0.0323812,19118,-31803.2,0,37107.2,139008
step02_gravity_refstate-crust.xmf,2243,-1.02909e-07,-1.26303e-06,0,2.11927e-06,-9.01009e+08,-9.01088e+08,-9.01002e+08,145382,0.0126029,-0.0350507,0,0.0372476,18479.4,-32799.8,0,37647.2,145382
step02_gravity_refstate-crust.xmf,2244,7.23027e-07,-1.29155e-06,0,2.01553e-06,-8.21697e+08,-8.21835e+08,-8.21746e+08,138266,0.00235145,-0.0245228,0,0.0246353,20294.9,-29915.6,0,36150.1,138266
step02_gravity_refstate-crust.xmf,2245,9.68056e-07,-1.18839e-06,0,2.01609e-06,-7.70334e+08,-7.70482e+08,-7.704e+08,138303,-0.00227012,-0.0155783,-0,0.0157428,21853.9,-28046.8,0,35555.9,138303
step02_gravity_refstate-crust.xmf,2246,7.79984e-07,-1.20563e-06,0,1.95336e-06,-8.03516e+08,-8.03652e+08,-8.0357e+08,134001,0.000794907,-0.0189888,0,0.0190055,21163.5,-29254.1,0,36106.7,134001
step02_gravity_refstate-crust.xmf,2247,8.83931e-07,-6.7493e-07,0,1.688e-06,-6.70732e+08,-6.70839e+08,-6.70793e+08,115797,-0.00554009,0.0108988,-0,0.012226,26868.9,-24421.2,0,36308.8,115797
step02_gravity_refstate-crust.xmf,2248,7.51847e-07,-9.54216e-07,0,1.78991e-06,-7.72968e+08,-7.73085e+08,-7.7302e+08,122788,-0.000787808,-0.0061345,-0,0.00618488,23279.9,-28142.2,0,36523.1,122788
step02_gravity_refstate-crust.xmf,2249,-4.49014e-07,-1.25827e-06,0,2.29219e-06,-9.26868e+08,-9.26924e+08,-9.26838e+08,157244,0.0164585,-0.0392084,0,0.0425227,17837.7,-33739.8,0,38164.9,157244
step02_gravity_refstate-crust.xmf,2250,-8.05008e-07,-1.28083e-06,0,2.56136e-06,-9.52097e+08,-9.52129e+08,-9.52041e+08,175709,0.0203392,-0.0436516,0,0.0481575,17188.3,-34656.8,0,38685,175709
step02_gravity_refstate-crust.xmf,2251,-1.151e-06,-1.3476e-06,0,2.94154e-06,-9.77396e+08,-9.77409e+08,-9.77317e+08,201789,0.0241503,-0.0480511,0,0.0537786,16563.1,-35576.3,0,39243,201789
step02_gravity_refstate-crust.xmf,2252,-1.43742e-06,-1.49497e-06,0,3.43567e-06,-1.00199e+09,-1.00199e+09,-1.00189e+09,235687,0.0275818,-0.0524881,0,0.0592939,15950.1,-36470.2,0,39805.5,235687
step02_gravity_refstate-crust.xmf,2253,-1.82183e-06,-2.56602e-06,0,5.36531e-06,-1.04972e+09,-1.04978e+09,-1.0496e+09,368060,0.0341644,-0.0717076,0,0.0794304,13752.4,-38204.9,0,40604.7,368060
step02_gravity_refstate-crust.xmf,2254,-1.53474e-06,-3.2933e-06,0,6.24059e-06,-1.07487e+09,-1.07499e+09,-1.07476e+09,428104,0.0346149,-0.0745846,0,0.0822256,13255.3,-39120.3,0,41305,428104
step02_gravity_refstate-crust.xmf,2255,-1.61799e-06,-1.75166e-06,0,4.03249e-06,-1.02586e+09,-1.02587e+09,-1.02575e+09,276629,0.0303882,-0.056755,0,0.0643784,15361.7,-37338.2,0,40374.8,276629
step02_gravity_refstate-crust.xmf,2256,7.63893e-07,-1.39962e-07,0,4.63252e-07,-5.42823e+08,-5.42885e+08,-5.42875e+08,31779.1,-0.00232762,0.0407779,-0,0.0408442,36862.2,-19764.9,0,41826.7,31779.1
step02_gravity_refstate-crust.xmf,2257,8.04903e-07,-4.6022e-07,0,1.42368e-06,-6.2878e+08,-6.28866e+08,-6.28835e+08,97664.1,-0.00548355,0.0218848,-0,0.0225614,29481.3,-22893.9,0,37326.6,97664.1
step02_gravity_refstate-crust.xmf,2258,6.78107e-07,-3.07647e-07,0,1.15497e-06,-6.27946e+08,-6.28014e+08,-6.27992e+08,79231,-0.00415766,0.0286605,-0,0.0289605,31324.3,-22863.3,0,38780.6,79231
step02_gravity_refstate-crust.xmf,2259,6.83955e-07,-1.85411e-07,0,8.06674e-07,-5.83745e+08,-5.83805e+08,-5.83792e+08,55337.9,-0.00349638,0.0364132,-0,0.0365807,34247.2,-21254.3,0,40306.5,55337.9
step02_gravity_refstate-crust.xmf,2260,7.82435e-07,-6.94373e-07,0,1.64061e-06,-7.10401e+08,-7.10503e+08,-7.10455e+08,112546,-0.00360296,0.0083775,-0,0.00911942,26178.2,-25865,0,36800.7,112546
step02_gravity_refstate-crust.xmf,2261,5.21106e-07,-7.34785e-07,0,1.57417e-06,-7.79057e+08,-7.79143e+08,-7.79093e+08,107988,0.000630871,0.00208465,0,0.00217802,24657.8,-28363.3,0,37583.1,107988
step02_gravity_refstate-crust.xmf,2262,6.37852e-07,-7.07854e-07,0,1.58142e-06,-7.47314e+08,-7.47406e+08,-7.47358e+08,108485,-0.00143316,0.00576779,-0,0.00594318,25496.8,-27208.2,0,37287.7,108485
step02_gravity_refstate-crust.xmf,2263,-1.68641e-06,-2.13681e-06,0,4.7144e-06,-1.04998e+09,-1.05001e+09,-1.04987e+09,323408,0.0323251,-0.0604464,0,0.0685469,14817.7,-38215.5,0,40987.7,323408
step02_gravity_refstate-crust.xmf,2264,6.08529e-07,-9.6792e-08,0,5.02871e-07,-5.86128e+08,-5.86176e+08,-5.86169e+08,34496.9,-0.00208502,0.0403078,-0,0.0403617,36370.1,-21340.9,0,42168.9,34496.9
step02_gravity_refstate-crust.xmf,2265,6.18842e-07,-7.18578e-08,0,2.44159e-07,-5.73979e+08,-5.74026e+08,-5.74021e+08,16749.3,-0.00106949,0.0422437,-0,0.0422572,38250.2,-20898.7,0,43587.1,16749.3
step02_gravity_refstate-crust.xmf,2266,7.16629e-07,-9.82325e-08,0,2.2647e-09,-5.4641e+08,-5.46465e+08,-5.46459e+08,155.358,-7.57722e-20,0.0427646,-0,0.0427646,40000,-19895.3,0,44674.6,155.358
step02_gravity_refstate-crust.xmf,2267,7.05547e-07,-4.88716e-07,0,1.42475e-06,-6.71775e+08,-6.71857e+08,-6.71824e+08,97738,-0.00411119,0.0189256,-0,0.019367,28594.1,-24458.7,0,37627.8,97738
step02_gravity_refstate-crust.xmf,2268,5.52564e-07,-1.76469e-07,0,8.77381e-07,-6.2837e+08,-6.2842e+08,-6.28408e+08,60188.4,-0.00295793,0.0343434,-0,0.0344706,33263.5,-22878.4,0,40371.8,60188.4
step02_gravity_refstate-crust.xmf,2269,4.31155e-07,-1.0922e-06,0,1.83404e-06,-8.39562e+08,-8.39666e+08,-8.39592e+08,125815,0.00498177,-0.0183876,0,0.0190505,21035.1,-30565.1,0,37103.9,125815
step02_gravity_refstate-crust.xmf,2270,1.24448e-07,-1.05854e-06,0,1.84931e-06,-8.72847e+08,-8.72928e+08,-8.72856e+08,126862,0.00887677,-0.0216878,0,0.0234341,20382.7,-31775.7,0,37751.2,126862
step02_gravity_refstate-crust.xmf,2271,-1.87085e-07,-1.03625e-06,0,1.93809e-06,-9.02783e+08,-9.02841e+08,-9.0277e+08,132953,0.0126635,-0.0254171,0,0.028397,19711,-32864.3,0,38322.2,132953
step02_gravity_refstate-crust.xmf,2272,-4.87186e-07,-1.03667e-06,0,2.09917e-06,-9.29343e+08,-9.2938e+08,-9.29309e+08,144003,0.0162277,-0.0294902,0,0.0336602,19033.7,-33830.1,0,38816.9,144003
step02_gravity_refstate-crust.xmf,2273,5.80369e-07,-9.68601e-07,0,1.7486e-06,-8.04026e+08,-8.04132e+08,-8.04066e+08,119954,0.00181599,-0.00943228,0,0.00960551,22580,-29272.2,0,36969.2,119954
step02_gravity_refstate-crust.xmf,2274,5.85307e-07,-5.02121e-07,0,1.40194e-06,-7.12961e+08,-7.13035e+08,-7.13001e+08,96173.3,-0.0023534,0.0161123,-0,0.0162832,27780.1,-25957.6,0,38020.2,96173.3
step02_gravity_refstate-crust.xmf,2275,3.83888e-07,-7.36527e-07,0,1.55717e-06,-8.07274e+08,-8.0735e+08,-8.073e+08,106822,0.0028254,-0.000734903,0,0.00291941,24015.2,-29390,0,37953.9,106822
step02_gravity_refstate-crust.xmf,2276,-7.79556e-07,-1.06267e-06,0,2.33391e-06,-9.5419e+08,-9.54209e+08,-9.54136e+08,160106,0.0196671,-0.0336966,0,0.0390161,18370.2,-34733.4,0,39292.2,160106
step02_gravity_refstate-crust.xmf,2277,-1.06449e-06,-1.12877e-06,0,2.66274e-06,-9.79125e+08,-9.7913e+08,-9.79052e+08,182664,0.0230775,-0.0380543,0,0.0445051,17707.3,-35640,0,39796.5,182664
step02_gravity_refstate-crust.xmf,2278,-1.30646e-06,-1.26049e-06,0,3.09282e-06,-1.00423e+09,-1.00422e+09,-1.00414e+09,212168,0.0262517,-0.0423299,0,0.0498093,17067.4,-36552.7,0,40341,212168
step02_gravity_refstate-crust.xmf,2279,-1.45477e-06,-1.47983e-06,0,3.5937e-06,-1.02755e+09,-1.02755e+09,-1.02745e+09,246528,0.0288043,-0.0464472,0,0.0546537,16459.9,-37400.9,0,40862.7,246528
step02_gravity_refstate-crust.xmf,2280,-1.43503e-06,-2.7438e-06,0,5.46629e-06,-1.07439e+09,-1.07448e+09,-1.07429e+09,374987,0.0331003,-0.0636597,0,0.0717509,14285.8,-39104.2,0,41632,374987
step02_gravity_refstate-crust.xmf,2281,-1.48384e-06,-1.80928e-06,0,4.16553e-06,-1.05061e+09,-1.05064e+09,-1.05051e+09,285755,0.0306715,-0.0502096,0,0.0588366,15886.5,-38239.9,0,41408.5,285755
step02_gravity_refstate-crust.xmf,2282,5.50469e-07,-3.17116e-07,0,1.17348e-06,-6.72234e+08,-6.72294e+08,-6.72272e+08,80500.9,-0.00296178,0.0259544,-0,0.0261229,30389.7,-24475.1,0,39020.1,80500.9
step02_gravity_refstate-crust.xmf,2283,4.27561e-07,-1.64987e-07,0,9.31892e-07,-6.72037e+08,-6.72078e+08,-6.72067e+08,63927.8,-0.00205968,0.0319216,-0,0.031988,32262.5,-24467.7,0,40491.1,63927.8
step02_gravity_refstate-crust.xmf,2284,4.50523e-07,-6.49498e-08,0,5.97048e-07,-6.3101e+08,-6.31045e+08,-6.31041e+08,40957.5,-0.00185836,0.0387885,-0,0.038833,35327,-22974.3,0,42140.4,40957.5
step02_gravity_refstate-crust.xmf,2285,2.81645e-07,-8.74657e-07,0,1.66388e-06,-8.39956e+08,-8.40035e+08,-8.39975e+08,114142,0.00549084,-0.00972632,0,0.0111692,22342.5,-30579.2,0,37871.8,114142
step02_gravity_refstate-crust.xmf,2286,4.47327e-07,-5.00244e-07,0,1.37493e-06,-7.53645e+08,-7.5371e+08,-7.53676e+08,94320.5,-0.000183662,0.0131822,-0,0.0131835,26970.2,-27438.2,0,38474,94320.5
step02_gravity_refstate-crust.xmf,2287,2.76217e-07,-5.90995e-07,0,1.4365e-06,-8.07596e+08,-8.07655e+08,-8.07615e+08,98543.6,0.00319373,0.00484798,0,0.00580541,25047.2,-29401.5,0,38624,98543.6
step02_gravity_refstate-crust.xmf,2288,2.41703e-07,-4.83706e-07,0,1.34139e-06,-7.97538e+08,-7.97588e+08,-7.97555e+08,92019.5,0.00266398,0.00985605,0,0.0102097,26094,-29035.4,0,39037.8,92019.5
step02_gravity_refstate-crust.xmf,2289,-1.37563e-06,-2.27682e-06,0,4.79632e-06,-1.07457e+09,-1.07463e+09,-1.07447e+09,329028,0.0316298,-0.0534087,0,0.062072,15343.1,-39111.6,0,42013.4,329028
step02_gravity_refstate-crust.xmf,2290,3.73362e-07,1.53252e-08,0,2.82146e-07,-6.3439e+08,-6.34414e+08,-6.34415e+08,19355.2,-0.000819955,0.041909,-0,0.041917,37732.7,-23097.1,0,44240.7,19355.2
step02_gravity_refstate-crust.xmf,2291,4.61345e-07,-4.03094e-09,0,3.67049e-09,-6.09e+08,-6.09031e+08,-6.09031e+08,251.796,-5.78044e-20,0.0428841,-0,0.0428841,40000,-22173.1,0,45734.5,251.796
step02_gravity_refstate-crust.xmf,2292,4.21592e-07,-3.18981e-07,0,1.17971e-06,-7.14619e+08,-7.1467e+08,-7.14648e+08,80928.4,-0.00141294,0.0230585,-0,0.0231018,29465.3,-26017.6,0,39308.1,80928.4
step02_gravity_refstate-crust.xmf,2293,3.10527e-07,-4.04932e-08,0,6.86403e-07,-6.73562e+08,-6.73586e+08,-6.73583e+08,47087.3,-0.00131012,0.0366565,-0,0.0366799,34181.4,-24522.9,0,42068.3,47087.3
step02_gravity_refstate-crust.xmf,2294,-7.70952e-07,-8.5749e-07,0,2.12703e-06,-9.56717e+08,-9.56723e+08,-9.56664e+08,145914,0.01902,-0.0246085,0,0.031102,19568.2,-34825.8,0,39946.9,145914
step02_gravity_refstate-crust.xmf,2295,1.44456e-08,-8.39823e-07,0,1.68122e-06,-8.72939e+08,-8.72997e+08,-8.7294e+08,115332,0.00897904,-0.0127609,0,0.0156033,21701.2,-31779,0,38481.7,115332
step02_gravity_refstate-crust.xmf,2296,-2.71529e-07,-8.17197e-07,0,1.76621e-06,-9.04881e+08,-9.04919e+08,-9.04863e+08,121162,0.0126209,-0.0164326,0,0.02072,20988.8,-32940.7,0,39059.2,121162
step02_gravity_refstate-crust.xmf,2297,-5.44183e-07,-8.18742e-07,0,1.91734e-06,-9.33363e+08,-9.33382e+08,-9.33326e+08,131529,0.0160564,-0.0203669,0,0.0259348,20277.6,-33976.6,0,39567.5,131529
step02_gravity_refstate-crust.xmf,2298,1.23774e-07,-6.56026e-07,0,1.50024e-06,-8.42925e+08,-8.42979e+08,-8.42934e+08,102916,0.00606175,-0.00162122,0,0.0062748,23696.2,-30687,0,38771.2,102916
step02_gravity_refstate-crust.xmf,2299,2.67418e-07,-3.0482e-07,0,1.16903e-06,-7.5659e+08,-7.5663e+08,-7.56609e+08,80195.2,0.000578046,0.0202106,0,0.0202188,28604,-27545,0,39710.4,80195.2
step02_gravity_refstate-crust.xmf,2300,4.00984e-08,-4.65435e-07,0,1.34218e-06,-8.36185e+08,-8.36219e+08,-8.36187e+08,92073.9,0.00559364,0.00633551,0,0.00845148,25232.6,-30441.6,0,39539.5,92073.9
step02_gravity_refstate-crust.xmf,2301,-1.00237e-06,-9.2066e-07,0,2.40658e-06,-9.81169e+08,-9.81163e+08,-9.811e+08,165091,0.0220571,-0.0287245,0,0.0362162,18892.9,-35714.9,0,40404.2,165091
step02_gravity_refstate-crust.xmf,2302,-1.20665e-06,-1.04076e-06,0,2.78293e-06,-1.00693e+09,-1.00691e+09,-1.00684e+09,190909,0.0250218,-0.0328753,0,0.0413143,18221.2,-36651.7,0,40931.1,190909
step02_gravity_refstate-crust.xmf,2303,-1.33138e-06,-1.24763e-06,0,3.23191e-06,-1.03136e+09,-1.03136e+09,-1.03127e+09,221709,0.0274871,-0.0370317,0,0.0461182,17560.6,-37540.5,0,41444.7,221709
step02_gravity_refstate-crust.xmf,2304,-1.36038e-06,-1.51282e-06,0,3.68775e-06,-1.05153e+09,-1.05154e+09,-1.05144e+09,252979,0.0291571,-0.0408072,0,0.0501534,16969.4,-38274.1,0,41867.3,252979
step02_gravity_refstate-crust.xmf,2305,-1.25542e-06,-1.89857e-06,0,4.20264e-06,-1.07467e+09,-1.07472e+09,-1.07458e+09,288301,0.0302139,-0.0438189,0,0.0532257,16434.1,-39116.5,0,42428.5,288301
step02_gravity_refstate-crust.xmf,2306,2.77427e-07,-1.48454e-07,0,9.55461e-07,-7.1541e+08,-7.15439e+08,-7.15429e+08,65544.6,-0.000733095,0.0293491,-0,0.0293583,31305.8,-26046.1,0,40724.1,65544.6
step02_gravity_refstate-crust.xmf,2307,1.66961e-07,-5.63965e-09,0,7.41269e-07,-7.1576e+08,-7.15772e+08,-7.15771e+08,50851,-0.000307762,0.0344513,-0,0.0344527,33182.3,-26058.6,0,42191.4,50851
step02_gravity_refstate-crust.xmf,2308,2.06115e-07,6.46393e-08,0,4.41568e-07,-6.79861e+08,-6.79871e+08,-6.79875e+08,30291.6,-0.000656907,0.0400993,-0,0.0401047,36167.2,-24752,0,43826.1,30291.6
step02_gravity_refstate-crust.xmf,2309,-1.05983e-07,-6.23653e-07,0,1.52082e-06,-8.7491e+08,-8.74946e+08,-8.74903e+08,104329,0.00912114,-0.00445358,0,0.0101503,23063.7,-31850.6,0,39324.2,104329
step02_gravity_refstate-crust.xmf,2310,9.72101e-08,-2.80685e-07,0,1.16421e-06,-7.97481e+08,-7.97506e+08,-7.97487e+08,79864.9,0.00293573,0.0171585,0,0.0174079,27738.5,-29033,0,40154,79864.9
step02_gravity_refstate-crust.xmf,2311,-9.5808e-07,-7.22796e-07,0,2.16624e-06,-9.82654e+08,-9.82638e+08,-9.82588e+08,148604,0.0210008,-0.0201547,0,0.0291075,20106.7,-35769.5,0,41033.3,148604
step02_gravity_refstate-crust.xmf,2312,1.9193e-07,1.14547e-07,0,1.8844e-09,-6.70927e+08,-6.70933e+08,-6.70941e+08,129.27,-1.12496e-20,0.0427582,-0,0.0427582,40000,-24426.7,0,46868.6,129.27
step02_gravity_refstate-crust.xmf,2313,1.18804e-07,-1.22057e-07,0,9.68356e-07,-7.58236e+08,-7.58253e+08,-7.58245e+08,66429.2,0.00100746,0.0266029,0,0.026622,30373.1,-27604.6,0,41043.1,66429.2
step02_gravity_refstate-crust.xmf,2314,6.36541e-08,1.06717e-07,0,5.31472e-07,-7.18772e+08,-7.18769e+08,-7.18776e+08,36459,-1.52951e-05,0.038204,-0,0.038204,35020.4,-26168,0,43717.2,36459
step02_gravity_refstate-crust.xmf,2315,7.79778e-08,1.60702e-07,0,2.06181e-07,-6.98672e+08,-6.98667e+08,-6.98678e+08,14144,-0.00013196,0.0419874,-0,0.0419876,38113.3,-25436.4,0,45821.8,14144
step02_gravity_refstate-crust.xmf,2316,-7.79755e-07,-6.7422e-07,0,1.95238e-06,-9.59612e+08,-9.59604e+08,-9.59558e+08,133934,0.018436,-0.0168983,0,0.0250088,20692,-34931.4,0,40600,133934
step02_gravity_refstate-crust.xmf,2317,-3.64691e-07,-5.9503e-07,0,1.59849e-06,-9.08296e+08,-9.08311e+08,-9.08271e+08,109656,0.0125403,-0.00777667,0,0.0147559,22362.8,-33065,0,39917.3,109656
step02_gravity_refstate-crust.xmf,2318,-6.49737e-07,-5.82331e-07,0,1.75927e-06,-9.43929e+08,-9.43925e+08,-9.43885e+08,120686,0.016321,-0.0114944,0,0.0199624,21612.5,-34361.2,0,40593,120686
step02_gravity_refstate-crust.xmf,2319,-2.09825e-07,-4.16737e-07,0,1.3617e-06,-8.75411e+08,-8.75426e+08,-8.75397e+08,93412.4,0.00893625,0.00340666,0,0.00956358,24521.5,-31868.7,0,40210.9,93412.4
step02_gravity_refstate-crust.xmf,2320,-4.85149e-08,-9.14909e-08,0,9.81498e-07,-7.99099e+08,-7.99102e+08,-7.99096e+08,67330.7,0.00307142,0.0236736,0,0.023872,29456.5,-29091.7,0,41400.6,67330.7
step02_gravity_refstate-crust.xmf,2321,-9.78091e-08,-2.52944e-07,0,1.17074e-06,-8.36933e+08,-8.36943e+08,-8.36926e+08,80312.9,0.00560289,0.0139488,0,0.015032,26882.1,-30468.6,0,40632.3,80312.9
step02_gravity_refstate-crust.xmf,2322,-1.13199e-06,-8.29951e-07,0,2.49037e-06,-1.00913e+09,-1.00911e+09,-1.00905e+09,170839,0.0237889,-0.0241086,0,0.0338694,19414.2,-36732.4,0,41547.3,170839
step02_gravity_refstate-crust.xmf,2323,-1.23948e-06,-1.01868e-06,0,2.89683e-06,-1.03607e+09,-1.03605e+09,-1.03598e+09,198723,0.0262351,-0.0280465,0,0.0384043,18726,-37712.6,0,42105.8,198723
step02_gravity_refstate-crust.xmf,2324,-1.28368e-06,-1.24051e-06,0,3.26547e-06,-1.05214e+09,-1.05214e+09,-1.05205e+09,224011,0.0277596,-0.0323501,0,0.0426277,18046.2,-38297.2,0,42336,224011
step02_gravity_refstate-crust.xmf,2325,-1.1984e-06,-1.53752e-06,0,3.66552e-06,-1.07408e+09,-1.07411e+09,-1.074e+09,251454,0.0288105,-0.0347759,0,0.0451598,17575.9,-39095.8,0,42864.9,251454
step02_gravity_refstate-crust.xmf,2326,-1.12076e-08,4.01518e-08,0,7.70008e-07,-7.60535e+08,-7.60531e+08,-7.60534e+08,52822.5,0.00120646,0.0320121,0,0.0320348,32214.3,-27688,0,42478.1,52822.5
step02_gravity_refstate-crust.xmf,2327,-1.09659e-07,1.70654e-07,0,5.80297e-07,-7.62271e+08,-7.62252e+08,-7.62264e+08,39808.4,0.00115053,0.036242,0,0.0362602,34072.5,-27751.1,0,43943.8,39808.4
step02_gravity_refstate-crust.xmf,2328,-1.39939e-08,1.88437e-07,0,3.54877e-07,-7.24809e+08,-7.24795e+08,-7.24808e+08,24344.6,0.000144276,0.0404674,0,0.0404676,36623.2,-26387.6,0,45139.4,24344.6
step02_gravity_refstate-crust.xmf,2329,-4.42105e-07,-3.89957e-07,0,1.43526e-06,-9.10089e+08,-9.10086e+08,-9.10059e+08,98459,0.0121333,9.49059e-05,0,0.0121337,23777.6,-33130.3,0,40779.8,98459
step02_gravity_refstate-crust.xmf,2330,-3.06023e-07,-2.19267e-07,0,1.20365e-06,-8.75078e+08,-8.75072e+08,-8.75057e+08,82570.5,0.00851239,0.0107051,0,0.013677,26061.6,-31856.5,0,41158.8,82570.5
step02_gravity_refstate-crust.xmf,2331,-2.20753e-07,-5.94417e-08,0,1.00648e-06,-8.37764e+08,-8.37753e+08,-8.37749e+08,69044.4,0.0053899,0.0205794,0,0.0212735,28556,-30498.7,0,41780.5,69044.4
step02_gravity_refstate-crust.xmf,2332,-9.2352e-07,-5.28112e-07,0,1.92995e-06,-9.81841e+08,-9.81814e+08,-9.81778e+08,132394,0.0197426,-0.0121465,0,0.0231799,21377.8,-35740.4,0,41645.9,132394
step02_gravity_refstate-crust.xmf,2333,-1.08452e-06,-6.28369e-07,0,2.2252e-06,-1.01111e+09,-1.01108e+09,-1.01103e+09,152649,0.0225831,-0.0161356,0,0.0277553,20623,-36805,0,42189.1,152649
step02_gravity_refstate-crust.xmf,2334,-9.4962e-08,2.62334e-07,0,3.26249e-09,-7.32376e+08,-7.32351e+08,-7.32369e+08,223.807,3.01584e-20,0.0423381,0,0.0423381,40000,-26662.9,0,48071.9,223.807
step02_gravity_refstate-crust.xmf,2335,-1.89978e-07,8.89896e-08,0,7.96584e-07,-8.03809e+08,-8.03789e+08,-8.03796e+08,54645.6,0.00308796,0.0293282,0,0.0294903,31260.9,-29262.8,0,42820,54645.6
step02_gravity_refstate-crust.xmf,2336,-1.83777e-07,2.63843e-07,0,3.98781e-07,-7.63552e+08,-7.63521e+08,-7.63539e+08,27356.4,0.000913716,0.0392267,0,0.0392373,35884.9,-27797.5,0,45392,27356.4
step02_gravity_refstate-crust.xmf,2337,-2.25204e-07,3.24064e-07,0,2.02594e-07,-7.63189e+08,-7.63151e+08,-7.63173e+08,13898,0.000487212,0.0412985,0,0.0413013,37930.3,-27784.2,0,47017.8,13898
step02_gravity_refstate-crust.xmf,2338,-6.70691e-07,-3.79546e-07,0,1.56346e-06,-9.43608e+08,-9.43588e+08,-9.43562e+08,107254,0.0153464,-0.00330169,0,0.0156976,23047.5,-34349.7,0,41365.3,107254
step02_gravity_refstate-crust.xmf,2339,-5.18113e-07,-1.93321e-07,0,1.27511e-06,-9.1157e+08,-9.11547e+08,-9.11534e+08,87472.7,0.0115432,0.00732839,0,0.013673,25251.8,-33184.2,0,41699.5,87472.7
step02_gravity_refstate-crust.xmf,2340,-3.45701e-07,1.19558e-07,0,8.38182e-07,-8.40997e+08,-8.40965e+08,-8.40973e+08,57499.3,0.00507764,0.0263247,0,0.0268099,30280.5,-30616.1,0,43061,57499.3
step02_gravity_refstate-crust.xmf,2341,-4.03732e-07,-2.97264e-08,0,1.04668e-06,-8.75486e+08,-8.7546e+08,-8.75458e+08,71802.4,0.007968,0.0173478,0,0.0190902,27673.3,-31871.3,0,42208.9,71802.4
step02_gravity_refstate-crust.xmf,2342,-1.17447e-06,-1.1674e-06,0,3.13719e-06,-1.06845e+09,-1.06845e+09,-1.06837e+09,215211,0.0272558,-0.026147,0,0.0377697,18814.6,-38891.5,0,43203.5,215211
step02_gravity_refstate-crust.xmf,2343,-1.1769e-06,-8.0799e-07,0,2.59181e-06,-1.03853e+09,-1.0385e+09,-1.03845e+09,177798,0.0250116,-0.0204185,0,0.0322877,19835.2,-37802.6,0,42690.5,177798
step02_gravity_refstate-crust.xmf,2344,-3.04116e-07,2.41837e-07,0,6.17916e-07,-8.07561e+08,-8.07523e+08,-8.0754e+08,42389,0.00277515,0.0339371,0,0.0340504,33121.2,-29399.2,0,44286.9,42389
step02_gravity_refstate-crust.xmf,2345,-3.83594e-07,3.54661e-07,0,4.46472e-07,-8.09092e+08,-8.09042e+08,-8.09066e+08,30628,0.00218054,0.0374012,0,0.0374647,34983.6,-29454.8,0,45732.2,30628
step02_gravity_refstate-crust.xmf,2346,-8.69655e-07,-3.83076e-07,0,1.72446e-06,-9.74636e+08,-9.74603e+08,-9.74577e+08,118298,0.0182217,-0.0060254,0,0.0191921,22466.9,-35478.5,0,41993.9,118298
step02_gravity_refstate-crust.xmf,2347,-7.22576e-07,-1.8388e-07,0,1.39186e-06,-9.46518e+08,-9.46481e+08,-9.46468e+08,95481.7,0.0145803,0.00390397,0,0.0150939,24466.8,-34455.7,0,42259,95481.7
step02_gravity_refstate-crust.xmf,2348,-5.94328e-07,-2.03536e-09,0,1.11412e-06,-9.12657e+08,-9.12617e+08,-9.12617e+08,76428.9,0.0107432,0.0140607,0,0.0176952,26824.5,-33223.8,0,42701,76428.9
step02_gravity_refstate-crust.xmf,2349,-4.98337e-07,1.4544e-07,0,8.92393e-07,-8.76046e+08,-8.76002e+08,-8.76012e+08,61218.2,0.00725393,0.0231919,0,0.0242999,29333.3,-31891.5,0,43330.3,61218.2
step02_gravity_refstate-crust.xmf,2350,-1.04841e-06,-4.46742e-07,0,1.98322e-06,-1.00973e+09,-1.00969e+09,-1.00966e+09,136049,0.0212717,-0.00935642,0,0.0232385,21773.4,-36755.4,0,42720.5,136049
step02_gravity_refstate-crust.xmf,2351,-1.13781e-06,-5.96549e-07,0,2.29851e-06,-1.03977e+09,-1.03973e+09,-1.03969e+09,157678,0.0237001,-0.0131237,0,0.027091,21017.6,-37848.2,0,43292.3,157678
step02_gravity_refstate-crust.xmf,2352,-3.88478e-07,4.29496e-07,0,2.28419e-09,-7.93526e+08,-7.93469e+08,-7.93499e+08,156.695,6.4122e-20,0.0415678,0,0.0415678,40000,-28888.2,0,49340.9,156.695
step02_gravity_refstate-crust.xmf,2353,-5.22767e-07,3.21397e-07,0,6.57597e-07,-8.56422e+08,-8.56364e+08,-8.56386e+08,45111.2,0.00495459,0.0311595,0,0.0315509,32119.7,-31177.3,0,44762.7,45111.2
step02_gravity_refstate-crust.xmf,2354,-4.02106e-07,4.05797e-07,0,2.9846e-07,-8.03734e+08,-8.03678e+08,-8.03706e+08,20474.3,0.00142163,0.0396479,0,0.0396734,36644.5,-29259.7,0,46892.9,20474.3
step02_gravity_refstate-crust.xmf,2355,-9.02648e-07,-2.02594e-07,0,1.55637e-06,-9.79776e+08,-9.79728e+08,-9.79714e+08,106767,0.0174734,0.000510887,0,0.0174808,23715.4,-35665.8,0,42830.7,106767
step02_gravity_refstate-crust.xmf,2356,-7.76746e-07,7.33466e-09,0,1.22064e-06,-9.48677e+08,-9.48623e+08,-9.48623e+08,83736.2,0.0135932,0.0106079,0,0.0172425,25975.1,-34534.4,0,43212.6,83736.2
step02_gravity_refstate-crust.xmf,2357,-5.75767e-07,2.86634e-07,0,7.56244e-07,-8.76997e+08,-8.76938e+08,-8.76957e+08,51878.3,0.00648789,0.0277106,0,0.0284599,30855.1,-31926.1,0,44399.4,51878.3
step02_gravity_refstate-crust.xmf,2358,-6.68453e-07,1.77434e-07,0,9.55791e-07,-9.13385e+08,-9.13327e+08,-9.13339e+08,65567.3,0.00974985,0.020099,0,0.0223389,28465.3,-33250.3,0,43770.5,65567.3
step02_gravity_refstate-crust.xmf,2359,-1.13586e-06,-8.48805e-07,0,2.68271e-06,-1.06904e+09,-1.06902e+09,-1.06897e+09,184034,0.0256493,-0.0171192,0,0.0308376,20216.4,-38913.7,0,43851.8,184034
step02_gravity_refstate-crust.xmf,2360,-5.35578e-07,5.10533e-07,0,1.58881e-07,-8.26422e+08,-8.2635e+08,-8.26385e+08,10899.3,0.000984925,0.0404935,0,0.0405055,38180.1,-30085.3,0,48609.1,10899.3
step02_gravity_refstate-crust.xmf,2361,-5.85022e-07,4.47248e-07,0,4.91084e-07,-8.55183e+08,-8.55112e+08,-8.55143e+08,33688.4,0.00382531,0.0352507,0,0.0354576,34093.5,-31132.1,0,46169,33688.4
step02_gravity_refstate-crust.xmf,2362,-6.50908e-07,5.48441e-07,0,3.07177e-07,-8.56411e+08,-8.56328e+08,-8.56366e+08,21072.4,0.0025268,0.0383022,0,0.0383855,36243.4,-31176.7,0,47807.6,21072.4
step02_gravity_refstate-crust.xmf,2363,-1.03683e-06,-2.70267e-07,0,1.76852e-06,-1.01068e+09,-1.01063e+09,-1.01061e+09,121321,0.0200859,-0.00298179,0,0.0203061,22962.8,-36790.3,0,43368.4,121321
step02_gravity_refstate-crust.xmf,2364,-9.39288e-07,-1.30763e-08,0,1.37337e-06,-9.83941e+08,-9.83877e+08,-9.83877e+08,94213.1,0.0164284,0.00701666,0,0.0178641,25125.2,-35817.5,0,43751.2,94213.1
step02_gravity_refstate-crust.xmf,2365,-8.37907e-07,1.95007e-07,0,1.05076e-06,-9.50937e+08,-9.50866e+08,-9.50879e+08,72082.4,0.0124249,0.0167784,0,0.020878,27582.6,-34616.7,0,44261.9,72082.4
step02_gravity_refstate-crust.xmf,2366,-7.35553e-07,3.33769e-07,0,8.03568e-07,-9.12285e+08,-9.12212e+08,-9.12235e+08,55124.7,0.00853704,0.025277,0,0.0266798,30123.4,-33210.2,0,44836.8,55124.7
step02_gravity_refstate-crust.xmf,2367,-1.11812e-06,-3.98433e-07,0,2.03701e-06,-1.04036e+09,-1.04031e+09,-1.04028e+09,139739,0.0224011,-0.00660804,0,0.0233554,22192.2,-37870.2,0,43893.6,139739
step02_gravity_refstate-crust.xmf,2368,-1.12449e-06,-5.93202e-07,0,2.3379e-06,-1.0697e+09,-1.06966e+09,-1.06962e+09,160380,0.0242478,-0.00993279,0,0.0262034,21471,-38937.9,0,44465.3,160380
step02_gravity_refstate-crust.xmf,2369,-6.79692e-07,6.10895e-07,0,2.19747e-09,-8.54556e+08,-8.54468e+08,-8.5451e+08,150.747,9.85456e-20,0.0404129,0,0.0404129,40000,-31109.2,0,50673.3,150.747
step02_gravity_refstate-crust.xmf,2370,-7.76202e-07,4.56716e-07,0,6.61214e-07,-9.08344e+08,-9.0826e+08,-9.08291e+08,45359.3,0.00714829,0.0295841,0,0.0304354,31762.3,-33066.8,0,45850.3,45359.3
step02_gravity_refstate-crust.xmf,2371,-8.07067e-07,5.56661e-07,0,5.21619e-07,-9.03552e+08,-9.03459e+08,-9.03497e+08,35783,0.00568471,0.0331626,0,0.0336463,33425.2,-32892.3,0,46895.1,35783
step02_gravity_refstate-crust.xmf,2372,-1.06676e-06,-8.3073e-08,0,1.58341e-06,-1.01909e+09,-1.01902e+09,-1.01902e+09,108622,0.0191747,0.00319878,0,0.0194397,24245,-37096.6,0,44316.8,108622
step02_gravity_refstate-crust.xmf,2373,-9.84155e-07,1.81814e-07,0,1.18509e-06,-9.87288e+08,-9.87208e+08,-9.87221e+08,81297.3,0.0151053,0.0132627,0,0.0201015,26685,-35939.5,0,44763.2,81297.3
step02_gravity_refstate-crust.xmf,2374,-9.00428e-07,3.70835e-07,0,8.85355e-07,-9.52943e+08,-9.52856e+08,-9.52881e+08,60735.3,0.0110649,0.022235,0,0.024836,29259.3,-34689.8,0,45381.6,60735.3
step02_gravity_refstate-crust.xmf,2375,-8.14554e-07,6.90038e-07,0,1.44239e-07,-8.85946e+08,-8.85842e+08,-8.8589e+08,9894.78,0.00147095,0.0392047,0,0.0392323,38201.5,-32251.5,0,49995.1,9894.78
step02_gravity_refstate-crust.xmf,2376,-8.12667e-07,6.20608e-07,0,3.91287e-07,-8.96646e+08,-8.96547e+08,-8.9659e+08,26842.3,0.00421566,0.0359222,0,0.0361687,35029.6,-32641,0,47880.1,26842.3
step02_gravity_refstate-crust.xmf,2377,-1.12281e-06,-1.99894e-07,0,1.79074e-06,-1.04018e+09,-1.04012e+09,-1.04011e+09,122844,0.0210396,-0.000563762,0,0.0210471,23404.9,-37864.1,0,44513.8,122844
step02_gravity_refstate-crust.xmf,2378,-1.09033e-06,1.19635e-07,0,1.36416e-06,-1.02154e+09,-1.02146e+09,-1.02147e+09,93581.2,0.017685,0.00942382,0,0.0200391,25728.8,-37186,0,45219.2,93581.2
step02_gravity_refstate-crust.xmf,2379,-1.04171e-06,3.7154e-07,0,1.00401e-06,-9.91925e+08,-9.91828e+08,-9.91853e+08,68875.1,0.0136586,0.0188236,0,0.0232569,28320,-36108.4,0,45889.4,68875.1
step02_gravity_refstate-crust.xmf,2380,-9.67568e-07,5.28954e-07,0,7.25556e-07,-9.54075e+08,-9.53972e+08,-9.54009e+08,49773.1,0.00950886,0.026897,0,0.0285284,30982.8,-34731,0,46542.2,49773.1
step02_gravity_refstate-crust.xmf,2381,-1.13128e-06,-3.39816e-07,0,2.01538e-06,-1.06857e+09,-1.06852e+09,-1.06849e+09,138255,0.0227127,-0.00314872,0,0.0229299,22804.8,-38897.3,0,45089.5,138255
step02_gravity_refstate-crust.xmf,2382,-9.53277e-07,7.94404e-07,0,1.89117e-09,-9.15577e+08,-9.15457e+08,-9.15512e+08,129.735,1.25734e-19,0.038853,0,0.038853,40000,-33329.9,0,52066.1,129.735
step02_gravity_refstate-crust.xmf,2383,-1.01341e-06,6.59531e-07,0,5.69629e-07,-9.53155e+08,-9.5304e+08,-9.53086e+08,39076.6,0.00772755,0.0308235,0,0.0317774,32768.2,-34697.5,0,47724.9,39076.6
step02_gravity_refstate-crust.xmf,2384,-1.04695e-06,7.70421e-07,0,4.01996e-07,-9.51558e+08,-9.51433e+08,-9.51486e+08,27576.9,0.00563036,0.0341838,0,0.0346443,34778.1,-34639.4,0,49085.7,27576.9
step02_gravity_refstate-crust.xmf,2385,-9.37343e-07,7.45534e-07,0,2.62352e-07,-9.17653e+08,-9.17538e+08,-9.17589e+08,17997.4,0.00323891,0.0372139,0,0.0373546,36590.6,-33405.4,0,49545.9,17997.4
step02_gravity_refstate-crust.xmf,2386,-1.16708e-06,-6.09299e-08,0,1.68019e-06,-1.06024e+09,-1.06017e+09,-1.06016e+09,115261,0.0206791,0.00384529,0,0.0210335,24369.1,-38594.4,0,45644,115261
step02_gravity_refstate-crust.xmf,2387,-1.13979e-06,3.24801e-07,0,1.16046e-06,-1.02803e+09,-1.02793e+09,-1.02796e+09,79607.2,0.0161527,0.0151692,0,0.0221589,27333.6,-37422.5,0,46341.9,79607.2
step02_gravity_refstate-crust.xmf,2388,-1.10696e-06,5.50964e-07,0,8.33125e-07,-9.97802e+08,-9.97688e+08,-9.97726e+08,57152.3,0.0120647,0.0235781,0,0.0264855,30010,-36322.3,0,47115.9,57152.3
step02_gravity_refstate-crust.xmf,2389,-1.07746e-06,8.73482e-07,0,1.32987e-07,-9.47429e+08,-9.47295e+08,-9.47355e+08,9122.92,0.00185848,0.0374919,0,0.037538,38276.6,-34489.1,0,51522.7,9122.92
step02_gravity_refstate-crust.xmf,2390,-1.18257e-06,1.87514e-07,0,1.39219e-06,-1.06287e+09,-1.06278e+09,-1.06279e+09,95504,0.0187508,0.0105508,0,0.0215154,26092.3,-38690.4,0,46666.5,95504
step02_gravity_refstate-crust.xmf,2391,-1.19399e-06,5.03808e-07,0,9.83771e-07,-1.03462e+09,-1.03451e+09,-1.03454e+09,67486.7,0.0146123,0.0197041,0,0.0245311,28843.7,-37662.5,0,47438.6,67486.7
step02_gravity_refstate-crust.xmf,2392,-1.18108e-06,7.21758e-07,0,6.58198e-07,-1.0022e+09,-1.00207e+09,-1.00212e+09,45152.4,0.0100857,0.0277937,0,0.0295671,31866.3,-36482.6,0,48440,45152.4
step02_gravity_refstate-crust.xmf,2393,-1.19421e-06,9.69794e-07,0,1.78915e-09,-9.76594e+08,-9.76446e+08,-9.76512e+08,122.736,1.46951e-19,0.0368946,0,0.0368946,40000,-35550.6,0,53514.9,122.736
step02_gravity_refstate-crust.xmf,2394,-1.22171e-06,8.47573e-07,0,4.97588e-07,-1.00282e+09,-1.00268e+09,-1.00274e+09,34134.5,0.00794038,0.0310581,0,0.032057,33681.1,-36505.2,0,49669.3,34134.5
step02_gravity_refstate-crust.xmf,2395,-1.18409e-06,9.23656e-07,0,2.52952e-07,-9.79539e+08,-9.79394e+08,-9.79457e+08,17352.5,0.0039873,0.035395,0,0.0356188,36659.9,-35657.7,0,51141.2,17352.5
step02_gravity_refstate-crust.xmf,2396,-1.22783e-06,3.95377e-07,0,1.1733e-06,-1.06657e+09,-1.06646e+09,-1.06649e+09,80488.6,0.0169852,0.0156411,0,0.0230898,27640.6,-38825.3,0,47659.3,80488.6
step02_gravity_refstate-crust.xmf,2397,-1.2922e-06,7.14686e-07,0,8.0169e-07,-1.05098e+09,-1.05085e+09,-1.0509e+09,54995.9,0.0128263,0.02389,0,0.0271155,30644.4,-38258,0,49017.9,54995.9
step02_gravity_refstate-crust.xmf,2398,-1.29509e-06,1.0393e-06,0,1.284e-07,-1.00744e+09,-1.00728e+09,-1.00735e+09,8808.27,0.00215182,0.0354297,0,0.035495,38336.3,-36673.2,0,53052.7,8808.27
step02_gravity_refstate-crust.xmf,2399,-1.25996e-06,9.42452e-07,0,3.62627e-07,-1.00642e+09,-1.00627e+09,-1.00633e+09,24876.2,0.00602487,0.0331181,0,0.0336617,35287.4,-36636.1,0,50866.5,24876.2
step02_gravity_refstate-crust.xmf,2400,-1.28312e-06,5.77196e-07,0,9.90769e-07,-1.07117e+09,-1.07105e+09,-1.07109e+09,67966.7,0.0152781,0.0196579,0,0.0248969,29091.7,-38992.8,0,48649.5,67966.7
step02_gravity_refstate-crust.xmf,2401,-1.34187e-06,8.88307e-07,0,5.95971e-07,-1.05083e+09,-1.05067e+09,-1.05074e+09,40883.6,0.0101123,0.027974,0,0.0297457,32720.8,-38252.4,0,50337.8,40883.6
step02_gravity_refstate-crust.xmf,2402,-1.38747e-06,1.12693e-06,0,1.08832e-09,-1.03763e+09,-1.03746e+09,-1.03754e+09,74.6585,1.55784e-19,0.034564,0,0.034564,40000,-37772.2,0,55015.8,74.6585
step02_gravity_refstate-crust.xmf,2403,-1.38148e-06,1.01404e-06,0,4.24961e-07,-1.05127e+09,-1.05111e+09,-1.05118e+09,29152.3,0.0075251,0.0307568,0,0.031664,34640.7,-38268.5,0,51618.4,29152.3
step02_gravity_refstate-crust.xmf,2404,-1.39389e-06,1.08913e-06,0,2.55794e-07,-1.04363e+09,-1.04346e+09,-1.04353e+09,17547.4,0.00461312,0.0330759,0,0.033396,36692.6,-37990.4,0,52816.8,17547.4
step02_gravity_refstate-crust.xmf,2405,-1.43624e-06,1.1601e-06,0,1.17982e-07,-1.05563e+09,-1.05545e+09,-1.05553e+09,8093.55,0.0022402,0.0335414,0,0.0336162,38434.4,-38427.1,0,54349.3,8093.55
