Block Name,Point ID,cauchy_strain_0,cauchy_strain_1,cauchy_strain_2,cauchy_strain_3,cauchy_stress_0,cauchy_stress_1,cauchy_stress_2,cauchy_stress_3,displacement_0,displacement_1,displacement_2,displacement_Magnitude,Points_0,Points_1,Points_2,Points_Magnitude,stress_xy
step02_gravity_refstate-mantle.xmf,0,1.11712e-05,-1.32175e-05,0,9.71654e-06,-1.0974e+09,-1.10066e+09,-1.09889e+09,1.29862e+06,-0.0187792,0.264572,-0,0.265238,-1000,-40000,-0,40012.5,1.29862e+06
step02_gravity_refstate-mantle.xmf,1,6.45146e-06,-7.03118e-06,0,8.23508e-06,-1.09791e+09,-1.09971e+09,-1.09877e+09,1.10062e+06,-0.0234384,0.250818,-0,0.25191,-1513.8,-40000,-0,40028.6,1.10062e+06
step02_gravity_refstate-mantle.xmf,2,6.63946e-06,-7.31e-06,0,1.05513e-05,-1.1096e+09,-1.11146e+09,-1.11048e+09,1.41019e+06,-0.0189016,0.257668,-0,0.258361,-1365.48,-40361.7,-0,40384.8,1.41019e+06
step02_gravity_refstate-mantle.xmf,3,4.58663e-06,-4.70415e-06,0,9.61151e-06,-1.11175e+09,-1.11299e+09,-1.11236e+09,1.28458e+06,-0.0207197,0.245781,-0,0.246653,-1783.07,-40421,-0,40460.3,1.28458e+06
step02_gravity_refstate-mantle.xmf,4,8.74909e-06,-1.01579e-05,0,1.30093e-05,-1.11387e+09,-1.11639e+09,-1.11504e+09,1.7387e+06,-0.0149324,0.270418,-0,0.27083,-1000,-40500.4,-0,40512.7,1.7387e+06
step02_gravity_refstate-mantle.xmf,5,3.7969e-06,-4.12003e-06,0,7.35577e-06,-1.09824e+09,-1.0993e+09,-1.09875e+09,983099,-0.0261505,0.236584,-0,0.238025,-2053.41,-40000,-0,40052.7,983099
step02_gravity_refstate-mantle.xmf,6,5.76884e-06,-5.72072e-06,0,1.18901e-05,-1.12186e+09,-1.12339e+09,-1.12263e+09,1.58911e+06,-0.0161226,0.257989,-0,0.258492,-1434.25,-40738.7,-0,40763.9,1.58911e+06
step02_gravity_refstate-mantle.xmf,7,1.71397e-06,-2.01367e-06,0,6.61086e-06,-1.09852e+09,-1.09901e+09,-1.09874e+09,883541,-0.0276551,0.222612,-0,0.224323,-2618.77,-40000,-0,40085.6,883541
step02_gravity_refstate-mantle.xmf,8,2.77791e-06,-2.52852e-06,0,8.38021e-06,-1.11306e+09,-1.11377e+09,-1.11343e+09,1.12002e+06,-0.0223151,0.231414,-0,0.232487,-2310.14,-40455.1,-0,40521,1.12002e+06
step02_gravity_refstate-mantle.xmf,9,3.32625e-06,-2.64481e-06,0,1.0558e-05,-1.1285e+09,-1.1293e+09,-1.12895e+09,1.41108e+06,-0.0169842,0.241315,-0,0.241912,-2001.29,-40935.4,-0,40984.3,1.41108e+06
step02_gravity_refstate-mantle.xmf,10,2.78973e-07,2.12934e-06,0,2.56993e-09,-1.09848e+09,-1.09824e+09,-1.09852e+09,343.472,1.88333e-19,0.0439207,0,0.0439207,-40000,-40000,-0,56568.5,343.472
step02_gravity_refstate-mantle.xmf,11,4.6184e-07,2.16016e-06,0,1.19357e-09,-1.1698e+09,-1.16958e+09,-1.16987e+09,159.521,-2.247e-20,0.0391871,-0,0.0391871,-40000,-42204.4,-0,58148.2,159.521
step02_gravity_refstate-mantle.xmf,12,3.99681e-07,2.15827e-06,0,-1.86787e-08,-1.1486e+09,-1.14836e+09,-1.14865e+09,-2496.41,0.000624091,0.0406736,0,0.0406784,-38450.2,-41549,-0,56610.4,2496.41
step02_gravity_refstate-mantle.xmf,13,2.63673e-07,2.14293e-06,0,-9.98383e-09,-1.09849e+09,-1.09823e+09,-1.09852e+09,-1334.34,0.000644324,0.0441121,0,0.0441168,-37629,-40000,-0,54917.6,1334.34
step02_gravity_refstate-mantle.xmf,14,6.98259e-06,-7.06157e-06,0,1.5481e-05,-1.13018e+09,-1.13206e+09,-1.13111e+09,2.06904e+06,-0.0113988,0.274719,-0,0.274955,-1000,-41000.4,-0,41012.6,2.06904e+06
step02_gravity_refstate-mantle.xmf,15,1.24919e-06,-8.52672e-07,0,7.30296e-06,-1.11447e+09,-1.11475e+09,-1.11464e+09,976041,-0.0230874,0.216844,-0,0.218069,-2888.51,-40492.7,-0,40595.6,976041
step02_gravity_refstate-mantle.xmf,16,4.80037e-06,-3.8891e-06,0,1.35074e-05,-1.13728e+09,-1.13844e+09,-1.13792e+09,1.80526e+06,-0.0125867,0.259556,-0,0.259861,-1455.63,-41213.2,-0,41238.9,1.80526e+06
step02_gravity_refstate-mantle.xmf,17,5.64073e-07,2.17048e-06,0,-3.42122e-08,-1.20728e+09,-1.20706e+09,-1.20735e+09,-4572.46,0.000973819,0.0367642,0,0.0367771,-38286.3,-43362.6,-0,57846,4572.46
step02_gravity_refstate-mantle.xmf,18,4.32778e-07,2.17885e-06,0,-5.09422e-08,-1.16718e+09,-1.16694e+09,-1.16723e+09,-6808.43,0.00154164,0.0397195,0,0.0397494,-36553.1,-42123,-0,55771.7,6808.43
step02_gravity_refstate-mantle.xmf,19,6.70759e-07,2.16536e-06,0,1.18098e-09,-1.24112e+09,-1.24092e+09,-1.24121e+09,157.838,-3.46268e-20,0.0344187,-0,0.0344187,-40000,-44408.8,-0,59767.4,157.838
step02_gravity_refstate-mantle.xmf,20,1.158e-05,-1.21595e-05,0,-8.99794e-06,-1.09722e+09,-1.10039e+09,-1.09877e+09,-1.20257e+06,0.0187767,0.264572,0,0.265238,1000,-40000,0,40012.5,1.20257e+06
step02_gravity_refstate-mantle.xmf,21,8.74621e-06,-1.01367e-05,0,-1.3008e-05,-1.11387e+09,-1.11639e+09,-1.11503e+09,-1.73852e+06,0.0149322,0.27042,0,0.270831,1000,-40500.4,0,40512.7,1.73852e+06
step02_gravity_refstate-mantle.xmf,22,6.74686e-06,-7.35432e-06,0,-1.06548e-05,-1.10956e+09,-1.11144e+09,-1.11046e+09,-1.42402e+06,0.0189033,0.257681,0,0.258373,1364.96,-40361.1,0,40384.2,1.42402e+06
step02_gravity_refstate-mantle.xmf,23,6.40857e-06,-7.01781e-06,0,-8.23455e-06,-1.09791e+09,-1.09971e+09,-1.09877e+09,-1.10055e+06,0.0234449,0.250819,0,0.251913,1513.8,-40000,0,40028.6,1.10055e+06
step02_gravity_refstate-mantle.xmf,24,4.42125e-07,-4.95385e-07,0,5.88522e-06,-1.09867e+09,-1.09879e+09,-1.09872e+09,786559,-0.0282611,0.209047,-0,0.210949,-3211.88,-40000,-0,40128.7,786559
step02_gravity_refstate-mantle.xmf,25,2.02454e-06,-1.23293e-06,0,8.89295e-06,-1.12651e+09,-1.12695e+09,-1.12678e+09,1.18854e+06,-0.0189447,0.22675,-0,0.22754,-2514.86,-40868.9,-0,40946.2,1.18854e+06
step02_gravity_refstate-mantle.xmf,26,3.16947e-06,-1.81982e-06,0,1.20693e-05,-1.14287e+09,-1.14354e+09,-1.14329e+09,1.61306e+06,-0.0129501,0.246422,-0,0.246762,-1867.7,-41380.4,-0,41422.5,1.61306e+06
step02_gravity_refstate-mantle.xmf,27,2.16294e-07,2.17598e-06,0,-2.1079e-08,-1.09849e+09,-1.09823e+09,-1.09852e+09,-2817.21,0.00119498,0.0446607,0,0.0446767,-35372.8,-40000,-0,53396.9,2817.21
step02_gravity_refstate-mantle.xmf,28,1.54006e-07,2.22525e-06,0,-2.54664e-08,-1.0985e+09,-1.09823e+09,-1.09852e+09,-3403.58,0.00160954,0.0455434,0,0.0455718,-33225.7,-40000,-0,51999.5,3403.58
step02_gravity_refstate-mantle.xmf,29,3.60924e-07,2.21977e-06,0,-7.86572e-08,-1.15923e+09,-1.15898e+09,-1.15928e+09,-10512.5,0.00235663,0.040923,0,0.0409908,-34255.1,-41877.2,-0,54102.8,10512.5
step02_gravity_refstate-mantle.xmf,30,7.83412e-07,2.17062e-06,0,-5.22914e-08,-1.2803e+09,-1.28011e+09,-1.2804e+09,-6988.75,0.00162429,0.0318979,0,0.0319393,-37935,-45619.7,-0,59331.5,6988.75
step02_gravity_refstate-mantle.xmf,31,5.59783e-06,-5.72512e-06,0,-1.19805e-05,-1.12188e+09,-1.12339e+09,-1.12263e+09,-1.6012e+06,0.0161318,0.25796,0,0.258464,1435.03,-40738.2,0,40763.4,1.6012e+06
step02_gravity_refstate-mantle.xmf,32,4.57176e-06,-4.68627e-06,0,-9.6128e-06,-1.11184e+09,-1.11308e+09,-1.11245e+09,-1.28475e+06,0.0207074,0.245707,0,0.246578,1786.15,-40423.8,0,40463.3,1.28475e+06
step02_gravity_refstate-mantle.xmf,33,5.28104e-06,-4.12878e-06,0,1.70491e-05,-1.14651e+09,-1.14776e+09,-1.14721e+09,2.27861e+06,-0.00844301,0.277519,-0,0.277648,-1000,-41500.9,-0,41512.9,2.27861e+06
step02_gravity_refstate-mantle.xmf,34,3.45071e-06,-1.65746e-06,0,1.46197e-05,-1.15401e+09,-1.15469e+09,-1.15447e+09,1.95392e+06,-0.0093024,0.259271,-0,0.259437,-1504.17,-41726.7,-0,41753.8,1.95392e+06
step02_gravity_refstate-mantle.xmf,35,-5.65814e-07,6.6169e-07,0,5.20298e-06,-1.09879e+09,-1.09862e+09,-1.09871e+09,695379,-0.0281745,0.195976,-0,0.19799,-3834.57,-40000,-0,40183.4,695379
step02_gravity_refstate-mantle.xmf,36,-1.30431e-06,1.53996e-06,0,4.58412e-06,-1.09887e+09,-1.09849e+09,-1.0987e+09,612667,-0.0275348,0.183454,-0,0.185508,-4488.57,-40000,-0,40251.1,612667
step02_gravity_refstate-mantle.xmf,37,-6.98126e-07,1.30783e-06,0,5.22062e-06,-1.11218e+09,-1.11191e+09,-1.11209e+09,697736,-0.0240691,0.189066,-0,0.190591,-4161.57,-40414.5,-0,40628.2,697736
step02_gravity_refstate-mantle.xmf,38,1.85749e-07,4.7833e-07,0,6.35581e-06,-1.11741e+09,-1.11737e+09,-1.11743e+09,849454,-0.0227032,0.202268,-0,0.203538,-3519.88,-40579.8,-0,40732.2,849454
step02_gravity_refstate-mantle.xmf,39,1.07102e-06,8.17486e-08,0,8.13252e-06,-1.13287e+09,-1.133e+09,-1.13301e+09,1.08691e+06,-0.0179103,0.215251,-0,0.215995,-2962.15,-41062.1,-0,41168.8,1.08691e+06
step02_gravity_refstate-mantle.xmf,40,1.90583e-06,-4.46952e-07,0,1.01611e-05,-1.14282e+09,-1.14313e+09,-1.14307e+09,1.35803e+06,-0.0143841,0.230074,-0,0.230523,-2410.34,-41373.8,-0,41443.9,1.35803e+06
step02_gravity_refstate-mantle.xmf,41,7.20296e-08,2.28948e-06,0,-2.42111e-08,-1.09851e+09,-1.09822e+09,-1.09852e+09,-3235.81,0.00185574,0.0467526,0,0.0467894,-31182.5,-40000,-0,50718.3,3235.81
step02_gravity_refstate-mantle.xmf,42,2.89529e-07,2.27626e-06,0,-9.85077e-08,-1.15626e+09,-1.156e+09,-1.1563e+09,-13165.6,0.00300248,0.0420973,0,0.0422042,-32125.1,-41785.3,-0,52707,13165.6
step02_gravity_refstate-mantle.xmf,43,-2.70729e-08,2.36621e-06,0,-1.56391e-08,-1.09853e+09,-1.09821e+09,-1.09853e+09,-2090.17,0.00191302,0.048291,0,0.0483289,-29238.1,-40000,-0,49546.6,2090.17
step02_gravity_refstate-mantle.xmf,44,1.95585e-07,2.34452e-06,0,-1.06878e-07,-1.15121e+09,-1.15092e+09,-1.15124e+09,-14284.3,0.00336041,0.0437079,0,0.0438369,-30155.3,-41628.7,-0,51403.2,14284.3
step02_gravity_refstate-mantle.xmf,45,6.4141e-07,2.18292e-06,0,-7.24972e-08,-1.23665e+09,-1.23644e+09,-1.23674e+09,-9689.26,0.00209916,0.0349881,0,0.035051,-36779.5,-44270.5,-0,57555.3,9689.26
step02_gravity_refstate-mantle.xmf,46,8.8608e-07,2.16081e-06,0,6.98562e-10,-1.31244e+09,-1.31227e+09,-1.31256e+09,93.3628,-3.92568e-20,0.0296501,-0,0.0296501,-40000,-46613.3,-0,61423.1,93.3628
step02_gravity_refstate-mantle.xmf,47,3.79431e-06,-4.11814e-06,0,-7.35465e-06,-1.09824e+09,-1.0993e+09,-1.09875e+09,-982949,0.0261528,0.236585,0,0.238026,2053.41,-40000,0,40052.7,982949
step02_gravity_refstate-mantle.xmf,48,7.04909e-06,-7.02881e-06,0,-1.53815e-05,-1.13016e+09,-1.13204e+09,-1.1311e+09,-2.05573e+06,0.0114016,0.274718,0,0.274955,1000,-41000.4,0,41012.6,2.05573e+06
step02_gravity_refstate-mantle.xmf,49,2.21199e-06,-1.27314e-07,0,1.24133e-05,-1.15683e+09,-1.15714e+09,-1.15713e+09,1.65903e+06,-0.0101587,0.242402,-0,0.242614,-2007.11,-41809.5,-0,41857.7,1.65903e+06
step02_gravity_refstate-mantle.xmf,50,-1.04711e-06,2.05012e-06,0,4.75578e-06,-1.11891e+09,-1.1185e+09,-1.11877e+09,635610,-0.0217341,0.178277,-0,0.179597,-4711.82,-40622,-0,40894.4,635610
step02_gravity_refstate-mantle.xmf,51,-1.36055e-07,2.45113e-06,0,1.64441e-09,-1.09855e+09,-1.0982e+09,-1.09853e+09,219.775,0.00176923,0.050168,0,0.0501992,-27387.8,-40000,-0,48477.7,219.775
step02_gravity_refstate-mantle.xmf,52,7.91858e-08,2.42232e-06,0,-9.85193e-08,-1.1437e+09,-1.14339e+09,-1.14371e+09,-13167.1,0.00338792,0.0458415,0,0.0459665,-28272,-41396.2,-0,50129.3,13167.1
step02_gravity_refstate-mantle.xmf,53,5.73941e-07,2.20719e-06,0,-1.02055e-07,-1.2214e+09,-1.22118e+09,-1.22147e+09,-13639.6,0.00292292,0.0363893,0,0.0365065,-35117.7,-43799,-0,56139.2,13639.6
step02_gravity_refstate-mantle.xmf,54,5.14458e-07,2.25213e-06,0,-1.37365e-07,-1.21572e+09,-1.21549e+09,-1.21579e+09,-18358.9,0.00392239,0.0374711,0,0.0376758,-33097.9,-43623.3,-0,54758.2,18358.9
step02_gravity_refstate-mantle.xmf,55,7.66874e-07,2.19185e-06,0,-1.04692e-07,-1.27968e+09,-1.27949e+09,-1.27978e+09,-13992.1,0.00322306,0.0322469,0,0.0324076,-35865.9,-45600.6,-0,58015.3,13992.1
step02_gravity_refstate-mantle.xmf,56,1.00852e-06,2.16335e-06,0,-5.23178e-08,-1.35495e+09,-1.35479e+09,-1.35508e+09,-6992.27,0.0019276,0.0268838,0,0.0269528,-38090.9,-47927.1,-0,61220.3,6992.27
step02_gravity_refstate-mantle.xmf,57,1.71588e-06,-2.01123e-06,0,-6.6082e-06,-1.09852e+09,-1.09901e+09,-1.09874e+09,-883186,0.0276549,0.222611,0,0.224323,2618.77,-40000,0,40085.6,883186
step02_gravity_refstate-mantle.xmf,58,2.77085e-06,-2.52062e-06,0,-8.37361e-06,-1.11307e+09,-1.11377e+09,-1.11344e+09,-1.11913e+06,0.0223211,0.231347,0,0.232421,2312.69,-40455.2,0,40521.3,1.11913e+06
step02_gravity_refstate-mantle.xmf,59,5.26791e-06,-4.08793e-06,0,-1.7054e-05,-1.14651e+09,-1.14776e+09,-1.14721e+09,-2.27927e+06,0.00844351,0.277524,0,0.277652,1000,-41500.9,0,41512.9,2.27927e+06
step02_gravity_refstate-mantle.xmf,60,4.65788e-06,-3.7666e-06,0,-1.33672e-05,-1.13715e+09,-1.13827e+09,-1.13777e+09,-1.78653e+06,0.0126651,0.259213,0,0.259522,1465.17,-41208.5,0,41234.5,1.78653e+06
step02_gravity_refstate-mantle.xmf,61,3.34653e-06,-2.67377e-06,0,-1.05808e-05,-1.12848e+09,-1.12928e+09,-1.12893e+09,-1.41413e+06,0.0169654,0.241531,0,0.242126,1993.93,-40934.8,0,40983.3,1.41413e+06
step02_gravity_refstate-mantle.xmf,62,3.66315e-06,-1.40631e-06,0,1.80501e-05,-1.16282e+09,-1.1635e+09,-1.16331e+09,2.4124e+06,-0.00595768,0.278906,-0,0.27897,-1000,-42001.1,-0,42013,2.4124e+06
step02_gravity_refstate-mantle.xmf,63,2.38135e-06,9.13383e-08,0,1.40397e-05,-1.16411e+09,-1.16441e+09,-1.16442e+09,1.87641e+06,-0.00797127,0.251744,-0,0.25187,-1725.81,-42035.9,-0,42071.3,1.87641e+06
step02_gravity_refstate-mantle.xmf,64,-1.7342e-06,2.17546e-06,0,4.00246e-06,-1.09892e+09,-1.09839e+09,-1.09868e+09,534928,-0.0264749,0.171517,-0,0.173548,-5175.58,-40000,-0,40333.4,534928
step02_gravity_refstate-mantle.xmf,65,-2.04027e-06,2.6509e-06,0,3.47484e-06,-1.09894e+09,-1.09832e+09,-1.09867e+09,464412,-0.0250877,0.160191,-0,0.162144,-5897.33,-40000,-0,40432.4,464412
step02_gravity_refstate-mantle.xmf,66,-1.45564e-06,2.58407e-06,0,3.95301e-06,-1.11846e+09,-1.11792e+09,-1.11827e+09,528319,-0.0208818,0.16496,-0,0.166277,-5488.29,-40606.7,-0,40975.9,528319
step02_gravity_refstate-mantle.xmf,67,-2.21943e-06,2.97663e-06,0,2.98488e-06,-1.09895e+09,-1.09826e+09,-1.09866e+09,398929,-0.02346,0.149482,-0,0.151312,-6655.64,-40000,-0,40549.9,398929
step02_gravity_refstate-mantle.xmf,68,-2.27957e-06,3.21927e-06,0,2.58213e-06,-1.09895e+09,-1.09821e+09,-1.09864e+09,345101,-0.0216598,0.13939,-0,0.141063,-7452.39,-40000,-0,40688.3,345101
step02_gravity_refstate-mantle.xmf,69,-1.91285e-06,3.24397e-06,0,2.6724e-06,-1.11709e+09,-1.1164e+09,-1.11683e+09,357166,-0.0181954,0.140314,-0,0.141488,-7228.54,-40562.8,-0,41201.9,357166
step02_gravity_refstate-mantle.xmf,70,-3.28867e-07,1.5697e-06,0,5.82396e-06,-1.12887e+09,-1.12862e+09,-1.12883e+09,778372,-0.0194217,0.190088,-0,0.191078,-4073.37,-40933.3,-0,41135.4,778372
step02_gravity_refstate-mantle.xmf,71,2.5587e-07,1.30146e-06,0,7.13569e-06,-1.1399e+09,-1.13976e+09,-1.13994e+09,953685,-0.0163974,0.201286,-0,0.201953,-3535.9,-41277.2,-0,41428.3,953685
step02_gravity_refstate-mantle.xmf,72,7.87967e-07,1.21106e-06,0,8.79347e-06,-1.15202e+09,-1.15196e+09,-1.15212e+09,1.17525e+06,-0.012882,0.213488,-0,0.213876,-3016.21,-41654.8,-0,41763.8,1.17525e+06
step02_gravity_refstate-mantle.xmf,73,1.17718e-06,1.28191e-06,0,1.0775e-05,-1.16326e+09,-1.16325e+09,-1.16342e+09,1.44008e+06,-0.00958398,0.226883,-0,0.227085,-2512.01,-42004.8,-0,42079.9,1.44008e+06
step02_gravity_refstate-mantle.xmf,74,4.47703e-07,2.32367e-06,0,-1.74923e-07,-1.21523e+09,-1.21498e+09,-1.21529e+09,-23378.4,0.00503623,0.0386765,0,0.039003,-30774.1,-43607.8,-0,53373.1,23378.4
step02_gravity_refstate-mantle.xmf,75,-2.45286e-08,2.5058e-06,0,-8.90409e-08,-1.14161e+09,-1.14127e+09,-1.14161e+09,-11900.3,0.00335802,0.0478314,0,0.0479492,-26555.5,-41331.2,-0,49127,11900.3
step02_gravity_refstate-mantle.xmf,76,2.92237e-07,2.40051e-06,0,-1.71427e-07,-1.19266e+09,-1.19238e+09,-1.1927e+09,-22911.2,0.00503856,0.0417104,0,0.0420136,-28812.4,-42910,-0,51685.9,22911.2
step02_gravity_refstate-mantle.xmf,77,-2.6835e-07,2.54789e-06,0,2.8068e-08,-1.09857e+09,-1.09819e+09,-1.09853e+09,3751.29,0.00141853,0.0523972,0,0.0524164,-25627,-40000,-0,47505.2,3751.29
step02_gravity_refstate-mantle.xmf,78,-4.08231e-07,2.64915e-06,0,6.51275e-08,-1.09859e+09,-1.09818e+09,-1.09853e+09,8704.29,0.000860736,0.0549951,0,0.0550018,-23951.4,-40000,-0,46622.6,8704.29
step02_gravity_refstate-mantle.xmf,79,-1.30411e-07,2.60481e-06,0,-7.76325e-08,-1.14414e+09,-1.14378e+09,-1.14413e+09,-10375.6,0.00333997,0.0499386,0,0.0500502,-24807.7,-41408.9,-0,48271.3,10375.6
step02_gravity_refstate-mantle.xmf,80,-5.55558e-07,2.75331e-06,0,1.14751e-07,-1.09861e+09,-1.09817e+09,-1.09854e+09,15336.5,0.000101149,0.0579785,0,0.0579785,-22356.9,-40000,-0,45823.9,15336.5
step02_gravity_refstate-mantle.xmf,81,-2.93285e-07,2.70783e-06,0,-3.18079e-08,-1.1368e+09,-1.1364e+09,-1.13676e+09,-4251.13,0.00260405,0.0532147,0,0.0532783,-23159.6,-41181.2,-0,47246.8,4251.13
step02_gravity_refstate-mantle.xmf,82,9.20252e-07,2.17956e-06,0,-9.49418e-08,-1.32776e+09,-1.32759e+09,-1.32788e+09,-12689,0.00322317,0.0288823,0,0.0290616,-36523.7,-47086.8,-0,59591.5,12689
step02_gravity_refstate-mantle.xmf,83,1.09476e-06,2.15555e-06,0,5.83134e-10,-1.38376e+09,-1.38362e+09,-1.38391e+09,77.9359,-4.37631e-20,0.0248913,-0,0.0248913,-40000,-48817.8,-0,63112.4,77.9359
step02_gravity_refstate-mantle.xmf,84,1.22589e-06,-8.31227e-07,0,-7.27477e-06,-1.11434e+09,-1.11462e+09,-1.11451e+09,-972273,0.0231413,0.216574,0,0.217807,2899.53,-40488.6,0,40592.3,972273
step02_gravity_refstate-mantle.xmf,85,3.41589e-06,-1.5516e-06,0,-1.45597e-05,-1.15402e+09,-1.15468e+09,-1.15448e+09,-1.94591e+06,0.00930027,0.259264,0,0.259431,1504.38,-41727.1,0,41754.2,1.94591e+06
step02_gravity_refstate-mantle.xmf,86,2.72897e-07,2.13467e-06,0,-2.17032e-09,-1.09848e+09,-1.09824e+09,-1.09852e+09,-290.063,5.40382e-20,0.0439207,0,0.0439207,40000,-40000,0,56568.5,290.063
step02_gravity_refstate-mantle.xmf,87,2.63707e-07,2.14293e-06,0,1.00065e-08,-1.09849e+09,-1.09823e+09,-1.09852e+09,1337.37,-0.000644303,0.044112,-0,0.0441168,37629,-40000,0,54917.6,1337.37
step02_gravity_refstate-mantle.xmf,88,3.99172e-07,2.15804e-06,0,1.85379e-08,-1.14837e+09,-1.14814e+09,-1.14843e+09,2477.59,-0.000619819,0.0406878,-0,0.0406925,38458.5,-41542,0,56610.9,2477.59
step02_gravity_refstate-mantle.xmf,89,4.61878e-07,2.16012e-06,0,-1.06244e-09,-1.1698e+09,-1.16958e+09,-1.16987e+09,-141.995,8.47393e-20,0.0391871,0,0.0391871,40000,-42204.4,0,58148.2,141.995
step02_gravity_refstate-mantle.xmf,90,-2.27582e-06,3.37628e-06,0,2.19634e-06,-1.09893e+09,-1.09818e+09,-1.09863e+09,293540,-0.0197467,0.129905,-0,0.131397,-8289.57,-40000,-0,40849.9,293540
step02_gravity_refstate-mantle.xmf,91,-1.90835e-06,3.36729e-06,0,2.32325e-06,-1.11847e+09,-1.11777e+09,-1.11822e+09,310503,-0.0166372,0.132313,-0,0.133355,-7886.9,-40606,-0,41364.9,310503
step02_gravity_refstate-mantle.xmf,92,2.33096e-06,4.80005e-07,0,1.58426e-05,-1.17104e+09,-1.17129e+09,-1.17135e+09,2.11737e+06,-0.00600024,0.262187,-0,0.262256,-1432.49,-42250.8,-0,42275.1,2.11737e+06
step02_gravity_refstate-mantle.xmf,93,1.50014e-06,1.61724e-06,0,1.34088e-05,-1.17455e+09,-1.17454e+09,-1.17475e+09,1.79209e+06,-0.00636397,0.243561,-0,0.243644,-1959.48,-42356.7,-0,42402,1.79209e+06
step02_gravity_refstate-mantle.xmf,94,-1.71822e-06,2.88261e-06,0,3.39978e-06,-1.1168e+09,-1.11618e+09,-1.11657e+09,454381,-0.0202744,0.155221,-0,0.156539,-6129.87,-40554.2,-0,41014.9,454381
step02_gravity_refstate-mantle.xmf,95,-1.63075e-06,3.16621e-06,0,3.03282e-06,-1.12796e+09,-1.12732e+09,-1.12774e+09,405337,-0.0166997,0.146503,-0,0.147451,-6671.74,-40900.4,-0,41440.9,405337
step02_gravity_refstate-mantle.xmf,96,-6.14872e-07,2.25143e-06,0,5.35674e-06,-1.13768e+09,-1.13729e+09,-1.13759e+09,715929,-0.0168147,0.180482,-0,0.181264,-4528.55,-41205,-0,41453.1,715929
step02_gravity_refstate-mantle.xmf,97,1.65598e-07,2.46795e-06,0,-1.56509e-07,-1.17725e+09,-1.17694e+09,-1.17727e+09,-20917.5,0.00478479,0.0442117,0,0.0444699,-27352.3,-42433.3,-0,50485,20917.5
step02_gravity_refstate-mantle.xmf,98,-7.1132e-07,2.85958e-06,0,1.76839e-07,-1.09864e+09,-1.09816e+09,-1.09854e+09,23634.5,-0.000852712,0.0613655,-0,0.0613714,-20839.5,-40000,-0,45103,23634.5
step02_gravity_refstate-mantle.xmf,99,-4.1724e-07,2.80984e-06,0,1.05145e-08,-1.13701e+09,-1.13658e+09,-1.13695e+09,1405.26,0.00208152,0.0561849,0,0.0562235,-21635.1,-41187.1,-0,46523.7,1405.26
step02_gravity_refstate-mantle.xmf,100,7.36626e-07,2.22401e-06,0,-1.48191e-07,-1.27705e+09,-1.27685e+09,-1.27715e+09,-19805.7,0.00456548,0.0328926,0,0.033208,-34025,-45519.2,-0,56830.4,19805.7
step02_gravity_refstate-mantle.xmf,101,6.85395e-07,2.27684e-06,0,-1.89434e-07,-1.27244e+09,-1.27223e+09,-1.27254e+09,-25317.8,0.00589703,0.0339651,0,0.0344732,-32011.5,-45376.7,-0,55531.8,25317.8
step02_gravity_refstate-mantle.xmf,102,9.27721e-07,2.20279e-06,0,-1.4045e-07,-1.33405e+09,-1.33388e+09,-1.33418e+09,-18771.1,0.00489433,0.0287809,0,0.0291941,-34804.2,-47281.3,-0,58709.9,18771.1
step02_gravity_refstate-mantle.xmf,103,1.10417e-06,2.18221e-06,0,-1.10274e-07,-1.38983e+09,-1.38969e+09,-1.38998e+09,-14738.2,0.0045144,0.024788,0,0.0251957,-35922.5,-49005.4,-0,60761.4,14738.2
step02_gravity_refstate-mantle.xmf,104,1.20377e-06,2.1625e-06,0,-5.17543e-08,-1.42434e+09,-1.42421e+09,-1.4245e+09,-6916.96,0.00235779,0.0222482,0,0.0223728,-38039.7,-50072,-0,62882.6,6916.96
step02_gravity_refstate-mantle.xmf,105,1.2842e-06,2.15912e-06,0,4.56865e-10,-1.4552e+09,-1.45508e+09,-1.45537e+09,61.06,-4.63932e-20,0.0201273,-0,0.0201273,-40000,-51025.6,-0,64835.3,61.06
step02_gravity_refstate-mantle.xmf,106,3.66491e-06,-1.41201e-06,0,-1.80547e-05,-1.16282e+09,-1.1635e+09,-1.16331e+09,-2.413e+06,0.0059565,0.278905,0,0.278969,1000,-42001.1,0,42013,2.413e+06
step02_gravity_refstate-mantle.xmf,107,4.41409e-07,-4.95285e-07,0,-5.88638e-06,-1.09867e+09,-1.09879e+09,-1.09872e+09,-786715,0.0282611,0.209047,0,0.210949,3211.88,-40000,0,40128.7,786715
step02_gravity_refstate-mantle.xmf,108,2.01018e-06,-1.21739e-06,0,-8.87341e-06,-1.12647e+09,-1.1269e+09,-1.12674e+09,-1.18593e+06,0.0189708,0.226577,0,0.227369,2521.29,-40867.4,0,40945.1,1.18593e+06
step02_gravity_refstate-mantle.xmf,109,3.16921e-06,-1.81936e-06,0,-1.20662e-05,-1.14286e+09,-1.14353e+09,-1.14329e+09,-1.61264e+06,0.0129531,0.246409,0,0.24675,1868.07,-41380.1,0,41422.2,1.61264e+06
step02_gravity_refstate-mantle.xmf,110,4.30857e-07,2.17846e-06,0,5.01936e-08,-1.16639e+09,-1.16616e+09,-1.16645e+09,6708.37,-0.00152395,0.0397676,-0,0.0397968,36576.6,-42098.7,0,55768.7,6708.37
step02_gravity_refstate-mantle.xmf,111,5.5758e-07,2.16977e-06,0,3.27209e-08,-1.20487e+09,-1.20465e+09,-1.20494e+09,4373.14,-0.00093243,0.0369206,-0,0.0369324,38338.9,-43288.2,0,57825.1,4373.14
step02_gravity_refstate-mantle.xmf,112,-1.88792e-06,3.46482e-06,0,1.9616e-06,-1.11959e+09,-1.11888e+09,-1.11934e+09,262168,-0.01492,0.123746,-0,0.124642,-8668.78,-40641.1,-0,41555.3,262168
step02_gravity_refstate-mantle.xmf,113,-1.49435e-06,3.40966e-06,0,2.53877e-06,-1.13964e+09,-1.13898e+09,-1.13944e+09,339307,-0.0127839,0.134891,-0,0.135496,-7479.27,-41262.6,-0,41935,339307
step02_gravity_refstate-mantle.xmf,114,2.14996e-06,1.14393e-06,0,1.86565e-05,-1.17911e+09,-1.17925e+09,-1.1794e+09,2.49344e+06,-0.00381946,0.278973,-0,0.278999,-1000,-42500.6,-0,42512.4,2.49344e+06
step02_gravity_refstate-mantle.xmf,115,-9.67751e-07,2.6503e-06,0,4.60452e-06,-1.13757e+09,-1.13709e+09,-1.13744e+09,615394,-0.0164119,0.170296,-0,0.171085,-5081.22,-41200.5,-0,41512.7,615394
step02_gravity_refstate-mantle.xmf,116,-1.25085e-06,3.05593e-06,0,3.70803e-06,-1.13966e+09,-1.13909e+09,-1.1395e+09,495578,-0.0149369,0.156025,-0,0.156738,-5936.37,-41264.2,-0,41689,495578
step02_gravity_refstate-mantle.xmf,117,-2.08662e-07,2.20744e-06,0,6.28922e-06,-1.14824e+09,-1.14791e+09,-1.14821e+09,840554,-0.0141809,0.1887,-0,0.189233,-4085.58,-41533.8,-0,41734.3,840554
step02_gravity_refstate-mantle.xmf,118,1.31625e-07,2.2593e-06,0,7.61929e-06,-1.1599e+09,-1.15962e+09,-1.15992e+09,1.01832e+06,-0.0111429,0.199207,-0,0.199518,-3577.92,-41896.5,-0,42049,1.01832e+06
step02_gravity_refstate-mantle.xmf,119,3.98252e-07,2.48162e-06,0,9.24951e-06,-1.17143e+09,-1.17115e+09,-1.17149e+09,1.2362e+06,-0.00810754,0.211057,-0,0.211213,-3066.95,-42255.1,-0,42366.2,1.2362e+06
step02_gravity_refstate-mantle.xmf,120,4.67714e-07,3.00353e-06,0,1.12459e-05,-1.18348e+09,-1.18314e+09,-1.18354e+09,1.50301e+06,-0.00509229,0.224421,-0,0.224479,-2550.34,-42629.1,-0,42705.3,1.50301e+06
step02_gravity_refstate-mantle.xmf,121,-1.54087e-06,3.34094e-06,0,7.30526e-07,-1.09878e+09,-1.09812e+09,-1.09857e+09,97634.8,-0.00807579,0.0849407,-0,0.0853237,-14284.9,-40000,-0,42474.2,97634.8
step02_gravity_refstate-mantle.xmf,122,-1.3756e-06,3.25971e-06,0,5.81941e-07,-1.09875e+09,-1.09813e+09,-1.09856e+09,77776.4,-0.00635616,0.0792873,-0,0.0795416,-15469.2,-40000,-0,42887,77776.4
step02_gravity_refstate-mantle.xmf,123,-1.18429e-06,3.31464e-06,0,5.14373e-07,-1.12842e+09,-1.12782e+09,-1.12827e+09,68746,-0.00401833,0.0794484,-0,0.07955,-14779,-40918.1,-0,43505.3,68746
step02_gravity_refstate-mantle.xmf,124,-1.70212e-06,3.40913e-06,0,9.01386e-07,-1.09881e+09,-1.09812e+09,-1.09858e+09,120470,-0.0098974,0.0910938,-0,0.0916299,-13158,-40000,-0,42108.6,120470
step02_gravity_refstate-mantle.xmf,125,-1.33225e-06,3.39039e-06,0,6.76265e-07,-1.12647e+09,-1.12584e+09,-1.12629e+09,90382.9,-0.00567859,0.085431,-0,0.0856195,-13645.6,-40856.9,-0,43075.4,90382.9
step02_gravity_refstate-mantle.xmf,126,5.06327e-07,2.39209e-06,0,-2.26551e-07,-1.2465e+09,-1.24625e+09,-1.24657e+09,-30278.6,0.00697895,0.0376733,0,0.0383143,-28875,-44574.4,-0,53109.7,30278.6
step02_gravity_refstate-mantle.xmf,127,1.32661e-07,2.54142e-06,0,-1.74982e-07,-1.18723e+09,-1.18691e+09,-1.18725e+09,-23386.4,0.00544707,0.045066,0,0.0453939,-25890.3,-42741.4,-0,49971.3,23386.4
step02_gravity_refstate-mantle.xmf,128,3.41883e-07,2.46987e-06,0,-2.1828e-07,-1.22106e+09,-1.22077e+09,-1.2211e+09,-29173.1,0.00666568,0.0409878,0,0.0415263,-27231.3,-43787.6,-0,51564.6,29173.1
step02_gravity_refstate-mantle.xmf,129,-8.74349e-07,2.96619e-06,0,2.52801e-07,-1.09866e+09,-1.09815e+09,-1.09855e+09,33786.9,-0.00198973,0.0651734,-0,0.0652038,-19395.5,-40000,-0,44454.3,33786.9
step02_gravity_refstate-mantle.xmf,130,-5.45233e-07,2.92219e-06,0,5.85557e-08,-1.13998e+09,-1.13952e+09,-1.13991e+09,7825.97,0.00154031,0.0596028,0,0.0596227,-20063.4,-41278.3,-0,45896,7825.97
step02_gravity_refstate-mantle.xmf,131,5.63428e-08,2.65129e-06,0,-1.73619e-07,-1.19431e+09,-1.19396e+09,-1.19431e+09,-23204.2,0.00600395,0.0470656,0,0.047447,-23997.6,-42959.8,-0,49208,23204.2
step02_gravity_refstate-mantle.xmf,132,-1.27968e-07,2.7602e-06,0,-1.16191e-07,-1.1792e+09,-1.17882e+09,-1.17918e+09,-15528.9,0.00502817,0.0511808,0,0.0514272,-22315.6,-42492.3,-0,47995.6,15528.9
step02_gravity_refstate-mantle.xmf,133,-1.20739e-06,3.16847e-06,0,4.538e-07,-1.09872e+09,-1.09813e+09,-1.09856e+09,60650.4,-0.00475725,0.0741185,-0,0.074271,-16713.6,-40000,-0,43351.4,60650.4
step02_gravity_refstate-mantle.xmf,134,-1.01001e-06,3.22419e-06,0,3.62028e-07,-1.13228e+09,-1.13172e+09,-1.13215e+09,48385.1,-0.00223151,0.0735344,-0,0.0735683,-16027.1,-41038.2,-0,44056.8,48385.1
step02_gravity_refstate-mantle.xmf,135,-1.03451e-06,3.06734e-06,0,3.45351e-07,-1.09869e+09,-1.09814e+09,-1.09855e+09,46156.2,-0.00329574,0.0694187,-0,0.0694969,-18021.3,-40000,-0,43872.2,46156.2
step02_gravity_refstate-mantle.xmf,136,-7.53258e-07,3.0188e-06,0,1.70355e-07,-1.12764e+09,-1.12714e+09,-1.12754e+09,22768,-0.000275759,0.0643942,-0,0.0643948,-18746.2,-40896,-0,44987.8,22768
step02_gravity_refstate-mantle.xmf,137,-7.8354e-07,3.11426e-06,0,2.07167e-07,-1.13921e+09,-1.13869e+09,-1.13911e+09,27687.8,-0.000232584,0.0673412,-0,0.0673416,-17490.8,-41253.6,-0,44808.3,27687.8
step02_gravity_refstate-mantle.xmf,138,6.43417e-07,2.33393e-06,0,-2.20857e-07,-1.27173e+09,-1.2715e+09,-1.27181e+09,-29517.5,0.00703144,0.0349033,0,0.0356045,-30277.1,-45354.5,-0,54532,29517.5
step02_gravity_refstate-mantle.xmf,139,1.3786e-06,2.17433e-06,0,-4.44173e-08,-1.4958e+09,-1.49569e+09,-1.49598e+09,-5936.37,0.0026695,0.0174576,0,0.0176606,-38060.1,-52280.5,-0,64667.1,5936.37
step02_gravity_refstate-mantle.xmf,140,1.4439e-06,2.17905e-06,0,3.75206e-10,-1.52692e+09,-1.52682e+09,-1.52711e+09,50.1463,-4.68728e-20,0.0153184,-0,0.0153184,-40000,-53242.2,-0,66593.8,50.1463
step02_gravity_refstate-mantle.xmf,141,-5.65201e-07,6.60702e-07,0,-5.20345e-06,-1.09879e+09,-1.09862e+09,-1.09871e+09,-695442,0.0281741,0.195975,0,0.19799,3834.57,-40000,0,40183.4,695442
step02_gravity_refstate-mantle.xmf,142,1.85469e-07,4.79031e-07,0,-6.35606e-06,-1.11741e+09,-1.11737e+09,-1.11743e+09,-849487,0.0227032,0.202268,0,0.203538,3519.88,-40579.8,0,40732.2,849487
step02_gravity_refstate-mantle.xmf,143,2.33071e-06,4.79975e-07,0,-1.58424e-05,-1.17104e+09,-1.17129e+09,-1.17135e+09,-2.11734e+06,0.00600049,0.262187,0,0.262256,1432.49,-42250.8,0,42275.1,2.11734e+06
step02_gravity_refstate-mantle.xmf,144,1.04374e-06,1.00079e-07,0,-8.07528e-06,-1.13256e+09,-1.13269e+09,-1.1327e+09,-1.07926e+06,0.0180159,0.21478,0,0.215534,2980.98,-41052.6,0,41160.7,1.07926e+06
step02_gravity_refstate-mantle.xmf,145,1.90105e-06,-4.43875e-07,0,-1.01494e-05,-1.14279e+09,-1.1431e+09,-1.14304e+09,-1.35646e+06,0.0143973,0.229991,0,0.230441,2413.25,-41372.9,0,41443.2,1.35646e+06
step02_gravity_refstate-mantle.xmf,146,2.21047e-06,-1.25405e-07,0,-1.24114e-05,-1.15684e+09,-1.15715e+09,-1.15713e+09,-1.65878e+06,0.0101591,0.242383,0,0.242596,2007.71,-41809.7,0,41857.9,1.65878e+06
step02_gravity_refstate-mantle.xmf,147,-1.30255e-06,1.53959e-06,0,-4.58459e-06,-1.09887e+09,-1.09849e+09,-1.0987e+09,-612730,0.0275344,0.183454,0,0.185508,4488.57,-40000,0,40251.1,612730
step02_gravity_refstate-mantle.xmf,148,-6.89112e-07,1.32399e-06,0,-5.26937e-06,-1.11218e+09,-1.11191e+09,-1.11208e+09,-704251,0.0240691,0.189065,0,0.190591,4161.57,-40414.5,0,40628.2,704251
step02_gravity_refstate-mantle.xmf,149,2.23958e-07,2.17467e-06,0,1.99411e-08,-1.09849e+09,-1.09823e+09,-1.09852e+09,2665.13,-0.00119501,0.0446607,-0,0.0446767,35372.8,-40000,0,53396.9,2665.13
step02_gravity_refstate-mantle.xmf,150,6.70674e-07,2.16544e-06,0,-8.35407e-10,-1.24112e+09,-1.24092e+09,-1.24121e+09,-111.652,1.28872e-19,0.0344188,0,0.0344188,40000,-44408.8,0,59767.4,111.652
step02_gravity_refstate-mantle.xmf,151,-2.21935e-06,3.45371e-06,0,1.87118e-06,-1.09891e+09,-1.09816e+09,-1.09862e+09,250084,-0.0177671,0.121016,-0,0.122313,-9169.24,-40000,-0,41037.5,250084
step02_gravity_refstate-mantle.xmf,152,-2.12294e-06,3.49153e-06,0,1.578e-06,-1.09889e+09,-1.09814e+09,-1.09861e+09,210900,-0.0157623,0.112706,-0,0.113803,-10093.6,-40000,-0,41253.9,210900
step02_gravity_refstate-mantle.xmf,153,-1.79416e-06,3.51467e-06,0,1.62386e-06,-1.12301e+09,-1.1223e+09,-1.12277e+09,217029,-0.0126679,0.114934,-0,0.11563,-9542.37,-40747.4,-0,41849.8,217029
step02_gravity_refstate-mantle.xmf,154,-1.60702e-06,3.47406e-06,0,2.13696e-06,-1.13549e+09,-1.13482e+09,-1.13528e+09,285605,-0.012515,0.126816,-0,0.127432,-8217.29,-41134.1,-0,41946.9,285605
step02_gravity_refstate-mantle.xmf,155,1.1126e-06,2.60182e-06,0,1.61422e-05,-1.18685e+09,-1.18665e+09,-1.187e+09,2.1574e+06,-0.00353803,0.259719,-0,0.259743,-1478.74,-42736.5,-0,42762.1,2.1574e+06
step02_gravity_refstate-mantle.xmf,156,-5.54885e-07,2.82206e-06,0,5.3974e-06,-1.15479e+09,-1.15434e+09,-1.15472e+09,721362,-0.0122258,0.176016,-0,0.17644,-4690.78,-41735.6,-0,41998.3,721362
step02_gravity_refstate-mantle.xmf,157,-1.1834e-06,3.41534e-06,0,3.09224e-06,-1.15346e+09,-1.15285e+09,-1.1533e+09,413278,-0.0106666,0.143172,-0,0.143569,-6724.87,-41691.8,-0,42230.7,413278
step02_gravity_refstate-mantle.xmf,158,2.31437e-07,4.05227e-06,0,1.38467e-05,-1.19686e+09,-1.19635e+09,-1.19689e+09,1.85062e+06,-0.00220596,0.240406,-0,0.240416,-1995.91,-43043.4,-0,43089.7,1.85062e+06
step02_gravity_refstate-mantle.xmf,159,-1.9928e-06,3.48738e-06,0,1.32246e-06,-1.09886e+09,-1.09813e+09,-1.0986e+09,176746,-0.0137639,0.104961,-0,0.105859,-11064.9,-40000,-0,41502.2,176746
step02_gravity_refstate-mantle.xmf,160,-1.62563e-06,3.52189e-06,0,1.28444e-06,-1.12739e+09,-1.1267e+09,-1.12717e+09,171665,-0.0101127,0.105547,-0,0.10603,-10588,-40883.7,-0,42232.4,171665
step02_gravity_refstate-mantle.xmf,161,-1.8588e-06,3.46197e-06,0,1.09675e-06,-1.09884e+09,-1.09812e+09,-1.09859e+09,146580,-0.0118007,0.097762,-0,0.0984717,-12085.5,-40000,-0,41785.9,146580
step02_gravity_refstate-mantle.xmf,162,-1.6487e-06,3.49098e-06,0,1.08449e-06,-1.11919e+09,-1.11851e+09,-1.11897e+09,144942,-0.00977542,0.0990537,-0,0.0995348,-11575.2,-40630.3,-0,42246.9,144942
step02_gravity_refstate-mantle.xmf,163,-1.44142e-06,3.45509e-06,0,8.50018e-07,-1.12877e+09,-1.12812e+09,-1.12858e+09,113605,-0.00696394,0.0919179,-0,0.0921813,-12494.6,-40927.5,-0,42792.2,113605
step02_gravity_refstate-mantle.xmf,164,-9.92189e-07,3.3694e-06,0,5.15979e-07,-1.15436e+09,-1.15377e+09,-1.15422e+09,68960.5,-0.00169335,0.0805123,-0,0.0805301,-14022.8,-41720.6,-0,44014.2,68960.5
step02_gravity_refstate-mantle.xmf,165,-2.65844e-07,2.84702e-06,0,-6.365e-08,-1.17062e+09,-1.17021e+09,-1.17059e+09,-8506.82,0.00420153,0.0544478,0,0.0546096,-21081.3,-42226.6,-0,47196.4,8506.82
step02_gravity_refstate-mantle.xmf,166,9.25671e-07,2.2502e-06,0,-1.93641e-07,-1.3406e+09,-1.34042e+09,-1.34072e+09,-25880.1,0.00703227,0.0289508,0,0.0297926,-32633.8,-47483.5,-0,57616.3,25880.1
step02_gravity_refstate-mantle.xmf,167,8.40085e-07,2.30646e-06,0,-2.30146e-07,-1.32295e+09,-1.32276e+09,-1.32307e+09,-30759,0.00818777,0.0309427,0,0.0320077,-30815.5,-46938.1,-0,56149.6,30759
step02_gravity_refstate-mantle.xmf,168,1.06487e-06,2.22124e-06,0,-1.65144e-07,-1.38115e+09,-1.381e+09,-1.38129e+09,-22071.4,0.00673971,0.0258146,0,0.0266799,-33752,-48737.1,-0,59283.3,22071.4
step02_gravity_refstate-mantle.xmf,169,1.30618e-06,2.18546e-06,0,-9.53291e-08,-1.46514e+09,-1.46503e+09,-1.46532e+09,-12740.7,0.00508539,0.0196798,0,0.0203262,-36103.8,-51333.2,-0,62758.1,12740.7
step02_gravity_refstate-mantle.xmf,170,1.51546e-06,2.20521e-06,0,-3.37916e-08,-1.56605e+09,-1.56596e+09,-1.56626e+09,-4516.24,0.00288987,0.0127019,0,0.0130265,-38089,-54451.7,-0,66451.1,4516.24
step02_gravity_refstate-mantle.xmf,171,1.56472e-06,2.22043e-06,0,-2.76812e-10,-1.59911e+09,-1.59902e+09,-1.59932e+09,-36.996,7.93777e-19,0.010409,0,0.010409,-40000,-55473.1,-0,68390.6,36.996
step02_gravity_refstate-mantle.xmf,172,1.63979e-06,2.29268e-06,0,2.20338e-10,-1.67196e+09,-1.67187e+09,-1.67218e+09,29.4482,-3.91137e-20,0.00532988,-0,0.00532988,-40000,-57724.1,-0,70228.7,29.4482
step02_gravity_refstate-mantle.xmf,173,1.61056e-06,2.25731e-06,0,-2.2541e-08,-1.63553e+09,-1.63544e+09,-1.63575e+09,-3012.6,0.00307964,0.00790939,0,0.00848779,-38083.4,-56598.6,-0,68218.3,3012.6
step02_gravity_refstate-mantle.xmf,174,2.18477e-06,1.10606e-06,0,-1.863e-05,-1.17911e+09,-1.17925e+09,-1.1794e+09,-2.4899e+06,0.00381958,0.278973,0,0.278999,1000,-42500.6,0,42512.4,2.4899e+06
step02_gravity_refstate-mantle.xmf,175,2.37794e-06,9.39482e-08,0,-1.40388e-05,-1.16411e+09,-1.16442e+09,-1.16443e+09,-1.87629e+06,0.00797082,0.251735,0,0.251861,1726.06,-42036.1,0,42071.5,1.87629e+06
step02_gravity_refstate-mantle.xmf,176,-1.04499e-06,2.05653e-06,0,-4.75564e-06,-1.11914e+09,-1.11872e+09,-1.119e+09,-635592,0.0216697,0.178197,0,0.17951,4715.43,-40628.9,0,40901.7,635592
step02_gravity_refstate-mantle.xmf,177,3.6629e-07,2.21864e-06,0,7.74971e-08,-1.15924e+09,-1.159e+09,-1.15929e+09,10357.5,-0.00234983,0.0409147,-0,0.0409822,34274.4,-41877.7,0,54115.4,10357.5
step02_gravity_refstate-mantle.xmf,178,1.54202e-07,2.22521e-06,0,2.5566e-08,-1.0985e+09,-1.09823e+09,-1.09852e+09,3416.89,-0.00160947,0.0455434,-0,0.0455718,33225.7,-40000,0,51999.5,3416.89
step02_gravity_refstate-mantle.xmf,179,6.24741e-07,2.18254e-06,0,6.9234e-08,-1.23084e+09,-1.23063e+09,-1.23092e+09,9253.13,-0.00199506,0.0353675,-0,0.0354237,36856.1,-44090.8,0,57466.2,9253.13
step02_gravity_refstate-mantle.xmf,180,7.54742e-07,2.16991e-06,0,4.6198e-08,-1.27056e+09,-1.27037e+09,-1.27066e+09,6174.37,-0.0013889,0.0325299,-0,0.0325595,38166.4,-45318.6,0,59249.1,6174.37
step02_gravity_refstate-mantle.xmf,181,-1.48073e-06,3.54083e-06,0,1.81654e-06,-1.14277e+09,-1.1421e+09,-1.14257e+09,242781,-0.0100037,0.118959,-0,0.119379,-8893.46,-41359.9,-0,42305.3,242781
step02_gravity_refstate-mantle.xmf,182,-1.23741e-06,3.5736e-06,0,2.16359e-06,-1.15699e+09,-1.15635e+09,-1.15683e+09,289164,-0.00813083,0.125118,-0,0.125382,-8158.02,-41800.9,-0,42589.6,289164
step02_gravity_refstate-mantle.xmf,183,7.28085e-07,3.55419e-06,0,1.90003e-05,-1.19538e+09,-1.195e+09,-1.19548e+09,2.53938e+06,-0.00192303,0.277801,-0,0.277808,-1000,-42999.8,-0,43011.5,2.53938e+06
step02_gravity_refstate-mantle.xmf,184,-7.97132e-07,3.20714e-06,0,4.55674e-06,-1.15962e+09,-1.15908e+09,-1.15951e+09,609009,-0.0105662,0.163969,-0,0.164309,-5329.84,-41884,-0,42221.8,609009
step02_gravity_refstate-mantle.xmf,185,-1.0296e-06,3.62035e-06,0,2.60838e-06,-1.16773e+09,-1.16711e+09,-1.16759e+09,348610,-0.00663395,0.132133,-0,0.1323,-7454.37,-42134,-0,42788.3,348610
step02_gravity_refstate-mantle.xmf,186,-2.35008e-07,3.00235e-06,0,6.54041e-06,-1.16806e+09,-1.16762e+09,-1.16802e+09,874126,-0.00903581,0.185582,-0,0.185802,-4157.31,-42147.9,-0,42352.4,874126
step02_gravity_refstate-mantle.xmf,187,-8.4534e-08,3.31338e-06,0,7.89712e-06,-1.17983e+09,-1.17938e+09,-1.17982e+09,1.05545e+06,-0.00618077,0.1962,-0,0.196297,-3632.58,-42513.5,-0,42668.4,1.05545e+06
step02_gravity_refstate-mantle.xmf,188,-4.44177e-08,3.82279e-06,0,9.52774e-06,-1.19099e+09,-1.19047e+09,-1.19098e+09,1.27338e+06,-0.00356434,0.20818,-0,0.20821,-3103.93,-42859.6,-0,42971.8,1.27338e+06
step02_gravity_refstate-mantle.xmf,189,-2.54846e-07,4.71209e-06,0,1.13922e-05,-1.20297e+09,-1.20231e+09,-1.20294e+09,1.52257e+06,-0.00102837,0.220746,-0,0.220748,-2596.49,-43230.7,-0,43308.6,1.52257e+06
step02_gravity_refstate-mantle.xmf,190,-8.28778e-07,3.28783e-06,0,3.52338e-07,-1.16076e+09,-1.16021e+09,-1.16065e+09,47090,0.000122285,0.074362,0,0.0743621,-15164.8,-41919.4,-0,44578.1,47090
step02_gravity_refstate-mantle.xmf,191,-1.12457e-06,3.42851e-06,0,6.65466e-07,-1.14967e+09,-1.14906e+09,-1.14952e+09,88939.5,-0.00324867,0.0858466,-0,0.0859081,-13134.4,-41575.1,-0,43600.5,88939.5
step02_gravity_refstate-mantle.xmf,192,7.23909e-07,2.38028e-06,0,-2.56484e-07,-1.30152e+09,-1.3013e+09,-1.30162e+09,-34279.1,0.00898323,0.0335894,0,0.0347699,-28909.5,-46275.5,-0,54563.6,34279.1
step02_gravity_refstate-mantle.xmf,193,5.76622e-07,2.46203e-06,0,-2.64973e-07,-1.27647e+09,-1.27621e+09,-1.27654e+09,-35413.7,0.009108,0.0368092,0,0.0379193,-27182.4,-45500.7,-0,53001.9,35413.7
step02_gravity_refstate-mantle.xmf,194,3.73434e-07,2.5602e-06,0,-2.47855e-07,-1.24475e+09,-1.24446e+09,-1.2448e+09,-33125.8,0.00845434,0.0411315,0,0.0419914,-25385.7,-44519.9,-0,51248.9,33125.8
step02_gravity_refstate-mantle.xmf,195,-4.90919e-07,3.01251e-06,0,4.72001e-08,-1.16417e+09,-1.1637e+09,-1.1641e+09,6308.29,0.00284726,0.0607983,0,0.0608649,-18810.1,-42026,-0,46043.5,6308.29
step02_gravity_refstate-mantle.xmf,196,1.41751e-07,2.7337e-06,0,-1.99622e-07,-1.22457e+09,-1.22422e+09,-1.22459e+09,-26679.5,0.00800625,0.0468038,0,0.0474836,-22604.4,-43895.4,-0,49373.7,26679.5
step02_gravity_refstate-mantle.xmf,197,-2.43301e-07,2.9185e-06,0,-6.29825e-08,-1.1864e+09,-1.18597e+09,-1.18636e+09,-8417.62,0.00513538,0.0554662,0,0.0557035,-20041,-42714.1,-0,47182,8417.62
step02_gravity_refstate-mantle.xmf,198,-3.24149e-08,2.82634e-06,0,-1.43862e-07,-1.20702e+09,-1.20664e+09,-1.20702e+09,-19227.2,0.00687072,0.05082,0,0.0512823,-21284.2,-43352.5,-0,48295.5,19227.2
step02_gravity_refstate-mantle.xmf,199,-6.46467e-07,3.19135e-06,0,2.00637e-07,-1.16927e+09,-1.16875e+09,-1.16918e+09,26815.1,0.00199447,0.0682502,0,0.0682794,-16433.6,-42183,-0,45271.1,26815.1
step02_gravity_refstate-mantle.xmf,200,1.23833e-06,2.21446e-06,0,-1.46955e-07,-1.44055e+09,-1.44042e+09,-1.44072e+09,-19640.6,0.0072908,0.0216569,0,0.0228512,-34132.5,-50573.2,-0,61013.7,19640.6
step02_gravity_refstate-mantle.xmf,201,1.46224e-06,2.20767e-06,0,-7.67297e-08,-1.53583e+09,-1.53573e+09,-1.53603e+09,-10254.9,0.00562309,0.0148771,0,0.0159044,-36145.6,-53517.7,-0,64580.6,10254.9
step02_gravity_refstate-mantle.xmf,202,1.65268e-06,2.32204e-06,0,-1.08436e-08,-1.69311e+09,-1.69302e+09,-1.69333e+09,-1449.25,0.00276235,0.00382904,0,0.00472145,-38327.5,-58377.6,-0,69835.1,1449.25
step02_gravity_refstate-mantle.xmf,203,1.66456e-06,2.39158e-06,0,3.44546e-09,-1.74562e+09,-1.74552e+09,-1.74584e+09,460.485,2.46111e-19,-4.89877e-20,0,2.50939e-19,-40000,-60000,-0,72111,460.485
step02_gravity_refstate-mantle.xmf,204,-3.50286e-07,1.57167e-06,0,-5.84172e-06,-1.12896e+09,-1.1287e+09,-1.12891e+09,-780746,0.0193989,0.190085,0,0.191072,4073.32,-40935.8,0,41138,780746
step02_gravity_refstate-mantle.xmf,205,7.29196e-07,3.55479e-06,0,-1.89961e-05,-1.19538e+09,-1.195e+09,-1.19548e+09,-2.53883e+06,0.00192366,0.277801,0,0.277808,1000,-42999.8,0,43011.5,2.53883e+06
step02_gravity_refstate-mantle.xmf,206,1.16299e-06,2.58117e-06,0,-1.61064e-05,-1.18684e+09,-1.18665e+09,-1.187e+09,-2.15262e+06,0.00353798,0.259723,0,0.259747,1478.63,-42736.5,0,42762.1,2.15262e+06
step02_gravity_refstate-mantle.xmf,207,1.39179e-06,1.61952e-06,0,-1.33967e-05,-1.17458e+09,-1.17455e+09,-1.17477e+09,-1.79047e+06,0.00636333,0.243555,0,0.243638,1959.66,-42356.8,0,42402.1,1.79047e+06
step02_gravity_refstate-mantle.xmf,208,2.5324e-07,1.303e-06,0,-7.12988e-06,-1.13986e+09,-1.13972e+09,-1.13989e+09,-952909,0.0164108,0.201234,0,0.201902,3538.26,-41275.7,0,41427.1,952909
step02_gravity_refstate-mantle.xmf,209,7.88025e-07,1.21049e-06,0,-8.79308e-06,-1.15202e+09,-1.15196e+09,-1.15213e+09,-1.1752e+06,0.0128818,0.213488,0,0.213876,3016.21,-41654.8,0,41763.9,1.1752e+06
step02_gravity_refstate-mantle.xmf,210,1.17533e-06,1.28439e-06,0,-1.07729e-05,-1.16328e+09,-1.16326e+09,-1.16344e+09,-1.4398e+06,0.00958093,0.226857,0,0.227059,2512.87,-42005.4,0,42080.5,1.4398e+06
step02_gravity_refstate-mantle.xmf,211,-1.73347e-06,2.17519e-06,0,-4.00272e-06,-1.09892e+09,-1.09839e+09,-1.09868e+09,-534963,0.0264748,0.171517,0,0.173548,5175.58,-40000,0,40333.4,534963
step02_gravity_refstate-mantle.xmf,212,-2.04069e-06,2.65235e-06,0,-3.47467e-06,-1.09894e+09,-1.09831e+09,-1.09867e+09,-464389,0.0250879,0.160191,0,0.162144,5897.33,-40000,0,40432.4,464389
step02_gravity_refstate-mantle.xmf,213,-1.45431e-06,2.58684e-06,0,-3.95203e-06,-1.11858e+09,-1.11804e+09,-1.11838e+09,-528189,0.0208486,0.164914,0,0.166227,5490.59,-40610.3,0,40979.8,528189
step02_gravity_refstate-mantle.xmf,214,-2.27968e-06,3.21961e-06,0,-2.58198e-06,-1.09895e+09,-1.09821e+09,-1.09864e+09,-345082,0.02166,0.13939,0,0.141063,7452.39,-40000,0,40688.3,345082
step02_gravity_refstate-mantle.xmf,215,-2.21921e-06,2.97697e-06,0,-2.98429e-06,-1.09895e+09,-1.09826e+09,-1.09866e+09,-398850,0.0234603,0.149482,0,0.151312,6655.64,-40000,0,40549.9,398850
step02_gravity_refstate-mantle.xmf,216,-1.90564e-06,3.24458e-06,0,-2.67031e-06,-1.11709e+09,-1.1164e+09,-1.11684e+09,-356887,0.0181941,0.140313,0,0.141488,7228.55,-40563,0,41202.1,356887
step02_gravity_refstate-mantle.xmf,217,7.22449e-08,2.2895e-06,0,2.41901e-08,-1.09851e+09,-1.09822e+09,-1.09852e+09,3233,-0.00185574,0.0467526,-0,0.0467894,31182.5,-40000,0,50718.3,3233
step02_gravity_refstate-mantle.xmf,218,2.88351e-07,2.27368e-06,0,9.67548e-08,-1.15505e+09,-1.15478e+09,-1.15509e+09,12931.3,-0.00295396,0.0421437,-0,0.0422471,32196.8,-41747.8,0,52721.1,12931.3
step02_gravity_refstate-mantle.xmf,219,-2.69725e-08,2.36621e-06,0,1.56723e-08,-1.09853e+09,-1.09821e+09,-1.09853e+09,2094.61,-0.00191309,0.048291,-0,0.0483289,29238.1,-40000,0,49546.6,2094.61
step02_gravity_refstate-mantle.xmf,220,1.9994e-07,2.34296e-06,0,1.07033e-07,-1.15181e+09,-1.15153e+09,-1.15184e+09,14304.9,-0.00337264,0.0436436,-0,0.0437737,30183.5,-41647.4,0,51434.9,14304.9
step02_gravity_refstate-mantle.xmf,221,5.74355e-07,2.20671e-06,0,1.01375e-07,-1.22133e+09,-1.22112e+09,-1.22141e+09,13548.8,-0.00289997,0.0363831,-0,0.0364985,35156.1,-43797,0,56161.7,13548.8
step02_gravity_refstate-mantle.xmf,222,8.85942e-07,2.1607e-06,0,-9.24443e-10,-1.31244e+09,-1.31227e+09,-1.31256e+09,-123.552,2.18602e-19,0.0296497,0,0.0296497,40000,-46613.3,0,61423.1,123.552
step02_gravity_refstate-mantle.xmf,223,-1.32034e-06,3.57298e-06,0,1.47236e-06,-1.15216e+09,-1.15151e+09,-1.15199e+09,196782,-0.00702472,0.109852,-0,0.110076,-9751.35,-41651.2,-0,42777.5,196782
step02_gravity_refstate-mantle.xmf,224,-3.145e-08,4.73335e-06,0,1.66651e-05,-1.20354e+09,-1.2029e+09,-1.20353e+09,2.22729e+06,-0.00105619,0.259549,-0,0.259551,-1433.17,-43249.7,-0,43273.5,2.22729e+06
step02_gravity_refstate-mantle.xmf,225,-4.73822e-07,3.46914e-06,0,5.52139e-06,-1.17535e+09,-1.17483e+09,-1.17529e+09,737934,-0.00697138,0.172293,-0,0.172434,-4780.79,-42372.9,-0,42641.8,737934
step02_gravity_refstate-mantle.xmf,226,-8.7744e-07,3.50359e-06,0,3.77719e-06,-1.16726e+09,-1.16668e+09,-1.16714e+09,504822,-0.00808818,0.151368,-0,0.151584,-6056.86,-42120.3,-0,42553.6,504822
step02_gravity_refstate-mantle.xmf,227,-8.17995e-07,3.71063e-06,0,3.17834e-06,-1.17806e+09,-1.17745e+09,-1.17795e+09,424785,-0.00497283,0.140041,-0,0.140129,-6755.01,-42454.7,-0,42988.7,424785
step02_gravity_refstate-mantle.xmf,228,-6.82318e-07,5.91895e-06,0,1.32561e-05,-1.21465e+09,-1.21376e+09,-1.21455e+09,1.77167e+06,0.00101009,0.232425,0,0.232427,-2155.52,-43591.5,-0,43644.8,1.77167e+06
step02_gravity_refstate-mantle.xmf,229,-1.2784e-06,3.51244e-06,0,9.83112e-07,-1.14687e+09,-1.14623e+09,-1.1467e+09,131393,-0.0055928,0.0963668,-0,0.096529,-11530.2,-41487.7,-0,43060.2,131393
step02_gravity_refstate-mantle.xmf,230,-1.04014e-06,3.47785e-06,0,7.62347e-07,-1.16179e+09,-1.16118e+09,-1.16165e+09,101888,-0.0023313,0.0890177,-0,0.0890482,-12391.9,-41950.1,-0,43742,101888
step02_gravity_refstate-mantle.xmf,231,-8.24844e-07,3.42594e-06,0,5.74981e-07,-1.17478e+09,-1.17421e+09,-1.17467e+09,76846.3,0.000344329,0.0823035,0,0.0823042,-13289.3,-42352.8,-0,44388.8,76846.3
step02_gravity_refstate-mantle.xmf,232,-6.52834e-07,3.3552e-06,0,4.04805e-07,-1.18478e+09,-1.18425e+09,-1.1847e+09,54102.2,0.0024058,0.0759465,0,0.0759846,-14300.7,-42662.7,-0,44995.8,54102.2
step02_gravity_refstate-mantle.xmf,233,3.03329e-07,2.65566e-06,0,-2.37264e-07,-1.2443e+09,-1.24398e+09,-1.24434e+09,-31710.3,0.00897287,0.0432708,0,0.0441914,-23791.6,-44505.8,-0,50465.9,31710.3
step02_gravity_refstate-mantle.xmf,234,-4.06462e-07,3.09731e-06,0,6.70517e-08,-1.18545e+09,-1.18498e+09,-1.1854e+09,8961.46,0.00426953,0.0623834,0,0.0625293,-17643.6,-42684.4,-0,46187.2,8961.46
step02_gravity_refstate-mantle.xmf,235,1.14689e-06,2.2535e-06,0,-1.93452e-07,-1.4112e+09,-1.41105e+09,-1.41135e+09,-25854.8,0.00886611,0.0241233,0,0.025701,-32364.7,-49665.9,-0,59280.4,25854.8
step02_gravity_refstate-mantle.xmf,236,1.0448e-06,2.3063e-06,0,-2.3375e-07,-1.38315e+09,-1.38298e+09,-1.38329e+09,-31240.7,0.0100793,0.026735,0,0.0285719,-30632.3,-48798.9,-0,57616.6,31240.7
step02_gravity_refstate-mantle.xmf,237,9.39425e-07,2.36916e-06,0,-2.6351e-07,-1.35859e+09,-1.3584e+09,-1.35872e+09,-35218.1,0.0109387,0.0293432,0,0.0313158,-28999.4,-48039.7,-0,56114,35218.1
step02_gravity_refstate-mantle.xmf,238,1.40018e-06,2.22603e-06,0,-1.23719e-07,-1.50578e+09,-1.50566e+09,-1.50596e+09,-16535.1,0.00801682,0.0171578,0,0.0189383,-34265.9,-52589,-0,62767.5,16535.1
step02_gravity_refstate-mantle.xmf,239,1.57521e-06,2.24993e-06,0,-5.38796e-08,-1.60396e+09,-1.60387e+09,-1.60417e+09,-7201,0.0059949,0.0101823,0,0.011816,-36181.9,-55623.1,-0,66355.5,7201
step02_gravity_refstate-mantle.xmf,240,1.64946e-06,2.32396e-06,0,-2.70796e-08,-1.68062e+09,-1.68053e+09,-1.68084e+09,-3619.18,0.00607576,0.00475988,0,0.00771824,-36308.7,-57991.9,-0,68420.6,3619.18
step02_gravity_refstate-mantle.xmf,241,1.66745e-06,2.40123e-06,0,3.55435e-09,-1.74562e+09,-1.74552e+09,-1.74584e+09,475.038,0.00406668,-6.04978e-20,0,0.00406668,-37557.9,-60000,-0,70785.6,475.038
step02_gravity_refstate-mantle.xmf,242,-3.11962e-08,4.73351e-06,0,-1.66681e-05,-1.20354e+09,-1.2029e+09,-1.20353e+09,-2.22769e+06,0.00105608,0.259572,0,0.259574,1432.58,-43249.7,0,43273.4,2.22769e+06
step02_gravity_refstate-mantle.xmf,243,-6.30001e-07,2.25874e-06,0,-5.34806e-06,-1.13771e+09,-1.13732e+09,-1.13762e+09,-714768,0.0168073,0.180469,0,0.181249,4529.16,-41205.8,0,41454,714768
step02_gravity_refstate-mantle.xmf,244,-1.71728e-06,2.88322e-06,0,-3.39937e-06,-1.11685e+09,-1.11623e+09,-1.11662e+09,-454325,0.02026,0.155203,0,0.15652,6130.76,-40555.9,0,41016.6,454325
step02_gravity_refstate-mantle.xmf,245,-2.27729e-06,3.37615e-06,0,-2.19829e-06,-1.09893e+09,-1.09818e+09,-1.09863e+09,-293801,0.0197466,0.129905,0,0.131398,8289.57,-40000,0,40849.9,293801
step02_gravity_refstate-mantle.xmf,246,-1.90846e-06,3.36741e-06,0,-2.32328e-06,-1.11847e+09,-1.11777e+09,-1.11822e+09,-310506,0.0166372,0.132313,0,0.133355,7886.9,-40606,0,41364.9,310506
step02_gravity_refstate-mantle.xmf,247,-1.63026e-06,3.16642e-06,0,-3.03279e-06,-1.12798e+09,-1.12734e+09,-1.12776e+09,-405333,0.016694,0.146497,0,0.147445,6672,-40901.1,0,41441.7,405333
step02_gravity_refstate-mantle.xmf,248,-1.36193e-07,2.45123e-06,0,-1.58997e-09,-1.09855e+09,-1.0982e+09,-1.09853e+09,-212.5,-0.00176929,0.0501679,-0,0.0501991,27387.8,-40000,0,48477.7,212.5
step02_gravity_refstate-mantle.xmf,249,8.53769e-08,2.42066e-06,0,1.01362e-07,-1.14486e+09,-1.14454e+09,-1.14487e+09,13547,-0.00342411,0.0457063,-0,0.0458344,28323.5,-41431.9,0,50187.9,13547
step02_gravity_refstate-mantle.xmf,250,7.7425e-07,2.18782e-06,0,9.75498e-08,-1.2808e+09,-1.28061e+09,-1.2809e+09,13037.5,-0.00301065,0.0321144,-0,0.0322553,36159.8,-45635.1,0,58224.5,13037.5
step02_gravity_refstate-mantle.xmf,251,5.17897e-07,2.24937e-06,0,1.35844e-07,-1.21555e+09,-1.21531e+09,-1.21561e+09,18155.5,-0.00388313,0.0374548,-0,0.0376555,33167.1,-43618,0,54795.8,18155.5
step02_gravity_refstate-mantle.xmf,252,9.77789e-07,2.16661e-06,0,6.51497e-08,-1.34436e+09,-1.3442e+09,-1.34449e+09,8707.26,-0.002333,0.0276337,-0,0.027732,37615,-47599.7,0,60668.1,8707.26
step02_gravity_refstate-mantle.xmf,253,-1.08343e-06,3.57078e-06,0,1.17043e-06,-1.16461e+09,-1.16399e+09,-1.16447e+09,156428,-0.00374228,0.100946,-0,0.101015,-10652.4,-42037.3,-0,43366,156428
step02_gravity_refstate-mantle.xmf,254,-1.03654e-06,3.6397e-06,0,1.77253e-06,-1.17016e+09,-1.16954e+09,-1.17003e+09,236899,-0.00453945,0.115126,-0,0.115216,-8972.36,-42209.3,-0,43152.4,236899
step02_gravity_refstate-mantle.xmf,255,-8.39531e-07,3.72798e-06,0,2.19904e-06,-1.18229e+09,-1.18168e+09,-1.18218e+09,293902,-0.00286155,0.122065,-0,0.122099,-8175.05,-42585.4,-0,43363,293902
step02_gravity_refstate-mantle.xmf,256,-6.14711e-07,5.88793e-06,0,1.9139e-05,-1.21166e+09,-1.21079e+09,-1.21158e+09,2.55793e+06,-0.000186105,0.27544,-0,0.27544,-1000,-43499.6,-0,43511.1,2.55793e+06
step02_gravity_refstate-mantle.xmf,257,-5.80567e-07,5.77232e-06,0,1.50883e-05,-1.21218e+09,-1.21133e+09,-1.2121e+09,2.01655e+06,0.000335977,0.24632,0,0.24632,-1756.57,-43515.6,-0,43551.1,2.01655e+06
step02_gravity_refstate-mantle.xmf,258,-5.98212e-07,3.76549e-06,0,4.62385e-06,-1.18318e+09,-1.1826e+09,-1.1831e+09,617978,-0.00470364,0.159646,-0,0.159715,-5433.59,-42614.7,-0,42959.7,617978
step02_gravity_refstate-mantle.xmf,259,-6.75985e-07,3.84594e-06,0,2.66972e-06,-1.19197e+09,-1.19137e+09,-1.19188e+09,356808,-0.0013606,0.129049,-0,0.129056,-7476.98,-42885.9,-0,43532.9,356808
step02_gravity_refstate-mantle.xmf,260,-3.06813e-07,3.86294e-06,0,6.68203e-06,-1.18862e+09,-1.18806e+09,-1.18857e+09,893054,-0.00393232,0.181962,-0,0.182005,-4224.89,-42784.7,-0,42992.8,893054
step02_gravity_refstate-mantle.xmf,261,-3.37072e-07,4.4329e-06,0,8.03079e-06,-1.20043e+09,-1.19979e+09,-1.20038e+09,1.07332e+06,-0.00130592,0.19265,-0,0.192655,-3678.49,-43150.8,-0,43307.3,1.07332e+06
step02_gravity_refstate-mantle.xmf,262,-5.12754e-07,5.22446e-06,0,9.57676e-06,-1.21129e+09,-1.21052e+09,-1.21122e+09,1.27993e+06,0.000912868,0.204189,0,0.204191,-3147.88,-43487.1,-0,43600.9,1.27993e+06
step02_gravity_refstate-mantle.xmf,263,-9.15599e-07,6.32756e-06,0,1.12537e-05,-1.22223e+09,-1.22127e+09,-1.22211e+09,1.50405e+06,0.00282244,0.215929,0,0.215948,-2649.27,-43825.4,-0,43905.4,1.50405e+06
step02_gravity_refstate-mantle.xmf,264,-4.81189e-07,3.2702e-06,0,2.47655e-07,-1.19546e+09,-1.19496e+09,-1.1954e+09,33099.1,0.00433316,0.0697021,0,0.0698366,-15425.4,-42993.4,-0,45676.9,33099.1
step02_gravity_refstate-mantle.xmf,265,8.13884e-07,2.44604e-06,0,-2.82188e-07,-1.33319e+09,-1.33297e+09,-1.33329e+09,-37714.4,0.0114417,0.0323833,0,0.0343452,-27327.7,-47254.3,-0,54587.3,37714.4
step02_gravity_refstate-mantle.xmf,266,6.68578e-07,2.53287e-06,0,-2.85101e-07,-1.30749e+09,-1.30724e+09,-1.30758e+09,-38103.8,0.0114828,0.0358418,0,0.0376363,-25699,-46459.9,-0,53093.9,38103.8
step02_gravity_refstate-mantle.xmf,267,5.34231e-07,2.62636e-06,0,-2.72694e-07,-1.28818e+09,-1.2879e+09,-1.28826e+09,-36445.6,0.0113961,0.0392078,0,0.0408305,-24137.7,-45862.8,-0,51826.9,36445.6
step02_gravity_refstate-mantle.xmf,268,4.0057e-07,2.71775e-06,0,-2.45955e-07,-1.27135e+09,-1.27104e+09,-1.27141e+09,-32871.9,0.0110257,0.0426254,0,0.0440283,-22745.1,-45342.2,-0,50727.3,32871.9
step02_gravity_refstate-mantle.xmf,269,-1.77067e-07,3.00116e-06,0,-4.81706e-08,-1.20729e+09,-1.20686e+09,-1.20726e+09,-6438,0.00665088,0.0565943,0,0.0569838,-18877.9,-43360.2,-0,47291.4,6438
step02_gravity_refstate-mantle.xmf,270,2.42993e-07,2.809e-06,0,-2.03551e-07,-1.25237e+09,-1.25203e+09,-1.2524e+09,-27204.6,0.0101512,0.0465507,0,0.0476447,-21442.5,-44755.1,-0,49626.6,27204.6
step02_gravity_refstate-mantle.xmf,271,4.08777e-08,2.90549e-06,0,-1.36415e-07,-1.2293e+09,-1.22891e+09,-1.2293e+09,-18231.9,0.00858516,0.05139,0,0.0521022,-20129.3,-44041.2,-0,48423.3,18231.9
step02_gravity_refstate-mantle.xmf,272,-2.93669e-07,3.17976e-06,0,1.12027e-07,-1.2094e+09,-1.20894e+09,-1.20936e+09,14972.4,0.00632299,0.06373,0,0.0640429,-16583.9,-43425.1,-0,46484.1,14972.4
step02_gravity_refstate-mantle.xmf,273,1.32656e-06,2.2596e-06,0,-1.7095e-07,-1.47577e+09,-1.47564e+09,-1.47594e+09,-22847.4,0.0100333,0.0195956,0,0.0220149,-32452.4,-51661.6,-0,61008.8,22847.4
step02_gravity_refstate-mantle.xmf,274,1.52881e-06,2.25779e-06,0,-9.5165e-08,-1.57122e+09,-1.57112e+09,-1.57142e+09,-12718.8,0.00870051,0.0126208,0,0.0153292,-34286.5,-54611.4,-0,64482.3,12718.8
step02_gravity_refstate-mantle.xmf,275,-6.17705e-07,5.89954e-06,0,-1.91355e-05,-1.21166e+09,-1.21079e+09,-1.21158e+09,-2.55746e+06,0.000186724,0.275441,0,0.275441,1000,-43499.6,0,43511.1,2.55746e+06
step02_gravity_refstate-mantle.xmf,276,-2.5089e-07,2.20918e-06,0,-6.2791e-06,-1.14817e+09,-1.14784e+09,-1.14813e+09,-839202,0.0141998,0.188546,0,0.18908,4093.16,-41531.4,0,41732.6,839202
step02_gravity_refstate-mantle.xmf,277,1.8361e-07,4.0926e-06,0,-1.37842e-05,-1.19686e+09,-1.19634e+09,-1.19689e+09,-1.84226e+06,0.00220633,0.24041,0,0.24042,1995.79,-43043.3,0,43089.6,1.84226e+06
step02_gravity_refstate-mantle.xmf,278,1.31264e-07,2.25922e-06,0,-7.61725e-06,-1.15989e+09,-1.15961e+09,-1.15991e+09,-1.01805e+06,0.0111455,0.199193,0,0.199505,3578.53,-41896.2,0,42048.8,1.01805e+06
step02_gravity_refstate-mantle.xmf,279,3.96431e-07,2.48773e-06,0,-9.25079e-06,-1.17152e+09,-1.17124e+09,-1.17158e+09,-1.23637e+06,0.00808606,0.211042,0,0.211197,3067.26,-42257.9,0,42369,1.23637e+06
step02_gravity_refstate-mantle.xmf,280,4.67361e-07,3.00452e-06,0,-1.12463e-05,-1.18349e+09,-1.18316e+09,-1.18356e+09,-1.50306e+06,0.00508964,0.224421,0,0.224479,2550.3,-42629.5,0,42705.7,1.50306e+06
step02_gravity_refstate-mantle.xmf,281,-9.65077e-07,2.65393e-06,0,-4.60732e-06,-1.13775e+09,-1.13727e+09,-1.13763e+09,-615768,0.0163653,0.170287,0,0.171071,5080.88,-41206.1,0,41518.2,615768
step02_gravity_refstate-mantle.xmf,282,-1.24953e-06,3.05855e-06,0,-3.70709e-06,-1.13979e+09,-1.13921e+09,-1.13962e+09,-495453,0.0149041,0.155984,0,0.156695,5938.26,-41268,0,41693.1,495453
step02_gravity_refstate-mantle.xmf,283,-1.88563e-06,3.46496e-06,0,-1.96115e-06,-1.11971e+09,-1.119e+09,-1.11946e+09,-262108,0.0148971,0.123736,0,0.124629,8668.49,-40644.8,0,41558.9,262108
step02_gravity_refstate-mantle.xmf,284,-1.49395e-06,3.40984e-06,0,-2.53889e-06,-1.13966e+09,-1.139e+09,-1.13946e+09,-339322,0.0127788,0.13489,0,0.135494,7479.13,-41263.4,0,41935.7,339322
step02_gravity_refstate-mantle.xmf,285,4.38812e-07,2.31098e-06,0,1.63694e-07,-1.20923e+09,-1.20898e+09,-1.20929e+09,21877.7,-0.0047098,0.0389011,-0,0.0391852,31122.8,-43422.4,0,53424.1,21877.7
step02_gravity_refstate-mantle.xmf,286,-2.24627e-08,2.50567e-06,0,8.99512e-08,-1.14206e+09,-1.14172e+09,-1.14206e+09,12022,-0.00337699,0.0477931,-0,0.0479122,26558.5,-41345.1,0,49140.3,12022
step02_gravity_refstate-mantle.xmf,287,3.39889e-07,2.39375e-06,0,1.83971e-07,-1.20315e+09,-1.20288e+09,-1.2032e+09,24587.7,-0.00536631,0.0408128,-0,0.041164,28961.7,-43234.4,0,52038.4,24587.7
step02_gravity_refstate-mantle.xmf,288,-2.68395e-07,2.54787e-06,0,-2.80371e-08,-1.09857e+09,-1.09819e+09,-1.09853e+09,-3747.16,-0.00141856,0.0523972,-0,0.0524164,25627,-40000,0,47505.2,3747.16
step02_gravity_refstate-mantle.xmf,289,-4.08228e-07,2.64915e-06,0,-6.506e-08,-1.09859e+09,-1.09818e+09,-1.09853e+09,-8695.27,-0.000860689,0.0549951,-0,0.0550018,23951.4,-40000,0,46622.6,8695.27
step02_gravity_refstate-mantle.xmf,290,-5.55483e-07,2.75308e-06,0,-1.14888e-07,-1.09861e+09,-1.09817e+09,-1.09854e+09,-15354.8,-0.000101307,0.0579783,-0,0.0579784,22356.9,-40000,0,45823.9,15354.8
step02_gravity_refstate-mantle.xmf,291,-2.93116e-07,2.70773e-06,0,3.18359e-08,-1.13681e+09,-1.13641e+09,-1.13677e+09,4254.87,-0.00260504,0.0532119,-0,0.0532757,23160.5,-41181.6,0,47247.6,4254.87
step02_gravity_refstate-mantle.xmf,292,-1.29429e-07,2.60445e-06,0,7.80498e-08,-1.14429e+09,-1.14393e+09,-1.14428e+09,10431.4,-0.00334852,0.0499148,-0,0.0500269,24815.8,-41413.6,0,48279.5,10431.4
step02_gravity_refstate-mantle.xmf,293,7.38193e-07,2.22228e-06,0,1.45691e-07,-1.27707e+09,-1.27687e+09,-1.27716e+09,19471.6,-0.00449752,0.0328633,-0,0.0331696,34117.8,-45519.7,0,56886.5,19471.6
step02_gravity_refstate-mantle.xmf,294,1.09443e-06,2.15596e-06,0,-3.71703e-10,-1.38376e+09,-1.38362e+09,-1.38391e+09,-49.6781,2.22888e-19,0.0248917,0,0.0248917,40000,-48817.8,0,63112.4,49.6781
step02_gravity_refstate-mantle.xmf,295,-8.4549e-07,3.6588e-06,0,1.44016e-06,-1.18393e+09,-1.18333e+09,-1.18382e+09,192477,-0.00115625,0.105772,-0,0.105778,-9810.23,-42636,-0,43750.1,192477
step02_gravity_refstate-mantle.xmf,296,-1.16227e-06,6.83933e-06,0,1.69179e-05,-1.21962e+09,-1.21855e+09,-1.21947e+09,2.26108e+06,0.0010962,0.258042,0,0.258044,-1397.47,-43744.4,-0,43766.7,2.26108e+06
step02_gravity_refstate-mantle.xmf,297,-1.3958e-06,7.39414e-06,0,1.49199e-05,-1.22615e+09,-1.22498e+09,-1.22597e+09,1.99405e+06,0.00252699,0.242566,0,0.242579,-1782.87,-43946,-0,43982.2,1.99405e+06
step02_gravity_refstate-mantle.xmf,298,-4.13172e-07,4.18897e-06,0,5.63297e-06,-1.19774e+09,-1.19712e+09,-1.19768e+09,752846,-0.00151466,0.168595,-0,0.168602,-4835.69,-43066.6,-0,43337.2,752846
step02_gravity_refstate-mantle.xmf,299,-5.8633e-07,3.94815e-06,0,3.85912e-06,-1.19256e+09,-1.19195e+09,-1.19248e+09,515771,-0.00208899,0.147469,-0,0.147484,-6120.9,-42904.9,-0,43339.3,515771
step02_gravity_refstate-mantle.xmf,300,-5.01692e-07,4.0431e-06,0,3.24731e-06,-1.20305e+09,-1.20245e+09,-1.20299e+09,434003,0.000641015,0.136302,0,0.136304,-6808.83,-43229.9,-0,43762.8,434003
step02_gravity_refstate-mantle.xmf,301,-1.48855e-06,7.69357e-06,0,1.29756e-05,-1.23264e+09,-1.23142e+09,-1.23244e+09,1.73419e+06,0.00419884,0.227343,0,0.227381,-2196.45,-44146.6,-0,44201.2,1.73419e+06
step02_gravity_refstate-mantle.xmf,302,-8.44957e-07,3.54592e-06,0,9.19001e-07,-1.1797e+09,-1.17911e+09,-1.17959e+09,122825,-0.000399485,0.0926996,-0,0.0927004,-11541.3,-42504.9,-0,44044,122825
step02_gravity_refstate-mantle.xmf,303,-6.54145e-07,3.49943e-06,0,7.07628e-07,-1.19345e+09,-1.19289e+09,-1.19336e+09,94574.4,0.00237799,0.0852455,0,0.0852787,-12448.3,-42930.7,-0,44699,94574.4
step02_gravity_refstate-mantle.xmf,304,-4.72601e-07,3.4355e-06,0,5.17682e-07,-1.2064e+09,-1.20588e+09,-1.20634e+09,69188.2,0.0047512,0.0782019,0,0.0783461,-13424,-43332,-0,45363.7,69188.2
step02_gravity_refstate-mantle.xmf,305,-3.15058e-07,3.35748e-06,0,3.48836e-07,-1.2182e+09,-1.2177e+09,-1.21815e+09,46621.9,0.00668941,0.071672,0,0.0719835,-14467.2,-43697.1,-0,46029.7,46621.9
step02_gravity_refstate-mantle.xmf,306,-7.37793e-08,3.09017e-06,0,-1.40413e-09,-1.2284e+09,-1.22798e+09,-1.22839e+09,-187.662,0.00846031,0.0579874,0,0.0586013,-17732.4,-44013.2,-0,47451,187.662
step02_gravity_refstate-mantle.xmf,307,1.23941e-06,2.3088e-06,0,-2.14962e-07,-1.44592e+09,-1.44578e+09,-1.44608e+09,-28729.7,0.0116855,0.0222423,0,0.0251251,-30670.1,-50739.1,-0,59288.4,28729.7
step02_gravity_refstate-mantle.xmf,308,1.14234e-06,2.3694e-06,0,-2.50367e-07,-1.41791e+09,-1.41775e+09,-1.41806e+09,-33461.5,0.0128791,0.0249904,0,0.0281139,-29013.5,-49873.5,-0,57698.8,33461.5
step02_gravity_refstate-mantle.xmf,309,1.03137e-06,2.44232e-06,0,-2.75637e-07,-1.39057e+09,-1.39038e+09,-1.39071e+09,-36838.9,0.0136912,0.0279991,0,0.0311673,-27392.3,-49028.3,-0,56161.5,36838.9
step02_gravity_refstate-mantle.xmf,310,1.4754e-06,2.28346e-06,0,-1.37896e-07,-1.54107e+09,-1.54096e+09,-1.54127e+09,-18429.8,0.0110338,0.0150017,0,0.0186224,-32496.2,-53679.8,-0,62749.7,18429.8
step02_gravity_refstate-mantle.xmf,311,1.61945e-06,2.3098e-06,0,-6.29983e-08,-1.63451e+09,-1.63441e+09,-1.63472e+09,-8419.73,0.00936698,0.00816274,0,0.0124246,-34178.2,-56567.1,-0,66090.8,8419.73
step02_gravity_refstate-mantle.xmf,312,1.6729e-06,2.4316e-06,0,1.46421e-09,-1.74562e+09,-1.74551e+09,-1.74584e+09,195.692,0.00796038,-4.69379e-20,0,0.00796038,-35227.2,-60000,-0,69577,195.692
step02_gravity_refstate-mantle.xmf,313,-1.1628e-06,6.84e-06,0,-1.69193e-05,-1.21962e+09,-1.21855e+09,-1.21947e+09,-2.26127e+06,-0.00109638,0.258047,-0,0.258049,1397.34,-43744.4,0,43766.8,2.26127e+06
step02_gravity_refstate-mantle.xmf,314,-6.03909e-07,5.77479e-06,0,-1.50708e-05,-1.21219e+09,-1.21133e+09,-1.21211e+09,-2.01422e+06,-0.00033625,0.246324,-0,0.246324,1756.45,-43515.7,0,43551.1,2.01422e+06
step02_gravity_refstate-mantle.xmf,315,-5.81343e-07,2.8119e-06,0,-5.4046e-06,-1.15452e+09,-1.15407e+09,-1.15444e+09,-722325,0.0123019,0.176189,0,0.176618,4683.01,-41727,0,41988.9,722325
step02_gravity_refstate-mantle.xmf,316,-2.21996e-06,3.45525e-06,0,-1.87039e-06,-1.09891e+09,-1.09816e+09,-1.09862e+09,-249977,0.0177675,0.121016,0,0.122313,9169.24,-40000,0,41037.5,249977
step02_gravity_refstate-mantle.xmf,317,-1.60547e-06,3.47436e-06,0,-2.13709e-06,-1.13558e+09,-1.1349e+09,-1.13536e+09,-285622,0.0124982,0.12681,0,0.127424,8217.04,-41136.7,0,41949.3,285622
step02_gravity_refstate-mantle.xmf,318,-1.18305e-06,3.4157e-06,0,-3.09182e-06,-1.15349e+09,-1.15287e+09,-1.15333e+09,-413221,0.0106599,0.14316,0,0.143556,6725.57,-41692.6,0,42231.6,413221
step02_gravity_refstate-mantle.xmf,319,1.69434e-07,2.46929e-06,0,1.58292e-07,-1.17858e+09,-1.17827e+09,-1.1786e+09,21155.8,-0.00484493,0.0441435,-0,0.0444086,27319.8,-42474.3,0,50501.8,21155.8
step02_gravity_refstate-mantle.xmf,320,-7.11202e-07,2.85941e-06,0,-1.76696e-07,-1.09864e+09,-1.09816e+09,-1.09854e+09,-23615.4,0.000852908,0.0613654,0,0.0613713,20839.5,-40000,0,45103,23615.4
step02_gravity_refstate-mantle.xmf,321,-4.17161e-07,2.80954e-06,0,-1.05354e-08,-1.13696e+09,-1.13653e+09,-1.13691e+09,-1408.05,-0.00208023,0.05618,-0,0.0562185,21639.3,-41185.7,0,46524.4,1408.05
step02_gravity_refstate-mantle.xmf,322,9.44927e-07,2.19864e-06,0,1.32292e-07,-1.33851e+09,-1.33834e+09,-1.33863e+09,17680.8,-0.00471166,0.0284184,-0,0.0288063,35071.9,-47419,0,58979.7,17680.8
step02_gravity_refstate-mantle.xmf,323,6.79065e-07,2.2733e-06,0,1.87332e-07,-1.26978e+09,-1.26956e+09,-1.26987e+09,25037,-0.00578599,0.0341242,-0,0.0346113,32075.9,-45294.3,0,55501.7,25037
step02_gravity_refstate-mantle.xmf,324,1.19804e-06,2.16205e-06,0,5.22304e-08,-1.42186e+09,-1.42173e+09,-1.42202e+09,6980.59,-0.00236418,0.0224148,-0,0.0225392,38023.7,-49995.3,0,62811.9,6980.59
step02_gravity_refstate-mantle.xmf,325,1.2836e-06,2.15757e-06,0,4.34931e-10,-1.4552e+09,-1.45508e+09,-1.45537e+09,58.1285,-1.23037e-19,0.0201274,-0,0.0201274,40000,-51025.6,0,64835.3,58.1285
step02_gravity_refstate-mantle.xmf,326,1.44377e-06,2.17912e-06,0,-3.50082e-10,-1.52692e+09,-1.52682e+09,-1.52711e+09,-46.7885,2.73235e-19,0.0153185,0,0.0153185,40000,-53242.2,0,66593.8,46.7885
step02_gravity_refstate-mantle.xmf,327,1.37325e-06,2.17144e-06,0,4.49696e-08,-1.49353e+09,-1.49342e+09,-1.49371e+09,6010.18,-0.00260002,0.0176081,-0,0.017799,38103.7,-52210.4,0,64636,6010.18
step02_gravity_refstate-mantle.xmf,328,-6.31782e-07,3.63935e-06,0,1.1522e-06,-1.19796e+09,-1.19739e+09,-1.19787e+09,153992,0.00194853,0.0969036,0,0.0969232,-10693,-43070.6,-0,44378.1,153992
step02_gravity_refstate-mantle.xmf,329,-5.39166e-07,3.9112e-06,0,2.31329e-06,-1.2042e+09,-1.2036e+09,-1.20413e+09,309172,0.00154347,0.120516,0,0.120526,-8081.19,-43264.6,-0,44012.9,309172
step02_gravity_refstate-mantle.xmf,330,-5.74522e-07,3.80631e-06,0,1.86433e-06,-1.20239e+09,-1.2018e+09,-1.20231e+09,249168,0.00164661,0.112067,0,0.112079,-8905.81,-43208.2,-0,44116.4,249168
step02_gravity_refstate-mantle.xmf,331,-1.9091e-06,8.19654e-06,0,1.9109e-05,-1.22795e+09,-1.2266e+09,-1.22769e+09,2.55392e+06,0.00145663,0.271914,0,0.271918,-1000,-44000,-0,44011.4,2.55392e+06
step02_gravity_refstate-mantle.xmf,332,-4.26368e-07,4.33853e-06,0,4.69163e-06,-1.20685e+09,-1.20621e+09,-1.20679e+09,627037,0.000890536,0.155665,0,0.155667,-5493.22,-43348.4,-0,43695.1,627037
step02_gravity_refstate-mantle.xmf,333,-3.74841e-07,4.09e-06,0,2.72668e-06,-1.21562e+09,-1.21502e+09,-1.21557e+09,364421,0.0036109,0.125587,0,0.125639,-7522.53,-43618.9,-0,44262.8,364421
step02_gravity_refstate-mantle.xmf,334,-3.95527e-07,4.77065e-06,0,6.75304e-06,-1.2102e+09,-1.20951e+09,-1.21015e+09,902543,0.00116705,0.178121,0,0.178125,-4270.29,-43453.2,-0,43662.6,902543
step02_gravity_refstate-mantle.xmf,335,-5.83504e-07,5.55932e-06,0,8.02146e-06,-1.22146e+09,-1.22064e+09,-1.22138e+09,1.07207e+06,0.00342505,0.188544,0,0.188575,-3715.1,-43801.7,-0,43959,1.07207e+06
step02_gravity_refstate-mantle.xmf,336,-9.47023e-07,6.61208e-06,0,9.49436e-06,-1.232e+09,-1.23099e+09,-1.23187e+09,1.26892e+06,0.00524873,0.199941,0,0.20001,-3165.61,-44127.6,-0,44241,1.26892e+06
step02_gravity_refstate-mantle.xmf,337,-1.47705e-06,7.77647e-06,0,1.11138e-05,-1.2398e+09,-1.23856e+09,-1.2396e+09,1.48535e+06,0.00615847,0.212163,0,0.212253,-2647.2,-44368,-0,44446.9,1.48535e+06
step02_gravity_refstate-mantle.xmf,338,-1.50078e-07,3.27314e-06,0,2.02791e-07,-1.23209e+09,-1.23164e+09,-1.23207e+09,27103,0.00859316,0.0654513,0,0.066013,-15555,-44127.3,-0,46788.6,27103
step02_gravity_refstate-mantle.xmf,339,9.07678e-07,2.52541e-06,0,-2.87094e-07,-1.36422e+09,-1.36401e+09,-1.36434e+09,-38370.1,0.0141094,0.0312907,0,0.0343246,-25816.3,-48213.9,-0,54690.6,38370.1
step02_gravity_refstate-mantle.xmf,340,7.74969e-07,2.61637e-06,0,-2.82612e-07,-1.33972e+09,-1.33947e+09,-1.33982e+09,-37771.1,0.0141691,0.0348377,0,0.0376089,-24292,-47456.3,-0,53312.3,37771.1
step02_gravity_refstate-mantle.xmf,341,6.47816e-07,2.70934e-06,0,-2.62621e-07,-1.31967e+09,-1.31939e+09,-1.31975e+09,-35099.3,0.0140151,0.0383598,0,0.0408398,-22882.2,-46836.3,-0,52127.1,35099.3
step02_gravity_refstate-mantle.xmf,342,5.06952e-07,2.80526e-06,0,-2.26384e-07,-1.29956e+09,-1.29925e+09,-1.29962e+09,-30256.2,0.0134811,0.0423042,0,0.0444003,-21522.7,-46214.4,-0,50980.3,30256.2
step02_gravity_refstate-mantle.xmf,343,1.32199e-07,2.99811e-06,0,-9.77423e-08,-1.25203e+09,-1.25164e+09,-1.25205e+09,-13063.3,0.0106047,0.0523325,0,0.0533962,-18918.1,-44744.2,-0,48579.2,13063.3
step02_gravity_refstate-mantle.xmf,344,3.32544e-07,2.90359e-06,0,-1.71326e-07,-1.27635e+09,-1.276e+09,-1.27639e+09,-22897.7,0.0123267,0.0470405,0,0.0486288,-20183.2,-45496.6,-0,49772.5,22897.7
step02_gravity_refstate-mantle.xmf,345,2.73469e-08,3.1881e-06,0,8.17622e-08,-1.24942e+09,-1.249e+09,-1.24943e+09,10927.5,0.010541,0.0595433,0,0.0604692,-16651.6,-44663.6,-0,47666.6,10927.5
step02_gravity_refstate-mantle.xmf,346,1.40749e-06,2.32363e-06,0,-1.80372e-07,-1.5101e+09,-1.50997e+09,-1.51028e+09,-24106.7,0.0129696,0.01761,0,0.0218706,-30784.7,-52722.8,-0,61052.3,24106.7
step02_gravity_refstate-mantle.xmf,347,1.58444e-06,2.3278e-06,0,-9.95985e-08,-1.60543e+09,-1.60533e+09,-1.60564e+09,-13311.3,0.0118436,0.0104182,0,0.0157737,-32483,-55668.8,-0,64452.7,13311.3
step02_gravity_refstate-mantle.xmf,348,1.66746e-06,2.38294e-06,0,-3.00536e-08,-1.6981e+09,-1.698e+09,-1.69832e+09,-4016.66,0.00973238,0.00355198,0,0.0103603,-34130.3,-58532,-0,67755.9,4016.66
step02_gravity_refstate-mantle.xmf,349,-1.91084e-06,8.1984e-06,0,-1.91134e-05,-1.22795e+09,-1.2266e+09,-1.22769e+09,-2.55451e+06,-0.00145675,0.271915,-0,0.271919,1000,-44000,0,44011.4,2.55451e+06
step02_gravity_refstate-mantle.xmf,350,-2.74487e-07,3.00157e-06,0,-6.53808e-06,-1.16803e+09,-1.16759e+09,-1.16799e+09,-873815,0.00904472,0.18557,0,0.18579,4158.04,-42146.8,0,42351.4,873815
step02_gravity_refstate-mantle.xmf,351,-7.29752e-07,5.92029e-06,0,-1.32394e-05,-1.21465e+09,-1.21376e+09,-1.21456e+09,-1.76944e+06,-0.00100992,0.232419,-0,0.232422,2155.71,-43591.5,0,43644.7,1.76944e+06
step02_gravity_refstate-mantle.xmf,352,-2.53402e-07,4.70976e-06,0,-1.13937e-05,-1.20296e+09,-1.20229e+09,-1.20292e+09,-1.52277e+06,0.00103174,0.22076,0,0.220763,2596.08,-43230.2,0,43308.1,1.52277e+06
step02_gravity_refstate-mantle.xmf,353,-8.47076e-08,3.31406e-06,0,-7.89884e-06,-1.17985e+09,-1.1794e+09,-1.17984e+09,-1.05568e+06,0.00617625,0.196208,0,0.196306,3632.13,-42514.1,0,42669,1.05568e+06
step02_gravity_refstate-mantle.xmf,354,-4.4297e-08,3.82247e-06,0,-9.52789e-06,-1.19099e+09,-1.19047e+09,-1.19098e+09,-1.2734e+06,0.00356396,0.20818,0,0.20821,3103.92,-42859.7,0,42971.9,1.2734e+06
step02_gravity_refstate-mantle.xmf,355,-7.97568e-07,3.20991e-06,0,-4.55248e-06,-1.15969e+09,-1.15915e+09,-1.15958e+09,-608439,0.0105462,0.163893,0,0.164232,5333.84,-41886.1,0,42224.3,608439
step02_gravity_refstate-mantle.xmf,356,-1.37469e-06,3.25913e-06,0,-5.81894e-07,-1.09875e+09,-1.09813e+09,-1.09856e+09,-77770.1,0.0063561,0.0792872,0,0.0795415,15469.2,-40000,0,42887,77770.1
step02_gravity_refstate-mantle.xmf,357,-1.5397e-06,3.34045e-06,0,-7.30332e-07,-1.09878e+09,-1.09812e+09,-1.09857e+09,-97608.9,0.00807577,0.0849406,0,0.0853237,14284.9,-40000,0,42474.2,97608.9
step02_gravity_refstate-mantle.xmf,358,-1.15869e-06,3.30817e-06,0,-4.97762e-07,-1.12984e+09,-1.12924e+09,-1.12968e+09,-66525.9,0.00375212,0.0788832,0,0.0789724,14867.7,-40961.9,0,43576.7,66525.9
step02_gravity_refstate-mantle.xmf,359,-2.12422e-06,3.49273e-06,0,-1.57714e-06,-1.09889e+09,-1.09814e+09,-1.09861e+09,-210785,0.0157625,0.112707,0,0.113804,10093.6,-40000,0,41253.9,210785
step02_gravity_refstate-mantle.xmf,360,-1.78867e-06,3.51481e-06,0,-1.62208e-06,-1.12334e+09,-1.12263e+09,-1.1231e+09,-216791,0.0126071,0.114891,0,0.115581,9543.08,-40757.6,0,41859.9,216791
step02_gravity_refstate-mantle.xmf,361,-1.47605e-06,3.54178e-06,0,-1.81649e-06,-1.14305e+09,-1.14237e+09,-1.14285e+09,-242775,0.00995133,0.118937,0,0.119353,8892.64,-41368.4,0,42313.4,242775
step02_gravity_refstate-mantle.xmf,362,-1.02959e-06,3.62035e-06,0,-2.6086e-06,-1.16773e+09,-1.16711e+09,-1.16759e+09,-348639,0.00663427,0.132137,0,0.132304,7454.04,-42134,0,42788.3,348639
step02_gravity_refstate-mantle.xmf,363,-1.23736e-06,3.57365e-06,0,-2.16355e-06,-1.15699e+09,-1.15635e+09,-1.15683e+09,-289159,0.00813085,0.125118,0,0.125382,8158.02,-41800.9,0,42589.6,289159
step02_gravity_refstate-mantle.xmf,364,5.96865e-07,2.34035e-06,0,2.17365e-07,-1.26015e+09,-1.25992e+09,-1.26023e+09,29050.8,-0.006758,0.0358313,-0,0.036463,30123.1,-44996.6,0,54148.8,29050.8
step02_gravity_refstate-mantle.xmf,365,1.35539e-07,2.54193e-06,0,1.75942e-07,-1.18795e+09,-1.18763e+09,-1.18797e+09,23514.6,-0.00548299,0.045022,-0,0.0453547,25879.8,-42763.6,0,49984.9,23514.6
step02_gravity_refstate-mantle.xmf,366,3.5448e-07,2.47061e-06,0,2.21766e-07,-1.22409e+09,-1.2238e+09,-1.22413e+09,29639.1,-0.00680377,0.0407761,-0,0.0413398,27211.4,-43881.2,0,51633.5,29639.1
step02_gravity_refstate-mantle.xmf,367,-1.2071e-06,3.16811e-06,0,-4.53776e-07,-1.09872e+09,-1.09813e+09,-1.09856e+09,-60647.2,0.00475728,0.0741184,0,0.0742709,16713.6,-40000,0,43351.4,60647.2
step02_gravity_refstate-mantle.xmf,368,-1.0055e-06,3.22225e-06,0,-3.58968e-07,-1.13248e+09,-1.13191e+09,-1.13234e+09,-47976.1,0.0021883,0.0734215,0,0.0734542,16049.9,-41044.3,0,44070.8,47976.1
step02_gravity_refstate-mantle.xmf,369,-1.03443e-06,3.06711e-06,0,-3.45509e-07,-1.09869e+09,-1.09814e+09,-1.09855e+09,-46177.3,0.00329561,0.0694186,0,0.0694968,18021.3,-40000,0,43872.2,46177.3
step02_gravity_refstate-mantle.xmf,370,-7.86418e-07,3.11451e-06,0,-2.0876e-07,-1.13892e+09,-1.1384e+09,-1.13882e+09,-27900.8,0.000263163,0.067384,0,0.0673845,17486.5,-41244.5,0,44798.3,27900.8
step02_gravity_refstate-mantle.xmf,371,-8.74041e-07,2.96603e-06,0,-2.52878e-07,-1.09866e+09,-1.09815e+09,-1.09855e+09,-33797.2,0.00198978,0.0651734,0,0.0652038,19395.5,-40000,0,44454.3,33797.2
step02_gravity_refstate-mantle.xmf,372,-7.45951e-07,3.01894e-06,0,-1.69776e-07,-1.1274e+09,-1.12689e+09,-1.1273e+09,-22690.6,0.000295643,0.0644174,0,0.0644181,18746,-40888.6,0,44981,22690.6
step02_gravity_refstate-mantle.xmf,373,-5.46394e-07,2.92081e-06,0,-5.89977e-08,-1.13952e+09,-1.13906e+09,-1.13945e+09,-7885.04,-0.00151656,0.0595945,-0,0.0596138,20082.8,-41264.2,0,45891.8,7885.04
step02_gravity_refstate-mantle.xmf,374,-1.26829e-07,2.75982e-06,0,1.16639e-07,-1.17933e+09,-1.17895e+09,-1.17932e+09,15588.8,-0.00503765,0.0511574,-0,0.0514048,22321.9,-42496.4,0,48002.2,15588.8
step02_gravity_refstate-mantle.xmf,375,5.368e-08,2.65199e-06,0,1.72804e-07,-1.19391e+09,-1.19356e+09,-1.19392e+09,23095.3,-0.00598181,0.0471137,-0,0.0474919,23987.3,-42947.5,0,49192.3,23095.3
step02_gravity_refstate-mantle.xmf,376,8.8419e-07,2.24198e-06,0,1.84311e-07,-1.32621e+09,-1.32603e+09,-1.32633e+09,24633.1,-0.00642057,0.0298393,-0,0.0305223,32958.3,-47038.9,0,57436.2,24633.1
step02_gravity_refstate-mantle.xmf,377,1.13315e-06,2.1828e-06,0,1.09359e-07,-1.40031e+09,-1.40017e+09,-1.40047e+09,14615.8,-0.00463866,0.0240811,-0,0.0245238,35918.2,-49329.4,0,61020.5,14615.8
step02_gravity_refstate-mantle.xmf,378,1.51455e-06,2.2047e-06,0,3.35957e-08,-1.5655e+09,-1.5654e+09,-1.5657e+09,4490.07,-0.00285631,0.0127392,-0,0.0130555,38110,-54434.5,0,66449.1,4490.07
step02_gravity_refstate-mantle.xmf,379,1.56499e-06,2.2217e-06,0,-3.80605e-10,-1.59911e+09,-1.59902e+09,-1.59932e+09,-50.8679,2.99762e-19,0.010409,0,0.010409,40000,-55473.1,0,68390.6,50.8679
step02_gravity_refstate-mantle.xmf,380,-4.1468e-07,3.77656e-06,0,1.47594e-06,-1.2159e+09,-1.21534e+09,-1.21585e+09,197259,0.00459413,0.101634,0,0.101737,-9862.58,-43626.7,-0,44727.6,197259
step02_gravity_refstate-mantle.xmf,381,-2.24864e-06,8.89633e-06,0,1.68016e-05,-1.23546e+09,-1.23397e+09,-1.23516e+09,2.24554e+06,0.00312747,0.254293,0,0.254312,-1395.25,-44231.6,-0,44253.6,2.24554e+06
step02_gravity_refstate-mantle.xmf,382,-2.28554e-06,9.24064e-06,0,1.46288e-05,-1.24239e+09,-1.24085e+09,-1.24209e+09,1.95514e+06,0.00500995,0.237953,0,0.238006,-1795.97,-44446.3,-0,44482.6,1.95514e+06
step02_gravity_refstate-mantle.xmf,383,-2.14482e-06,9.236e-06,0,1.26497e-05,-1.2487e+09,-1.24718e+09,-1.24842e+09,1.69063e+06,0.00695049,0.222779,0,0.222888,-2208.26,-44642.3,-0,44696.9,1.69063e+06
step02_gravity_refstate-mantle.xmf,384,-3.67569e-07,4.90247e-06,0,5.65924e-06,-1.22016e+09,-1.21946e+09,-1.22011e+09,756358,0.00367553,0.164432,0,0.164473,-4889.32,-43761.4,-0,44033.6,756358
step02_gravity_refstate-mantle.xmf,385,-3.41982e-07,4.40079e-06,0,3.93314e-06,-1.21736e+09,-1.21672e+09,-1.21731e+09,525664,0.00349918,0.143565,0,0.143608,-6167.03,-43673.7,-0,44107,525664
step02_gravity_refstate-mantle.xmf,386,-2.23531e-07,4.39822e-06,0,3.32078e-06,-1.22872e+09,-1.22811e+09,-1.22869e+09,443822,0.00610249,0.13222,0,0.132361,-6862.78,-44025.6,-0,44557.2,443822
step02_gravity_refstate-mantle.xmf,387,-2.8275e-07,4.04005e-06,0,2.25466e-06,-1.22442e+09,-1.22384e+09,-1.22438e+09,301335,0.00561086,0.115598,0,0.115734,-8303.44,-43891.4,-0,44669.9,301335
step02_gravity_refstate-mantle.xmf,388,-4.38186e-07,3.60079e-06,0,9.12484e-07,-1.213e+09,-1.21246e+09,-1.21294e+09,121953,0.00486103,0.0887165,0,0.0888495,-11584.3,-43536.5,-0,45051.3,121953
step02_gravity_refstate-mantle.xmf,389,1.13541e-08,3.38884e-06,0,3.50211e-07,-1.25463e+09,-1.25418e+09,-1.25463e+09,46805.7,0.0111599,0.0675029,0,0.0684192,-14545.5,-44824.8,-0,47125.8,46805.7
step02_gravity_refstate-mantle.xmf,390,-2.84342e-07,3.54029e-06,0,7.00108e-07,-1.22665e+09,-1.22614e+09,-1.22661e+09,93569.5,0.00723402,0.0811334,0,0.0814552,-12529.1,-43958.9,-0,45709.6,93569.5
step02_gravity_refstate-mantle.xmf,391,-1.31291e-07,3.46978e-06,0,5.14801e-07,-1.24057e+09,-1.24009e+09,-1.24055e+09,68803.2,0.00933784,0.0740911,0,0.0746772,-13509.9,-44389.7,-0,46400,68803.2
step02_gravity_refstate-mantle.xmf,392,2.18106e-07,3.10099e-06,0,-1.69667e-08,-1.2697e+09,-1.26931e+09,-1.26973e+09,-2267.6,0.0124107,0.0539102,0,0.0553203,-17771.7,-45290.9,-0,48652.8,2267.6
step02_gravity_refstate-mantle.xmf,393,1.32654e-06,2.38085e-06,0,-2.18539e-07,-1.48006e+09,-1.47992e+09,-1.48023e+09,-29207.8,0.0145908,0.0203932,0,0.0250754,-29086.9,-51794.4,-0,59402.9,29207.8
step02_gravity_refstate-mantle.xmf,394,1.23185e-06,2.45309e-06,0,-2.47873e-07,-1.45104e+09,-1.45088e+09,-1.45121e+09,-33128.2,0.015838,0.023399,0,0.0282552,-27429.3,-50897.8,-0,57818.3,33128.2
step02_gravity_refstate-mantle.xmf,395,1.11454e-06,2.53308e-06,0,-2.67656e-07,-1.4203e+09,-1.42011e+09,-1.42045e+09,-35772.2,0.0165047,0.0268507,0,0.0315177,-25879.4,-49947.6,-0,56254,35772.2
step02_gravity_refstate-mantle.xmf,396,1.53889e-06,2.3578e-06,0,-1.36398e-07,-1.57449e+09,-1.57438e+09,-1.57469e+09,-18229.6,0.0139829,0.0129316,0,0.0190459,-30864.8,-54712.8,-0,62818.2,18229.6
step02_gravity_refstate-mantle.xmf,397,1.66054e-06,2.40854e-06,0,-5.40498e-08,-1.67805e+09,-1.67795e+09,-1.67827e+09,-7223.75,0.0128935,0.00513229,0,0.0138774,-32182.8,-57912.6,-0,66254.1,7223.75
step02_gravity_refstate-mantle.xmf,398,1.6812e-06,2.48079e-06,0,2.95931e-09,-1.74561e+09,-1.7455e+09,-1.74584e+09,395.512,0.011691,-6.56676e-20,0,0.011691,-33002,-60000,-0,68477.2,395.512
step02_gravity_refstate-mantle.xmf,399,-1.44203e-06,7.39618e-06,0,-1.49195e-05,-1.22617e+09,-1.22499e+09,-1.22598e+09,-1.99399e+06,-0.00252696,0.242591,-0,0.242604,1782.09,-43946.2,0,43982.4,1.99399e+06
step02_gravity_refstate-mantle.xmf,400,-2.25233e-06,8.90331e-06,0,-1.68032e-05,-1.23551e+09,-1.23402e+09,-1.23521e+09,-2.24575e+06,-0.00313285,0.254295,-0,0.254314,1394.84,-44233.2,0,44255.2,2.24575e+06
step02_gravity_refstate-mantle.xmf,401,-5.04724e-07,3.46911e-06,0,-5.51186e-06,-1.17531e+09,-1.17477e+09,-1.17524e+09,-736660,0.00698344,0.172233,0,0.172375,4784.23,-42371.2,0,42640.5,736660
step02_gravity_refstate-mantle.xmf,402,-8.77793e-07,3.50428e-06,0,-3.77343e-06,-1.16728e+09,-1.16669e+09,-1.16716e+09,-504320,0.00808027,0.151307,0,0.151522,6060.72,-42120.9,0,42554.7,504320
step02_gravity_refstate-mantle.xmf,403,-1.99259e-06,3.48704e-06,0,-1.32131e-06,-1.09886e+09,-1.09813e+09,-1.0986e+09,-176594,0.0137642,0.104961,0,0.105859,11064.9,-40000,0,41502.2,176594
step02_gravity_refstate-mantle.xmf,404,-1.58939e-06,3.52464e-06,0,-1.27443e-06,-1.12987e+09,-1.12918e+09,-1.12966e+09,-170328,0.00969248,0.10524,0,0.105685,10592.6,-40960.6,0,42308,170328
step02_gravity_refstate-mantle.xmf,405,-1.85978e-06,3.46142e-06,0,-1.09617e-06,-1.09884e+09,-1.09812e+09,-1.09859e+09,-146503,0.0118006,0.0977619,0,0.0984715,12085.5,-40000,0,41785.9,146503
step02_gravity_refstate-mantle.xmf,406,-1.62289e-06,3.49206e-06,0,-1.07545e-06,-1.1211e+09,-1.12042e+09,-1.12089e+09,-143733,0.00948816,0.0988468,0,0.0993012,11575.2,-40689.5,0,42303.9,143733
step02_gravity_refstate-mantle.xmf,407,-1.70287e-06,3.40929e-06,0,-9.00475e-07,-1.09881e+09,-1.09812e+09,-1.09858e+09,-120348,0.00989751,0.0910938,0,0.0916299,13158,-40000,0,42108.6,120348
step02_gravity_refstate-mantle.xmf,408,-1.28186e-06,3.38696e-06,0,-6.51797e-07,-1.13027e+09,-1.12965e+09,-1.1301e+09,-87112.7,0.00512941,0.0847542,0,0.0849092,13696.7,-40974.7,0,43203.3,87112.7
step02_gravity_refstate-mantle.xmf,409,-1.39181e-06,3.45812e-06,0,-8.45936e-07,-1.13167e+09,-1.13102e+09,-1.13148e+09,-113059,0.00657202,0.0916832,0,0.0919185,12482.5,-41017.3,0,42874.6,113059
step02_gravity_refstate-mantle.xmf,410,-8.18314e-07,3.71055e-06,0,-3.17936e-06,-1.17804e+09,-1.17744e+09,-1.17793e+09,-424921,0.00497678,0.140059,0,0.140148,6753.75,-42454.3,0,42988.1,424921
step02_gravity_refstate-mantle.xmf,411,5.21173e-07,2.4092e-06,0,2.35908e-07,-1.25337e+09,-1.25311e+09,-1.25344e+09,31529.1,-0.00745838,0.0374895,-0,0.0382242,28448.1,-44786.7,0,53057.9,31529.1
step02_gravity_refstate-mantle.xmf,412,-2.65556e-07,2.84705e-06,0,6.374e-08,-1.17067e+09,-1.17025e+09,-1.17063e+09,8518.84,-0.00420452,0.0544452,-0,0.0546074,21080.6,-42227.9,0,47197.4,8518.84
step02_gravity_refstate-mantle.xmf,413,1.06367e-06,2.22165e-06,0,1.66474e-07,-1.38056e+09,-1.38041e+09,-1.3807e+09,22249.2,-0.00677616,0.0258663,-0,0.0267391,33707.6,-48718.9,0,59243,22249.2
step02_gravity_refstate-mantle.xmf,414,8.49996e-07,2.30431e-06,0,2.29931e-07,-1.32557e+09,-1.32537e+09,-1.32568e+09,30730.2,-0.00822683,0.0307355,-0,0.0318174,30858.9,-47018.9,0,56241,30730.2
step02_gravity_refstate-mantle.xmf,415,1.31555e-06,2.18675e-06,0,9.45979e-08,-1.46908e+09,-1.46896e+09,-1.46926e+09,12643,-0.00513852,0.0194152,-0,0.0200836,36091.5,-51454.8,0,62850.6,12643
step02_gravity_refstate-mantle.xmf,416,1.46203e-06,2.2045e-06,0,7.61918e-08,-1.53561e+09,-1.53551e+09,-1.5358e+09,10183,-0.00551445,0.014886,-0,0.0158746,36218.9,-53510.9,0,64616,10183
step02_gravity_refstate-mantle.xmf,417,1.61145e-06,2.25906e-06,0,2.12439e-08,-1.63553e+09,-1.63544e+09,-1.63575e+09,2839.24,-0.00311372,0.00790992,-0,0.00850071,38062.2,-56598.6,0,68206.5,2839.24
step02_gravity_refstate-mantle.xmf,418,1.63978e-06,2.29268e-06,0,-2.12666e-10,-1.67196e+09,-1.67187e+09,-1.67218e+09,-28.4228,2.67846e-19,0.00532985,0,0.00532985,40000,-57724.1,0,70228.7,28.4228
step02_gravity_refstate-mantle.xmf,419,-2.42898e-07,3.73587e-06,0,1.19054e-06,-1.23047e+09,-1.22994e+09,-1.23044e+09,159116,0.00733446,0.092783,0,0.0930724,-10746.1,-44077.7,-0,45368.7,159116
step02_gravity_refstate-mantle.xmf,420,-3.17272e-06,1.05203e-05,0,1.89186e-05,-1.24423e+09,-1.2424e+09,-1.2438e+09,2.52848e+06,0.00305518,0.26723,0,0.267247,-1000,-44500.4,-0,44511.6,2.52848e+06
step02_gravity_refstate-mantle.xmf,421,-1.92521e-06,9.08599e-06,0,1.11269e-05,-1.25469e+09,-1.25322e+09,-1.25443e+09,1.48711e+06,0.00874547,0.210359,0,0.210541,-2573.38,-44828.3,-0,44902.1,1.48711e+06
step02_gravity_refstate-mantle.xmf,422,-2.74729e-07,4.91389e-06,0,4.74559e-06,-1.23076e+09,-1.23006e+09,-1.23072e+09,634249,0.00621191,0.151614,0,0.151741,-5530.69,-44089.4,-0,44434.9,634249
step02_gravity_refstate-mantle.xmf,423,-9.90526e-08,4.35106e-06,0,2.78582e-06,-1.24069e+09,-1.24009e+09,-1.24067e+09,372325,0.00859227,0.121368,0,0.121672,-7601.45,-44395.8,-0,45041.9,372325
step02_gravity_refstate-mantle.xmf,424,-4.73216e-07,5.65753e-06,0,6.73144e-06,-1.23202e+09,-1.2312e+09,-1.23196e+09,899656,0.00603955,0.173874,0,0.173979,-4305.29,-44129,-0,44338.5,899656
step02_gravity_refstate-mantle.xmf,425,-7.91858e-07,6.66738e-06,0,7.91565e-06,-1.24301e+09,-1.24202e+09,-1.24291e+09,1.05793e+06,0.00799097,0.184184,0,0.184357,-3727.39,-44469,-0,44624.9,1.05793e+06
step02_gravity_refstate-mantle.xmf,426,-1.38362e-06,8.15876e-06,0,9.38616e-06,-1.2542e+09,-1.25292e+09,-1.25402e+09,1.25446e+06,0.00954129,0.19637,0,0.196602,-3106.81,-44814.4,-0,44922,1.25446e+06
step02_gravity_refstate-mantle.xmf,427,1.58121e-07,3.30522e-06,0,2.10404e-07,-1.27072e+09,-1.2703e+09,-1.27074e+09,28120.4,0.0129085,0.0612957,0,0.0626402,-15610.6,-45322.6,-0,47935.7,28120.4
step02_gravity_refstate-mantle.xmf,428,9.95343e-07,2.6225e-06,0,-2.68373e-07,-1.39336e+09,-1.39315e+09,-1.3935e+09,-35868.1,0.0168563,0.0303804,0,0.0347434,-24392,-49114.9,-0,54838.4,35868.1
step02_gravity_refstate-mantle.xmf,429,8.77705e-07,2.71855e-06,0,-2.52305e-07,-1.37056e+09,-1.37032e+09,-1.37068e+09,-33720.5,0.0169843,0.0339748,0,0.0379836,-22962.9,-48410.1,-0,53580.1,33720.5
step02_gravity_refstate-mantle.xmf,430,7.51475e-07,2.81564e-06,0,-2.20703e-07,-1.34851e+09,-1.34824e+09,-1.34861e+09,-29497,0.0167367,0.0378913,0,0.0414231,-21613.5,-47728.3,-0,52394,29497
step02_gravity_refstate-mantle.xmf,431,6.07717e-07,2.91697e-06,0,-1.69975e-07,-1.32555e+09,-1.32524e+09,-1.32563e+09,-22717.2,0.0160564,0.0424399,0,0.0453757,-20263.9,-47018.2,-0,51199,22717.2
step02_gravity_refstate-mantle.xmf,432,4.40895e-07,3.02854e-06,0,-8.99978e-08,-1.30114e+09,-1.30079e+09,-1.3012e+09,-12028.2,0.0148798,0.0480251,0,0.0502774,-18814.3,-46263.4,-0,49942.7,12028.2
step02_gravity_refstate-mantle.xmf,433,2.98198e-07,3.22123e-06,0,9.58077e-08,-1.28756e+09,-1.28717e+09,-1.2876e+09,12804.7,0.0144212,0.0557039,0,0.0575404,-16668.2,-45843.6,-0,48779.8,12804.7
step02_gravity_refstate-mantle.xmf,434,1.48174e-06,2.40812e-06,0,-1.72221e-07,-1.54517e+09,-1.54505e+09,-1.54537e+09,-23017.3,0.0159497,0.0155254,0,0.0222583,-29216.3,-53807,-0,61227.3,23017.3
step02_gravity_refstate-mantle.xmf,435,1.62204e-06,2.40181e-06,0,-9.49154e-08,-1.63176e+09,-1.63165e+09,-1.63197e+09,-12685.4,0.0145992,0.00870491,0,0.0169975,-30930.2,-56482.4,-0,64396.8,12685.4
step02_gravity_refstate-mantle.xmf,436,-3.1727e-06,1.05199e-05,0,-1.89197e-05,-1.24423e+09,-1.2424e+09,-1.2438e+09,-2.52861e+06,-0.00305545,0.26723,-0,0.267247,1000,-44500.4,0,44511.6,2.52861e+06
step02_gravity_refstate-mantle.xmf,437,-1.53539e-06,7.69844e-06,0,-1.29781e-05,-1.23267e+09,-1.23143e+09,-1.23246e+09,-1.73452e+06,-0.00419683,0.227444,-0,0.227482,2193.14,-44147.1,0,44201.5,1.73452e+06
step02_gravity_refstate-mantle.xmf,438,-3.44543e-07,3.86499e-06,0,-6.67731e-06,-1.18866e+09,-1.1881e+09,-1.18862e+09,-892422,0.00392299,0.18195,0,0.181992,4225.29,-42785.9,0,42994,892422
step02_gravity_refstate-mantle.xmf,439,-9.00974e-07,6.29693e-06,0,-1.12676e-05,-1.22187e+09,-1.2209e+09,-1.22175e+09,-1.50591e+06,-0.00274831,0.216096,-0,0.216114,2645.95,-43814.1,0,43893.9,1.50591e+06
step02_gravity_refstate-mantle.xmf,440,-5.10224e-07,5.21694e-06,0,-9.58784e-06,-1.21119e+09,-1.21043e+09,-1.21113e+09,-1.28142e+06,-0.000890998,0.204304,-0,0.204306,3144.07,-43484.3,0,43597.8,1.28142e+06
step02_gravity_refstate-mantle.xmf,441,-3.38751e-07,4.43926e-06,0,-8.03809e-06,-1.20057e+09,-1.19993e+09,-1.20053e+09,-1.07429e+06,0.00127242,0.192665,0,0.19267,3676.98,-43155.3,0,43311.7,1.07429e+06
step02_gravity_refstate-mantle.xmf,442,-5.98703e-07,3.76574e-06,0,-4.61786e-06,-1.18319e+09,-1.18261e+09,-1.18311e+09,-617178,0.00469808,0.159564,0,0.159633,5438.35,-42615,0,42960.6,617178
step02_gravity_refstate-mantle.xmf,443,-8.08908e-07,3.27911e-06,0,-3.37479e-07,-1.16169e+09,-1.16114e+09,-1.16158e+09,-45104.1,-0.000322212,0.0737633,-0,0.073764,15278.2,-41948.1,0,44643.8,45104.1
step02_gravity_refstate-mantle.xmf,444,-9.20389e-07,3.35611e-06,0,-4.77136e-07,-1.15909e+09,-1.15852e+09,-1.15896e+09,-63769.3,0.00091484,0.0790647,0,0.07907,14210.4,-41867.2,0,44213.1,63769.3
step02_gravity_refstate-mantle.xmf,445,-1.31115e-06,3.57439e-06,0,-1.47214e-06,-1.15276e+09,-1.1521e+09,-1.15258e+09,-196751,0.00691813,0.109795,0,0.110013,9750.32,-41669.5,0,42795.1,196751
step02_gravity_refstate-mantle.xmf,446,-6.76035e-07,3.84597e-06,0,-2.66983e-06,-1.19197e+09,-1.19137e+09,-1.19188e+09,-356823,0.00136124,0.129052,0,0.129059,7476.77,-42885.9,0,43532.8,356823
step02_gravity_refstate-mantle.xmf,447,-1.03454e-06,3.63998e-06,0,-1.77e-06,-1.17028e+09,-1.16965e+09,-1.17014e+09,-236560,0.0045106,0.115051,0,0.115139,8978.74,-42212.8,0,43157.2,236560
step02_gravity_refstate-mantle.xmf,448,-8.38931e-07,3.72822e-06,0,-2.19808e-06,-1.18233e+09,-1.18172e+09,-1.18222e+09,-293774,0.00285098,0.12204,0,0.122073,8176.89,-42586.8,0,43364.7,293774
step02_gravity_refstate-mantle.xmf,449,7.22411e-07,2.3836e-06,0,2.57533e-07,-1.30157e+09,-1.30135e+09,-1.30167e+09,34419.4,-0.00904822,0.0336447,-0,0.0348401,28822.2,-46277.1,0,54518.7,34419.4
step02_gravity_refstate-mantle.xmf,450,5.78785e-07,2.46324e-06,0,2.65534e-07,-1.27716e+09,-1.27691e+09,-1.27724e+09,35488.6,-0.0091538,0.0367802,-0,0.0379022,27155.9,-45522.1,0,53006.7,35488.6
step02_gravity_refstate-mantle.xmf,451,3.73438e-07,2.56025e-06,0,2.47901e-07,-1.24476e+09,-1.24446e+09,-1.24481e+09,33131.9,-0.00845446,0.0411306,-0,0.0419905,25386.1,-44520.1,0,51249.3,33131.9
step02_gravity_refstate-mantle.xmf,452,-6.38099e-07,3.19191e-06,0,-1.99446e-07,-1.17027e+09,-1.16975e+09,-1.17018e+09,-26656,-0.00209478,0.0681827,-0,0.0682149,16425.5,-42213.9,0,45296.9,26656
step02_gravity_refstate-mantle.xmf,453,-4.80899e-07,3.01267e-06,0,-4.83509e-08,-1.16365e+09,-1.16318e+09,-1.16358e+09,-6462.1,-0.00280179,0.0608523,-0,0.0609168,18808,-42010.1,0,46028.1,6462.1
step02_gravity_refstate-mantle.xmf,454,-2.45162e-07,2.91851e-06,0,6.25058e-08,-1.1861e+09,-1.18568e+09,-1.18607e+09,8353.89,-0.0051121,0.0554912,-0,0.0557261,20041.7,-42705,0,47174,8353.89
step02_gravity_refstate-mantle.xmf,455,-3.22899e-08,2.82625e-06,0,1.43931e-07,-1.20703e+09,-1.20665e+09,-1.20703e+09,19236.3,-0.00687141,0.050816,-0,0.0512785,21285.7,-43352.8,0,48296.4,19236.3
step02_gravity_refstate-mantle.xmf,456,1.4203e-07,2.73357e-06,0,1.99709e-07,-1.2246e+09,-1.22425e+09,-1.22462e+09,26691.1,-0.00800814,0.0467978,-0,0.0474781,22606.2,-43896.4,0,49375.4,26691.1
step02_gravity_refstate-mantle.xmf,457,9.97285e-07,2.26881e-06,0,2.09062e-07,-1.36479e+09,-1.36462e+09,-1.36492e+09,27941.1,-0.0083205,0.0275289,-0,0.0287588,31884.9,-48231.3,0,57817.9,27941.1
step02_gravity_refstate-mantle.xmf,458,1.2401e-06,2.21436e-06,0,1.46768e-07,-1.44113e+09,-1.441e+09,-1.4413e+09,19615.5,-0.0073003,0.0216173,-0,0.0228167,34131.9,-50591,0,61028.2,19615.5
step02_gravity_refstate-mantle.xmf,459,1.57411e-06,2.24811e-06,0,5.29211e-08,-1.60337e+09,-1.60328e+09,-1.60358e+09,7072.91,-0.00581491,0.0102167,-0,0.0117556,36294.5,-55604.9,0,66401.8,7072.91
step02_gravity_refstate-mantle.xmf,460,1.65285e-06,2.32193e-06,0,1.08012e-08,-1.69305e+09,-1.69296e+09,-1.69327e+09,1443.58,-0.00276521,0.00383327,-0,0.00472656,38325.8,-58375.8,0,69832.6,1443.58
step02_gravity_refstate-mantle.xmf,461,1.66459e-06,2.39159e-06,0,-3.43601e-09,-1.74562e+09,-1.74552e+09,-1.74584e+09,-459.223,-1.25421e-18,-3.73321e-19,-0,1.30859e-18,40000,-60000,0,72111,459.223
step02_gravity_refstate-mantle.xmf,462,-1.753e-07,3.98078e-06,0,1.8613e-06,-1.23526e+09,-1.23471e+09,-1.23524e+09,248763,0.0077994,0.105929,0,0.106215,-9129.96,-44226.8,-0,45159.4,248763
step02_gravity_refstate-mantle.xmf,463,-5.43563e-08,3.92413e-06,0,1.54322e-06,-1.24801e+09,-1.24748e+09,-1.248e+09,206251,0.0100661,0.0970326,0,0.0975533,-9953.32,-44621.2,-0,45717.8,206251
step02_gravity_refstate-mantle.xmf,464,-3.30576e-06,1.09973e-05,0,1.64348e-05,-1.25173e+09,-1.24982e+09,-1.25129e+09,2.19652e+06,0.00520128,0.24907,0,0.249124,-1401.68,-44732.5,-0,44754.5,2.19652e+06
step02_gravity_refstate-mantle.xmf,465,-3.07889e-06,1.101e-05,0,1.41643e-05,-1.25833e+09,-1.25645e+09,-1.25792e+09,1.89306e+06,0.00741842,0.232633,0,0.232751,-1806.17,-44937.9,-0,44974.2,1.89306e+06
step02_gravity_refstate-mantle.xmf,466,-2.63468e-06,1.05579e-05,0,1.21297e-05,-1.26367e+09,-1.26191e+09,-1.26332e+09,1.62114e+06,0.00951307,0.217335,0,0.217543,-2236.92,-45104.8,-0,45160.3,1.62114e+06
step02_gravity_refstate-mantle.xmf,467,-3.21654e-07,5.59193e-06,0,5.66947e-06,-1.24259e+09,-1.2418e+09,-1.24254e+09,757724,0.00853668,0.160321,0,0.160548,-4914.65,-44456.2,-0,44727,757724
step02_gravity_refstate-mantle.xmf,468,-1.27768e-07,4.87002e-06,0,4.01921e-06,-1.24288e+09,-1.24221e+09,-1.24287e+09,537168,0.00887348,0.139502,0,0.139784,-6193.83,-44464.8,-0,44894.1,537168
step02_gravity_refstate-mantle.xmf,469,1.68375e-08,4.7869e-06,0,3.43009e-06,-1.25577e+09,-1.25513e+09,-1.25577e+09,458431,0.0114228,0.127955,0,0.128464,-6894.5,-44863.5,-0,45390.2,458431
step02_gravity_refstate-mantle.xmf,470,1.177e-08,4.2704e-06,0,2.34051e-06,-1.25229e+09,-1.25172e+09,-1.25229e+09,312810,0.0107619,0.111249,0,0.111769,-8375.44,-44754.8,-0,45531.8,312810
step02_gravity_refstate-mantle.xmf,471,-2.11532e-06,9.94052e-06,0,1.0416e-05,-1.26911e+09,-1.2675e+09,-1.26882e+09,1.39209e+06,0.0115057,0.203207,0,0.203533,-2680.12,-45274.5,-0,45353.8,1.39209e+06
step02_gravity_refstate-mantle.xmf,472,-8.78521e-08,3.6824e-06,0,9.53534e-07,-1.24577e+09,-1.24527e+09,-1.24576e+09,127440,0.0098476,0.0846075,0,0.0851787,-11645.4,-44551.3,-0,46048.1,127440
step02_gravity_refstate-mantle.xmf,473,2.98946e-07,3.45469e-06,0,3.93696e-07,-1.29271e+09,-1.29229e+09,-1.29275e+09,52617.5,0.0155745,0.0631952,0,0.0650861,-14606.6,-46003.3,-0,48266.5,52617.5
step02_gravity_refstate-mantle.xmf,474,1.79704e-07,3.53931e-06,0,5.58599e-07,-1.27719e+09,-1.27674e+09,-1.27721e+09,74656.7,0.0139952,0.0697428,0,0.0711332,-13582.3,-45523.2,-0,47506.2,74656.7
step02_gravity_refstate-mantle.xmf,475,4.78098e-08,3.61784e-06,0,7.49928e-07,-1.26135e+09,-1.26087e+09,-1.26136e+09,100228,0.0120682,0.0770188,0,0.0779585,-12574.4,-45033.3,-0,46755.9,100228
step02_gravity_refstate-mantle.xmf,476,4.18543e-07,3.1512e-06,0,1.74263e-08,-1.30331e+09,-1.30295e+09,-1.30337e+09,2329.02,0.0156016,0.0512642,0,0.0535857,-17570.5,-46330.7,-0,49550.6,2329.02
step02_gravity_refstate-mantle.xmf,477,1.175e-06,2.64634e-06,0,-2.38065e-07,-1.44487e+09,-1.44467e+09,-1.44503e+09,-31817.4,0.0192161,0.0261521,0,0.0324529,-24424.8,-50707.2,-0,56283.1,31817.4
step02_gravity_refstate-mantle.xmf,478,1.4094e-06,2.47764e-06,0,-2.02608e-07,-1.51582e+09,-1.51568e+09,-1.51601e+09,-27078.5,0.017651,0.0183961,0,0.0254946,-27552.8,-52900.1,-0,59645.4,27078.5
step02_gravity_refstate-mantle.xmf,479,1.32009e-06,2.57364e-06,0,-2.20933e-07,-1.48652e+09,-1.48635e+09,-1.48669e+09,-29527.7,0.0191661,0.0217031,0,0.0289545,-25774,-51994.5,-0,58032.1,29527.7
step02_gravity_refstate-mantle.xmf,480,1.59341e-06,2.45268e-06,0,-1.18975e-07,-1.60966e+09,-1.60954e+09,-1.60987e+09,-15901,0.0168372,0.0106404,0,0.0199175,-29369.8,-55799.8,-0,63057.1,15901
step02_gravity_refstate-mantle.xmf,481,1.66495e-06,2.51398e-06,0,-5.95387e-08,-1.67972e+09,-1.67961e+09,-1.67994e+09,-7957.35,0.0170945,0.00521593,0,0.0178725,-29661.5,-57964.6,-0,65113,7957.35
step02_gravity_refstate-mantle.xmf,482,1.68664e-06,2.55167e-06,0,2.67077e-09,-1.7456e+09,-1.74549e+09,-1.74583e+09,356.949,0.0152698,-7.12305e-20,0,0.0152698,-30876.9,-60000,-0,67478.7,356.949
step02_gravity_refstate-mantle.xmf,483,-2.33183e-06,9.23894e-06,0,-1.46286e-05,-1.24238e+09,-1.24083e+09,-1.24207e+09,-1.95511e+06,-0.00500419,0.23799,-0,0.238042,1795.09,-44445.6,0,44481.8,1.95511e+06
step02_gravity_refstate-mantle.xmf,484,-3.32045e-06,1.10243e-05,0,-1.64381e-05,-1.25192e+09,-1.25e+09,-1.25148e+09,-2.19695e+06,-0.00522094,0.249055,-0,0.24911,1400.34,-44738.4,0,44760.3,2.19695e+06
step02_gravity_refstate-mantle.xmf,485,-4.3915e-07,4.18801e-06,0,-5.61249e-06,-1.1977e+09,-1.19708e+09,-1.19764e+09,-750110,0.00152268,0.168496,0,0.168502,4841.24,-43065.2,0,43336.5,750110
step02_gravity_refstate-mantle.xmf,486,-5.90484e-07,3.94075e-06,0,-3.85713e-06,-1.19215e+09,-1.19155e+09,-1.19208e+09,-515506,0.00218265,0.147524,0,0.14754,6120.54,-42892.3,0,43326.8,515506
step02_gravity_refstate-mantle.xmf,487,-1.25791e-06,3.51525e-06,0,-9.86268e-07,-1.14861e+09,-1.14797e+09,-1.14844e+09,-131815,0.00536081,0.0964042,0,0.0965532,11498,-41541.7,0,43103.6,131815
step02_gravity_refstate-mantle.xmf,488,-9.85128e-07,3.42856e-06,0,-6.34639e-07,-1.16077e+09,-1.16018e+09,-1.16064e+09,-84819.6,0.00172153,0.0846548,0,0.0846723,13136.6,-41919,0,43929.1,84819.6
step02_gravity_refstate-mantle.xmf,489,-6.37081e-07,3.32986e-06,0,-3.67313e-07,-1.1835e+09,-1.18297e+09,-1.18342e+09,-49091.4,-0.00243904,0.0746341,-0,0.074674,14600,-42623.2,0,45054.4,49091.4
step02_gravity_refstate-mantle.xmf,490,-1.06848e-06,3.57348e-06,0,-1.17278e-06,-1.16572e+09,-1.1651e+09,-1.16558e+09,-156742,0.00356542,0.100914,0,0.100977,10640.8,-42071.8,0,43396.5,156742
step02_gravity_refstate-mantle.xmf,491,-5.0169e-07,4.04315e-06,0,-3.2474e-06,-1.20305e+09,-1.20245e+09,-1.20299e+09,-434015,-0.000641003,0.136302,-0,0.136304,6808.83,-43229.9,0,43762.8,434015
step02_gravity_refstate-mantle.xmf,492,-4.14171e-07,3.09794e-06,0,-6.94007e-08,-1.18452e+09,-1.18405e+09,-1.18447e+09,-9275.4,-0.00417587,0.0624999,-0,0.0626392,17635.3,-42655.6,0,46157.4,9275.4
step02_gravity_refstate-mantle.xmf,493,3.03041e-07,2.65574e-06,0,2.37206e-07,-1.24425e+09,-1.24394e+09,-1.24429e+09,31702.6,-0.00897036,0.0432762,-0,0.0441961,23790.6,-44504.3,0,50464.1,31702.6
step02_gravity_refstate-mantle.xmf,494,1.15027e-06,2.25582e-06,0,1.94884e-07,-1.41242e+09,-1.41227e+09,-1.41257e+09,26046.3,-0.00898871,0.0240637,-0,0.0256877,32280.6,-49703.7,0,59266.3,26046.3
step02_gravity_refstate-mantle.xmf,495,1.05279e-06,2.30755e-06,0,2.33797e-07,-1.38571e+09,-1.38555e+09,-1.38585e+09,31247,-0.0101883,0.0265677,-0,0.0284542,30596.5,-48878.1,0,57664.7,31247
step02_gravity_refstate-mantle.xmf,496,9.4185e-07,2.36875e-06,0,2.63396e-07,-1.35924e+09,-1.35905e+09,-1.35937e+09,35202.9,-0.0109526,0.0292902,-0,0.031271,29008.5,-48059.8,0,56135.9,35202.9
step02_gravity_refstate-mantle.xmf,497,1.40352e-06,2.22536e-06,0,1.22019e-07,-1.50707e+09,-1.50696e+09,-1.50726e+09,16307.9,-0.00795983,0.0170604,-0,0.018826,34318.1,-52629.1,0,62829.6,16307.9
step02_gravity_refstate-mantle.xmf,498,1.53593e-06,2.25515e-06,0,9.2252e-08,-1.57504e+09,-1.57495e+09,-1.57525e+09,12329.5,-0.00854385,0.0123399,-0,0.015009,34411.9,-54729.6,0,64649.1,12329.5
step02_gravity_refstate-mantle.xmf,499,1.647e-06,2.3199e-06,0,2.86195e-08,-1.67733e+09,-1.67724e+09,-1.67755e+09,3825,-0.00608011,0.00499649,-0,0.00786973,36301.4,-57890.1,0,68330.5,3825
step02_gravity_refstate-mantle.xmf,500,1.66754e-06,2.4011e-06,0,-3.8754e-09,-1.74562e+09,-1.74552e+09,-1.74584e+09,-517.948,-0.0040665,-4.86398e-19,-0,0.0040665,37557.9,-60000,0,70785.6,517.948
step02_gravity_refstate-mantle.xmf,501,7.86573e-08,3.86597e-06,0,1.26976e-06,-1.26293e+09,-1.26242e+09,-1.26294e+09,169703,0.0123957,0.0884717,0,0.0893358,-10811.5,-45082.9,-0,46361.1,169703
step02_gravity_refstate-mantle.xmf,502,-4.41194e-06,1.28969e-05,0,1.85531e-05,-1.26048e+09,-1.25816e+09,-1.25989e+09,2.47962e+06,0.00465182,0.261377,0,0.261419,-1000,-45000.2,-0,45011.3,2.47962e+06
step02_gravity_refstate-mantle.xmf,503,-1.46082e-07,5.46368e-06,0,4.80876e-06,-1.2544e+09,-1.25365e+09,-1.25438e+09,642691,0.0110863,0.147544,0,0.14796,-5547.08,-44822,-0,45163.9,642691
step02_gravity_refstate-mantle.xmf,504,1.36668e-07,4.66407e-06,0,2.90088e-06,-1.26813e+09,-1.26753e+09,-1.26815e+09,387703,0.0135959,0.117017,0,0.117805,-7646.19,-45246.1,-0,45887.6,387703
step02_gravity_refstate-mantle.xmf,505,-5.23554e-07,6.48482e-06,0,6.65919e-06,-1.25373e+09,-1.25279e+09,-1.25366e+09,890001,0.0105616,0.169408,0,0.169737,-4324.37,-44801.2,-0,45009.4,890001
step02_gravity_refstate-mantle.xmf,506,-9.24927e-07,7.67691e-06,0,7.69643e-06,-1.26473e+09,-1.26358e+09,-1.2646e+09,1.02863e+06,0.0122783,0.17899,0,0.179411,-3744.34,-45141.4,-0,45296.4,1.02863e+06
step02_gravity_refstate-mantle.xmf,507,-1.50108e-06,9.175e-06,0,8.7282e-06,-1.27628e+09,-1.27485e+09,-1.27608e+09,1.16652e+06,0.0137361,0.187863,0,0.188364,-3214.04,-45498.2,-0,45611.6,1.16652e+06
step02_gravity_refstate-mantle.xmf,508,4.16523e-07,3.3656e-06,0,2.50173e-07,-1.30917e+09,-1.30878e+09,-1.30923e+09,33435.6,0.0169568,0.0571095,0,0.0595738,-15666.8,-46512.3,-0,49079.9,33435.6
step02_gravity_refstate-mantle.xmf,509,1.06522e-06,2.74173e-06,0,-2.26252e-07,-1.41901e+09,-1.41878e+09,-1.41915e+09,-30238.6,0.0195385,0.0297848,0,0.0356215,-23041.7,-49907.8,-0,54970.1,30238.6
step02_gravity_refstate-mantle.xmf,510,9.54996e-07,2.84419e-06,0,-1.95367e-07,-1.39634e+09,-1.39609e+09,-1.39647e+09,-26110.8,0.0196543,0.0335891,0,0.0389168,-21686.8,-49207.1,-0,53774.1,26110.8
step02_gravity_refstate-mantle.xmf,511,8.37773e-07,2.94892e-06,0,-1.46172e-07,-1.3743e+09,-1.37402e+09,-1.37441e+09,-19535.8,0.019435,0.0378011,0,0.0425046,-20373.6,-48525.8,-0,52629.2,19535.8
step02_gravity_refstate-mantle.xmf,512,7.15024e-07,3.05658e-06,0,-7.51701e-08,-1.35298e+09,-1.35267e+09,-1.35308e+09,-10046.5,0.0189096,0.0425109,0,0.0465269,-19074.4,-47866.8,-0,51527.3,10046.5
step02_gravity_refstate-mantle.xmf,513,5.21392e-07,3.27053e-06,0,1.2707e-07,-1.32431e+09,-1.32394e+09,-1.32438e+09,16982.8,0.0179302,0.0517819,0,0.0547983,-16737.8,-46980.4,-0,49872.9,16982.8
step02_gravity_refstate-mantle.xmf,514,6.12517e-07,3.1688e-06,0,2.00672e-08,-1.33745e+09,-1.33711e+09,-1.33753e+09,2681.98,0.0184766,0.0471583,0,0.0506487,-17836.9,-47386.5,-0,50632.4,2681.98
step02_gravity_refstate-mantle.xmf,515,1.30346e-06,2.69395e-06,0,-1.99677e-07,-1.48964e+09,-1.48946e+09,-1.48982e+09,-26686.8,0.0212125,0.0225698,0,0.0309736,-24297,-52091.2,-0,57479.1,26686.8
step02_gravity_refstate-mantle.xmf,516,1.54511e-06,2.51925e-06,0,-1.46953e-07,-1.58321e+09,-1.58308e+09,-1.58342e+09,-19640.3,0.0189384,0.0131145,0,0.0230359,-27746.5,-54982.7,-0,61587.1,19640.3
step02_gravity_refstate-mantle.xmf,517,-2.20768e-06,9.30296e-06,0,-1.26715e-05,-1.24906e+09,-1.24752e+09,-1.24877e+09,-1.69354e+06,-0.00698066,0.223085,-0,0.223194,2195.07,-44653.1,0,44707,1.69354e+06
step02_gravity_refstate-mantle.xmf,518,-4.41354e-06,1.28989e-05,0,-1.85515e-05,-1.26048e+09,-1.25816e+09,-1.25989e+09,-2.47941e+06,-0.00465151,0.261377,-0,0.261418,1000,-45000.2,0,45011.3,2.47941e+06
step02_gravity_refstate-mantle.xmf,519,-1.43255e-06,7.70108e-06,0,-1.11482e-05,-1.23869e+09,-1.23747e+09,-1.2385e+09,-1.48995e+06,-0.005942,0.212651,-0,0.212734,2639.26,-44333.8,0,44412.3,1.48995e+06
step02_gravity_refstate-mantle.xmf,520,-4.27907e-07,4.78037e-06,0,-6.75028e-06,-1.2104e+09,-1.20971e+09,-1.21035e+09,-902174,-0.00121005,0.178186,-0,0.17819,4265.82,-43459.3,0,43668.2,902174
step02_gravity_refstate-mantle.xmf,521,-9.12453e-07,6.49017e-06,0,-9.55491e-06,-1.23006e+09,-1.22907e+09,-1.22994e+09,-1.27701e+06,-0.00483712,0.200735,-0,0.200794,3149.98,-44067.6,0,44180,1.27701e+06
step02_gravity_refstate-mantle.xmf,522,-5.95515e-07,5.61397e-06,0,-8.0694e-06,-1.22241e+09,-1.22158e+09,-1.22233e+09,-1.07848e+06,-0.0036239,0.188776,-0,0.188811,3698,-43831.3,0,43987,1.07848e+06
step02_gravity_refstate-mantle.xmf,523,-4.25429e-07,4.34113e-06,0,-4.69131e-06,-1.20697e+09,-1.20633e+09,-1.20691e+09,-626994,-0.000918348,0.155636,-0,0.155639,5493.93,-43352.1,0,43698.9,626994
step02_gravity_refstate-mantle.xmf,524,-4.84407e-07,3.26376e-06,0,-2.38279e-07,-1.19479e+09,-1.19429e+09,-1.19472e+09,-31846,-0.00429223,0.0694423,-0,0.0695749,15502.8,-42972.6,0,45683.5,31846
step02_gravity_refstate-mantle.xmf,525,-1.03157e-06,3.49087e-06,0,-7.95325e-07,-1.16311e+09,-1.16251e+09,-1.16298e+09,-106295,0.0022932,0.0898498,0,0.0898791,12238.2,-41991.1,0,43738.2,106295
step02_gravity_refstate-mantle.xmf,526,-6.59093e-07,3.4049e-06,0,-4.99287e-07,-1.18703e+09,-1.18648e+09,-1.18694e+09,-66729.7,-0.00227877,0.0789706,-0,0.0790035,13663,-42732.1,0,44863.2,66729.7
step02_gravity_refstate-mantle.xmf,527,-8.39452e-07,3.66033e-06,0,-1.44031e-06,-1.18436e+09,-1.18376e+09,-1.18425e+09,-192497,0.00107805,0.105713,0,0.105718,9811.44,-42649.2,0,43763.2,192497
step02_gravity_refstate-mantle.xmf,528,-3.75454e-07,4.08933e-06,0,-2.72621e-06,-1.21556e+09,-1.21497e+09,-1.21551e+09,-364358,-0.00360005,0.12559,-0,0.125641,7522.86,-43617.2,0,44261.2,364358
step02_gravity_refstate-mantle.xmf,529,-5.38791e-07,3.91133e-06,0,-2.31269e-06,-1.20423e+09,-1.20363e+09,-1.20416e+09,-309091,-0.00154986,0.120501,-0,0.120511,8082.21,-43265.5,0,44014,309091
step02_gravity_refstate-mantle.xmf,530,-5.73066e-07,3.80665e-06,0,-1.86254e-06,-1.20251e+09,-1.20192e+09,-1.20243e+09,-248928,-0.00167199,0.11201,-0,0.112023,8910.06,-43211.9,0,44120.9,248928
step02_gravity_refstate-mantle.xmf,531,8.144e-07,2.44676e-06,0,2.82273e-07,-1.33338e+09,-1.33317e+09,-1.33349e+09,37725.8,-0.0114632,0.0323812,-0,0.0343504,27311.4,-47260.5,0,54584.5,37725.8
step02_gravity_refstate-mantle.xmf,532,6.68623e-07,2.53293e-06,0,2.85095e-07,-1.30751e+09,-1.30726e+09,-1.3076e+09,38102.9,-0.0114846,0.0358418,-0,0.0376368,25697.7,-46460.5,0,53093.7,38102.9
step02_gravity_refstate-mantle.xmf,533,-2.93189e-07,3.18005e-06,0,-1.12186e-07,-1.20951e+09,-1.20904e+09,-1.20947e+09,-14993.7,-0.00633351,0.0637294,-0,0.0640434,16581.3,-43428.4,0,46486.2,14993.7
step02_gravity_refstate-mantle.xmf,534,-1.70743e-07,3.00235e-06,0,4.65106e-08,-1.20645e+09,-1.20603e+09,-1.20643e+09,6216.14,-0.0065744,0.0567124,-0,0.0570922,18863.3,-43334.3,0,47261.9,6216.14
step02_gravity_refstate-mantle.xmf,535,5.34249e-07,2.62637e-06,0,2.72694e-07,-1.28819e+09,-1.28791e+09,-1.28826e+09,36445.6,-0.0113965,0.0392075,-0,0.0408303,24137.6,-45863,0,51827,36445.6
step02_gravity_refstate-mantle.xmf,536,4.00608e-07,2.71773e-06,0,2.45969e-07,-1.27136e+09,-1.27105e+09,-1.27141e+09,32873.7,-0.011026,0.0426245,-0,0.0440275,22745.3,-45342.4,0,50727.6,32873.7
step02_gravity_refstate-mantle.xmf,537,4.07588e-08,2.90551e-06,0,1.36476e-07,-1.22928e+09,-1.2289e+09,-1.22929e+09,18240,-0.00858412,0.0513904,-0,0.0521024,20129.7,-44040.8,0,48423.1,18240
step02_gravity_refstate-mantle.xmf,538,2.42991e-07,2.809e-06,0,2.03549e-07,-1.25237e+09,-1.25203e+09,-1.2524e+09,27204.4,-0.0101512,0.0465507,-0,0.0476447,21442.5,-44755.1,0,49626.6,27204.4
step02_gravity_refstate-mantle.xmf,539,1.32996e-06,2.25969e-06,0,1.70147e-07,-1.47703e+09,-1.4769e+09,-1.47721e+09,22740.1,-0.0100468,0.0195057,-0,0.021941,32459.4,-51700.6,0,61045.6,22740.1
step02_gravity_refstate-mantle.xmf,540,1.61158e-06,2.29726e-06,0,6.23812e-08,-1.63168e+09,-1.63159e+09,-1.63189e+09,8337.24,-0.00851224,0.00832744,-0,0.0119082,34697.3,-56479.7,0,66286.2,8337.24
step02_gravity_refstate-mantle.xmf,541,1.16939e-07,4.1893e-06,0,1.97376e-06,-1.26512e+09,-1.26458e+09,-1.26514e+09,263794,0.0128913,0.101709,0,0.102523,-9177.2,-45151.6,-0,46074.8,263794
step02_gravity_refstate-mantle.xmf,542,2.15339e-07,4.10974e-06,0,1.6566e-06,-1.2789e+09,-1.27838e+09,-1.27893e+09,221405,0.0149075,0.0927835,0,0.0939735,-10002.4,-45577.8,-0,46662.5,221405
step02_gravity_refstate-mantle.xmf,543,-4.26363e-06,1.30312e-05,0,1.58792e-05,-1.26746e+09,-1.26514e+09,-1.26689e+09,2.12225e+06,0.00721141,0.243093,0,0.2432,-1405.96,-45217.1,-0,45238.9,2.12225e+06
step02_gravity_refstate-mantle.xmf,544,-3.72027e-06,1.26248e-05,0,1.35032e-05,-1.2737e+09,-1.27152e+09,-1.2732e+09,1.8047e+06,0.00975606,0.226511,0,0.226721,-1821.97,-45412.6,-0,45449.1,1.8047e+06
step02_gravity_refstate-mantle.xmf,545,-3.04917e-06,1.18781e-05,0,1.15074e-05,-1.27973e+09,-1.27773e+09,-1.27932e+09,1.53797e+06,0.0121553,0.211413,0,0.211762,-2249.19,-45601.3,-0,45656.7,1.53797e+06
step02_gravity_refstate-mantle.xmf,546,-2.84943e-07,6.21505e-06,0,5.68726e-06,-1.26352e+09,-1.26265e+09,-1.26348e+09,760102,0.0127208,0.156528,0,0.157044,-4912.73,-45104.5,-0,45371.3,760102
step02_gravity_refstate-mantle.xmf,547,3.84254e-08,5.43361e-06,0,4.23543e-06,-1.27051e+09,-1.26979e+09,-1.27051e+09,566065,0.0141619,0.136053,0,0.136788,-6127.25,-45320.7,-0,45733,566065
step02_gravity_refstate-mantle.xmf,548,1.8933e-07,5.19576e-06,0,3.55071e-06,-1.28336e+09,-1.28269e+09,-1.28339e+09,474553,0.0162956,0.123213,0,0.124286,-6932.07,-45718.2,-0,46240.7,474553
step02_gravity_refstate-mantle.xmf,549,2.36647e-07,4.55151e-06,0,2.4802e-06,-1.28114e+09,-1.28056e+09,-1.28117e+09,331479,0.0156142,0.107011,0,0.108145,-8404.45,-45648.1,-0,46415.3,331479
step02_gravity_refstate-mantle.xmf,550,-2.3035e-06,1.09846e-05,0,9.78537e-06,-1.2872e+09,-1.28543e+09,-1.2869e+09,1.30781e+06,0.0146208,0.196435,0,0.196978,-2715.56,-45835,-0,45915.4,1.30781e+06
step02_gravity_refstate-mantle.xmf,551,2.13475e-07,3.80871e-06,0,1.03713e-06,-1.28069e+09,-1.28021e+09,-1.28072e+09,138612,0.0148048,0.080115,0,0.0814714,-11712.9,-45632.2,-0,47111.5,138612
step02_gravity_refstate-mantle.xmf,552,5.25232e-07,3.55729e-06,0,4.61625e-07,-1.33102e+09,-1.33062e+09,-1.33109e+09,61696.2,0.0196605,0.0587942,0,0.0619944,-14663.5,-47188.4,-0,49414.2,61696.2
step02_gravity_refstate-mantle.xmf,553,4.30768e-07,3.65619e-06,0,6.43114e-07,-1.31487e+09,-1.31444e+09,-1.31493e+09,85952.2,0.0184257,0.0653782,0,0.0679251,-13616.3,-46689.1,-0,48634.1,85952.2
step02_gravity_refstate-mantle.xmf,554,3.34092e-07,3.7429e-06,0,8.38262e-07,-1.29902e+09,-1.29857e+09,-1.29907e+09,112034,0.016929,0.0723436,0,0.0742979,-12641.2,-46199.1,-0,47897.4,112034
step02_gravity_refstate-mantle.xmf,555,1.2171e-06,2.78163e-06,0,-1.90806e-07,-1.46643e+09,-1.46622e+09,-1.4666e+09,-25501.3,0.0217768,0.02569,0,0.033678,-23081.9,-51373.9,-0,56321,25501.3
step02_gravity_refstate-mantle.xmf,556,1.48485e-06,2.60314e-06,0,-1.65637e-07,-1.5575e+09,-1.55735e+09,-1.55769e+09,-22137.4,0.0207286,0.0157849,0,0.0260545,-26183.9,-54188.1,-0,60182.7,22137.4
step02_gravity_refstate-mantle.xmf,557,1.40975e-06,2.70189e-06,0,-1.72228e-07,-1.53109e+09,-1.53092e+09,-1.53128e+09,-23018.3,0.022164,0.0188294,0,0.0290824,-24669.3,-53372.3,-0,58797.8,23018.3
step02_gravity_refstate-mantle.xmf,558,1.62597e-06,2.57878e-06,0,-9.38895e-08,-1.64281e+09,-1.64268e+09,-1.64303e+09,-12548.3,0.0198173,0.00840718,0,0.0215269,-27793.2,-56824.3,-0,63257.2,12548.3
step02_gravity_refstate-mantle.xmf,559,1.68486e-06,2.65061e-06,0,1.43332e-09,-1.7456e+09,-1.74547e+09,-1.74582e+09,191.563,0.0186917,-5.61841e-20,0,0.0186917,-28846.4,-60000,-0,66574.1,191.563
step02_gravity_refstate-mantle.xmf,560,-3.14152e-06,1.10587e-05,0,-1.41414e-05,-1.25874e+09,-1.25684e+09,-1.25832e+09,-1.89e+06,-0.00747471,0.232536,-0,0.232656,1804.96,-44950.4,0,44986.6,1.89e+06
step02_gravity_refstate-mantle.xmf,561,-4.29906e-06,1.3098e-05,0,-1.5876e-05,-1.26793e+09,-1.26561e+09,-1.26736e+09,-2.12183e+06,-0.00726245,0.242984,-0,0.243093,1403.67,-45231.7,0,45253.5,2.12183e+06
step02_gravity_refstate-mantle.xmf,562,-3.8598e-07,4.90529e-06,0,-5.64623e-06,-1.22023e+09,-1.21953e+09,-1.22018e+09,-754618,-0.00369081,0.164434,-0,0.164475,4888.64,-43763.5,0,44035.7,754618
step02_gravity_refstate-mantle.xmf,563,-3.4139e-07,4.4015e-06,0,-3.932e-06,-1.21742e+09,-1.21679e+09,-1.21738e+09,-525512,-0.00351353,0.143536,-0,0.143579,6168.44,-43675.7,0,44109.1,525512
step02_gravity_refstate-mantle.xmf,564,-8.33345e-07,3.55122e-06,0,-9.26448e-07,-1.18085e+09,-1.18026e+09,-1.18074e+09,-123820,0.00024809,0.0928291,0,0.0928295,11504.7,-42540.5,0,44068.7,123820
step02_gravity_refstate-mantle.xmf,565,-6.66349e-07,3.48905e-06,0,-6.86882e-07,-1.19215e+09,-1.19159e+09,-1.19206e+09,-91801.7,-0.00224435,0.0848499,-0,0.0848796,12535.6,-42890.4,0,44684.8,91801.7
step02_gravity_refstate-mantle.xmf,566,-3.486e-07,3.36521e-06,0,-3.67277e-07,-1.21494e+09,-1.21444e+09,-1.21489e+09,-49086.6,-0.00624121,0.0725917,-0,0.0728595,14345.5,-43596.2,0,45895.8,49086.6
step02_gravity_refstate-mantle.xmf,567,-6.25333e-07,3.64161e-06,0,-1.15356e-06,-1.19852e+09,-1.19795e+09,-1.19844e+09,-154173,-0.00204104,0.0968625,-0,0.096884,10690.2,-43088,0,44394.3,154173
step02_gravity_refstate-mantle.xmf,568,-2.23541e-07,4.39821e-06,0,-3.32079e-06,-1.22872e+09,-1.22811e+09,-1.22869e+09,-443824,-0.00610244,0.13222,-0,0.13236,6862.79,-44025.6,0,44557.2,443824
step02_gravity_refstate-mantle.xmf,569,-2.82801e-07,4.0401e-06,0,-2.25468e-06,-1.22442e+09,-1.22384e+09,-1.22438e+09,-301337,-0.00561083,0.115598,-0,0.115734,8303.44,-43891.4,0,44669.9,301337
step02_gravity_refstate-mantle.xmf,570,-7.48463e-08,3.0903e-06,0,1.13608e-09,-1.22826e+09,-1.22783e+09,-1.22825e+09,151.837,-0.00844635,0.0580086,-0,0.0586203,17730,-44008.8,0,47446,151.837
step02_gravity_refstate-mantle.xmf,571,1.24162e-06,2.30828e-06,0,2.14423e-07,-1.44667e+09,-1.44652e+09,-1.44683e+09,28657.6,-0.0116812,0.0221823,-0,0.02507,30688.3,-50762.2,0,59317.6,28657.6
step02_gravity_refstate-mantle.xmf,572,1.14367e-06,2.36921e-06,0,2.50135e-07,-1.41832e+09,-1.41816e+09,-1.41847e+09,33430.6,-0.0128857,0.0249576,-0,0.0280878,29019,-49886.1,0,57712.5,33430.6
step02_gravity_refstate-mantle.xmf,573,1.03176e-06,2.44226e-06,0,2.75604e-07,-1.39068e+09,-1.39049e+09,-1.39081e+09,36834.5,-0.0136938,0.0279899,-0,0.0311602,27393.9,-49031.6,0,56165.2,36834.5
step02_gravity_refstate-mantle.xmf,574,1.48253e-06,2.28174e-06,0,1.34104e-07,-1.54445e+09,-1.54435e+09,-1.54465e+09,17922.9,-0.0109028,0.0147404,-0,0.0183344,32617.2,-53784.5,0,62901.9,17922.9
step02_gravity_refstate-mantle.xmf,575,1.60208e-06,2.32968e-06,0,8.87167e-08,-1.61973e+09,-1.61963e+09,-1.61994e+09,11857,-0.0114946,0.00935134,-0,0.014818,32787.1,-56110.6,0,64987.6,11857
step02_gravity_refstate-mantle.xmf,576,1.66065e-06,2.37172e-06,0,3.80652e-08,-1.68683e+09,-1.68673e+09,-1.68705e+09,5087.42,-0.00992105,0.00438629,-0,0.0108474,33995.7,-58183.7,0,67387.3,5087.42
step02_gravity_refstate-mantle.xmf,577,1.67318e-06,2.4306e-06,0,-2.50628e-09,-1.74562e+09,-1.74552e+09,-1.74584e+09,-334.965,-0.00796011,-4.26064e-19,-0,0.00796011,35227.2,-60000,0,69577,334.965
step02_gravity_refstate-mantle.xmf,578,3.15162e-07,4.03431e-06,0,1.38334e-06,-1.29404e+09,-1.29355e+09,-1.29409e+09,184884,0.0168519,0.0844282,0,0.0860936,-10844.1,-46046,-0,47305.7,184884
step02_gravity_refstate-mantle.xmf,579,-5.62696e-06,1.5363e-05,0,1.79693e-05,-1.2767e+09,-1.27389e+09,-1.27594e+09,2.4016e+06,0.00628381,0.254323,0,0.254401,-1000,-45499.4,-0,45510.4,2.4016e+06
step02_gravity_refstate-mantle.xmf,580,-1.07507e-07,5.98994e-06,0,5.03922e-06,-1.27216e+09,-1.27134e+09,-1.27214e+09,673492,0.0144323,0.146536,0,0.147245,-5412.75,-45372,-0,45693.8,673492
step02_gravity_refstate-mantle.xmf,581,2.89026e-07,5.02445e-06,0,3.05487e-06,-1.2963e+09,-1.29567e+09,-1.29634e+09,408283,0.0181717,0.112599,0,0.114056,-7663.5,-46118,-0,46750.4,408283
step02_gravity_refstate-mantle.xmf,582,-5.40725e-07,7.20117e-06,0,6.55465e-06,-1.2747e+09,-1.27366e+09,-1.27463e+09,876029,0.0145645,0.164612,0,0.165255,-4342.51,-45450.8,-0,45657.8,876029
step02_gravity_refstate-mantle.xmf,583,-9.62624e-07,8.48759e-06,0,7.4269e-06,-1.28595e+09,-1.28469e+09,-1.28583e+09,992605,0.0160944,0.173068,0,0.173814,-3773.41,-45798.9,-0,45954.1,992605
step02_gravity_refstate-mantle.xmf,584,-1.55735e-06,1.00258e-05,0,8.31697e-06,-1.2962e+09,-1.29465e+09,-1.29599e+09,1.11156e+06,0.0170525,0.181476,0,0.182275,-3234.63,-46115.2,-0,46228.5,1.11156e+06
step02_gravity_refstate-mantle.xmf,585,6.20834e-07,3.45567e-06,0,3.06403e-07,-1.34776e+09,-1.34738e+09,-1.34784e+09,40950.7,0.0206836,0.0528019,0,0.0567085,-15730.7,-47705.8,-0,50232.5,40950.7
step02_gravity_refstate-mantle.xmf,586,1.11921e-06,2.88825e-06,0,-1.60999e-07,-1.44318e+09,-1.44294e+09,-1.44332e+09,-21517.5,0.0221927,0.0293356,0,0.0367844,-21758.1,-50655.1,-0,55130.3,21517.5
step02_gravity_refstate-mantle.xmf,587,1.0163e-06,3.00358e-06,0,-1.09057e-07,-1.42115e+09,-1.42088e+09,-1.42128e+09,-14575.4,0.022364,0.0333733,0,0.0401737,-20438.3,-49974.2,-0,53992.1,14575.4
step02_gravity_refstate-mantle.xmf,588,9.10181e-07,3.11808e-06,0,-3.72882e-08,-1.39982e+09,-1.39952e+09,-1.39994e+09,-4983.57,0.0222094,0.0378072,0,0.0438479,-19178.9,-49315,-0,52913.1,4983.57
step02_gravity_refstate-mantle.xmf,589,8.06689e-07,3.23116e-06,0,5.52307e-08,-1.38025e+09,-1.37993e+09,-1.38036e+09,7381.59,0.0218252,0.0425418,0,0.0478136,-17978.9,-48710.2,-0,51922.3,7381.59
step02_gravity_refstate-mantle.xmf,590,7.1024e-07,3.34164e-06,0,1.67619e-07,-1.36295e+09,-1.3626e+09,-1.36305e+09,22402.3,0.0212924,0.0474944,0,0.0520489,-16844.1,-48175.4,-0,51035.2,22402.3
step02_gravity_refstate-mantle.xmf,591,1.33726e-06,2.82761e-06,0,-1.54075e-07,-1.51244e+09,-1.51224e+09,-1.51262e+09,-20592.2,0.0235822,0.0216229,0,0.0319948,-23160.6,-52796.1,-0,57652.7,20592.2
step02_gravity_refstate-mantle.xmf,592,1.57563e-06,2.65979e-06,0,-1.16561e-07,-1.61338e+09,-1.61323e+09,-1.61359e+09,-15578.3,0.0218813,0.0112238,0,0.0245919,-26223.5,-55915.1,-0,61759,15578.3
step02_gravity_refstate-mantle.xmf,593,1.66639e-06,2.66796e-06,0,-4.29335e-08,-1.69976e+09,-1.69963e+09,-1.69998e+09,-5738.07,0.0207265,0.00382789,0,0.021077,-27556.9,-58584,-0,64741.6,5738.07
step02_gravity_refstate-mantle.xmf,594,-1.83428e-06,8.91157e-06,0,-1.07853e-05,-1.25438e+09,-1.25294e+09,-1.25414e+09,-1.44146e+06,-0.00886014,0.207975,-0,0.208163,2662.46,-44818.9,0,44897.9,1.44146e+06
step02_gravity_refstate-mantle.xmf,595,-2.68532e-06,1.06314e-05,0,-1.20556e-05,-1.26453e+09,-1.26275e+09,-1.26417e+09,-1.61123e+06,-0.00966288,0.216956,-0,0.217172,2240.31,-45131.2,0,45186.8,1.61123e+06
step02_gravity_refstate-mantle.xmf,596,-5.63433e-06,1.53636e-05,0,-1.79752e-05,-1.2767e+09,-1.27389e+09,-1.27595e+09,-2.40238e+06,-0.00628324,0.254323,-0,0.254401,1000,-45499.4,0,45510.4,2.40238e+06
step02_gravity_refstate-mantle.xmf,597,-1.24629e-06,7.59171e-06,0,-9.7004e-06,-1.24444e+09,-1.24326e+09,-1.24427e+09,-1.29646e+06,-0.00759226,0.20017,-0,0.200314,3050.42,-44512.3,0,44616.7,1.29646e+06
step02_gravity_refstate-mantle.xmf,598,-5.01663e-07,5.67929e-06,0,-6.74497e-06,-1.23224e+09,-1.23141e+09,-1.23217e+09,-901465,-0.00607606,0.174213,-0,0.174319,4286.87,-44135.5,0,44343.2,901465
step02_gravity_refstate-mantle.xmf,599,-8.59384e-07,6.84676e-06,0,-8.13762e-06,-1.24387e+09,-1.24284e+09,-1.24376e+09,-1.08759e+06,-0.00808372,0.186284,-0,0.186459,3627.08,-44495.5,0,44643.1,1.08759e+06
step02_gravity_refstate-mantle.xmf,600,-2.74754e-07,4.91388e-06,0,-4.7456e-06,-1.23076e+09,-1.23006e+09,-1.23072e+09,-634249,-0.00621186,0.151614,-0,0.151741,5530.69,-44089.4,0,44434.9,634249
step02_gravity_refstate-mantle.xmf,601,-1.51138e-07,3.27461e-06,0,-2.04624e-07,-1.23205e+09,-1.23159e+09,-1.23203e+09,-27348,-0.00858596,0.0655165,-0,0.0660767,15540.1,-44125.9,0,46782.4,27348
step02_gravity_refstate-mantle.xmf,602,-4.27988e-07,3.46622e-06,0,-5.73986e-07,-1.21154e+09,-1.21102e+09,-1.21148e+09,-76713.2,-0.00532614,0.079236,-0,0.0794148,13137.2,-43491,0,45431.9,76713.2
step02_gravity_refstate-mantle.xmf,603,-4.14178e-07,3.77601e-06,0,-1.47314e-06,-1.21595e+09,-1.21539e+09,-1.21589e+09,-196885,-0.00460521,0.101567,-0,0.101671,9869.7,-43628.1,0,44730.6,196885
step02_gravity_refstate-mantle.xmf,604,-9.90703e-08,4.351e-06,0,-2.78566e-06,-1.24069e+09,-1.24009e+09,-1.24067e+09,-372303,-0.00859207,0.121366,-0,0.12167,7601.66,-44395.8,0,45041.9,372303
step02_gravity_refstate-mantle.xmf,605,9.07687e-07,2.52539e-06,0,2.87093e-07,-1.36422e+09,-1.36401e+09,-1.36434e+09,38370,-0.0141094,0.0312907,-0,0.0343246,25816.3,-48213.9,0,54690.6,38370
step02_gravity_refstate-mantle.xmf,606,7.7497e-07,2.61637e-06,0,2.8261e-07,-1.33972e+09,-1.33947e+09,-1.33982e+09,37770.8,-0.0141691,0.0348377,-0,0.0376089,24292.1,-47456.3,0,53312.3,37770.8
step02_gravity_refstate-mantle.xmf,607,2.70377e-08,3.1884e-06,0,-8.21146e-08,-1.24939e+09,-1.24897e+09,-1.2494e+09,-10974.6,-0.0105381,0.059558,-0,0.0604831,16648.2,-44662.7,0,47664.6,10974.6
step02_gravity_refstate-mantle.xmf,608,1.43151e-07,2.99834e-06,0,9.67605e-08,-1.25186e+09,-1.25148e+09,-1.25188e+09,12932,-0.0105906,0.0523552,-0,0.0534156,18915.3,-44739.1,0,48573.4,12932
step02_gravity_refstate-mantle.xmf,609,6.47818e-07,2.70935e-06,0,2.62621e-07,-1.31967e+09,-1.31939e+09,-1.31976e+09,35099.3,-0.0140151,0.0383597,-0,0.0408398,22882.1,-46836.4,0,52127.1,35099.3
step02_gravity_refstate-mantle.xmf,610,5.06951e-07,2.80526e-06,0,2.26385e-07,-1.29956e+09,-1.29925e+09,-1.29962e+09,30256.3,-0.0134811,0.0423042,-0,0.0444003,21522.7,-46214.4,0,50980.3,30256.3
step02_gravity_refstate-mantle.xmf,611,3.32532e-07,2.9036e-06,0,1.71332e-07,-1.27635e+09,-1.276e+09,-1.27639e+09,22898.5,-0.0123267,0.0470406,-0,0.0486289,20183.1,-45496.6,0,49772.5,22898.5
step02_gravity_refstate-mantle.xmf,612,1.41044e-06,2.32293e-06,0,1.79221e-07,-1.51131e+09,-1.51119e+09,-1.5115e+09,23952.9,-0.0129511,0.0175141,-0,0.0217825,30815,-52760.2,0,61100,23952.9
step02_gravity_refstate-mantle.xmf,613,3.23305e-07,4.43922e-06,0,2.1153e-06,-1.29474e+09,-1.29419e+09,-1.29478e+09,282709,0.0174634,0.0974777,0,0.0990296,-9207.53,-46068.5,-0,46979.7,282709
step02_gravity_refstate-mantle.xmf,614,3.96089e-07,4.33305e-06,0,1.78916e-06,-1.30888e+09,-1.30835e+09,-1.30893e+09,239122,0.0191405,0.0885824,0,0.0906267,-10037.9,-46505.6,-0,47576.6,239122
step02_gravity_refstate-mantle.xmf,615,-5.12522e-06,1.50682e-05,0,1.50588e-05,-1.28342e+09,-1.28072e+09,-1.28273e+09,2.01261e+06,0.00929596,0.235944,0,0.236127,-1412.48,-45709.6,-0,45731.4,2.01261e+06
step02_gravity_refstate-mantle.xmf,616,-4.23512e-06,1.41866e-05,0,1.26584e-05,-1.28973e+09,-1.28726e+09,-1.28916e+09,1.69179e+06,0.0121531,0.219552,0,0.219888,-1832.17,-45908.2,-0,45944.7,1.69179e+06
step02_gravity_refstate-mantle.xmf,617,-3.3092e-06,1.31e-05,0,1.07427e-05,-1.29714e+09,-1.29495e+09,-1.2967e+09,1.43577e+06,0.0148667,0.204461,0,0.205001,-2257.05,-46140.7,-0,46195.9,1.43577e+06
step02_gravity_refstate-mantle.xmf,618,-2.45557e-07,6.74604e-06,0,5.66526e-06,-1.2837e+09,-1.28277e+09,-1.28367e+09,757162,0.0163835,0.152048,0,0.152929,-4937.53,-45729.8,-0,45995.6,757162
step02_gravity_refstate-mantle.xmf,619,-1.85496e-08,6.28123e-06,0,4.90672e-06,-1.29081e+09,-1.28997e+09,-1.29081e+09,655784,0.0176535,0.14048,0,0.141585,-5574.9,-45949.6,-0,46286.5,655784
step02_gravity_refstate-mantle.xmf,620,1.53531e-07,5.86204e-06,0,4.21085e-06,-1.29852e+09,-1.29776e+09,-1.29855e+09,562779,0.0188252,0.12896,0,0.130327,-6285.77,-46188,-0,46613.7,562779
step02_gravity_refstate-mantle.xmf,621,2.66887e-07,5.61559e-06,0,3.67624e-06,-1.31079e+09,-1.31007e+09,-1.31082e+09,491329,0.0204836,0.118107,0,0.119871,-6974.59,-46566.9,-0,47086.3,491329
step02_gravity_refstate-mantle.xmf,622,3.68898e-07,4.8803e-06,0,2.64144e-06,-1.31039e+09,-1.30979e+09,-1.31044e+09,353028,0.0199651,0.102588,0,0.104513,-8419.91,-46553.5,-0,47308.8,353028
step02_gravity_refstate-mantle.xmf,623,-2.3661e-06,1.18509e-05,0,9.21628e-06,-1.30565e+09,-1.30375e+09,-1.30534e+09,1.23176e+06,0.0174441,0.189525,0,0.190326,-2731.54,-46406.6,-0,46487,1.23176e+06
step02_gravity_refstate-mantle.xmf,624,4.68653e-07,4.00192e-06,0,1.16059e-06,-1.32125e+09,-1.32078e+09,-1.32131e+09,155112,0.0199539,0.0745629,0,0.0771867,-11815.6,-46887.2,-0,48353.1,155112
step02_gravity_refstate-mantle.xmf,625,6.85548e-07,3.69574e-06,0,5.36318e-07,-1.36946e+09,-1.36905e+09,-1.36955e+09,71678.9,0.023336,0.054256,0,0.0590617,-14718.8,-48377.1,-0,50566.6,71678.9
step02_gravity_refstate-mantle.xmf,626,6.06476e-07,3.80649e-06,0,7.25624e-07,-1.35268e+09,-1.35225e+09,-1.35276e+09,96979.6,0.0223929,0.0606189,0,0.0646227,-13698.7,-47858.6,-0,49780.6,96979.6
step02_gravity_refstate-mantle.xmf,627,5.35594e-07,3.91281e-06,0,9.38564e-07,-1.33702e+09,-1.33657e+09,-1.3371e+09,125439,0.0213106,0.067398,0,0.0706868,-12721.6,-47374.8,-0,49053.1,125439
step02_gravity_refstate-mantle.xmf,628,1.2482e-06,2.94741e-06,0,-1.23361e-07,-1.48947e+09,-1.48924e+09,-1.48964e+09,-16487.2,0.0243779,0.0250945,0,0.0349859,-21809,-52086.1,-0,56467.7,16487.2
step02_gravity_refstate-mantle.xmf,629,1.51126e-06,2.76238e-06,0,-1.25744e-07,-1.5858e+09,-1.58563e+09,-1.586e+09,-16805.6,0.0236469,0.0141899,0,0.0275777,-24702.6,-55063,-0,60350.3,16805.6
step02_gravity_refstate-mantle.xmf,630,1.43632e-06,2.8839e-06,0,-1.16605e-07,-1.56111e+09,-1.56092e+09,-1.5613e+09,-15584.3,0.0251146,0.0172525,0,0.0304695,-23250.8,-54300.3,-0,59068.8,15584.3
step02_gravity_refstate-mantle.xmf,631,1.63173e-06,2.73802e-06,0,-6.66112e-08,-1.66807e+09,-1.66792e+09,-1.66829e+09,-8902.59,0.022846,0.0066932,0,0.0238062,-26113.8,-57605.1,-0,63247.8,8902.59
step02_gravity_refstate-mantle.xmf,632,1.67038e-06,2.78332e-06,0,6.51198e-10,-1.74559e+09,-1.74544e+09,-1.74581e+09,87.0326,0.0219467,-4.04298e-20,0,0.0219467,-26905.6,-60000,-0,65756.4,87.0326
step02_gravity_refstate-mantle.xmf,633,-3.80551e-06,1.27465e-05,0,-1.34334e-05,-1.27483e+09,-1.27262e+09,-1.27432e+09,-1.79537e+06,-0.0099163,0.226124,-0,0.226341,1820.31,-45447.3,0,45483.7,1.79537e+06
step02_gravity_refstate-mantle.xmf,634,-5.18568e-06,1.51911e-05,0,-1.50426e-05,-1.28426e+09,-1.28154e+09,-1.28357e+09,-2.01045e+06,-0.00938039,0.235716,-0,0.235902,1407.68,-45735.6,0,45757.3,2.01045e+06
step02_gravity_refstate-mantle.xmf,635,-3.33419e-07,5.59187e-06,0,-5.65301e-06,-1.24259e+09,-1.2418e+09,-1.24255e+09,-755525,-0.00853718,0.160324,-0,0.160551,4914.46,-44456.3,0,44727.1,755525
step02_gravity_refstate-mantle.xmf,636,-1.27773e-07,4.87001e-06,0,-4.01921e-06,-1.24288e+09,-1.24221e+09,-1.24287e+09,-537167,-0.00887343,0.139502,-0,0.139784,6193.83,-44464.8,0,44894.1,537167
step02_gravity_refstate-mantle.xmf,637,-4.39852e-07,3.59815e-06,0,-9.08197e-07,-1.21274e+09,-1.2122e+09,-1.21268e+09,-121380,-0.00482731,0.0886367,-0,0.0887681,11600.2,-43528.4,0,45047.6,121380
step02_gravity_refstate-mantle.xmf,638,-2.7087e-07,3.54907e-06,0,-7.16273e-07,-1.22803e+09,-1.22752e+09,-1.22799e+09,-95729.9,-0.00741572,0.0813221,-0,0.0816595,12472.8,-44001.6,0,45735.3,95729.9
step02_gravity_refstate-mantle.xmf,639,-1.27311e-07,3.47868e-06,0,-5.30114e-07,-1.24106e+09,-1.24058e+09,-1.24104e+09,-70849.8,-0.00939324,0.0744171,-0,0.0750075,13438.3,-44404.9,0,46393.8,70849.8
step02_gravity_refstate-mantle.xmf,640,6.95499e-09,3.38989e-06,0,-3.52411e-07,-1.2541e+09,-1.25365e+09,-1.2541e+09,-47099.7,-0.0110961,0.0676372,-0,0.0685414,14528.4,-44808.3,0,47104.8,47099.7
step02_gravity_refstate-mantle.xmf,641,-2.4087e-07,3.73508e-06,0,-1.18645e-06,-1.23069e+09,-1.23015e+09,-1.23065e+09,-158569,-0.00737251,0.0926496,-0,0.0929425,10760.4,-44084.3,0,45378.6,158569
step02_gravity_refstate-mantle.xmf,642,1.68293e-08,4.78689e-06,0,-3.43006e-06,-1.25577e+09,-1.25513e+09,-1.25577e+09,-458427,-0.0114227,0.127955,-0,0.128464,6894.53,-44863.5,0,45390.2,458427
step02_gravity_refstate-mantle.xmf,643,-1.75555e-07,3.98055e-06,0,-1.86102e-06,-1.23524e+09,-1.23468e+09,-1.23522e+09,-248725,-0.00779522,0.105928,-0,0.106214,9130.37,-44226.1,0,45158.7,248725
step02_gravity_refstate-mantle.xmf,644,1.16221e-08,4.26998e-06,0,-2.3398e-06,-1.25229e+09,-1.25172e+09,-1.25229e+09,-312714,-0.0107609,0.111237,-0,0.111756,8376.74,-44754.6,0,45531.8,312714
step02_gravity_refstate-mantle.xmf,645,2.18114e-07,3.101e-06,0,1.69658e-08,-1.2697e+09,-1.26931e+09,-1.26973e+09,2267.48,-0.0124107,0.0539102,-0,0.0553203,17771.7,-45290.9,0,48652.8,2267.48
step02_gravity_refstate-mantle.xmf,646,1.32693e-06,2.38072e-06,0,2.18433e-07,-1.48018e+09,-1.48004e+09,-1.48036e+09,29193.6,-0.0145906,0.0203827,-0,0.0250667,29089.6,-51798.3,0,59407.7,29193.6
step02_gravity_refstate-mantle.xmf,647,1.23191e-06,2.45308e-06,0,2.47863e-07,-1.45106e+09,-1.4509e+09,-1.45123e+09,33126.8,-0.0158383,0.0233975,-0,0.0282541,27429.6,-50898.4,0,57818.9,33126.8
step02_gravity_refstate-mantle.xmf,648,1.11454e-06,2.53308e-06,0,2.67659e-07,-1.4203e+09,-1.42011e+09,-1.42045e+09,35772.6,-0.0165047,0.0268507,-0,0.0315177,25879.4,-49947.6,0,56254,35772.6
step02_gravity_refstate-mantle.xmf,649,1.54432e-06,2.35608e-06,0,1.33142e-07,-1.57767e+09,-1.57756e+09,-1.57788e+09,17794.4,-0.0138829,0.0126798,-0,0.0188019,30960.3,-54811.1,0,62950.7,17794.4
step02_gravity_refstate-mantle.xmf,650,1.66722e-06,2.43216e-06,0,4.69093e-08,-1.68798e+09,-1.68788e+09,-1.68821e+09,6269.43,-0.0134401,0.00440699,-0,0.0141441,31883.8,-58219.7,0,66378.5,6269.43
step02_gravity_refstate-mantle.xmf,651,1.68122e-06,2.4801e-06,0,-2.42615e-09,-1.74561e+09,-1.7455e+09,-1.74584e+09,-324.255,-0.0116917,-4.27392e-19,-0,0.0116917,33002,-60000,0,68477.2,324.255
step02_gravity_refstate-mantle.xmf,652,4.57825e-07,4.22835e-06,0,1.50302e-06,-1.32246e+09,-1.32196e+09,-1.32252e+09,200878,0.0205237,0.0805484,0,0.083122,-10879.2,-46925.2,-0,48169.8,200878
step02_gravity_refstate-mantle.xmf,653,-6.80822e-06,1.79679e-05,0,1.70871e-05,-1.29291e+09,-1.2896e+09,-1.292e+09,2.2837e+06,0.00797642,0.246002,0,0.246131,-1000,-45998.9,-0,46009.8,2.2837e+06
step02_gravity_refstate-mantle.xmf,654,3.39033e-07,5.40762e-06,0,3.21726e-06,-1.32294e+09,-1.32226e+09,-1.32299e+09,429987,0.0219172,0.108358,0,0.110552,-7657.99,-46942.3,-0,47562.8,429987
step02_gravity_refstate-mantle.xmf,655,-5.32505e-07,7.81167e-06,0,6.42976e-06,-1.29594e+09,-1.29482e+09,-1.29586e+09,859338,0.0181677,0.158985,0,0.160019,-4379.93,-46108.4,-0,46316,859338
step02_gravity_refstate-mantle.xmf,656,-9.74889e-07,9.14671e-06,0,7.20596e-06,-1.30695e+09,-1.3056e+09,-1.30682e+09,963077,0.0193625,0.16673,0,0.167851,-3804.06,-46449.2,-0,46604.7,963077
step02_gravity_refstate-mantle.xmf,657,-1.5951e-06,1.07116e-05,0,8.04217e-06,-1.31516e+09,-1.31351e+09,-1.31494e+09,1.07484e+06,0.019709,0.175315,0,0.176419,-3237.85,-46702.5,-0,46814.6,1.07484e+06
step02_gravity_refstate-mantle.xmf,658,7.71155e-07,3.57882e-06,0,3.6867e-07,-1.38714e+09,-1.38677e+09,-1.38725e+09,49272.7,0.024094,0.0483261,0,0.0539994,-15785.7,-48923.7,-0,51407.3,49272.7
step02_gravity_refstate-mantle.xmf,659,1.15294e-06,3.07454e-06,0,-7.03434e-08,-1.46714e+09,-1.46688e+09,-1.46729e+09,-9401.39,0.0248722,0.0289571,0,0.0381725,-20496.8,-51396,-0,55332.3,9401.39
step02_gravity_refstate-mantle.xmf,660,1.0549e-06,3.20589e-06,0,6.78641e-09,-1.44577e+09,-1.44548e+09,-1.44591e+09,907.004,0.0250842,0.0332176,0,0.0416248,-19227.4,-50735.5,-0,54256.6,907.004
step02_gravity_refstate-mantle.xmf,661,9.56166e-07,3.33143e-06,0,1.03508e-07,-1.42481e+09,-1.4245e+09,-1.42494e+09,13833.8,0.0249589,0.0378774,0,0.0453613,-18037.1,-50088,-0,53236.6,13833.8
step02_gravity_refstate-mantle.xmf,662,8.60568e-07,3.455e-06,0,2.23699e-07,-1.40503e+09,-1.40468e+09,-1.40515e+09,29897.3,0.024599,0.0429333,0,0.0494811,-16891.2,-49476.5,-0,52280.4,29897.3
step02_gravity_refstate-mantle.xmf,663,1.35051e-06,3.01909e-06,0,-8.70052e-08,-1.53739e+09,-1.53717e+09,-1.53757e+09,-11628.2,0.0262558,0.020618,0,0.0333837,-21861.7,-53567.2,-0,57856.6,11628.2
step02_gravity_refstate-mantle.xmf,664,1.5777e-06,2.8377e-06,0,-8.16432e-08,-1.63982e+09,-1.63965e+09,-1.64003e+09,-10911.6,0.0247726,0.00952793,0,0.0265417,-24676.6,-56732.3,-0,61866.7,10911.6
step02_gravity_refstate-mantle.xmf,665,1.65291e-06,2.81027e-06,0,-2.98007e-08,-1.71397e+09,-1.71382e+09,-1.71419e+09,-3982.86,0.0233912,0.00277355,0,0.0235551,-25994.4,-59023.4,-0,64493.9,3982.86
step02_gravity_refstate-mantle.xmf,666,-1.39138e-06,8.36037e-06,0,-9.18729e-06,-1.25925e+09,-1.25795e+09,-1.25907e+09,-1.22788e+06,-0.0105615,0.193892,-0,0.19418,3154.91,-44970.9,0,45081.5,1.22788e+06
step02_gravity_refstate-mantle.xmf,667,-2.12622e-06,1.00135e-05,0,-1.028e-05,-1.2706e+09,-1.26898e+09,-1.27032e+09,-1.37392e+06,-0.0117921,0.202394,-0,0.202737,2693.52,-45320.8,0,45400.8,1.37392e+06
step02_gravity_refstate-mantle.xmf,668,-3.07678e-06,1.19802e-05,0,-1.13643e-05,-1.28135e+09,-1.27934e+09,-1.28094e+09,-1.51884e+06,-0.0124352,0.210612,-0,0.210979,2256.42,-45651.5,0,45707.2,1.51884e+06
step02_gravity_refstate-mantle.xmf,669,-6.81062e-06,1.79388e-05,0,-1.71112e-05,-1.29291e+09,-1.2896e+09,-1.292e+09,-2.28692e+06,-0.00797776,0.246003,-0,0.246133,1000,-45998.9,0,46009.8,2.28692e+06
step02_gravity_refstate-mantle.xmf,670,-5.40891e-07,6.50962e-06,0,-6.64483e-06,-1.25411e+09,-1.25317e+09,-1.25404e+09,-888082,-0.0106339,0.169468,-0,0.169801,4317.51,-44813.1,0,45020.6,888082
step02_gravity_refstate-mantle.xmf,671,-1.46026e-07,5.4636e-06,0,-4.80875e-06,-1.2544e+09,-1.25365e+09,-1.25438e+09,-642690,-0.0110862,0.147544,-0,0.14796,5547.08,-44822,0,45163.9,642690
step02_gravity_refstate-mantle.xmf,672,1.57165e-07,3.30483e-06,0,-2.09836e-07,-1.27059e+09,-1.27017e+09,-1.27061e+09,-28044.6,-0.0128943,0.0612991,-0,0.0626406,15613,-45318.7,0,47932.7,28044.6
step02_gravity_refstate-mantle.xmf,673,-5.43078e-08,3.92357e-06,0,-1.54119e-06,-1.24803e+09,-1.2475e+09,-1.24803e+09,-205980,-0.0100705,0.0969881,-0,0.0975095,9958.26,-44622,0,45719.6,205980
step02_gravity_refstate-mantle.xmf,674,1.36662e-07,4.66408e-06,0,-2.90093e-06,-1.26813e+09,-1.26753e+09,-1.26815e+09,-387709,-0.0135959,0.117018,-0,0.117805,7646.15,-45246.1,0,45887.6,387709
step02_gravity_refstate-mantle.xmf,675,9.95343e-07,2.62249e-06,0,2.68374e-07,-1.39336e+09,-1.39315e+09,-1.3935e+09,35868.2,-0.0168563,0.0303804,-0,0.0347434,24392,-49114.9,0,54838.4,35868.2
step02_gravity_refstate-mantle.xmf,676,8.77705e-07,2.71855e-06,0,2.52304e-07,-1.37056e+09,-1.37032e+09,-1.37068e+09,33720.5,-0.0169843,0.0339748,-0,0.0379836,22962.9,-48410.1,0,53580.1,33720.5
step02_gravity_refstate-mantle.xmf,677,2.98149e-07,3.22125e-06,0,-9.58011e-08,-1.28756e+09,-1.28717e+09,-1.2876e+09,-12803.8,-0.0144211,0.0557041,-0,0.0575405,16668.2,-45843.6,0,48779.7,12803.8
step02_gravity_refstate-mantle.xmf,678,4.4089e-07,3.02854e-06,0,8.99932e-08,-1.30114e+09,-1.30079e+09,-1.3012e+09,12027.6,-0.0148798,0.0480251,-0,0.0502774,18814.2,-46263.4,0,49942.7,12027.6
step02_gravity_refstate-mantle.xmf,679,7.51472e-07,2.81563e-06,0,2.20705e-07,-1.34851e+09,-1.34823e+09,-1.34861e+09,29497.2,-0.0167367,0.0378914,-0,0.0414231,21613.5,-47728.2,0,52394,29497.2
step02_gravity_refstate-mantle.xmf,680,6.07717e-07,2.91697e-06,0,1.69977e-07,-1.32555e+09,-1.32524e+09,-1.32563e+09,22717.4,-0.0160563,0.0424399,-0,0.0453756,20263.9,-47018.2,0,51199,22717.4
step02_gravity_refstate-mantle.xmf,681,1.48326e-06,2.4076e-06,0,1.71559e-07,-1.54592e+09,-1.5458e+09,-1.54612e+09,22928.9,-0.0159365,0.0154635,-0,0.0222057,29235.6,-53830.1,0,61256.9,22928.9
step02_gravity_refstate-mantle.xmf,682,1.62517e-06,2.40296e-06,0,9.1728e-08,-1.6349e+09,-1.63479e+09,-1.63511e+09,12259.5,-0.0145531,0.00846457,-0,0.0168357,30978.1,-56579.5,0,64504.9,12259.5
step02_gravity_refstate-mantle.xmf,683,4.4031e-07,4.73942e-06,0,2.27015e-06,-1.32495e+09,-1.32437e+09,-1.32501e+09,303405,0.0215642,0.0929874,0,0.0954551,-9230.31,-47003.3,-0,47901,303405
step02_gravity_refstate-mantle.xmf,684,4.91246e-07,4.59404e-06,0,1.91678e-06,-1.33872e+09,-1.33818e+09,-1.33879e+09,256177,0.0228441,0.0841679,0,0.0872129,-10075.9,-47428.8,-0,48487.2,256177
step02_gravity_refstate-mantle.xmf,685,-5.82025e-06,1.70681e-05,0,1.39377e-05,-1.29967e+09,-1.29661e+09,-1.29889e+09,1.86277e+06,0.0114327,0.227728,0,0.228015,-1416.75,-46212.1,-0,46233.8,1.86277e+06
step02_gravity_refstate-mantle.xmf,686,-4.51262e-06,1.5577e-05,0,1.15906e-05,-1.30687e+09,-1.30418e+09,-1.30626e+09,1.54909e+06,0.0146225,0.211295,0,0.2118,-1844.3,-46439.3,-0,46475.9,1.54909e+06
step02_gravity_refstate-mantle.xmf,687,-3.30346e-06,1.39466e-05,0,9.93814e-06,-1.31479e+09,-1.31249e+09,-1.31435e+09,1.32823e+06,0.0173736,0.196419,0,0.197186,-2282.43,-46688,-0,46743.8,1.32823e+06
step02_gravity_refstate-mantle.xmf,688,-2.16461e-07,7.21631e-06,0,5.60162e-06,-1.30513e+09,-1.30414e+09,-1.3051e+09,748656,0.0197917,0.146247,0,0.147581,-5008.96,-46393.1,-0,46662.7,748656
step02_gravity_refstate-mantle.xmf,689,6.00582e-10,6.71858e-06,0,4.90203e-06,-1.31418e+09,-1.31328e+09,-1.31418e+09,655157,0.0211369,0.134529,0,0.136179,-5660.48,-46672.7,-0,47014.7,655157
step02_gravity_refstate-mantle.xmf,690,1.4132e-07,6.34571e-06,0,4.30787e-06,-1.32507e+09,-1.32424e+09,-1.32508e+09,575747,0.0225129,0.123421,0,0.125458,-6326.34,-47009,-0,47432.8,575747
step02_gravity_refstate-mantle.xmf,691,2.37205e-07,6.02791e-06,0,3.80316e-06,-1.33465e+09,-1.33387e+09,-1.33468e+09,508292,0.0235561,0.113766,0,0.116179,-6978.55,-47304.7,-0,47816.7,508292
step02_gravity_refstate-mantle.xmf,692,4.01845e-07,5.32744e-06,0,2.87541e-06,-1.34198e+09,-1.34132e+09,-1.34203e+09,384299,0.0239796,0.0982687,0,0.101152,-8350.39,-47530.6,-0,48258.5,384299
step02_gravity_refstate-mantle.xmf,693,-2.34875e-06,1.24433e-05,0,8.78065e-06,-1.32303e+09,-1.32105e+09,-1.32272e+09,1.17353e+06,0.0196655,0.182431,0,0.183488,-2756.64,-46945.1,-0,47026,1.17353e+06
step02_gravity_refstate-mantle.xmf,694,5.3698e-07,4.48108e-06,0,1.63682e-06,-1.35273e+09,-1.35221e+09,-1.35281e+09,218761,0.0240069,0.0765781,0,0.0802529,-10864,-47861.6,-0,49079.1,218761
step02_gravity_refstate-mantle.xmf,695,7.82408e-07,3.86669e-06,0,6.03259e-07,-1.40794e+09,-1.40753e+09,-1.40804e+09,80625.5,0.0265596,0.0495775,0,0.0562436,-14765.2,-49566.8,-0,51719.3,80625.5
step02_gravity_refstate-mantle.xmf,696,7.06572e-07,3.99589e-06,0,8.06681e-07,-1.3899e+09,-1.38946e+09,-1.39e+09,107813,0.0258231,0.0559118,0,0.0615871,-13746.5,-49009.6,-0,50901,107813
step02_gravity_refstate-mantle.xmf,697,5.87332e-07,4.26807e-06,0,1.29781e-06,-1.36027e+09,-1.35978e+09,-1.36035e+09,173452,0.0242591,0.0694799,0,0.0735932,-11830.8,-48094.2,-0,49528,173452
step02_gravity_refstate-mantle.xmf,698,6.41072e-07,4.1268e-06,0,1.03742e-06,-1.37373e+09,-1.37326e+09,-1.37381e+09,138652,0.0250139,0.0625995,0,0.067412,-12766.4,-48509.8,-0,50161.6,138652
step02_gravity_refstate-mantle.xmf,699,1.25621e-06,3.15835e-06,0,-3.58547e-08,-1.5135e+09,-1.51325e+09,-1.51367e+09,-4791.98,0.0270042,0.0244085,0,0.0364006,-20554.5,-52829.1,-0,56686.9,4791.98
step02_gravity_refstate-mantle.xmf,700,1.51176e-06,2.95865e-06,0,-7.73503e-08,-1.61279e+09,-1.6126e+09,-1.613e+09,-10337.9,0.0264344,0.0125753,0,0.0292731,-23267,-55897.4,-0,60546.4,10337.9
step02_gravity_refstate-mantle.xmf,701,1.4258e-06,3.11639e-06,0,-5.11605e-08,-1.58923e+09,-1.58901e+09,-1.58943e+09,-6837.6,0.0279571,0.0157304,0,0.0320787,-21831.6,-55169.5,-0,59332,6837.6
step02_gravity_refstate-mantle.xmf,702,1.61228e-06,2.943e-06,0,-3.7234e-08,-1.69655e+09,-1.69637e+09,-1.69677e+09,-4976.32,0.0258607,0.00452583,0,0.0262537,-24416.7,-58485.2,-0,63377.4,4976.32
step02_gravity_refstate-mantle.xmf,703,1.63734e-06,2.95456e-06,0,7.85248e-10,-1.74558e+09,-1.7454e+09,-1.7458e+09,104.948,0.0250177,-6.22577e-20,0,0.0250177,-25049.3,-60000,-0,65019,104.948
step02_gravity_refstate-mantle.xmf,704,-4.32752e-06,1.43906e-05,0,-1.25562e-05,-1.29142e+09,-1.28892e+09,-1.29084e+09,-1.67814e+06,-0.0123464,0.219163,-0,0.219511,1820.29,-45960.3,0,45996.4,1.67814e+06
step02_gravity_refstate-mantle.xmf,705,-5.87858e-06,1.72e-05,0,-1.39194e-05,-1.30047e+09,-1.29738e+09,-1.29968e+09,-1.86033e+06,-0.0114915,0.22755,-0,0.22784,1409.23,-46236.7,0,46258.1,1.86033e+06
step02_gravity_refstate-mantle.xmf,706,-9.3871e-07,7.74656e-06,0,-7.7172e-06,-1.26579e+09,-1.26463e+09,-1.26566e+09,-1.0314e+06,-0.012466,0.17903,-0,0.179463,3730.77,-45174.3,0,45328.1,1.0314e+06
step02_gravity_refstate-mantle.xmf,707,-2.92642e-07,6.22173e-06,0,-5.67257e-06,-1.26363e+09,-1.26276e+09,-1.2636e+09,-758139,-0.0127425,0.156539,-0,0.157057,4910.82,-45108.2,0,45374.7,758139
step02_gravity_refstate-mantle.xmf,708,3.84212e-08,5.43362e-06,0,-4.23545e-06,-1.27051e+09,-1.26979e+09,-1.27051e+09,-566067,-0.0141618,0.136053,-0,0.136788,6127.25,-45320.7,0,45733,566067
step02_gravity_refstate-mantle.xmf,709,-8.85335e-08,3.68171e-06,0,-9.51711e-07,-1.24574e+09,-1.24523e+09,-1.24573e+09,-127196,-0.00984351,0.0845606,-0,0.0851316,11653,-44550.2,0,46049.1,127196
step02_gravity_refstate-mantle.xmf,710,4.67036e-08,3.61657e-06,0,-7.47126e-07,-1.26124e+09,-1.26076e+09,-1.26124e+09,-99853.5,-0.012052,0.0769609,-0,0.0778988,12586.5,-45029.7,0,46755.7,99853.5
step02_gravity_refstate-mantle.xmf,711,1.74853e-07,3.53846e-06,0,-5.58025e-07,-1.27659e+09,-1.27614e+09,-1.27661e+09,-74580,-0.0139213,0.0698183,-0,0.0711927,13580.5,-45504.5,0,47487.8,74580
step02_gravity_refstate-mantle.xmf,712,2.96157e-07,3.45378e-06,0,-3.92729e-07,-1.29234e+09,-1.29192e+09,-1.29238e+09,-52488.2,-0.0155324,0.0632291,-0,0.0651089,14608,-45991.8,0,48255.9,52488.2
step02_gravity_refstate-mantle.xmf,713,7.737e-08,3.86439e-06,0,-1.26538e-06,-1.26287e+09,-1.26236e+09,-1.26288e+09,-169118,-0.0123857,0.0883977,-0,0.0892612,10822.5,-45081,0,46361.8,169118
step02_gravity_refstate-mantle.xmf,714,1.89319e-07,5.19577e-06,0,-3.55072e-06,-1.28336e+09,-1.28269e+09,-1.28339e+09,-474554,-0.0162956,0.123213,-0,0.124286,6932.05,-45718.2,0,46240.7,474554
step02_gravity_refstate-mantle.xmf,715,1.15382e-07,4.18803e-06,0,-1.97394e-06,-1.26491e+09,-1.26436e+09,-1.26492e+09,-263817,-0.0128571,0.101757,-0,0.102566,9175,-45145,0,46067.9,263817
step02_gravity_refstate-mantle.xmf,716,2.36654e-07,4.55209e-06,0,-2.48107e-06,-1.28114e+09,-1.28057e+09,-1.28117e+09,-331594,-0.0156155,0.107026,-0,0.108159,8402.94,-45648.3,0,46415.2,331594
step02_gravity_refstate-mantle.xmf,717,4.18534e-07,3.1512e-06,0,-1.74249e-08,-1.30331e+09,-1.30295e+09,-1.30337e+09,-2328.84,-0.0156015,0.0512643,-0,0.0535858,17570.5,-46330.7,0,49550.6,2328.84
step02_gravity_refstate-mantle.xmf,718,1.17499e-06,2.64635e-06,0,2.38072e-07,-1.44487e+09,-1.44467e+09,-1.44503e+09,31818.4,-0.0192161,0.0261521,-0,0.0324529,24424.8,-50707.2,0,56283.1,31818.4
step02_gravity_refstate-mantle.xmf,719,1.40953e-06,2.47755e-06,0,2.02578e-07,-1.51588e+09,-1.51574e+09,-1.51607e+09,27074.5,-0.0176503,0.0183909,-0,0.0254904,27554.4,-52901.8,0,59647.7,27074.5
step02_gravity_refstate-mantle.xmf,720,1.32009e-06,2.57364e-06,0,2.20935e-07,-1.48652e+09,-1.48635e+09,-1.48669e+09,29527.9,-0.0191661,0.0217031,-0,0.0289545,25774,-51994.5,0,58032.1,29527.9
step02_gravity_refstate-mantle.xmf,721,1.5963e-06,2.45428e-06,0,1.16988e-07,-1.612e+09,-1.61188e+09,-1.61221e+09,15635.4,-0.016844,0.0104596,-0,0.0198274,29386.1,-55872,0,63128.6,15635.4
step02_gravity_refstate-mantle.xmf,722,1.66602e-06,2.51855e-06,0,5.79753e-08,-1.68169e+09,-1.68158e+09,-1.68192e+09,7748.4,-0.0171637,0.00506582,-0,0.0178957,29627.9,-58025.6,0,65152,7748.4
step02_gravity_refstate-mantle.xmf,723,1.68716e-06,2.55142e-06,0,-3.02802e-09,-1.7456e+09,-1.74549e+09,-1.74583e+09,-404.694,-0.0152692,-4.90137e-19,-0,0.0152692,30876.9,-60000,0,67478.7,404.694
step02_gravity_refstate-mantle.xmf,724,-7.87836e-06,2.06334e-05,0,1.58667e-05,-1.30911e+09,-1.3053e+09,-1.30806e+09,2.12059e+06,0.0097331,0.236359,0,0.236559,-1000,-46499.1,-0,46509.9,2.12059e+06
step02_gravity_refstate-mantle.xmf,725,2.99104e-07,5.7929e-06,0,3.40901e-06,-1.34357e+09,-1.34283e+09,-1.34361e+09,455614,0.0244233,0.105802,0,0.108585,-7561.03,-47580.1,-0,48177.1,455614
step02_gravity_refstate-mantle.xmf,726,-5.62565e-07,8.37221e-06,0,6.356e-06,-1.31749e+09,-1.3163e+09,-1.31742e+09,849479,0.0212392,0.152988,0,0.154456,-4414.28,-46775.5,-0,46983.4,849479
step02_gravity_refstate-mantle.xmf,727,-1.12441e-06,9.92621e-06,0,7.20303e-06,-1.32937e+09,-1.32789e+09,-1.32922e+09,962685,0.0220433,0.160904,0,0.162406,-3760.89,-47142.6,-0,47292.4,962685
step02_gravity_refstate-mantle.xmf,728,-1.78462e-06,1.1404e-05,0,8.01683e-06,-1.33059e+09,-1.32882e+09,-1.33035e+09,1.07145e+06,0.0212973,0.171255,0,0.172575,-3175.64,-47179.6,-0,47286.4,1.07145e+06
step02_gravity_refstate-mantle.xmf,729,8.66318e-07,3.73643e-06,0,4.27168e-07,-1.42729e+09,-1.4269e+09,-1.4274e+09,57091,0.0271505,0.0436989,0,0.0514465,-15812.6,-50164.8,-0,52597.9,57091
step02_gravity_refstate-mantle.xmf,730,1.15799e-06,3.30641e-06,0,4.2285e-08,-1.49102e+09,-1.49073e+09,-1.49118e+09,5651.4,0.0274865,0.0285591,0,0.0396375,-19284.6,-52134.4,-0,55586.8,5651.4
step02_gravity_refstate-mantle.xmf,731,1.05985e-06,3.45704e-06,0,1.47827e-07,-1.4697e+09,-1.46938e+09,-1.46984e+09,19757.1,0.027697,0.0331044,0,0.0431628,-18065.1,-51475.5,-0,54553.5,19757.1
step02_gravity_refstate-mantle.xmf,732,9.58761e-07,3.59953e-06,0,2.7447e-07,-1.4478e+09,-1.44745e+09,-1.44793e+09,36682.9,0.0275379,0.0382166,0,0.0471046,-16910.7,-50798.8,-0,53539.6,36682.9
step02_gravity_refstate-mantle.xmf,733,1.33067e-06,3.26454e-06,0,-5.99329e-09,-1.56293e+09,-1.56267e+09,-1.56311e+09,-801.003,0.0289024,0.0194997,0,0.0348653,-20557.4,-54356.7,-0,58114.2,801.003
step02_gravity_refstate-mantle.xmf,734,1.55109e-06,3.02846e-06,0,-5.29867e-08,-1.66002e+09,-1.65982e+09,-1.66022e+09,-7081.68,0.0272737,0.00820075,0,0.02848,-23273,-57356.5,-0,61898.3,7081.68
step02_gravity_refstate-mantle.xmf,735,-1.51476e-06,9.23598e-06,0,-8.72484e-06,-1.27722e+09,-1.27578e+09,-1.27701e+09,-1.16607e+06,-0.0138895,0.187751,-0,0.188264,3207.33,-45527.3,0,45640.1,1.16607e+06
step02_gravity_refstate-mantle.xmf,736,-2.30388e-06,1.10489e-05,0,-9.70906e-06,-1.28809e+09,-1.2863e+09,-1.28778e+09,-1.29762e+06,-0.0147529,0.196239,-0,0.196792,2711.3,-45862.4,0,45942.5,1.29762e+06
step02_gravity_refstate-mantle.xmf,737,-3.29008e-06,1.31776e-05,0,-1.06014e-05,-1.29846e+09,-1.29626e+09,-1.29802e+09,-1.41688e+06,-0.0150668,0.203882,-0,0.204438,2258.61,-46181.8,0,46237,1.41688e+06
step02_gravity_refstate-mantle.xmf,738,-7.8737e-06,2.06269e-05,0,-1.58429e-05,-1.30911e+09,-1.3053e+09,-1.30806e+09,-2.11741e+06,-0.00973188,0.236354,-0,0.236555,1000,-46499.1,0,46509.9,2.11741e+06
step02_gravity_refstate-mantle.xmf,739,-5.44562e-07,7.21954e-06,0,-6.52893e-06,-1.27496e+09,-1.27392e+09,-1.27489e+09,-872591,-0.014609,0.164633,-0,0.16528,4338.31,-45458.9,0,45665.4,872591
step02_gravity_refstate-mantle.xmf,740,-1.07478e-07,5.99047e-06,0,-5.03964e-06,-1.27217e+09,-1.27135e+09,-1.27215e+09,-673547,-0.0144344,0.146539,-0,0.147248,5412.45,-45372.4,0,45694.1,673547
step02_gravity_refstate-mantle.xmf,741,4.16042e-07,3.36555e-06,0,-2.50039e-07,-1.30913e+09,-1.30873e+09,-1.30918e+09,-33417.8,-0.016952,0.0571143,-0,0.059577,15666.8,-46510.8,0,49078.6,33417.8
step02_gravity_refstate-mantle.xmf,742,2.15978e-07,4.10885e-06,0,-1.654e-06,-1.279e+09,-1.27848e+09,-1.27903e+09,-221057,-0.01492,0.0927151,-0,0.0939079,10009.4,-45580.7,0,46666.8,221057
step02_gravity_refstate-mantle.xmf,743,2.89022e-07,5.02446e-06,0,-3.05489e-06,-1.2963e+09,-1.29567e+09,-1.29634e+09,-408287,-0.0181717,0.1126,-0,0.114057,7663.46,-46118,0,46750.4,408287
step02_gravity_refstate-mantle.xmf,744,1.0652e-06,2.74174e-06,0,2.26257e-07,-1.41901e+09,-1.41878e+09,-1.41915e+09,30239.2,-0.0195384,0.0297851,-0,0.0356216,23041.6,-49907.8,0,54970,30239.2
step02_gravity_refstate-mantle.xmf,745,9.54988e-07,2.84419e-06,0,1.95367e-07,-1.39634e+09,-1.39608e+09,-1.39647e+09,26110.8,-0.0196541,0.0335893,-0,0.0389169,21686.8,-49207.1,0,53774.1,26110.8
step02_gravity_refstate-mantle.xmf,746,5.21356e-07,3.27055e-06,0,-1.27066e-07,-1.32431e+09,-1.32394e+09,-1.32438e+09,-16982.4,-0.0179301,0.0517822,-0,0.0547985,16737.7,-46980.3,0,49872.9,16982.4
step02_gravity_refstate-mantle.xmf,747,6.12509e-07,3.1688e-06,0,-2.00663e-08,-1.33745e+09,-1.33711e+09,-1.33753e+09,-2681.86,-0.0184765,0.0471585,-0,0.0506488,17836.9,-47386.5,0,50632.3,2681.86
step02_gravity_refstate-mantle.xmf,748,7.15023e-07,3.05657e-06,0,7.51755e-08,-1.35298e+09,-1.35267e+09,-1.35308e+09,10047.2,-0.0189095,0.0425108,-0,0.0465267,19074.4,-47866.8,0,51527.3,10047.2
step02_gravity_refstate-mantle.xmf,749,8.37771e-07,2.94891e-06,0,1.46177e-07,-1.3743e+09,-1.37402e+09,-1.37441e+09,19536.5,-0.0194348,0.0378011,-0,0.0425045,20373.7,-48525.7,0,52629.2,19536.5
step02_gravity_refstate-mantle.xmf,750,1.30343e-06,2.69396e-06,0,1.99688e-07,-1.48964e+09,-1.48946e+09,-1.48982e+09,26688.3,-0.0212125,0.0225698,-0,0.0309736,24297,-52091.2,0,57479.1,26688.3
step02_gravity_refstate-mantle.xmf,751,1.54514e-06,2.51914e-06,0,1.46984e-07,-1.58321e+09,-1.58308e+09,-1.58342e+09,19644.4,-0.0189384,0.0131144,-0,0.0230359,27746.5,-54982.7,0,61587.1,19644.4
step02_gravity_refstate-mantle.xmf,752,4.58477e-07,5.07346e-06,0,2.38719e-06,-1.35552e+09,-1.3549e+09,-1.35558e+09,319048,0.0250747,0.0878422,0,0.0913509,-9290.68,-47948.6,-0,48840.4,319048
step02_gravity_refstate-mantle.xmf,753,5.01539e-07,4.89931e-06,0,2.02894e-06,-1.36924e+09,-1.36865e+09,-1.36931e+09,271168,0.0260837,0.0794198,0,0.0835935,-10112.3,-48372.3,-0,49418,271168
step02_gravity_refstate-mantle.xmf,754,-6.16784e-06,1.88927e-05,0,1.24284e-05,-1.31639e+09,-1.31304e+09,-1.31557e+09,1.66106e+06,0.0135698,0.218284,0,0.218705,-1420.42,-46731,-0,46752.6,1.66106e+06
step02_gravity_refstate-mantle.xmf,755,-4.45473e-06,1.65049e-05,0,1.05504e-05,-1.32387e+09,-1.32107e+09,-1.32328e+09,1.41006e+06,0.0167751,0.202451,0,0.203145,-1858.31,-46967.4,-0,47004.1,1.41006e+06
step02_gravity_refstate-mantle.xmf,756,-3.20557e-06,1.4461e-05,0,9.37209e-06,-1.33187e+09,-1.32951e+09,-1.33144e+09,1.25258e+06,0.0192806,0.188194,0,0.189179,-2313.3,-47217.5,-0,47274.1,1.25258e+06
step02_gravity_refstate-mantle.xmf,757,-2.7731e-07,7.7152e-06,0,5.5844e-06,-1.32777e+09,-1.3267e+09,-1.32774e+09,746356,0.0227625,0.140155,0,0.141991,-5065.15,-47093.3,-0,47364.9,746356
step02_gravity_refstate-mantle.xmf,758,-9.47986e-08,7.20885e-06,0,4.9499e-06,-1.33776e+09,-1.33678e+09,-1.33775e+09,661554,0.0240011,0.128901,0,0.131117,-5700.5,-47401.7,-0,47743.3,661554
step02_gravity_refstate-mantle.xmf,759,3.20634e-08,6.79104e-06,0,4.38705e-06,-1.34786e+09,-1.34695e+09,-1.34786e+09,586330,0.025078,0.118526,0,0.12115,-6348.07,-47713.5,-0,48133.9,586330
step02_gravity_refstate-mantle.xmf,760,1.38827e-07,6.40392e-06,0,3.87245e-06,-1.35646e+09,-1.35563e+09,-1.35648e+09,517554,0.0258762,0.109186,0,0.112211,-7013.38,-47979,-0,48488.9,517554
step02_gravity_refstate-mantle.xmf,761,2.36973e-07,6.03019e-06,0,3.3804e-06,-1.36397e+09,-1.36319e+09,-1.364e+09,451790,0.0264668,0.100412,0,0.103842,-7725.91,-48210.5,-0,48825.7,451790
step02_gravity_refstate-mantle.xmf,762,-2.40253e-06,1.28596e-05,0,8.46993e-06,-1.34004e+09,-1.338e+09,-1.33972e+09,1.13201e+06,0.0212927,0.17476,0,0.176053,-2807.15,-47471.2,-0,47554.1,1.13201e+06
step02_gravity_refstate-mantle.xmf,763,5.4696e-07,4.74294e-06,0,1.71117e-06,-1.38352e+09,-1.38296e+09,-1.38359e+09,228698,0.0270015,0.0716733,0,0.0765908,-10943,-48813.2,-0,50024.8,228698
step02_gravity_refstate-mantle.xmf,764,8.24076e-07,4.05368e-06,0,6.47551e-07,-1.44509e+09,-1.44466e+09,-1.4452e+09,86545.2,0.0292278,0.0448774,0,0.053556,-14807.6,-50715.2,-0,52832.7,86545.2
step02_gravity_refstate-mantle.xmf,765,7.43413e-07,4.21114e-06,0,8.64913e-07,-1.42678e+09,-1.42631e+09,-1.42688e+09,115596,0.0287324,0.0510438,0,0.0585749,-13791.4,-50149.5,-0,52011.2,115596
step02_gravity_refstate-mantle.xmf,766,6.72005e-07,4.36821e-06,0,1.11098e-06,-1.40964e+09,-1.40914e+09,-1.40973e+09,148482,0.0281059,0.0576649,0,0.0641497,-12810.8,-49619.9,-0,51246.9,148482
step02_gravity_refstate-mantle.xmf,767,6.09754e-07,4.53358e-06,0,1.38369e-06,-1.39494e+09,-1.39442e+09,-1.39502e+09,184930,0.0274762,0.0644804,0,0.0700904,-11880.4,-49165.9,-0,50580.9,184930
step02_gravity_refstate-mantle.xmf,768,1.22992e-06,3.42081e-06,0,6.59094e-08,-1.53821e+09,-1.53792e+09,-1.53838e+09,8808.79,0.0295431,0.0235685,0,0.0377924,-19339.2,-53592.9,-0,56975.4,8808.79
step02_gravity_refstate-mantle.xmf,769,1.37036e-06,3.39808e-06,0,1.52485e-08,-1.61402e+09,-1.61375e+09,-1.6142e+09,2037.97,0.0305477,0.0143537,0,0.0337519,-20438.1,-55935.5,-0,59552.5,2037.97
step02_gravity_refstate-mantle.xmf,770,1.47443e-06,3.23995e-06,0,-2.35253e-08,-1.64943e+09,-1.64919e+09,-1.64962e+09,-3144.15,0.0294656,0.00989088,0,0.0310814,-21714.2,-57029.5,-0,61023.5,3144.15
step02_gravity_refstate-mantle.xmf,771,1.5378e-06,3.2077e-06,0,-1.89202e-08,-1.70049e+09,-1.70027e+09,-1.7007e+09,-2528.69,0.0289468,0.00452621,0,0.0292985,-22476.6,-58607.2,-0,62769.4,2528.69
step02_gravity_refstate-mantle.xmf,772,1.58094e-06,3.16752e-06,0,1.59437e-10,-1.74558e+09,-1.74536e+09,-1.74579e+09,21.3087,0.0278778,-6.64759e-20,0,0.0278778,-23273,-60000,-0,64355.5,21.3087
step02_gravity_refstate-mantle.xmf,773,-4.55848e-06,1.57748e-05,0,-1.14836e-05,-1.30803e+09,-1.30531e+09,-1.30742e+09,-1.53479e+06,-0.0146847,0.211298,-0,0.211808,1823.66,-46475.4,0,46511.2,1.53479e+06
step02_gravity_refstate-mantle.xmf,774,-6.19032e-06,1.89567e-05,0,-1.24127e-05,-1.31679e+09,-1.31343e+09,-1.31597e+09,-1.65895e+06,-0.0135958,0.218155,-0,0.218578,1416.78,-46743.4,0,46764.8,1.65895e+06
step02_gravity_refstate-mantle.xmf,775,-9.58418e-07,8.48617e-06,0,-7.41676e-06,-1.28618e+09,-1.28492e+09,-1.28605e+09,-991250,-0.0161375,0.172902,-0,0.173653,3778.67,-45805.9,0,45961.5,991250
step02_gravity_refstate-mantle.xmf,776,-2.48333e-07,6.75346e-06,0,-5.63649e-06,-1.28376e+09,-1.28282e+09,-1.28372e+09,-753317,-0.0163923,0.152037,-0,0.152918,4937.56,-45731.4,0,45997.2,753317
step02_gravity_refstate-mantle.xmf,777,-1.86768e-08,6.28162e-06,0,-4.90706e-06,-1.29081e+09,-1.28997e+09,-1.29081e+09,-655829,-0.0176542,0.140484,-0,0.141589,5574.59,-45949.7,0,46286.6,655829
step02_gravity_refstate-mantle.xmf,778,2.03884e-07,3.80021e-06,0,-1.02679e-06,-1.27958e+09,-1.2791e+09,-1.2796e+09,-137231,-0.0146483,0.0800962,-0,0.0814247,11736.1,-45597.7,0,47083.8,137231
step02_gravity_refstate-mantle.xmf,779,3.19127e-07,3.7294e-06,0,-8.21583e-07,-1.29701e+09,-1.29656e+09,-1.29706e+09,-109805,-0.01667,0.0723834,-0,0.0742782,12675.2,-46137,0,47846.4,109805
step02_gravity_refstate-mantle.xmf,780,4.23749e-07,3.64748e-06,0,-6.3264e-07,-1.31379e+09,-1.31336e+09,-1.31384e+09,-84552.4,-0.0182911,0.0653529,-0,0.0678643,13646.4,-46655.6,0,48610.4,84552.4
step02_gravity_refstate-mantle.xmf,781,5.22943e-07,3.55598e-06,0,-4.60677e-07,-1.33065e+09,-1.33024e+09,-1.33072e+09,-61569.5,-0.0196221,0.0588329,-0,0.0620188,14664.1,-47176.8,0,49403.3,61569.5
step02_gravity_refstate-mantle.xmf,782,1.53518e-07,5.86207e-06,0,-4.21086e-06,-1.29852e+09,-1.29776e+09,-1.29855e+09,-562782,-0.0188252,0.128961,-0,0.130327,6285.75,-46188,0,46613.7,562782
step02_gravity_refstate-mantle.xmf,783,3.17157e-07,4.03382e-06,0,-1.37527e-06,-1.29485e+09,-1.29436e+09,-1.2949e+09,-183805,-0.0169525,0.0841079,-0,0.0857993,10874.7,-46071,0,47337.1,183805
step02_gravity_refstate-mantle.xmf,784,2.66871e-07,5.61561e-06,0,-3.67625e-06,-1.31079e+09,-1.31007e+09,-1.31082e+09,-491331,-0.0204836,0.118108,-0,0.119871,6974.57,-46566.9,0,47086.3,491331
step02_gravity_refstate-mantle.xmf,785,3.23488e-07,4.43898e-06,0,-2.11458e-06,-1.29477e+09,-1.29422e+09,-1.29481e+09,-282613,-0.0174673,0.0974593,-0,0.0990123,9209.12,-46069.5,0,46980.9,282613
step02_gravity_refstate-mantle.xmf,786,3.68791e-07,4.88049e-06,0,-2.64157e-06,-1.31039e+09,-1.30979e+09,-1.31044e+09,-353046,-0.0199653,0.102591,-0,0.104516,8419.59,-46553.5,0,47308.8,353046
step02_gravity_refstate-mantle.xmf,787,1.21684e-06,2.78167e-06,0,1.90847e-07,-1.46636e+09,-1.46615e+09,-1.46652e+09,25506.7,-0.0217749,0.0256978,-0,0.0336827,23080.7,-51371.6,0,56318.4,25506.7
step02_gravity_refstate-mantle.xmf,788,1.48485e-06,2.60313e-06,0,1.65642e-07,-1.5575e+09,-1.55735e+09,-1.55769e+09,22138,-0.0207286,0.0157849,-0,0.0260545,26183.9,-54188.1,0,60182.7,22138
step02_gravity_refstate-mantle.xmf,789,1.40972e-06,2.7019e-06,0,1.72256e-07,-1.53109e+09,-1.53092e+09,-1.53128e+09,23022.1,-0.022164,0.0188294,-0,0.0290825,24669.3,-53372.3,0,58797.8,23022.1
step02_gravity_refstate-mantle.xmf,790,1.62644e-06,2.57951e-06,0,9.34541e-08,-1.64327e+09,-1.64314e+09,-1.64349e+09,12490.1,-0.0198302,0.00837147,-0,0.0215248,27788.8,-56838.5,0,63268,12490.1
step02_gravity_refstate-mantle.xmf,791,1.68489e-06,2.65067e-06,0,-1.42755e-09,-1.7456e+09,-1.74547e+09,-1.74582e+09,-190.792,-0.0186916,-3.63796e-19,-0,0.0186916,28846.4,-60000,0,66574.1,190.792
step02_gravity_refstate-mantle.xmf,792,3.22143e-07,5.68941e-06,0,2.88878e-06,-1.37345e+09,-1.37273e+09,-1.37349e+09,386085,0.0271251,0.091236,0,0.0951829,-8535.37,-48503,-0,49248.3,386085
step02_gravity_refstate-mantle.xmf,793,-8.66593e-06,2.33828e-05,0,1.39808e-05,-1.32526e+09,-1.32097e+09,-1.3241e+09,1.86854e+06,0.0114572,0.225339,0,0.22563,-1000,-46999.6,-0,47010.3,1.86854e+06
step02_gravity_refstate-mantle.xmf,794,-7.06298e-07,8.9188e-06,0,6.28213e-06,-1.33979e+09,-1.33851e+09,-1.3397e+09,839607,0.0237181,0.146202,0,0.148113,-4465.46,-47464.9,-0,47674.5,839607
step02_gravity_refstate-mantle.xmf,795,-1.80538e-06,1.15194e-05,0,7.7144e-06,-1.34538e+09,-1.3436e+09,-1.34514e+09,1.03103e+06,0.0227385,0.163454,0,0.165028,-3315.68,-47636.8,-0,47752,1.03103e+06
step02_gravity_refstate-mantle.xmf,796,9.11615e-07,3.90533e-06,0,4.62973e-07,-1.46574e+09,-1.46534e+09,-1.46586e+09,61876.3,0.0296567,0.0390893,0,0.0490662,-15835.2,-51353.3,-0,53739.3,61876.3
step02_gravity_refstate-mantle.xmf,797,1.12476e-06,3.58954e-06,0,1.6796e-07,-1.5153e+09,-1.51497e+09,-1.51545e+09,22447.9,0.0299594,0.0279909,0,0.0410007,-18140.2,-52885,-0,55909.6,22447.9
step02_gravity_refstate-mantle.xmf,798,1.01257e-06,3.79752e-06,0,3.25723e-07,-1.49513e+09,-1.49476e+09,-1.49526e+09,43532.9,0.030348,0.0329819,0,0.0448197,-16839.9,-52261.5,-0,54907.6,43532.9
step02_gravity_refstate-mantle.xmf,799,1.2717e-06,3.55462e-06,0,7.78757e-08,-1.58726e+09,-1.58695e+09,-1.58743e+09,10408.1,0.0312848,0.0183017,0,0.0362449,-19324.6,-55108.5,-0,58398.5,10408.1
step02_gravity_refstate-mantle.xmf,800,-1.55786e-06,1.00369e-05,0,-8.31173e-06,-1.29649e+09,-1.29494e+09,-1.29628e+09,-1.11086e+06,-0.0170981,0.181374,-0,0.182178,3235.14,-46124.3,0,46237.6,1.11086e+06
step02_gravity_refstate-mantle.xmf,801,-2.33726e-06,1.1882e-05,0,-9.14636e-06,-1.30612e+09,-1.30422e+09,-1.30581e+09,-1.22241e+06,-0.0175059,0.189392,-0,0.1902,2729.66,-46421.4,0,46501.6,1.22241e+06
step02_gravity_refstate-mantle.xmf,802,-3.28074e-06,1.40354e-05,0,-9.8507e-06,-1.31543e+09,-1.31312e+09,-1.31499e+09,-1.31655e+06,-0.017417,0.196401,-0,0.197172,2271.37,-46708.2,0,46763.4,1.31655e+06
step02_gravity_refstate-mantle.xmf,803,-8.67092e-06,2.33724e-05,0,-1.39817e-05,-1.32526e+09,-1.32098e+09,-1.3241e+09,-1.86866e+06,-0.0114546,0.22534,-0,0.225631,1000,-46999.6,0,47010.3,1.86866e+06
step02_gravity_refstate-mantle.xmf,804,-5.30268e-07,7.82433e-06,0,-6.39904e-06,-1.29616e+09,-1.29504e+09,-1.29609e+09,-855232,-0.0182014,0.158962,-0,0.160001,4378.18,-46115.3,0,46322.7,855232
step02_gravity_refstate-mantle.xmf,805,6.20657e-07,3.45564e-06,0,-3.06357e-07,-1.34774e+09,-1.34736e+09,-1.34783e+09,-40944.7,-0.020682,0.0528036,-0,0.0567094,15730.8,-47705.3,0,50232,40944.7
step02_gravity_refstate-mantle.xmf,806,3.97085e-07,4.33369e-06,0,-1.78687e-06,-1.30922e+09,-1.30869e+09,-1.30927e+09,-238815,-0.019183,0.0884822,-0,0.0905377,10044.8,-46516.1,0,47588.3,238815
step02_gravity_refstate-mantle.xmf,807,3.3898e-07,5.40786e-06,0,-3.2176e-06,-1.32294e+09,-1.32226e+09,-1.32299e+09,-430032,-0.0219172,0.108363,-0,0.110557,7657.54,-46942.3,0,47562.7,430032
step02_gravity_refstate-mantle.xmf,808,1.11906e-06,2.88819e-06,0,1.61047e-07,-1.44313e+09,-1.44289e+09,-1.44328e+09,21524,-0.0221902,0.0293397,-0,0.0367862,21758.1,-50653.6,0,55129,21524
step02_gravity_refstate-mantle.xmf,809,1.0163e-06,3.00354e-06,0,1.09063e-07,-1.42114e+09,-1.42087e+09,-1.42127e+09,14576.3,-0.0223633,0.0333735,-0,0.0401735,20438.6,-49974,0,53992,14576.3
step02_gravity_refstate-mantle.xmf,810,7.1021e-07,3.34165e-06,0,-1.67625e-07,-1.36295e+09,-1.3626e+09,-1.36304e+09,-22403.1,-0.0212922,0.0474951,-0,0.0520494,16844,-48175.3,0,51035.1,22403.1
step02_gravity_refstate-mantle.xmf,811,8.06685e-07,3.23116e-06,0,-5.52279e-08,-1.38025e+09,-1.37993e+09,-1.38036e+09,-7381.21,-0.0218252,0.0425418,-0,0.0478136,17978.9,-48710.2,0,51922.3,7381.21
step02_gravity_refstate-mantle.xmf,812,9.1019e-07,3.11804e-06,0,3.73117e-08,-1.39982e+09,-1.39952e+09,-1.39994e+09,4986.71,-0.0222091,0.0378066,-0,0.0438472,19179.3,-49315,0,52913.2,4986.71
step02_gravity_refstate-mantle.xmf,813,1.33673e-06,2.8277e-06,0,1.54176e-07,-1.51226e+09,-1.51207e+09,-1.51244e+09,20605.6,-0.0235795,0.0216412,-0,0.0320052,23157.6,-52790.6,0,57646.5,20605.6
step02_gravity_refstate-mantle.xmf,814,1.57562e-06,2.65991e-06,0,1.1655e-07,-1.61335e+09,-1.61321e+09,-1.61356e+09,15576.9,-0.0218846,0.0112269,-0,0.0245963,26221.1,-55914.3,0,61757.2,15576.9
step02_gravity_refstate-mantle.xmf,815,1.6668e-06,2.66773e-06,0,4.24385e-08,-1.7004e+09,-1.70026e+09,-1.70062e+09,5671.9,-0.0207042,0.0037739,-0,0.0210453,27572.5,-58603.7,0,64766,5671.9
step02_gravity_refstate-mantle.xmf,816,3.82981e-07,5.43612e-06,0,2.46998e-06,-1.38564e+09,-1.38496e+09,-1.38569e+09,330113,0.0279263,0.0825594,0,0.0871546,-9340.06,-48879.4,-0,49763.7,330113
step02_gravity_refstate-mantle.xmf,817,4.37427e-07,5.22654e-06,0,2.10019e-06,-1.3994e+09,-1.39876e+09,-1.39946e+09,280690,0.0287458,0.0744127,0,0.079772,-10153.4,-49304.4,-0,50339,280690
step02_gravity_refstate-mantle.xmf,818,-5.92537e-06,2.00468e-05,0,1.07715e-05,-1.33289e+09,-1.32942e+09,-1.3321e+09,1.43961e+06,0.0153952,0.207976,0,0.208545,-1430.81,-47245.2,-0,47266.9,1.43961e+06
step02_gravity_refstate-mantle.xmf,819,-4.27728e-06,1.70034e-05,0,9.92274e-06,-1.3405e+09,-1.33766e+09,-1.33993e+09,1.32617e+06,0.0182011,0.193504,0,0.194358,-1871,-47483.5,-0,47520.4,1.32617e+06
step02_gravity_refstate-mantle.xmf,820,-3.34566e-06,1.48982e-05,0,9.02185e-06,-1.34855e+09,-1.34611e+09,-1.3481e+09,1.20577e+06,0.0204269,0.179781,0,0.180937,-2355.05,-47733,-0,47791.1,1.20577e+06
step02_gravity_refstate-mantle.xmf,821,-4.69094e-07,8.24949e-06,0,5.58632e-06,-1.35019e+09,-1.34903e+09,-1.35013e+09,746611,0.0250263,0.13419,0,0.136504,-5095.47,-47785.9,-0,48056.8,746611
step02_gravity_refstate-mantle.xmf,822,-2.97712e-07,7.70893e-06,0,4.98113e-06,-1.36013e+09,-1.35906e+09,-1.36009e+09,665728,0.0261027,0.123486,0,0.126214,-5720.76,-48092.6,-0,48431.7,665728
step02_gravity_refstate-mantle.xmf,823,-1.50388e-07,7.21763e-06,0,4.40793e-06,-1.3698e+09,-1.36881e+09,-1.36978e+09,589120,0.02703,0.113305,0,0.116485,-6388.76,-48391.1,-0,48811,589120
step02_gravity_refstate-mantle.xmf,824,8.49663e-08,6.39437e-06,0,3.38256e-06,-1.38885e+09,-1.388e+09,-1.38886e+09,452079,0.0285392,0.0947996,0,0.0990023,-7814.52,-48978.9,-0,49598.4,452079
step02_gravity_refstate-mantle.xmf,825,-2.38353e-08,6.78237e-06,0,3.88234e-06,-1.37897e+09,-1.37806e+09,-1.37896e+09,518875,0.027807,0.103924,0,0.10758,-7077.95,-48674,-0,49186,518875
step02_gravity_refstate-mantle.xmf,826,-1.31202e-06,1.03298e-05,0,6.92058e-06,-1.352e+09,-1.35044e+09,-1.35182e+09,924936,0.0241135,0.151342,0,0.153251,-3908.68,-47841.4,-0,48000.8,924936
step02_gravity_refstate-mantle.xmf,827,-2.69424e-06,1.32987e-05,0,8.19366e-06,-1.35647e+09,-1.35434e+09,-1.35611e+09,1.09508e+06,0.022237,0.167232,0,0.168704,-2856.51,-47978,-0,48063,1.09508e+06
step02_gravity_refstate-mantle.xmf,828,4.99729e-07,5.02109e-06,0,1.75417e-06,-1.41378e+09,-1.41317e+09,-1.41384e+09,234444,0.0294734,0.0666695,0,0.0728938,-11014.6,-49748.3,-0,50953,234444
step02_gravity_refstate-mantle.xmf,829,8.24703e-07,4.24925e-06,0,6.66829e-07,-1.48092e+09,-1.48046e+09,-1.48103e+09,89121.7,0.031409,0.0401922,0,0.0510092,-14834.2,-51822.6,-0,53903.9,89121.7
step02_gravity_refstate-mantle.xmf,830,7.32532e-07,4.43459e-06,0,8.89155e-07,-1.46261e+09,-1.46212e+09,-1.46271e+09,118836,0.0311026,0.0460737,0,0.0555892,-13838.1,-51256.8,-0,53091.9,118836
step02_gravity_refstate-mantle.xmf,831,6.46211e-07,4.62745e-06,0,1.14843e-06,-1.44522e+09,-1.44469e+09,-1.44531e+09,153488,0.0306655,0.0525173,0,0.0608148,-12854.5,-50719.5,-0,52323.1,153488
step02_gravity_refstate-mantle.xmf,832,5.69853e-07,4.81868e-06,0,1.43544e-06,-1.42873e+09,-1.42816e+09,-1.4288e+09,191847,0.0300962,0.0594027,0,0.0665918,-11917,-50210.1,-0,51604.9,191847
step02_gravity_refstate-mantle.xmf,833,1.16465e-06,3.72694e-06,0,1.70913e-07,-1.5622e+09,-1.56185e+09,-1.56235e+09,22842.6,0.0318094,0.0225782,0,0.0390079,-18207.4,-54334.1,-0,57303.6,22842.6
step02_gravity_refstate-mantle.xmf,834,1.27561e-06,3.70242e-06,0,7.29068e-08,-1.63388e+09,-1.63356e+09,-1.63405e+09,9743.99,0.0326634,0.0132144,0,0.0352351,-19180.4,-56549.1,-0,59713.4,9743.99
step02_gravity_refstate-mantle.xmf,835,1.38256e-06,3.52975e-06,0,2.22142e-08,-1.66096e+09,-1.66068e+09,-1.66115e+09,2968.93,0.0317732,0.00946645,0,0.0331535,-20226.9,-57385.9,-0,60846.3,2968.93
step02_gravity_refstate-mantle.xmf,836,1.43894e-06,3.48722e-06,0,3.44216e-09,-1.70108e+09,-1.7008e+09,-1.70127e+09,460.044,0.0313652,0.00485415,0,0.0317386,-20854.6,-58625.3,-0,62224.1,460.044
step02_gravity_refstate-mantle.xmf,837,1.49279e-06,3.43235e-06,0,-2.30213e-10,-1.74557e+09,-1.74531e+09,-1.74577e+09,-30.7679,0.0304933,-7.16205e-20,0,0.0304933,-21571.8,-60000,-0,63760.1,30.7679
step02_gravity_refstate-mantle.xmf,838,-4.43171e-06,1.66382e-05,0,-1.04138e-05,-1.3244e+09,-1.32158e+09,-1.32381e+09,-1.39181e+06,-0.0167604,0.202566,-0,0.203258,1842.31,-46984.2,0,47020.3,1.39181e+06
step02_gravity_refstate-mantle.xmf,839,-5.91243e-06,2.00264e-05,0,-1.07545e-05,-1.33303e+09,-1.32957e+09,-1.33224e+09,-1.43735e+06,-0.0154202,0.207834,-0,0.208405,1432.99,-47249.6,0,47271.3,1.43735e+06
step02_gravity_refstate-mantle.xmf,840,-9.74567e-07,9.14731e-06,0,-7.20413e-06,-1.30702e+09,-1.30567e+09,-1.30689e+09,-962832,-0.0193734,0.166693,-0,0.167815,3804.96,-46451.4,0,46607,962832
step02_gravity_refstate-mantle.xmf,841,-2.22309e-07,7.22242e-06,0,-5.57707e-06,-1.30508e+09,-1.30409e+09,-1.30505e+09,-745375,-0.0197833,0.146298,-0,0.147629,5006.54,-46391.5,0,46660.8,745375
step02_gravity_refstate-mantle.xmf,842,5.40458e-10,6.7188e-06,0,-4.90207e-06,-1.31418e+09,-1.31329e+09,-1.31418e+09,-655162,-0.0211374,0.134529,-0,0.13618,5660.4,-46672.9,0,47014.9,655162
step02_gravity_refstate-mantle.xmf,843,4.34281e-07,3.97452e-06,0,-1.13286e-06,-1.31675e+09,-1.31628e+09,-1.31681e+09,-151407,-0.0194079,0.0750399,-0,0.077509,11828.5,-46748,0,48221.2,151407
step02_gravity_refstate-mantle.xmf,844,6.85148e-07,3.69515e-06,0,-5.35835e-07,-1.36937e+09,-1.36897e+09,-1.36946e+09,-71614.3,-0.0233271,0.0542608,-0,0.0590626,14720.1,-48374.4,0,50564.4,71614.3
step02_gravity_refstate-mantle.xmf,845,5.21108e-07,3.89959e-06,0,-9.28119e-07,-1.33464e+09,-1.33419e+09,-1.33471e+09,-124043,-0.0210484,0.067676,-0,0.0708737,12723.6,-47301,0,48982.4,124043
step02_gravity_refstate-mantle.xmf,846,6.02814e-07,3.80199e-06,0,-7.23171e-07,-1.35178e+09,-1.35135e+09,-1.35186e+09,-96651.8,-0.0223027,0.0607264,-0,0.0646924,13698.5,-47830.7,0,49753.6,96651.8
step02_gravity_refstate-mantle.xmf,847,1.41306e-07,6.34575e-06,0,-4.3079e-06,-1.32507e+09,-1.32424e+09,-1.32508e+09,-575750,-0.0225129,0.123422,-0,0.125458,6326.31,-47009,0,47432.8,575750
step02_gravity_refstate-mantle.xmf,848,4.67017e-07,4.23002e-06,0,-1.50228e-06,-1.32378e+09,-1.32327e+09,-1.32384e+09,-200780,-0.0206819,0.0803457,-0,0.0829649,10883.5,-46965.9,0,48210.5,200780
step02_gravity_refstate-mantle.xmf,849,2.37183e-07,6.02799e-06,0,-3.80324e-06,-1.33465e+09,-1.33387e+09,-1.33468e+09,-508303,-0.0235561,0.113767,-0,0.11618,6978.45,-47304.7,0,47816.7,508303
step02_gravity_refstate-mantle.xmf,850,4.40394e-07,4.73595e-06,0,-2.26584e-06,-1.32486e+09,-1.32429e+09,-1.32492e+09,-302830,-0.0215505,0.0929424,-0,0.0954081,9237.02,-47000.6,0,47899.7,302830
step02_gravity_refstate-mantle.xmf,851,3.77698e-07,5.33597e-06,0,-2.85933e-06,-1.34198e+09,-1.34131e+09,-1.34203e+09,-382149,-0.0239797,0.0982898,-0,0.101173,8348.26,-47530.4,0,48257.9,382149
step02_gravity_refstate-mantle.xmf,852,1.24746e-06,2.94756e-06,0,1.23407e-07,-1.48925e+09,-1.48902e+09,-1.48941e+09,16493.3,-0.0243731,0.0251199,-0,0.0350008,21804.8,-52079.2,0,56459.7,16493.3
step02_gravity_refstate-mantle.xmf,853,1.51124e-06,2.7624e-06,0,1.25773e-07,-1.5858e+09,-1.58563e+09,-1.586e+09,16809.6,-0.0236469,0.0141899,-0,0.0275777,24702.6,-55063,0,60350.3,16809.6
step02_gravity_refstate-mantle.xmf,854,1.43568e-06,2.88386e-06,0,1.16844e-07,-1.56085e+09,-1.56066e+09,-1.56104e+09,15616.2,-0.0251107,0.0172777,-0,0.0304806,23248,-54292.2,0,59060.3,15616.2
step02_gravity_refstate-mantle.xmf,855,1.6317e-06,2.73855e-06,0,6.65387e-08,-1.6681e+09,-1.66795e+09,-1.66832e+09,8892.9,-0.0228562,0.00669189,-0,0.0238157,26107.7,-57606.1,0,63246.1,8892.9
step02_gravity_refstate-mantle.xmf,856,1.6704e-06,2.78331e-06,0,-6.71659e-10,-1.74559e+09,-1.74544e+09,-1.74581e+09,-89.7672,-0.0219467,-2.66821e-19,-0,0.0219467,26905.6,-60000,0,65756.4,89.7672
step02_gravity_refstate-mantle.xmf,857,1.67452e-07,6.08039e-06,0,2.92634e-06,-1.40087e+09,-1.40008e+09,-1.40089e+09,391106,0.0293302,0.0859108,0,0.0907796,-8575.87,-49350,-0,50089.6,391106
step02_gravity_refstate-mantle.xmf,858,-8.5753e-06,2.59314e-05,0,1.10431e-05,-1.34121e+09,-1.3366e+09,-1.34007e+09,1.47591e+06,0.0128111,0.213005,0,0.21339,-1000,-47499.6,-0,47510.1,1.47591e+06
step02_gravity_refstate-mantle.xmf,859,-9.86525e-07,9.44268e-06,0,6.177e-06,-1.36157e+09,-1.36018e+09,-1.36144e+09,825556,0.0254408,0.139154,0,0.14146,-4524.26,-48137,-0,48349.1,825556
step02_gravity_refstate-mantle.xmf,860,-2.15294e-06,1.19708e-05,0,7.4279e-06,-1.3642e+09,-1.36232e+09,-1.36392e+09,992739,0.0238013,0.155388,0,0.1572,-3390.68,-48217,-0,48336.1,992739
step02_gravity_refstate-mantle.xmf,861,9.14158e-07,4.08366e-06,0,4.94062e-07,-1.49866e+09,-1.49824e+09,-1.49878e+09,66031.4,0.0315643,0.0352291,0,0.0473011,-15760.9,-52370.8,-0,54691,66031.4
step02_gravity_refstate-mantle.xmf,862,1.05777e-06,3.89172e-06,0,2.9119e-07,-1.53687e+09,-1.53649e+09,-1.53701e+09,38917.5,0.0319889,0.0273615,0,0.0420944,-17150.1,-53551.4,-0,56230.6,38917.5
step02_gravity_refstate-mantle.xmf,863,1.1762e-06,3.88021e-06,0,1.50093e-07,-1.61254e+09,-1.61218e+09,-1.6127e+09,20059.9,0.0333366,0.0166404,0,0.037259,-18223.4,-55889.8,-0,58785.7,20059.9
step02_gravity_refstate-mantle.xmf,864,-1.595e-06,1.0715e-05,0,-8.03888e-06,-1.31534e+09,-1.3137e+09,-1.31513e+09,-1.0744e+06,-0.0197333,0.175236,-0,0.176344,3238.75,-46708.2,0,46820.3,1.0744e+06
step02_gravity_refstate-mantle.xmf,865,-2.345e-06,1.24753e-05,0,-8.74371e-06,-1.32328e+09,-1.3213e+09,-1.32296e+09,-1.1686e+06,-0.0196814,0.182431,-0,0.18349,2752.07,-46952.8,0,47033.4,1.1686e+06
step02_gravity_refstate-mantle.xmf,866,-3.20401e-06,1.44943e-05,0,-9.29837e-06,-1.33211e+09,-1.32974e+09,-1.33168e+09,-1.24273e+06,-0.0192924,0.188141,-0,0.189127,2310.78,-47224.9,0,47281.4,1.24273e+06
step02_gravity_refstate-mantle.xmf,867,-8.55187e-06,2.59216e-05,0,-1.10221e-05,-1.34121e+09,-1.3366e+09,-1.34007e+09,-1.47311e+06,-0.012811,0.213003,-0,0.213388,1000,-47499.6,0,47510.1,1.47311e+06
step02_gravity_refstate-mantle.xmf,868,-5.6953e-07,8.37825e-06,0,-6.31743e-06,-1.31753e+09,-1.31634e+09,-1.31746e+09,-844325,-0.0212447,0.152968,-0,0.154437,4414.85,-46776.8,0,46984.7,844325
step02_gravity_refstate-mantle.xmf,869,7.71055e-07,3.57873e-06,0,-3.68639e-07,-1.38712e+09,-1.38674e+09,-1.38722e+09,-49268.6,-0.024092,0.0483292,-0,0.0540013,15785.6,-48922.9,0,51406.6,49268.6
step02_gravity_refstate-mantle.xmf,870,4.91404e-07,4.59293e-06,0,-1.91646e-06,-1.33872e+09,-1.33818e+09,-1.33879e+09,-256135,-0.0228441,0.0841678,-0,0.0872128,10075.9,-47428.8,0,48487.2,256135
step02_gravity_refstate-mantle.xmf,871,2.99093e-07,5.79304e-06,0,-3.40915e-06,-1.34357e+09,-1.34283e+09,-1.34361e+09,-455633,-0.0244233,0.105804,-0,0.108586,7560.89,-47580.1,0,48177.1,455633
step02_gravity_refstate-mantle.xmf,872,1.15294e-06,3.07388e-06,0,7.07548e-08,-1.4671e+09,-1.46684e+09,-1.46725e+09,9456.38,-0.0248651,0.0289541,-0,0.0381656,20501.2,-51394.8,0,55332.8,9456.38
step02_gravity_refstate-mantle.xmf,873,1.05497e-06,3.20561e-06,0,-6.60433e-09,-1.44576e+09,-1.44548e+09,-1.44591e+09,-882.669,-0.0250822,0.0332141,-0,0.0416208,19229.2,-50735.5,0,54257.3,882.669
step02_gravity_refstate-mantle.xmf,874,8.60545e-07,3.45499e-06,0,-2.23702e-07,-1.40502e+09,-1.40468e+09,-1.40514e+09,-29897.8,-0.0245986,0.0429343,-0,0.0494817,16891.1,-49476.3,0,52280.2,29897.8
step02_gravity_refstate-mantle.xmf,875,9.56154e-07,3.33144e-06,0,-1.03502e-07,-1.42481e+09,-1.4245e+09,-1.42494e+09,-13833.1,-0.0249588,0.0378776,-0,0.0453614,18037.1,-50087.9,0,53236.6,13833.1
step02_gravity_refstate-mantle.xmf,876,1.3488e-06,3.01953e-06,0,8.72157e-08,-1.53681e+09,-1.53659e+09,-1.53699e+09,11656.4,-0.0262494,0.0206832,-0,0.0334189,21850.7,-53549.3,0,57835.8,11656.4
step02_gravity_refstate-mantle.xmf,877,1.57766e-06,2.83923e-06,0,8.1284e-08,-1.64006e+09,-1.63989e+09,-1.64027e+09,10863.6,-0.0247942,0.00951058,-0,0.0265557,24665.3,-56739.8,0,61869.1,10863.6
step02_gravity_refstate-mantle.xmf,878,1.65291e-06,2.81033e-06,0,2.97841e-08,-1.71401e+09,-1.71386e+09,-1.71423e+09,3980.64,-0.0233918,0.00277022,-0,0.0235553,25994.2,-59024.6,0,64494.9,3980.64
step02_gravity_refstate-mantle.xmf,879,2.34631e-07,5.82582e-06,0,2.51246e-06,-1.41533e+09,-1.41458e+09,-1.41536e+09,335790,0.0301873,0.0772343,0,0.0829242,-9361.84,-49796.4,-0,50668.8,335790
step02_gravity_refstate-mantle.xmf,880,3.06763e-07,5.59203e-06,0,2.12881e-06,-1.43118e+09,-1.43048e+09,-1.43122e+09,284515,0.0310155,0.0689052,0,0.0755638,-10183.6,-50286.1,-0,51306.9,284515
step02_gravity_refstate-mantle.xmf,881,-6.09891e-06,2.03738e-05,0,1.01828e-05,-1.34918e+09,-1.34564e+09,-1.34836e+09,1.36093e+06,0.0162434,0.197526,0,0.198193,-1443.48,-47748.1,-0,47769.9,1.36093e+06
step02_gravity_refstate-mantle.xmf,882,-4.75212e-06,1.75325e-05,0,9.44758e-06,-1.35724e+09,-1.35426e+09,-1.3566e+09,1.26267e+06,0.0187142,0.183903,0,0.184853,-1906.9,-47998.6,-0,48036.5,1.26267e+06
step02_gravity_refstate-mantle.xmf,883,-3.96764e-06,1.54939e-05,0,8.53932e-06,-1.36584e+09,-1.36323e+09,-1.3653e+09,1.14128e+06,0.0207597,0.17128,0,0.172534,-2378.99,-48264.3,-0,48322.9,1.14128e+06
step02_gravity_refstate-mantle.xmf,884,-7.63378e-07,8.77194e-06,0,5.53683e-06,-1.37175e+09,-1.37047e+09,-1.37165e+09,739997,0.0265904,0.12814,0,0.13087,-5124.33,-48451.2,-0,48721.4,739997
step02_gravity_refstate-mantle.xmf,885,-1.3967e-07,6.81238e-06,0,3.36952e-06,-1.41431e+09,-1.41338e+09,-1.41429e+09,450337,0.0301946,0.0893716,0,0.0943345,-7841.44,-49764.9,-0,50378.9,450337
step02_gravity_refstate-mantle.xmf,886,-5.80335e-07,8.19568e-06,0,4.93915e-06,-1.38233e+09,-1.38116e+09,-1.38225e+09,660117,0.0276378,0.117626,0,0.120829,-5754.68,-48777.8,-0,49116.1,660117
step02_gravity_refstate-mantle.xmf,887,-4.13889e-07,7.67541e-06,0,4.37823e-06,-1.39273e+09,-1.39165e+09,-1.39268e+09,585150,0.028571,0.107675,0,0.111401,-6421.61,-49098.9,-0,49517,585150
step02_gravity_refstate-mantle.xmf,888,-2.64704e-07,7.2113e-06,0,3.85624e-06,-1.40304e+09,-1.40204e+09,-1.403e+09,515387,0.0294014,0.0983333,0,0.102635,-7117.77,-49417,-0,49926.9,515387
step02_gravity_refstate-mantle.xmf,889,-1.71803e-06,1.08723e-05,0,6.69618e-06,-1.37295e+09,-1.37127e+09,-1.37272e+09,894944,0.0252152,0.143672,0,0.145868,-3963.06,-48487.3,-0,48648.9,894944
step02_gravity_refstate-mantle.xmf,890,-3.2672e-06,1.38517e-05,0,7.75627e-06,-1.37467e+09,-1.37238e+09,-1.37423e+09,1.03662e+06,0.0225938,0.159146,0,0.160742,-2886.63,-48537.6,-0,48623.3,1.03662e+06
step02_gravity_refstate-mantle.xmf,891,9.34825e-07,4.17348e-06,0,4.48609e-07,-1.53183e+09,-1.5314e+09,-1.53195e+09,59956.6,0.0328959,0.0303663,0,0.0447689,-16016.8,-53395.6,-0,55746.1,59956.6
step02_gravity_refstate-mantle.xmf,892,8.04521e-07,4.43117e-06,0,6.51563e-07,-1.51565e+09,-1.51517e+09,-1.51576e+09,87081.4,0.033141,0.0353636,0,0.0484656,-14891.5,-52895.7,-0,54951.9,87081.4
step02_gravity_refstate-mantle.xmf,893,3.86843e-07,5.35965e-06,0,1.77179e-06,-1.44709e+09,-1.44643e+09,-1.44714e+09,236800,0.0317141,0.0611631,0,0.0688964,-11043.5,-50777.5,-0,51964.5,236800
step02_gravity_refstate-mantle.xmf,894,6.8846e-07,4.66195e-06,0,8.81123e-07,-1.49778e+09,-1.49725e+09,-1.49787e+09,117762,0.0330304,0.0410103,0,0.0526579,-13871.9,-52343.5,-0,54150.5,117762
step02_gravity_refstate-mantle.xmf,895,5.77542e-07,4.89737e-06,0,1.14808e-06,-1.48039e+09,-1.47981e+09,-1.48047e+09,153441,0.0327461,0.0472308,0,0.0574722,-12881,-51806.2,-0,53383.5,153441
step02_gravity_refstate-mantle.xmf,896,4.75561e-07,5.13297e-06,0,1.44854e-06,-1.46352e+09,-1.4629e+09,-1.46358e+09,193598,0.0323039,0.0539853,0,0.0629123,-11931,-51284.9,-0,52654.5,193598
step02_gravity_refstate-mantle.xmf,897,1.05638e-06,4.08682e-06,0,2.58671e-07,-1.59038e+09,-1.58997e+09,-1.59052e+09,34571.4,0.0338851,0.0207223,0,0.0397192,-17175,-55204.9,-0,57814.9,34571.4
step02_gravity_refstate-mantle.xmf,898,1.18654e-06,4.00219e-06,0,9.45641e-08,-1.6669e+09,-1.66653e+09,-1.66706e+09,12638.5,0.0343354,0.0099447,0,0.0357466,-18303.3,-57569.4,-0,60409,12638.5
step02_gravity_refstate-mantle.xmf,899,1.29427e-06,3.84488e-06,0,3.26268e-08,-1.70427e+09,-1.70393e+09,-1.70444e+09,4360.57,0.0336114,0.00496152,0,0.0339756,-19229,-58724,-0,61792,4360.57
step02_gravity_refstate-mantle.xmf,900,1.36596e-06,3.75505e-06,0,-9.34108e-10,-1.74557e+09,-1.74525e+09,-1.74576e+09,-124.844,0.0328248,-7.50114e-20,0,0.0328248,-19941.4,-60000,-0,63227.1,124.844
step02_gravity_refstate-mantle.xmf,901,-4.34565e-06,1.70129e-05,0,-9.79686e-06,-1.34065e+09,-1.33779e+09,-1.34006e+09,-1.30935e+06,-0.0182163,0.193394,-0,0.19425,1872.95,-47487.5,0,47524.5,1.30935e+06
step02_gravity_refstate-mantle.xmf,902,-6.11172e-06,2.03999e-05,0,-1.01753e-05,-1.34925e+09,-1.34571e+09,-1.34843e+09,-1.35993e+06,-0.0162319,0.197518,-0,0.198184,1441.63,-47750.3,0,47772,1.35993e+06
step02_gravity_refstate-mantle.xmf,903,-1.12038e-06,9.91651e-06,0,-7.19918e-06,-1.32929e+09,-1.32781e+09,-1.32914e+09,-962170,-0.0220389,0.160868,-0,0.162371,3764.29,-47140.1,0,47290.1,962170
step02_gravity_refstate-mantle.xmf,904,-2.91858e-07,7.71738e-06,0,-5.56021e-06,-1.32778e+09,-1.32671e+09,-1.32774e+09,-743122,-0.0227633,0.140152,-0,0.141988,5065.25,-47093.5,0,47365.1,743122
step02_gravity_refstate-mantle.xmf,905,-9.48221e-08,7.20889e-06,0,-4.94991e-06,-1.33776e+09,-1.33678e+09,-1.33775e+09,-661555,-0.0240013,0.128901,-0,0.131117,5700.49,-47401.8,0,47743.3,661555
step02_gravity_refstate-mantle.xmf,906,5.72258e-07,4.26017e-06,0,-1.33307e-06,-1.35385e+09,-1.35336e+09,-1.35392e+09,-178164,-0.0236841,0.0712567,-0,0.0750897,11674.9,-47895.6,0,49298,178164
step02_gravity_refstate-mantle.xmf,907,7.82259e-07,3.8667e-06,0,-6.03445e-07,-1.40789e+09,-1.40748e+09,-1.408e+09,-80650.5,-0.0265569,0.0495878,-0,0.0562514,14764,-49565.4,0,51717.5,80650.5
step02_gravity_refstate-mantle.xmf,908,7.06348e-07,3.99479e-06,0,-8.06109e-07,-1.38975e+09,-1.38931e+09,-1.38984e+09,-107737,-0.0258091,0.0559287,-0,0.0615965,13747.1,-49004.7,0,50896.4,107737
step02_gravity_refstate-mantle.xmf,909,6.38794e-07,4.12416e-06,0,-1.03924e-06,-1.37276e+09,-1.37229e+09,-1.37284e+09,-138895,-0.0249324,0.0628035,-0,0.0675715,12750.7,-48479.9,0,50128.6,138895
step02_gravity_refstate-mantle.xmf,910,3.20445e-08,6.79107e-06,0,-4.38707e-06,-1.34786e+09,-1.34696e+09,-1.34786e+09,-586331,-0.025078,0.118526,-0,0.12115,6348.04,-47713.5,0,48133.9,586331
step02_gravity_refstate-mantle.xmf,911,5.33659e-07,4.52357e-06,0,-1.69147e-06,-1.35355e+09,-1.35301e+09,-1.35362e+09,-226065,-0.0241569,0.0772904,-0,0.0809775,10741.8,-47886.7,0,49076.7,226065
step02_gravity_refstate-mantle.xmf,912,1.38699e-07,6.40431e-06,0,-3.87281e-06,-1.35646e+09,-1.35563e+09,-1.35648e+09,-517601,-0.0258763,0.109192,-0,0.112216,7012.89,-47979,0,48488.8,517601
step02_gravity_refstate-mantle.xmf,913,4.57774e-07,5.07863e-06,0,-2.39373e-06,-1.35555e+09,-1.35493e+09,-1.35561e+09,-319922,-0.0250828,0.0879315,-0,0.091439,9279.19,-47949.5,0,48839.1,319922
step02_gravity_refstate-mantle.xmf,914,2.36508e-07,6.03166e-06,0,-3.38184e-06,-1.36397e+09,-1.3632e+09,-1.364e+09,-451983,-0.0264674,0.100433,-0,0.103862,7723.72,-48210.6,0,48825.4,451983
step02_gravity_refstate-mantle.xmf,915,1.25407e-06,3.15877e-06,0,3.58273e-08,-1.51279e+09,-1.51253e+09,-1.51296e+09,4788.32,-0.0269899,0.024496,-0,0.0364487,20541.1,-52807,0,56661.4,4788.32
step02_gravity_refstate-mantle.xmf,916,1.51146e-06,2.95878e-06,0,7.75805e-08,-1.61279e+09,-1.6126e+09,-1.613e+09,10368.6,-0.0264344,0.0125753,-0,0.0292731,23267,-55897.4,0,60546.4,10368.6
step02_gravity_refstate-mantle.xmf,917,1.42312e-06,3.11619e-06,0,5.19275e-08,-1.58793e+09,-1.5877e+09,-1.58812e+09,6940.11,-0.0279443,0.0158694,-0,0.032136,21815.1,-55129,0,59288.3,6940.11
step02_gravity_refstate-mantle.xmf,918,1.61211e-06,2.94387e-06,0,3.71759e-08,-1.69655e+09,-1.69638e+09,-1.69677e+09,4968.55,-0.0258725,0.00452666,-0,0.0262655,24409.4,-58485.4,0,63374.8,4968.55
step02_gravity_refstate-mantle.xmf,919,1.63737e-06,2.95453e-06,0,-7.82981e-10,-1.74558e+09,-1.7454e+09,-1.7458e+09,-104.645,-0.0250177,-4.36464e-19,-0,0.0250177,25049.3,-60000,0,65019,104.645
step02_gravity_refstate-mantle.xmf,920,-4.20293e-08,6.48314e-06,0,2.92051e-06,-1.4275e+09,-1.42662e+09,-1.42749e+09,390327,0.0310033,0.0806914,0,0.0864425,-8582.76,-50172.2,-0,50901,390327
step02_gravity_refstate-mantle.xmf,921,-9.61648e-06,2.42158e-05,0,8.76444e-06,-1.35778e+09,-1.35326e+09,-1.35649e+09,1.17137e+06,0.0124355,0.199588,0,0.199975,-1000,-48000,-0,48010.4,1.17137e+06
step02_gravity_refstate-mantle.xmf,922,-1.40502e-06,1.002e-05,0,6.02464e-06,-1.38317e+09,-1.38165e+09,-1.38299e+09,805194,0.026483,0.132406,0,0.135028,-4543.78,-48803,-0,49014.1,805194
step02_gravity_refstate-mantle.xmf,923,-2.69865e-06,1.25313e-05,0,7.05127e-06,-1.38386e+09,-1.38183e+09,-1.3835e+09,942402,0.0242122,0.147569,0,0.149542,-3417.89,-48822.1,-0,48941.6,942402
step02_gravity_refstate-mantle.xmf,924,9.17878e-07,4.33335e-06,0,4.12894e-07,-1.5693e+09,-1.56884e+09,-1.56942e+09,55183.2,0.0343014,0.0253518,0,0.0426533,-16059.9,-54553.5,-0,56868.3,55183.2
step02_gravity_refstate-mantle.xmf,925,1.0379e-06,4.24508e-06,0,2.08237e-07,-1.63466e+09,-1.63423e+09,-1.6348e+09,27830.8,0.0350376,0.0150554,0,0.0381353,-17149.6,-56572.9,-0,59115.2,27830.8
step02_gravity_refstate-mantle.xmf,926,-1.78801e-06,1.14125e-05,0,-8.01983e-06,-1.33065e+09,-1.32889e+09,-1.33041e+09,-1.07185e+06,-0.0212986,0.17128,-0,0.172599,3173.22,-47181.5,0,47288.1,1.07185e+06
step02_gravity_refstate-mantle.xmf,927,-2.45015e-06,1.2903e-05,0,-8.43784e-06,-1.34002e+09,-1.33796e+09,-1.33969e+09,-1.12772e+06,-0.0212652,0.17497,-0,0.176257,2796.81,-47470.3,0,47552.6,1.12772e+06
step02_gravity_refstate-mantle.xmf,928,-3.44257e-06,1.49285e-05,0,-8.93902e-06,-1.34875e+09,-1.34629e+09,-1.34829e+09,-1.1947e+06,-0.0204211,0.179765,-0,0.180921,2351.54,-47738.5,0,47796.4,1.1947e+06
step02_gravity_refstate-mantle.xmf,929,-9.43593e-06,2.45021e-05,0,-8.42208e-06,-1.35772e+09,-1.35318e+09,-1.35646e+09,-1.12561e+06,-0.0124223,0.199598,-0,0.199984,1000,-48000,0,48010.4,1.12561e+06
step02_gravity_refstate-mantle.xmf,930,-7.30343e-07,8.92265e-06,0,-6.25268e-06,-1.33981e+09,-1.33852e+09,-1.33971e+09,-835670,-0.0237199,0.146184,-0,0.148096,4466.38,-47465.2,0,47674.9,835670
step02_gravity_refstate-mantle.xmf,931,8.66277e-07,3.73645e-06,0,-4.27202e-07,-1.42728e+09,-1.42689e+09,-1.42739e+09,-57095.6,-0.02715,0.0437011,-0,0.0514481,15812.3,-50164.4,0,52597.5,57095.6
step02_gravity_refstate-mantle.xmf,932,5.00569e-07,4.90458e-06,0,-2.03843e-06,-1.36899e+09,-1.3684e+09,-1.36906e+09,-272436,-0.0260695,0.0796079,-0,0.0837677,10091.5,-48364.6,0,49406.2,272436
step02_gravity_refstate-mantle.xmf,933,3.01538e-07,5.69524e-06,0,-2.87979e-06,-1.37369e+09,-1.37297e+09,-1.37373e+09,-384884,-0.0271474,0.091212,-0,0.0951662,8533.28,-48510.4,0,49255.2,384884
step02_gravity_refstate-mantle.xmf,934,1.15729e-06,3.3061e-06,0,-4.19187e-08,-1.49081e+09,-1.49052e+09,-1.49096e+09,-5602.43,-0.0274776,0.0285833,-0,0.0396487,19283.1,-52127.8,0,55580.1,5602.43
step02_gravity_refstate-mantle.xmf,935,1.05981e-06,3.457e-06,0,-1.47675e-07,-1.4697e+09,-1.46938e+09,-1.46984e+09,-19736.8,-0.027697,0.0331046,-0,0.0431629,18065.1,-51475.5,0,54553.4,19736.8
step02_gravity_refstate-mantle.xmf,936,9.58773e-07,3.59951e-06,0,-2.74466e-07,-1.4478e+09,-1.44745e+09,-1.44793e+09,-36682.3,-0.0275377,0.0382172,-0,0.047105,16910.6,-50798.7,0,53539.5,36682.3
step02_gravity_refstate-mantle.xmf,937,1.32459e-06,3.26611e-06,0,5.74212e-09,-1.56048e+09,-1.56022e+09,-1.56065e+09,767.434,-0.0288759,0.0197942,-0,0.035009,20514.3,-54280.9,0,58028,767.434
step02_gravity_refstate-mantle.xmf,938,1.55052e-06,3.03131e-06,0,5.26808e-08,-1.66008e+09,-1.65988e+09,-1.66028e+09,7040.79,-0.0273086,0.00820303,-0,0.028514,23251,-57358.4,0,61891.8,7040.79
step02_gravity_refstate-mantle.xmf,939,1.67216e-09,6.28637e-06,0,2.50977e-06,-1.44844e+09,-1.4476e+09,-1.44844e+09,335431,0.0321206,0.0711529,0,0.0780671,-9345.83,-50819,-0,51671.2,335431
step02_gravity_refstate-mantle.xmf,940,1.22517e-07,5.97286e-06,0,2.08607e-06,-1.46472e+09,-1.46393e+09,-1.46473e+09,278803,0.0328736,0.0626557,0,0.0707559,-10227.2,-51321.7,-0,52330.8,278803
step02_gravity_refstate-mantle.xmf,941,-7.26493e-06,2.08871e-05,0,8.79532e-06,-1.36613e+09,-1.36236e+09,-1.36516e+09,1.1755e+06,0.015803,0.186426,0,0.187095,-1467.14,-48265.1,-0,48287.4,1.1755e+06
step02_gravity_refstate-mantle.xmf,942,-5.84172e-06,1.8092e-05,0,8.28393e-06,-1.37532e+09,-1.37212e+09,-1.37454e+09,1.10715e+06,0.0182561,0.17399,0,0.174945,-1910.93,-48551.5,-0,48589.1,1.10715e+06
step02_gravity_refstate-mantle.xmf,943,-4.74161e-06,1.59815e-05,0,7.69478e-06,-1.3844e+09,-1.38163e+09,-1.38377e+09,1.02841e+06,0.0204586,0.16214,0,0.163426,-2390.46,-48833.9,-0,48892.3,1.02841e+06
step02_gravity_refstate-mantle.xmf,944,-1.15066e-06,9.30702e-06,0,5.40401e-06,-1.39394e+09,-1.39254e+09,-1.39379e+09,722246,0.0276388,0.121669,0,0.124768,-5147.37,-49135.5,-0,49404.4,722246
step02_gravity_refstate-mantle.xmf,945,-4.01795e-07,7.22937e-06,0,3.321e-06,-1.43841e+09,-1.43739e+09,-1.43836e+09,443852,0.0313552,0.0842871,0,0.0899303,-7824.57,-50508.9,-0,51111.3,443852
step02_gravity_refstate-mantle.xmf,946,-5.59346e-07,7.6562e-06,0,3.77502e-06,-1.42772e+09,-1.42662e+09,-1.42764e+09,504531,0.0305849,0.0925017,0,0.0974269,-7136.35,-50178.6,-0,50683.5,504531
step02_gravity_refstate-mantle.xmf,947,-9.34302e-07,8.69312e-06,0,4.82417e-06,-1.4052e+09,-1.40392e+09,-1.40508e+09,644751,0.0287093,0.111389,0,0.11503,-5779.57,-49483.3,-0,49819.7,644751
step02_gravity_refstate-mantle.xmf,948,-7.39103e-07,8.14714e-06,0,4.28076e-06,-1.41654e+09,-1.41536e+09,-1.41645e+09,572124,0.0296948,0.101631,0,0.10588,-6444.58,-49833.5,-0,50248.5,572124
step02_gravity_refstate-mantle.xmf,949,-2.25286e-06,1.14641e-05,0,6.38675e-06,-1.39409e+09,-1.39225e+09,-1.39378e+09,853590,0.0256588,0.136304,0,0.138698,-3970.41,-49138.1,-0,49298.2,853590
step02_gravity_refstate-mantle.xmf,950,-3.95007e-06,1.44086e-05,0,7.1143e-06,-1.39407e+09,-1.39162e+09,-1.39354e+09,950826,0.0223387,0.150793,0,0.152439,-2882.17,-49133.8,-0,49218.3,950826
step02_gravity_refstate-mantle.xmf,951,7.70301e-07,4.61081e-06,0,6.02571e-07,-1.5522e+09,-1.55168e+09,-1.5523e+09,80533.6,0.0346067,0.0300683,0,0.0458446,-14964.9,-54024.8,-0,56059.2,80533.6
step02_gravity_refstate-mantle.xmf,952,6.23235e-07,4.88899e-06,0,8.34157e-07,-1.53394e+09,-1.53337e+09,-1.53402e+09,111485,0.0346284,0.0355557,0,0.049632,-13910,-53460.5,-0,55240.5,111485
step02_gravity_refstate-mantle.xmf,953,2.17093e-07,5.73563e-06,0,1.74475e-06,-1.48193e+09,-1.48119e+09,-1.48196e+09,233185,0.0335598,0.0552751,0,0.0646653,-11028.2,-51853.4,-0,53013.2,233185
step02_gravity_refstate-mantle.xmf,954,4.80721e-07,5.16975e-06,0,1.10341e-06,-1.51612e+09,-1.5155e+09,-1.51619e+09,147471,0.0344414,0.0415933,0,0.0540019,-12902.4,-52910.1,-0,54460.5,147471
step02_gravity_refstate-mantle.xmf,955,3.44769e-07,5.45089e-06,0,1.40707e-06,-1.49871e+09,-1.49802e+09,-1.49875e+09,188054,0.0340715,0.0481789,0,0.0590092,-11943.4,-52371.8,-0,53716.4,188054
step02_gravity_refstate-mantle.xmf,956,8.85093e-07,4.50998e-06,0,3.45485e-07,-1.61234e+09,-1.61186e+09,-1.61246e+09,46174,0.0355546,0.0194472,0,0.0405255,-16074.7,-55883.2,-0,58149.1,46174
step02_gravity_refstate-mantle.xmf,957,1.00648e-06,4.3836e-06,0,1.49296e-07,-1.67236e+09,-1.67191e+09,-1.6725e+09,19953.5,0.0357821,0.0101163,0,0.0371847,-17053.8,-57737.7,-0,60203.6,19953.5
step02_gravity_refstate-mantle.xmf,958,1.09574e-06,4.27228e-06,0,6.66092e-08,-1.70582e+09,-1.70539e+09,-1.70596e+09,8902.31,0.0354987,0.00530468,0,0.0358928,-17658.9,-58771.4,-0,61367.1,8902.31
step02_gravity_refstate-mantle.xmf,959,1.19273e-06,4.14232e-06,0,-1.46921e-09,-1.74558e+09,-1.74518e+09,-1.74574e+09,-196.36,0.0348268,-8.23099e-20,0,0.0348268,-18377.3,-60000,-0,62751.3,196.36
step02_gravity_refstate-mantle.xmf,960,-4.94941e-06,1.75588e-05,0,-9.27238e-06,-1.35731e+09,-1.3543e+09,-1.35665e+09,-1.23925e+06,-0.0186969,0.183948,-0,0.184896,1903.45,-47999.6,0,48037.4,1.23925e+06
step02_gravity_refstate-mantle.xmf,961,-7.38911e-06,2.10946e-05,0,-8.75045e-06,-1.36621e+09,-1.3624e+09,-1.36522e+09,-1.1695e+06,-0.0156267,0.186751,-0,0.187404,1443.7,-48267.4,0,48288.9,1.1695e+06
step02_gravity_refstate-mantle.xmf,962,-1.80677e-06,1.15229e-05,0,-7.71638e-06,-1.34537e+09,-1.34359e+09,-1.34513e+09,-1.03129e+06,-0.0227348,0.163484,-0,0.165058,3314.19,-47636.4,0,47751.5,1.03129e+06
step02_gravity_refstate-mantle.xmf,963,-1.31131e-06,1.0328e-05,0,-6.91902e-06,-1.35201e+09,-1.35046e+09,-1.35184e+09,-924727,-0.0241159,0.15132,-0,0.15323,3909.78,-47841.9,0,48001.3,924727
step02_gravity_refstate-mantle.xmf,964,-4.93086e-07,8.25154e-06,0,-5.56298e-06,-1.3502e+09,-1.34903e+09,-1.35013e+09,-743492,-0.0250263,0.13419,-0,0.136504,5095.47,-47785.9,0,48056.8,743492
step02_gravity_refstate-mantle.xmf,965,-2.9772e-07,7.70892e-06,0,-4.98111e-06,-1.36013e+09,-1.35906e+09,-1.36009e+09,-665726,-0.0261027,0.123486,-0,0.126214,5720.76,-48092.6,0,48431.7,665726
step02_gravity_refstate-mantle.xmf,966,5.49545e-07,4.72337e-06,0,-1.70845e-06,-1.3812e+09,-1.38064e+09,-1.38127e+09,-228334,-0.0267952,0.0720712,-0,0.0768911,10933.8,-48741.6,0,49952.9,228334
step02_gravity_refstate-mantle.xmf,967,8.23946e-07,4.05389e-06,0,-6.47864e-07,-1.44505e+09,-1.44462e+09,-1.44516e+09,-86587,-0.0292267,0.0448878,-0,0.0535641,14805.9,-50714.1,0,52831.1,86587
step02_gravity_refstate-mantle.xmf,968,7.4305e-07,4.21175e-06,0,-8.66018e-07,-1.42668e+09,-1.42621e+09,-1.42678e+09,-115743,-0.0287285,0.0510771,-0,0.0586021,13786.5,-50146.3,0,52006.9,115743
step02_gravity_refstate-mantle.xmf,969,6.0832e-07,4.53455e-06,0,-1.39318e-06,-1.39378e+09,-1.39325e+09,-1.39386e+09,-186199,-0.0273966,0.0648313,-0,0.0703824,11846.5,-49130,0,50538.1,186199
step02_gravity_refstate-mantle.xmf,970,6.71762e-07,4.36856e-06,0,-1.11192e-06,-1.4095e+09,-1.40901e+09,-1.40959e+09,-148608,-0.0280983,0.0577053,-0,0.0641827,12806.1,-49615.8,0,51241.8,148608
step02_gravity_refstate-mantle.xmf,971,-1.50423e-07,7.21771e-06,0,-4.40799e-06,-1.3698e+09,-1.36881e+09,-1.36978e+09,-589127,-0.0270299,0.113306,-0,0.116485,6388.68,-48391.1,0,48811,589127
step02_gravity_refstate-mantle.xmf,972,-2.39581e-08,6.78268e-06,0,-3.88262e-06,-1.37897e+09,-1.37806e+09,-1.37897e+09,-518912,-0.027807,0.103928,-0,0.107584,7077.56,-48674.1,0,49185.9,518912
step02_gravity_refstate-mantle.xmf,973,3.82743e-07,5.43707e-06,0,-2.47214e-06,-1.38553e+09,-1.38486e+09,-1.38559e+09,-330401,-0.0279191,0.0826133,-0,0.0872034,9335.33,-48876.1,0,49759.7,330401
step02_gravity_refstate-mantle.xmf,974,8.45539e-08,6.3955e-06,0,-3.38358e-06,-1.38885e+09,-1.38801e+09,-1.38886e+09,-452215,-0.0285395,0.0948136,-0,0.0990158,7812.95,-48979,0,49598.2,452215
step02_gravity_refstate-mantle.xmf,975,1.22406e-06,3.42313e-06,0,-6.8196e-08,-1.5359e+09,-1.53561e+09,-1.53607e+09,-9114.4,-0.0295059,0.0238786,-0,0.0379576,19293.3,-53521.5,0,56892.7,9114.4
step02_gravity_refstate-mantle.xmf,976,1.35987e-06,3.40545e-06,0,-1.81103e-08,-1.60917e+09,-1.6089e+09,-1.60936e+09,-2420.45,-0.0305677,0.0149493,-0,0.0340274,20335.2,-55785.7,0,59376.5,2420.45
step02_gravity_refstate-mantle.xmf,977,1.47223e-06,3.23896e-06,0,2.35331e-08,-1.64686e+09,-1.64662e+09,-1.64706e+09,3145.19,-0.0294693,0.0101648,-0,0.0311731,21681.6,-56950.2,0,60937.8,3145.19
step02_gravity_refstate-mantle.xmf,978,1.53711e-06,3.21064e-06,0,1.86445e-08,-1.70065e+09,-1.70042e+09,-1.70085e+09,2491.84,-0.0289746,0.00451447,-0,0.0293242,22459.3,-58612,0,62767.7,2491.84
step02_gravity_refstate-mantle.xmf,979,1.58103e-06,3.16742e-06,0,-1.62542e-10,-1.74558e+09,-1.74536e+09,-1.74579e+09,-21.7237,-0.0278778,-4.33572e-19,-0,0.0278778,23273,-60000,0,64355.5,21.7237
step02_gravity_refstate-mantle.xmf,980,-2.51608e-07,6.82488e-06,0,2.85636e-06,-1.45132e+09,-1.45037e+09,-1.45128e+09,381752,0.0321541,0.0756377,0,0.0821885,-8604.51,-50907.5,-0,51629.5,381752
step02_gravity_refstate-mantle.xmf,981,-8.97849e-06,2.28701e-05,0,7.16769e-06,-1.37309e+09,-1.36883e+09,-1.37189e+09,957962,0.0125625,0.186797,0,0.187219,-1118.55,-48473.6,-0,48486.6,957962
step02_gravity_refstate-mantle.xmf,982,-1.89901e-06,1.05848e-05,0,5.75842e-06,-1.40526e+09,-1.40359e+09,-1.40501e+09,769613,0.0269854,0.125332,0,0.128204,-4548.95,-49483.5,-0,49692.1,769613
step02_gravity_refstate-mantle.xmf,983,-3.32692e-06,1.30993e-05,0,6.52886e-06,-1.40463e+09,-1.40243e+09,-1.40418e+09,872582,0.0240213,0.139629,0,0.14168,-3399.56,-49460.8,-0,49577.5,872582
step02_gravity_refstate-mantle.xmf,984,7.13767e-07,4.81276e-06,0,5.25871e-07,-1.59221e+09,-1.59166e+09,-1.5923e+09,70282.7,0.0358932,0.0242167,0,0.0432986,-14977.7,-55260.9,-0,57254.7,70282.7
step02_gravity_refstate-mantle.xmf,985,8.47306e-07,4.66956e-06,0,2.57681e-07,-1.65394e+09,-1.65343e+09,-1.65406e+09,34439.1,0.0364301,0.0135743,0,0.0388769,-16054.2,-57168.4,-0,59379.8,34439.1
step02_gravity_refstate-mantle.xmf,986,-2.76328e-06,1.33173e-05,0,-8.13395e-06,-1.35653e+09,-1.35438e+09,-1.35616e+09,-1.0871e+06,-0.0222303,0.167266,-0,0.168737,2853.59,-47979.3,0,48064.1,1.0871e+06
step02_gravity_refstate-mantle.xmf,987,-4.05512e-06,1.5503e-05,0,-8.43892e-06,-1.36594e+09,-1.36333e+09,-1.3654e+09,-1.12786e+06,-0.0207584,0.171242,-0,0.172495,2378.75,-48267,0,48325.6,1.12786e+06
step02_gravity_refstate-mantle.xmf,988,-1.26211e-05,2.95924e-05,0,-5.05261e-06,-1.35798e+09,-1.35234e+09,-1.3563e+09,-675281,-0.00652905,0.206503,-0,0.206606,499.828,-48000,0,48002.6,675281
step02_gravity_refstate-mantle.xmf,989,-9.61256e-06,2.38942e-05,0,-6.76434e-06,-1.37208e+09,-1.3676e+09,-1.37079e+09,-904054,-0.0111974,0.189421,-0,0.189752,966.202,-48440.9,0,48450.5,904054
step02_gravity_refstate-mantle.xmf,990,-1.02054e-06,9.44424e-06,0,-6.14584e-06,-1.36157e+09,-1.36018e+09,-1.36144e+09,-821392,-0.0254408,0.139153,-0,0.141459,4524.4,-48136.9,0,48349.1,821392
step02_gravity_refstate-mantle.xmf,991,9.11616e-07,3.90531e-06,0,-4.62964e-07,-1.46574e+09,-1.46534e+09,-1.46586e+09,-61875.2,-0.0296567,0.0390896,-0,0.0490664,15835.1,-51353.3,0,53739.3,61875.2
step02_gravity_refstate-mantle.xmf,992,4.38207e-07,5.22324e-06,0,-2.10061e-06,-1.399e+09,-1.39836e+09,-1.39906e+09,-280746,-0.0287146,0.0744984,-0,0.0798407,10150.4,-49291.9,0,50326.2,280746
step02_gravity_refstate-mantle.xmf,993,1.48609e-07,6.08162e-06,0,-2.91558e-06,-1.40087e+09,-1.40008e+09,-1.40089e+09,-389667,-0.0293305,0.085922,-0,0.0907902,8574.46,-49350,0,50089.4,389667
step02_gravity_refstate-mantle.xmf,994,1.12231e-06,3.58963e-06,0,-1.70104e-07,-1.51398e+09,-1.51365e+09,-1.51413e+09,-22734.4,-0.0299231,0.0281798,-0,0.0411035,18117.4,-52844,0,55863.4,22734.4
step02_gravity_refstate-mantle.xmf,995,1.01213e-06,3.79948e-06,0,-3.26955e-07,-1.49516e+09,-1.49479e+09,-1.49529e+09,-43697.5,-0.030356,0.032993,-0,0.0448333,16833.5,-52262.4,0,54906.6,43697.5
step02_gravity_refstate-mantle.xmf,996,1.25839e-06,3.55101e-06,0,-8.01771e-08,-1.57997e+09,-1.57967e+09,-1.58014e+09,-10715.7,-0.0311596,0.0191934,-0,0.0365965,19245.1,-54883.4,0,58159.8,10715.7
step02_gravity_refstate-mantle.xmf,997,-1.35367e-05,3.13889e-05,0,1.58217e-08,-1.35803e+09,-1.35203e+09,-1.35622e+09,2114.57,-1.68682e-06,0.209096,-0,0.209096,1.02887e-10,-48000,0,48000,2114.57
step02_gravity_refstate-mantle.xmf,998,-1.28519e-05,2.98766e-05,0,5.14391e-06,-1.35801e+09,-1.3523e+09,-1.35629e+09,687483,0.00652397,0.206504,0,0.206607,-499.828,-48000,-0,48002.6,687483
step02_gravity_refstate-mantle.xmf,999,-1.25581e-05,2.81791e-05,0,2.1005e-06,-1.37203e+09,-1.36659e+09,-1.37035e+09,280732,0.00301859,0.195793,0,0.195816,-238.034,-48430.7,-0,48431.3,280732
step02_gravity_refstate-mantle.xmf,1000,-1.08357e-05,2.55819e-05,0,5.61864e-06,-1.37246e+09,-1.36759e+09,-1.37101e+09,750931,0.00866168,0.191905,0,0.1921,-720.061,-48448.8,-0,48454.2,750931
step02_gravity_refstate-mantle.xmf,1001,-1.28662e-05,2.86978e-05,0,-1.77154e-06,-1.37002e+09,-1.36447e+09,-1.3683e+09,-236767,-0.00226194,0.197787,-0,0.1978,176.968,-48367.9,0,48368.2,236767
step02_gravity_refstate-mantle.xmf,1002,-8.37925e-08,6.32951e-06,0,1.95833e-06,-1.49967e+09,-1.49882e+09,-1.49966e+09,261731,0.0343261,0.0556109,0,0.0653518,-10302.5,-52401,-0,53404.2,261731
step02_gravity_refstate-mantle.xmf,1003,-2.09709e-07,6.61497e-06,0,2.29298e-06,-1.4856e+09,-1.48469e+09,-1.48558e+09,306457,0.0337149,0.0622809,0,0.0708209,-9584.37,-51966.3,-0,52842.8,306457
step02_gravity_refstate-mantle.xmf,1004,-3.71886e-07,6.98681e-06,0,2.69067e-06,-1.4725e+09,-1.47152e+09,-1.47245e+09,359608,0.033022,0.0697946,0,0.0772123,-8800.65,-51561.5,-0,52307.1,359608
step02_gravity_refstate-mantle.xmf,1005,-7.91072e-06,2.06355e-05,0,6.93376e-06,-1.38422e+09,-1.3804e+09,-1.38316e+09,926697,0.0144864,0.175549,0,0.176145,-1421.76,-48818.9,-0,48839.6,926697
step02_gravity_refstate-mantle.xmf,1006,-6.41465e-06,1.80676e-05,0,6.91924e-06,-1.39454e+09,-1.39127e+09,-1.39369e+09,924756,0.0174061,0.163296,0,0.164221,-1912.86,-49141.3,-0,49178.5,924756
step02_gravity_refstate-mantle.xmf,1007,-5.28222e-06,1.61752e-05,0,6.75346e-06,-1.40228e+09,-1.39941e+09,-1.40157e+09,902600,0.0198318,0.153285,0,0.154563,-2392.55,-49383,-0,49440.9,902600
step02_gravity_refstate-mantle.xmf,1008,-5.90964e-07,7.4801e-06,0,3.15799e-06,-1.46075e+09,-1.45967e+09,-1.46067e+09,422066,0.0322209,0.0782227,0,0.0845989,-7954.77,-51198.4,-0,51812.7,422066
step02_gravity_refstate-mantle.xmf,1009,-1.60757e-06,9.85053e-06,0,5.17518e-06,-1.41712e+09,-1.41559e+09,-1.41691e+09,691663,0.0282059,0.11482,0,0.118233,-5148.02,-49849.9,-0,50115,691663
step02_gravity_refstate-mantle.xmf,1010,-8.64858e-07,8.06471e-06,0,3.61992e-06,-1.45261e+09,-1.45141e+09,-1.45249e+09,483802,0.031407,0.0862124,0,0.091755,-7166.38,-50946.4,-0,51448,483802
step02_gravity_refstate-mantle.xmf,1011,-1.11296e-06,8.62973e-06,0,4.10772e-06,-1.44167e+09,-1.44037e+09,-1.44152e+09,548997,0.0304289,0.0951074,0,0.0998566,-6447.07,-50608.4,-0,51017.4,548997
step02_gravity_refstate-mantle.xmf,1012,-1.34239e-06,9.19564e-06,0,4.62351e-06,-1.42918e+09,-1.42777e+09,-1.429e+09,617932,0.0293596,0.104706,0,0.108744,-5786.79,-50222.3,-0,50554.6,617932
step02_gravity_refstate-mantle.xmf,1013,-2.79675e-06,1.19724e-05,0,5.94524e-06,-1.41542e+09,-1.41345e+09,-1.41505e+09,794581,0.0256316,0.128644,0,0.131172,-3967.53,-49794.8,-0,49952.6,794581
step02_gravity_refstate-mantle.xmf,1014,-4.74933e-06,1.50169e-05,0,6.25097e-06,-1.41548e+09,-1.41283e+09,-1.41484e+09,835443,0.0211769,0.14256,0,0.144124,-2764.68,-49791.2,-0,49867.9,835443
step02_gravity_refstate-mantle.xmf,1015,5.36297e-07,5.12962e-06,0,7.48806e-07,-1.5727e+09,-1.57209e+09,-1.57277e+09,100078,0.0359811,0.0295445,0,0.0465566,-13914.9,-54658,-0,56401.4,100078
step02_gravity_refstate-mantle.xmf,1016,3.61887e-07,5.44762e-06,0,1.01451e-06,-1.55316e+09,-1.55248e+09,-1.55321e+09,135589,0.0358163,0.0355311,0,0.0504506,-12899.2,-54054,-0,55571.8,135589
step02_gravity_refstate-mantle.xmf,1017,2.78395e-08,6.08953e-06,0,1.64948e-06,-1.51633e+09,-1.51552e+09,-1.51633e+09,220453,0.0349343,0.0490237,0,0.0601975,-11022.7,-52915.6,-0,54051.5,220453
step02_gravity_refstate-mantle.xmf,1018,1.85918e-07,5.78156e-06,0,1.32468e-06,-1.53455e+09,-1.53381e+09,-1.53458e+09,177043,0.0354657,0.0421003,0,0.0550477,-11908.4,-53478.9,-0,54788.7,177043
step02_gravity_refstate-mantle.xmf,1019,6.55291e-07,4.99811e-06,0,4.18489e-07,-1.63244e+09,-1.63186e+09,-1.63253e+09,55931,0.0368487,0.0181297,0,0.0410672,-14972.1,-56503.7,-0,58453.7,55931
step02_gravity_refstate-mantle.xmf,1020,8.34714e-07,4.78205e-06,0,1.32377e-07,-1.70048e+09,-1.69996e+09,-1.7006e+09,17692.2,0.0369575,0.00673623,0,0.0375664,-16103.1,-58606.3,-0,60778.3,17692.2
step02_gravity_refstate-mantle.xmf,1021,9.66344e-07,4.60056e-06,0,-2.78293e-09,-1.74559e+09,-1.7451e+09,-1.74572e+09,-371.938,0.0364495,-1.0792e-19,0,0.0364495,-16875.3,-60000,-0,62328,371.938
step02_gravity_refstate-mantle.xmf,1022,-5.84475e-06,1.8112e-05,0,-8.18988e-06,-1.37573e+09,-1.37252e+09,-1.37494e+09,-1.09458e+06,-0.0182272,0.173799,-0,0.174752,1908.76,-48564,0,48601.5,1.09458e+06
step02_gravity_refstate-mantle.xmf,1023,-1.14303e-05,2.59217e-05,0,-4.09672e-06,-1.37741e+09,-1.37242e+09,-1.37589e+09,-547526,-0.00636682,0.18962,-0,0.189727,531.603,-48598.8,0,48601.7,547526
step02_gravity_refstate-mantle.xmf,1024,-7.99625e-06,2.07097e-05,0,-6.73093e-06,-1.38597e+09,-1.38214e+09,-1.3849e+09,-899589,-0.0141554,0.174791,-0,0.175363,1392.04,-48872.7,0,48892.5,899589
step02_gravity_refstate-mantle.xmf,1025,-2.15271e-06,1.197e-05,0,-7.42721e-06,-1.36421e+09,-1.36232e+09,-1.36392e+09,-992647,-0.023802,0.155383,-0,0.157195,3390.99,-48217.1,0,48336.2,992647
step02_gravity_refstate-mantle.xmf,1026,-1.71691e-06,1.08697e-05,0,-6.69511e-06,-1.37293e+09,-1.37125e+09,-1.3727e+09,-894802,-0.0252161,0.143666,-0,0.145862,3963.88,-48486.7,0,48648.5,894802
step02_gravity_refstate-mantle.xmf,1027,-7.9342e-07,8.77363e-06,0,-5.51037e-06,-1.37175e+09,-1.37047e+09,-1.37165e+09,-736461,-0.0265904,0.12814,-0,0.13087,5124.41,-48451.1,0,48721.4,736461
step02_gravity_refstate-mantle.xmf,1028,-5.80304e-07,8.19558e-06,0,-4.93907e-06,-1.38233e+09,-1.38116e+09,-1.38225e+09,-660107,-0.0276378,0.117625,-0,0.120829,5754.75,-48777.8,0,49116.1,660107
step02_gravity_refstate-mantle.xmf,1029,4.98879e-07,5.02374e-06,0,-1.76342e-06,-1.41306e+09,-1.41246e+09,-1.41313e+09,-235681,-0.0294316,0.0669295,-0,0.0731148,10989.4,-49726.2,0,50926.1,235681
step02_gravity_refstate-mantle.xmf,1030,8.24598e-07,4.24947e-06,0,-6.67075e-07,-1.4809e+09,-1.48044e+09,-1.48101e+09,-89154.5,-0.0314087,0.0401992,-0,0.0510146,14832.9,-51821.8,0,53902.8,89154.5
step02_gravity_refstate-mantle.xmf,1031,7.3212e-07,4.43559e-06,0,-8.90262e-07,-1.46254e+09,-1.46205e+09,-1.46264e+09,-118983,-0.0311017,0.0461008,-0,0.0556111,13833.4,-51254.6,0,53088.6,118983
step02_gravity_refstate-mantle.xmf,1032,6.44676e-07,4.63131e-06,0,-1.15325e-06,-1.445e+09,-1.44446e+09,-1.44508e+09,-154132,-0.0306611,0.052622,-0,0.060903,12838.1,-50712.6,0,52312.4,154132
step02_gravity_refstate-mantle.xmf,1033,5.6865e-07,4.8219e-06,0,-1.44024e-06,-1.42847e+09,-1.42791e+09,-1.42855e+09,-192488,-0.0300863,0.0595161,-0,0.0666885,11902.3,-50202.2,0,51593.9,192488
step02_gravity_refstate-mantle.xmf,1034,-4.13898e-07,7.67543e-06,0,-4.37825e-06,-1.39273e+09,-1.39165e+09,-1.39268e+09,-585153,-0.0285709,0.107676,-0,0.111402,6421.57,-49098.9,0,49517,585153
step02_gravity_refstate-mantle.xmf,1035,-2.6469e-07,7.21129e-06,0,-3.85623e-06,-1.40304e+09,-1.40204e+09,-1.403e+09,-515386,-0.0294015,0.0983333,-0,0.102635,7117.78,-49417,0,49926.9,515386
step02_gravity_refstate-mantle.xmf,1036,2.37786e-07,5.81994e-06,0,-2.51347e-06,-1.41481e+09,-1.41406e+09,-1.41484e+09,-335925,-0.030153,0.0773413,-0,0.0830113,9359.83,-49780.5,0,50652.8,335925
step02_gravity_refstate-mantle.xmf,1037,-1.39663e-07,6.81237e-06,0,-3.36951e-06,-1.41431e+09,-1.41338e+09,-1.41429e+09,-450335,-0.0301946,0.0893716,-0,0.0943345,7841.44,-49764.9,0,50378.9,450335
step02_gravity_refstate-mantle.xmf,1038,1.16176e-06,3.71542e-06,0,-1.70637e-07,-1.55835e+09,-1.55801e+09,-1.55851e+09,-22805.7,-0.03168,0.0230342,-0,0.0391688,18198.1,-54215.3,0,57188,22805.7
step02_gravity_refstate-mantle.xmf,1039,1.24755e-06,3.73734e-06,0,-9.4433e-08,-1.62246e+09,-1.62213e+09,-1.62263e+09,-12621,-0.0327587,0.0147738,-0,0.035936,18903,-56196.3,0,59290.4,12621
step02_gravity_refstate-mantle.xmf,1040,1.34838e-06,3.60398e-06,0,-3.58866e-08,-1.65743e+09,-1.65713e+09,-1.65761e+09,-4796.24,-0.0322075,0.0100644,-0,0.0337433,19866,-57276.7,0,60624.1,4796.24
step02_gravity_refstate-mantle.xmf,1041,1.43345e-06,3.50074e-06,0,-4.96937e-09,-1.7e+09,-1.69973e+09,-1.70019e+09,-664.156,-0.0314666,0.00499062,-0,0.0318599,20777.7,-58592.1,0,62167.1,664.156
step02_gravity_refstate-mantle.xmf,1042,1.4933e-06,3.43173e-06,0,2.8857e-10,-1.74557e+09,-1.74531e+09,-1.74577e+09,38.5674,-0.0304933,-4.78357e-19,-0,0.0304933,21571.8,-60000,0,63760.1,38.5674
step02_gravity_refstate-mantle.xmf,1043,-9.53481e-06,2.30331e-05,0,5.64767e-06,-1.38409e+09,-1.37974e+09,-1.38282e+09,754811,0.0104691,0.180842,0,0.181145,-957.822,-48810.3,-0,48819.7,754811
step02_gravity_refstate-mantle.xmf,1044,-2.38888e-06,1.10762e-05,0,5.38841e-06,-1.42739e+09,-1.42559e+09,-1.42707e+09,720160,0.0270529,0.11801,0,0.121071,-4543.65,-50165,-0,50370.4,720160
step02_gravity_refstate-mantle.xmf,1045,-3.85844e-06,1.34671e-05,0,5.86919e-06,-1.42563e+09,-1.42331e+09,-1.42511e+09,784417,0.0235299,0.131153,0,0.133247,-3390.62,-50106.8,-0,50221.4,784417
step02_gravity_refstate-mantle.xmf,1046,-2.82728e-07,6.63875e-06,0,1.80214e-06,-1.53063e+09,-1.5297e+09,-1.53059e+09,240856,0.0352744,0.0493158,0,0.0606327,-10322.8,-53356.8,-0,54346.2,240856
step02_gravity_refstate-mantle.xmf,1047,4.42997e-07,5.35972e-06,0,6.25261e-07,-1.61219e+09,-1.61153e+09,-1.61225e+09,83566.1,0.0370145,0.0231953,0,0.0436817,-13893.3,-55877.7,-0,57579,83566.1
step02_gravity_refstate-mantle.xmf,1048,6.00975e-07,5.16075e-06,0,2.86066e-07,-1.67218e+09,-1.67157e+09,-1.67226e+09,38232.7,0.0374977,0.0119305,0,0.0393499,-14942.8,-57731.3,-0,59633.8,38232.7
step02_gravity_refstate-mantle.xmf,1049,-3.32117e-06,1.38514e-05,0,-7.68822e-06,-1.37475e+09,-1.37246e+09,-1.37431e+09,-1.02753e+06,-0.0225963,0.159102,-0,0.160699,2887.42,-48539.8,0,48625.6,1.02753e+06
step02_gravity_refstate-mantle.xmf,1050,-4.74439e-06,1.5957e-05,0,-7.61953e-06,-1.38476e+09,-1.382e+09,-1.38413e+09,-1.01835e+06,-0.0204887,0.161839,-0,0.163131,2399.09,-48845,0,48903.9,1.01835e+06
step02_gravity_refstate-mantle.xmf,1051,-9.68388e-06,2.3057e-05,0,-5.26533e-06,-1.38679e+09,-1.38241e+09,-1.3855e+09,-703712,-0.00995689,0.179318,-0,0.179594,917.901,-48892.7,0,48901.4,703712
step02_gravity_refstate-mantle.xmf,1052,-1.43991e-06,1.00188e-05,0,-5.99041e-06,-1.38317e+09,-1.38164e+09,-1.38298e+09,-800618,-0.0264838,0.132399,-0,0.135021,4544.63,-48802.6,0,49013.8,800618
step02_gravity_refstate-mantle.xmf,1053,9.14224e-07,4.08363e-06,0,-4.94107e-07,-1.49866e+09,-1.49824e+09,-1.49878e+09,-66037.4,-0.0315643,0.0352294,-0,0.0473014,15760.9,-52370.7,0,54690.9,66037.4
step02_gravity_refstate-mantle.xmf,1054,3.08222e-07,5.58928e-06,0,-2.12969e-06,-1.43089e+09,-1.43019e+09,-1.43093e+09,-284633,-0.0309975,0.0689663,-0,0.0756122,10181.8,-50277.2,0,51297.8,284633
step02_gravity_refstate-mantle.xmf,1055,-5.74529e-08,6.48385e-06,0,-2.90944e-06,-1.4275e+09,-1.42662e+09,-1.42749e+09,-388847,-0.0310033,0.0806914,-0,0.0864425,8582.76,-50172.2,0,50901,388847
step02_gravity_refstate-mantle.xmf,1056,1.0552e-06,3.90295e-06,0,-2.92821e-07,-1.53842e+09,-1.53804e+09,-1.53856e+09,-39135.5,-0.0320761,0.027216,-0,0.0420665,17128.7,-53599.3,0,56269.7,39135.5
step02_gravity_refstate-mantle.xmf,1057,1.17131e-06,3.812e-06,0,-1.51746e-07,-1.59348e+09,-1.59313e+09,-1.59364e+09,-20280.9,-0.0328091,0.0189044,-0,0.0378657,18226.7,-55300.8,0,58227,20280.9
step02_gravity_refstate-mantle.xmf,1058,-1.17787e-05,2.61659e-05,0,-8.68727e-07,-1.38408e+09,-1.37901e+09,-1.3825e+09,-116105,-0.00117378,0.186035,-0,0.186039,99.7643,-48802.9,0,48803,116105
step02_gravity_refstate-mantle.xmf,1059,-1.08762e-05,2.44873e-05,0,2.93122e-06,-1.38926e+09,-1.38454e+09,-1.38781e+09,391758,0.00542202,0.180662,0,0.180744,-485.045,-48964.8,-0,48967.2,391758
step02_gravity_refstate-mantle.xmf,1060,-4.37213e-07,6.95716e-06,0,2.12102e-06,-1.517e+09,-1.51601e+09,-1.51694e+09,283474,0.0346702,0.0554925,0,0.0654327,-9623.65,-52935.4,-0,53803.1,283474
step02_gravity_refstate-mantle.xmf,1061,-6.36184e-07,7.36241e-06,0,2.50345e-06,-1.5031e+09,-1.50203e+09,-1.50302e+09,334586,0.0339061,0.0627976,0,0.0713664,-8836.8,-52506,-0,53244.4,334586
step02_gravity_refstate-mantle.xmf,1062,-8.93918e-07,7.87803e-06,0,2.94118e-06,-1.4903e+09,-1.48913e+09,-1.49018e+09,393089,0.032983,0.0709507,0,0.0782424,-7994.17,-52110.1,-0,52719.7,393089
step02_gravity_refstate-mantle.xmf,1063,-6.31059e-06,1.72763e-05,0,5.83722e-06,-1.41645e+09,-1.4133e+09,-1.41561e+09,780144,0.0173003,0.149709,0,0.150705,-2062.9,-49816.8,-0,49859.5,780144
step02_gravity_refstate-mantle.xmf,1064,-9.1471e-06,2.16876e-05,0,4.6645e-06,-1.39954e+09,-1.39541e+09,-1.39831e+09,623410,0.0101427,0.169781,0,0.170083,-1005.1,-49286.5,-0,49296.8,623410
step02_gravity_refstate-mantle.xmf,1065,-7.63734e-06,1.93338e-05,0,5.47942e-06,-1.40819e+09,-1.40458e+09,-1.40717e+09,732325,0.0139505,0.159775,0,0.160383,-1516.69,-49557.8,-0,49581,732325
step02_gravity_refstate-mantle.xmf,1066,-1.20116e-06,8.47984e-06,0,3.38679e-06,-1.47985e+09,-1.47856e+09,-1.47969e+09,452644,0.0319513,0.0791503,0,0.0853561,-7180.84,-51786.8,-0,52282.3,452644
step02_gravity_refstate-mantle.xmf,1067,-2.04576e-06,1.03161e-05,0,4.85605e-06,-1.44014e+09,-1.43849e+09,-1.43986e+09,649011,0.0283827,0.10766,0,0.111339,-5148.97,-50559.1,-0,50820.6,649011
step02_gravity_refstate-mantle.xmf,1068,-1.47854e-06,9.05877e-06,0,3.85241e-06,-1.46726e+09,-1.46586e+09,-1.46707e+09,514874,0.030825,0.0880635,0,0.0933025,-6454.68,-51397.6,-0,51801.3,514874
step02_gravity_refstate-mantle.xmf,1069,-1.75843e-06,9.66691e-06,0,4.3421e-06,-1.45392e+09,-1.45239e+09,-1.45368e+09,580321,0.0296273,0.0975917,0,0.10199,-5778.44,-50985,-0,51311.4,580321
step02_gravity_refstate-mantle.xmf,1070,-3.25068e-06,1.23272e-05,0,5.42045e-06,-1.43673e+09,-1.43465e+09,-1.43629e+09,724443,0.0253316,0.120624,0,0.123255,-3972.01,-50450.9,-0,50607,724443
step02_gravity_refstate-mantle.xmf,1071,-4.9377e-06,1.4883e-05,0,5.48152e-06,-1.4357e+09,-1.43305e+09,-1.43504e+09,732605,0.0208098,0.1324,0,0.134026,-2845.55,-50414.2,-0,50494.5,732605
step02_gravity_refstate-mantle.xmf,1072,2.32741e-07,5.72009e-06,0,8.76359e-07,-1.59187e+09,-1.59114e+09,-1.5919e+09,117125,0.0368913,0.0289187,0,0.0468749,-12876.6,-55249.6,-0,56730.3,117125
step02_gravity_refstate-mantle.xmf,1073,1.17765e-08,6.10659e-06,0,1.17901e-06,-1.57193e+09,-1.57111e+09,-1.57193e+09,157575,0.0365335,0.0353934,0,0.0508664,-11863.8,-54633,-0,55906.3,157575
step02_gravity_refstate-mantle.xmf,1074,-2.45552e-07,6.56441e-06,0,1.55673e-06,-1.5526e+09,-1.55169e+09,-1.55256e+09,208057,0.0359421,0.0429003,0,0.0559667,-10790.2,-54035.4,-0,55102.2,208057
step02_gravity_refstate-mantle.xmf,1075,3.59418e-07,5.55795e-06,0,4.68522e-07,-1.65134e+09,-1.65064e+09,-1.65138e+09,62618,0.0377335,0.0166503,0,0.0412438,-13859.4,-57086.9,-0,58745.2,62618
step02_gravity_refstate-mantle.xmf,1076,4.99504e-07,5.39825e-06,0,1.54403e-07,-1.70985e+09,-1.70919e+09,-1.70991e+09,20636,0.0380002,0.00601195,0,0.0384729,-14634.6,-58894.8,-0,60685.8,20636
step02_gravity_refstate-mantle.xmf,1077,6.83044e-07,5.12944e-06,0,-2.28628e-09,-1.74561e+09,-1.74501e+09,-1.7457e+09,-305.561,0.037638,-1.00197e-19,0,0.037638,-15431.1,-60000,-0,61952.6,305.561
step02_gravity_refstate-mantle.xmf,1078,-6.27285e-06,1.79529e-05,0,-6.92398e-06,-1.39522e+09,-1.39198e+09,-1.39438e+09,-925389,-0.0175449,0.162573,-0,0.163517,1939.97,-49162.9,0,49201.2,925389
step02_gravity_refstate-mantle.xmf,1079,-1.05882e-05,2.39017e-05,0,-3.00888e-06,-1.39324e+09,-1.38863e+09,-1.39183e+09,-402137,-0.00576112,0.177451,-0,0.177544,528.956,-49088.2,0,49091,402137
step02_gravity_refstate-mantle.xmf,1080,-9.00779e-06,2.15087e-05,0,-4.78751e-06,-1.39977e+09,-1.39569e+09,-1.39856e+09,-639850,-0.0105152,0.169274,-0,0.169601,1047.82,-49294.2,0,49305.3,639850
step02_gravity_refstate-mantle.xmf,1081,-2.69703e-06,1.25251e-05,0,-7.04893e-06,-1.38381e+09,-1.38178e+09,-1.38345e+09,-942090,-0.0242137,0.147582,-0,0.149555,3418.53,-48820.4,0,48940,942090
step02_gravity_refstate-mantle.xmf,1082,-2.24855e-06,1.14536e-05,0,-6.38182e-06,-1.39403e+09,-1.3922e+09,-1.39373e+09,-852931,-0.0256682,0.136267,-0,0.138664,3974.72,-49136.4,0,49296.9,852931
step02_gravity_refstate-mantle.xmf,1083,-1.18088e-06,9.30641e-06,0,-5.3759e-06,-1.39394e+09,-1.39254e+09,-1.39379e+09,-718489,-0.027639,0.121666,-0,0.124766,5147.73,-49135.4,0,49404.3,718489
step02_gravity_refstate-mantle.xmf,1084,-9.34249e-07,8.69299e-06,0,-4.8241e-06,-1.4052e+09,-1.40392e+09,-1.40508e+09,-644741,-0.0287093,0.111389,-0,0.115029,5779.64,-49483.3,0,49819.6,644741
step02_gravity_refstate-mantle.xmf,1085,9.34612e-07,4.17348e-06,0,-4.48353e-07,-1.53183e+09,-1.5314e+09,-1.53195e+09,-59922.4,-0.032896,0.0303664,-0,0.044769,16016.8,-53395.6,0,55746.1,59922.4
step02_gravity_refstate-mantle.xmf,1086,8.04517e-07,4.43107e-06,0,-6.51506e-07,-1.51564e+09,-1.51515e+09,-1.51574e+09,-87073.8,-0.0331404,0.0353654,-0,0.0484664,14891.5,-52895.2,0,54951.5,87073.8
step02_gravity_refstate-mantle.xmf,1087,3.86999e-07,5.35908e-06,0,-1.77359e-06,-1.44685e+09,-1.44619e+09,-1.4469e+09,-237041,-0.0317014,0.0612276,-0,0.0689478,11038.9,-50770.1,0,51956.3,237041
step02_gravity_refstate-mantle.xmf,1088,6.88352e-07,4.66221e-06,0,-8.81393e-07,-1.49776e+09,-1.49723e+09,-1.49785e+09,-117798,-0.0330302,0.041017,-0,0.052663,13870.8,-52342.9,0,54149.6,117798
step02_gravity_refstate-mantle.xmf,1089,5.77163e-07,4.89829e-06,0,-1.14903e-06,-1.48036e+09,-1.47978e+09,-1.48044e+09,-153568,-0.0327462,0.0472482,-0,0.0574866,12877.8,-51805.2,0,53381.8,153568
step02_gravity_refstate-mantle.xmf,1090,4.75402e-07,5.13299e-06,0,-1.4485e-06,-1.46347e+09,-1.46285e+09,-1.46353e+09,-193593,-0.0323014,0.0539949,-0,0.0629193,11930.6,-51283.4,0,52652.9,193593
step02_gravity_refstate-mantle.xmf,1091,-7.3908e-07,8.14711e-06,0,-4.28074e-06,-1.41654e+09,-1.41536e+09,-1.41645e+09,-572122,-0.0296948,0.101631,-0,0.10588,6444.6,-49833.5,0,50248.5,572122
step02_gravity_refstate-mantle.xmf,1092,-5.59336e-07,7.65619e-06,0,-3.77501e-06,-1.42772e+09,-1.42662e+09,-1.42764e+09,-504530,-0.0305849,0.0925017,-0,0.0974269,7136.35,-50178.6,0,50683.5,504530
step02_gravity_refstate-mantle.xmf,1093,1.78636e-09,6.28608e-06,0,-2.50922e-06,-1.44847e+09,-1.44763e+09,-1.44847e+09,-335357,-0.0321221,0.07114,-0,0.078056,9346.93,-50819.9,0,51672.3,335357
step02_gravity_refstate-mantle.xmf,1094,-4.01797e-07,7.22938e-06,0,-3.321e-06,-1.43841e+09,-1.43739e+09,-1.43836e+09,-443851,-0.0313552,0.0842871,-0,0.0899303,7824.57,-50508.9,0,51111.3,443851
step02_gravity_refstate-mantle.xmf,1095,1.05653e-06,4.07774e-06,0,-2.59015e-07,-1.58856e+09,-1.58815e+09,-1.5887e+09,-34617.3,-0.0338257,0.0209467,-0,0.0397862,17178.8,-55148.5,0,57762.2,34617.3
step02_gravity_refstate-mantle.xmf,1096,1.08012e-06,4.14571e-06,0,-1.9422e-07,-1.62935e+09,-1.62894e+09,-1.6295e+09,-25957.5,-0.0346323,0.0154414,-0,0.0379188,17426.2,-56409,0,59039.4,25957.5
step02_gravity_refstate-mantle.xmf,1097,1.1881e-06,3.99405e-06,0,-9.60413e-08,-1.66556e+09,-1.66518e+09,-1.66572e+09,-12835.9,-0.0342949,0.0100996,-0,0.0357511,18320.6,-57527.7,0,60374.5,12835.9
step02_gravity_refstate-mantle.xmf,1098,1.2852e-06,3.86433e-06,0,-3.41631e-08,-1.70351e+09,-1.70317e+09,-1.70368e+09,-4565.89,-0.0337095,0.00507828,-0,0.0340899,19147.9,-58700.5,0,61744.5,4565.89
step02_gravity_refstate-mantle.xmf,1099,1.36658e-06,3.75406e-06,0,8.3676e-10,-1.74557e+09,-1.74525e+09,-1.74576e+09,111.833,-0.0328247,-4.85681e-19,-0,0.0328247,19941.4,-60000,0,63227.1,111.833
step02_gravity_refstate-mantle.xmf,1100,-5.7002e-06,1.61291e-05,0,5.45855e-06,-1.42987e+09,-1.42696e+09,-1.42911e+09,729536,0.0185799,0.139677,0,0.140907,-2380.13,-50232.5,-0,50288.9,729536
step02_gravity_refstate-mantle.xmf,1101,-2.80231e-06,1.14404e-05,0,4.95091e-06,-1.4491e+09,-1.4472e+09,-1.44873e+09,661689,0.0268647,0.110455,0,0.113675,-4546.43,-50833.8,-0,51036.7,661689
step02_gravity_refstate-mantle.xmf,1102,-4.20783e-06,1.36332e-05,0,5.22364e-06,-1.44612e+09,-1.44373e+09,-1.44556e+09,698139,0.0229419,0.122557,0,0.124686,-3395.12,-50737.9,-0,50851.3,698139
step02_gravity_refstate-mantle.xmf,1103,-6.1446e-07,7.20744e-06,0,1.89976e-06,-1.54681e+09,-1.54576e+09,-1.54673e+09,253903,0.0353552,0.0485502,0,0.0600592,-9713.27,-53855.8,-0,54724.7,253903
step02_gravity_refstate-mantle.xmf,1104,1.12453e-07,5.96445e-06,0,6.9464e-07,-1.63109e+09,-1.63031e+09,-1.6311e+09,92838.6,0.0376599,0.0219165,0,0.043573,-12843.1,-56460.8,-0,57903.1,92838.6
step02_gravity_refstate-mantle.xmf,1105,3.27261e-07,5.64623e-06,0,3.06199e-07,-1.68375e+09,-1.68304e+09,-1.68379e+09,40923.5,0.0380965,0.0109671,0,0.0396437,-13921,-58088.2,-0,59733,40923.5
step02_gravity_refstate-mantle.xmf,1106,-7.62237e-06,1.94003e-05,0,-5.61564e-06,-1.40589e+09,-1.40227e+09,-1.40487e+09,-750530,-0.0140928,0.161116,-0,0.161731,1519.93,-49487,0,49510.3,750530
step02_gravity_refstate-mantle.xmf,1107,-3.9448e-06,1.43434e-05,0,-7.04389e-06,-1.39425e+09,-1.39181e+09,-1.39373e+09,-941416,-0.0223933,0.150512,-0,0.152168,2897.24,-49139.4,0,49224.7,941416
step02_gravity_refstate-mantle.xmf,1108,-5.29648e-06,1.61833e-05,0,-6.65654e-06,-1.40425e+09,-1.40138e+09,-1.40354e+09,-889647,-0.0197646,0.15227,-0,0.153547,2395.26,-49443.7,0,49501.7,889647
step02_gravity_refstate-mantle.xmf,1109,-1.92534e-06,1.05814e-05,0,-5.72622e-06,-1.40525e+09,-1.40358e+09,-1.40499e+09,-765310,-0.0269877,0.125322,-0,0.128195,4550.26,-49482.9,0,49691.7,765310
step02_gravity_refstate-mantle.xmf,1110,1.23734e-07,5.97058e-06,0,-2.08568e-06,-1.46461e+09,-1.46383e+09,-1.46463e+09,-278751,-0.0328684,0.0626641,-0,0.070761,10229.1,-51318.5,0,52328,278751
step02_gravity_refstate-mantle.xmf,1111,-2.51606e-07,6.82488e-06,0,-2.85638e-06,-1.45132e+09,-1.45037e+09,-1.45128e+09,-381755,-0.0321542,0.0756377,-0,0.0821885,8604.51,-50907.5,0,51629.5,381755
step02_gravity_refstate-mantle.xmf,1112,9.18668e-07,4.33039e-06,0,-4.1247e-07,-1.56902e+09,-1.56856e+09,-1.56914e+09,-55126.6,-0.0342879,0.0253818,-0,0.0426602,16063.9,-54544.7,0,56861,55126.6
step02_gravity_refstate-mantle.xmf,1113,-1.06159e-05,2.368e-05,0,-2.73187e-07,-1.40089e+09,-1.39631e+09,-1.39947e+09,-36511.4,-0.000341493,0.17311,-0,0.173111,31.7814,-49323.6,0,49323.6,36511.4
step02_gravity_refstate-mantle.xmf,1114,-9.83988e-06,2.22599e-05,0,2.11636e-06,-1.4095e+09,-1.40521e+09,-1.40819e+09,282852,0.00482226,0.166026,0,0.166096,-482.175,-49591.3,-0,49593.6,282852
step02_gravity_refstate-mantle.xmf,1115,-8.84077e-07,7.69699e-06,0,2.2712e-06,-1.53338e+09,-1.53223e+09,-1.53326e+09,303545,0.03449,0.0556364,0,0.0654596,-8860.05,-53440.4,-0,54169.9,303545
step02_gravity_refstate-mantle.xmf,1116,-1.16896e-06,8.22144e-06,0,2.6758e-06,-1.51956e+09,-1.5183e+09,-1.5194e+09,357620,0.033454,0.0634698,0,0.0717466,-8029.28,-53012.9,-0,53617.5,357620
step02_gravity_refstate-mantle.xmf,1117,-1.48249e-06,8.80025e-06,0,3.09585e-06,-1.50655e+09,-1.50517e+09,-1.50635e+09,413761,0.032276,0.0717172,0,0.0786454,-7227.63,-52610.4,-0,53104.5,413761
step02_gravity_refstate-mantle.xmf,1118,-7.4438e-06,1.85253e-05,0,4.44149e-06,-1.42803e+09,-1.42456e+09,-1.42704e+09,593606,0.0131244,0.14806,0,0.14864,-1531.78,-50170.1,-0,50193.4,593606
step02_gravity_refstate-mantle.xmf,1119,-8.64913e-06,2.03762e-05,0,3.59894e-06,-1.41892e+09,-1.41504e+09,-1.41777e+09,480999,0.00927752,0.157214,0,0.157487,-1000.98,-49885.3,-0,49895.4,480999
step02_gravity_refstate-mantle.xmf,1120,-6.52077e-06,1.71762e-05,0,4.8786e-06,-1.43377e+09,-1.4306e+09,-1.43289e+09,652025,0.0159538,0.141323,0,0.142221,-1976.9,-50349.9,-0,50388.7,652025
step02_gravity_refstate-mantle.xmf,1121,-1.82272e-06,9.43529e-06,0,3.53051e-06,-1.49366e+09,-1.49216e+09,-1.49342e+09,471853,0.0309593,0.0804966,0,0.0862449,-6459.94,-52211.7,-0,52609.8,471853
step02_gravity_refstate-mantle.xmf,1122,-2.50254e-06,1.07862e-05,0,4.46292e-06,-1.46459e+09,-1.46282e+09,-1.46426e+09,596469,0.028162,0.100141,0,0.104025,-5102.21,-51312.7,-0,51565.7,596469
step02_gravity_refstate-mantle.xmf,1123,-2.17097e-06,1.01124e-05,0,3.99786e-06,-1.47949e+09,-1.47785e+09,-1.4792e+09,534315,0.0295368,0.0901519,0,0.0948672,-5735.34,-51773.4,-0,52090.2,534315
step02_gravity_refstate-mantle.xmf,1124,-6.00943e-06,1.62412e-05,0,4.71598e-06,-1.44556e+09,-1.44259e+09,-1.44476e+09,630291,0.0172063,0.132909,0,0.134018,-2260.37,-50715.3,-0,50765.7,630291
step02_gravity_refstate-mantle.xmf,1125,-3.56653e-06,1.25144e-05,0,4.89348e-06,-1.45718e+09,-1.45503e+09,-1.45671e+09,654013,0.0249735,0.112526,0,0.115264,-4000.46,-51081.1,-0,51237.5,654013
step02_gravity_refstate-mantle.xmf,1126,-5.21275e-06,1.49361e-05,0,4.73619e-06,-1.45533e+09,-1.45264e+09,-1.45463e+09,632992,0.0197858,0.123856,0,0.125426,-2792.81,-51019,-0,51095.4,632992
step02_gravity_refstate-mantle.xmf,1127,-1.43149e-07,6.38414e-06,0,9.73955e-07,-1.61017e+09,-1.60929e+09,-1.61015e+09,130169,0.0372987,0.0280716,0,0.046682,-11845.1,-55813.9,-0,57057,130169
step02_gravity_refstate-mantle.xmf,1128,-4.1734e-07,6.83975e-06,0,1.29802e-06,-1.59079e+09,-1.58982e+09,-1.59074e+09,173481,0.0367023,0.0347649,0,0.0505535,-10857,-55214.8,-0,56272.1,173481
step02_gravity_refstate-mantle.xmf,1129,-7.60487e-07,7.41005e-06,0,1.63274e-06,-1.57777e+09,-1.57668e+09,-1.57767e+09,218215,0.0359106,0.0410761,0,0.0545602,-9834.51,-54811.7,-0,55687,218215
step02_gravity_refstate-mantle.xmf,1130,1.17104e-08,6.17613e-06,0,4.55551e-07,-1.6739e+09,-1.67307e+09,-1.6739e+09,60884.4,0.0381931,0.0139508,0,0.0406612,-12800.5,-57783.1,-0,59183.9,60884.4
step02_gravity_refstate-mantle.xmf,1131,1.42637e-07,6.00294e-06,0,1.97827e-07,-1.71149e+09,-1.71071e+09,-1.71151e+09,26439.5,0.0384161,0.00637858,0,0.0389421,-13367.9,-58944.9,-0,60441.7,26439.5
step02_gravity_refstate-mantle.xmf,1132,3.30853e-07,5.74239e-06,0,-3.2855e-09,-1.74563e+09,-1.74491e+09,-1.74568e+09,-439.107,0.0383422,-1.02873e-19,0,0.0383422,-14040.5,-60000,-0,61620.9,439.107
step02_gravity_refstate-mantle.xmf,1133,-6.48032e-06,1.76864e-05,0,-5.99956e-06,-1.41078e+09,-1.40755e+09,-1.40992e+09,-801841,-0.0169044,0.153848,-0,0.154774,1957.49,-49641.5,0,49680.1,801841
step02_gravity_refstate-mantle.xmf,1134,-9.72578e-06,2.2096e-05,0,-2.34634e-06,-1.41016e+09,-1.40591e+09,-1.40886e+09,-313589,-0.00537881,0.165345,-0,0.165433,541.307,-49612,0,49614.9,313589
step02_gravity_refstate-mantle.xmf,1135,-8.47596e-06,2.01731e-05,0,-3.87167e-06,-1.41853e+09,-1.41471e+09,-1.4174e+09,-517449,-0.0100509,0.156889,-0,0.157211,1090.21,-49874,0,49885.9,517449
step02_gravity_refstate-mantle.xmf,1136,-3.29178e-06,1.30367e-05,0,-6.51557e-06,-1.4044e+09,-1.40221e+09,-1.40396e+09,-870806,-0.024101,0.13944,-0,0.141507,3422.28,-49453.7,0,49571.9,870806
step02_gravity_refstate-mantle.xmf,1137,-2.78899e-06,1.19619e-05,0,-5.94619e-06,-1.41529e+09,-1.41332e+09,-1.41492e+09,-794709,-0.0256429,0.128649,-0,0.13118,3971.13,-49790.9,0,49949,794709
step02_gravity_refstate-mantle.xmf,1138,-1.63155e-06,9.8505e-06,0,-5.15e-06,-1.41712e+09,-1.41559e+09,-1.41691e+09,-688297,-0.028206,0.114819,-0,0.118233,5148.11,-49849.8,0,50114.9,688297
step02_gravity_refstate-mantle.xmf,1139,-1.34245e-06,9.19562e-06,0,-4.62343e-06,-1.42918e+09,-1.42777e+09,-1.429e+09,-617921,-0.0293597,0.104706,-0,0.108744,5786.82,-50222.3,0,50554.6,617921
step02_gravity_refstate-mantle.xmf,1140,7.70378e-07,4.61052e-06,0,-6.0252e-07,-1.55217e+09,-1.55166e+09,-1.55228e+09,-80526.8,-0.0346055,0.0300704,-0,0.045845,14965.4,-54024.1,0,56058.6,80526.8
step02_gravity_refstate-mantle.xmf,1141,6.234e-07,4.88855e-06,0,-8.34113e-07,-1.53389e+09,-1.53332e+09,-1.53398e+09,-111479,-0.0346264,0.0355608,-0,0.0496342,13910.5,-53459.2,0,55239.4,111479
step02_gravity_refstate-mantle.xmf,1142,2.2488e-07,5.71915e-06,0,-1.73475e-06,-1.48176e+09,-1.48102e+09,-1.48179e+09,-231850,-0.033546,0.0551648,-0,0.0645639,11056.6,-51848.2,0,53014,231850
step02_gravity_refstate-mantle.xmf,1143,4.80035e-07,5.1711e-06,0,-1.10417e-06,-1.51612e+09,-1.51549e+09,-1.51618e+09,-147573,-0.0344426,0.0416059,-0,0.0540124,12899.2,-52909.8,0,54459.5,147573
step02_gravity_refstate-mantle.xmf,1144,3.41246e-07,5.45774e-06,0,-1.41191e-06,-1.49866e+09,-1.49798e+09,-1.49871e+09,-188702,-0.0340748,0.0482509,-0,0.0590698,11928.1,-52370.5,0,53711.7,188702
step02_gravity_refstate-mantle.xmf,1145,-1.11296e-06,8.62973e-06,0,-4.10772e-06,-1.44167e+09,-1.44037e+09,-1.44152e+09,-548997,-0.0304289,0.0951074,-0,0.0998566,6447.07,-50608.4,0,51017.4,548997
step02_gravity_refstate-mantle.xmf,1146,-8.64856e-07,8.06471e-06,0,-3.61992e-06,-1.45261e+09,-1.45141e+09,-1.45249e+09,-483802,-0.031407,0.0862124,-0,0.091755,7166.38,-50946.4,0,51448,483802
step02_gravity_refstate-mantle.xmf,1147,-2.0953e-07,6.61482e-06,0,-2.29232e-06,-1.48564e+09,-1.48472e+09,-1.48561e+09,-306369,-0.0337164,0.0622679,-0,0.0708102,9585.44,-51967.4,0,52844,306369
step02_gravity_refstate-mantle.xmf,1148,-5.90963e-07,7.4801e-06,0,-3.15799e-06,-1.46075e+09,-1.45967e+09,-1.46067e+09,-422065,-0.0322209,0.0782227,-0,0.0845989,7954.77,-51198.4,0,51812.7,422065
step02_gravity_refstate-mantle.xmf,1149,-3.71886e-07,6.98681e-06,0,-2.69066e-06,-1.4725e+09,-1.47152e+09,-1.47245e+09,-359607,-0.033022,0.0697946,-0,0.0772123,8800.65,-51561.5,0,52307.1,359607
step02_gravity_refstate-mantle.xmf,1150,8.9361e-07,4.49077e-06,0,-3.44771e-07,-1.61099e+09,-1.61051e+09,-1.61111e+09,-46078.7,-0.0354854,0.0195749,-0,0.0405264,16114.8,-55841.4,0,58120.1,46078.7
step02_gravity_refstate-mantle.xmf,1151,1.01826e-06,4.3586e-06,0,-1.4937e-07,-1.67091e+09,-1.67046e+09,-1.67104e+09,-19963.3,-0.0356968,0.0102642,-0,0.0371432,17118.4,-57692.8,0,60178.9,19963.3
step02_gravity_refstate-mantle.xmf,1152,1.08418e-06,4.29406e-06,0,-6.90593e-08,-1.70526e+09,-1.70483e+09,-1.70541e+09,-9229.78,-0.0355713,0.00540462,-0,0.0359795,17588.4,-58754.3,0,61330.5,9229.78
step02_gravity_refstate-mantle.xmf,1153,1.19342e-06,4.14123e-06,0,1.54182e-09,-1.74558e+09,-1.74518e+09,-1.74574e+09,206.065,-0.0348266,-5.15955e-19,-0,0.0348266,18377.3,-60000,0,62751.3,206.065
step02_gravity_refstate-mantle.xmf,1154,-3.15583e-06,1.17329e-05,0,4.52671e-06,-1.46857e+09,-1.46659e+09,-1.46815e+09,604995,0.0264356,0.103817,0,0.107129,-4511.26,-51433.7,-0,51631.2,604995
step02_gravity_refstate-mantle.xmf,1155,-4.47267e-06,1.37246e-05,0,4.60452e-06,-1.46641e+09,-1.46398e+09,-1.46581e+09,615394,0.0222185,0.114136,0,0.116279,-3380.24,-51363.1,-0,51474.2,615394
step02_gravity_refstate-mantle.xmf,1156,-1.09301e-06,7.96829e-06,0,1.99015e-06,-1.56387e+09,-1.56266e+09,-1.56372e+09,265983,0.034896,0.0480437,0,0.0593795,-8907.63,-54381.6,-0,55106.2,265983
step02_gravity_refstate-mantle.xmf,1157,-2.80202e-07,6.63014e-06,0,7.35626e-07,-1.64791e+09,-1.64698e+09,-1.64787e+09,98316.4,0.0377922,0.0205968,0,0.0430404,-11794.2,-56979.4,-0,58187.2,98316.4
step02_gravity_refstate-mantle.xmf,1158,-7.22128e-06,1.83424e-05,0,-4.87408e-06,-1.42369e+09,-1.42028e+09,-1.42273e+09,-651421,-0.0142281,0.149532,-0,0.150207,1656.29,-50037.1,0,50064.5,651421
step02_gravity_refstate-mantle.xmf,1159,-5.84769e-06,1.64656e-05,0,-5.60341e-06,-1.42485e+09,-1.42186e+09,-1.42406e+09,-748896,-0.018202,0.143212,-0,0.144364,2275.98,-50077,0,50128.7,748896
step02_gravity_refstate-mantle.xmf,1160,-4.50708e-06,1.4715e-05,0,-6.26951e-06,-1.41461e+09,-1.41204e+09,-1.41401e+09,-837920,-0.0217146,0.141696,-0,0.14335,2874.64,-49765.4,0,49848.4,837920
step02_gravity_refstate-mantle.xmf,1161,-2.39402e-06,1.10592e-05,0,-5.36507e-06,-1.42708e+09,-1.42528e+09,-1.42676e+09,-717041,-0.0270695,0.11805,-0,0.121114,4550.06,-50155.3,0,50361.2,717041
step02_gravity_refstate-mantle.xmf,1162,-8.25266e-08,6.32673e-06,0,-1.95502e-06,-1.49981e+09,-1.49896e+09,-1.4998e+09,-261288,-0.0343318,0.0555485,-0,0.0653017,10309.4,-52405.4,0,53409.8,261288
step02_gravity_refstate-mantle.xmf,1163,7.14307e-07,4.81199e-06,0,-5.26097e-07,-1.59216e+09,-1.59161e+09,-1.59225e+09,-70312.8,-0.0358909,0.0242209,-0,0.0432991,14979.1,-55259.4,0,57253.6,70312.8
step02_gravity_refstate-mantle.xmf,1164,8.59021e-07,4.64567e-06,0,-2.56266e-07,-1.65275e+09,-1.65225e+09,-1.65287e+09,-34250,-0.036361,0.0136844,-0,0.0388508,16112.7,-57131.7,0,59360.4,34250
step02_gravity_refstate-mantle.xmf,1165,-9.64193e-06,2.17255e-05,0,-2.08505e-07,-1.41926e+09,-1.41506e+09,-1.41797e+09,-27866.6,-0.000344745,0.160189,-0,0.160189,35.7424,-49892.5,0,49892.5,27866.6
step02_gravity_refstate-mantle.xmf,1166,-9.0241e-06,2.06089e-05,0,1.58211e-06,-1.42912e+09,-1.42516e+09,-1.42791e+09,211449,0.00432235,0.153035,0,0.153096,-473.799,-50198.4,-0,50200.7,211449
step02_gravity_refstate-mantle.xmf,1167,-1.42674e-06,8.53652e-06,0,2.37304e-06,-1.54926e+09,-1.54793e+09,-1.54907e+09,317157,0.0336964,0.0557362,0,0.0651304,-8039.31,-53929.6,-0,54525.5,317157
step02_gravity_refstate-mantle.xmf,1168,-1.76356e-06,9.11807e-06,0,2.76091e-06,-1.535e+09,-1.53355e+09,-1.53477e+09,368995,0.0323785,0.0637906,0,0.0715375,-7237.92,-53488.3,-0,53975.8,368995
step02_gravity_refstate-mantle.xmf,1169,-2.12931e-06,9.75408e-06,0,3.15857e-06,-1.52092e+09,-1.51933e+09,-1.52063e+09,422143,0.0309032,0.0724055,0,0.0787247,-6463.67,-53052.4,-0,53444.7,422143
step02_gravity_refstate-mantle.xmf,1170,-7.03868e-06,1.75237e-05,0,3.78821e-06,-1.4489e+09,-1.44561e+09,-1.44795e+09,506294,0.0131,0.135643,0,0.136274,-1649.29,-50814.7,-0,50841.4,506294
step02_gravity_refstate-mantle.xmf,1171,-8.12476e-06,1.91677e-05,0,2.82812e-06,-1.43931e+09,-1.43566e+09,-1.43822e+09,377978,0.00861789,0.144719,0,0.144975,-1007.83,-50515.5,-0,50525.5,377978
step02_gravity_refstate-mantle.xmf,1172,-2.53597e-06,1.04662e-05,0,3.56637e-06,-1.50657e+09,-1.50483e+09,-1.50623e+09,476646,0.0292573,0.0817553,0,0.0868327,-5709.15,-52608.1,-0,52917,476646
step02_gravity_refstate-mantle.xmf,1173,-3.0588e-06,1.13735e-05,0,4.03604e-06,-1.48985e+09,-1.48792e+09,-1.48944e+09,539417,0.0272177,0.0932169,0,0.0971092,-4890.88,-52090.6,-0,52319.7,539417
step02_gravity_refstate-mantle.xmf,1174,-6.17273e-06,1.61342e-05,0,3.95379e-06,-1.46297e+09,-1.45998e+09,-1.46214e+09,528423,0.0158924,0.12497,0,0.125976,-2159.67,-51251.6,-0,51297,528423
step02_gravity_refstate-mantle.xmf,1175,-3.88421e-06,1.26658e-05,0,4.24872e-06,-1.48196e+09,-1.47975e+09,-1.48144e+09,567841,0.0243278,0.102908,0,0.105744,-4000.51,-51844.7,-0,51998.9,567841
step02_gravity_refstate-mantle.xmf,1176,-5.36759e-06,1.48758e-05,0,4.08605e-06,-1.47403e+09,-1.47133e+09,-1.47332e+09,546101,0.0188219,0.11564,0,0.117161,-2742.92,-51595.6,-0,51668.5,546101
step02_gravity_refstate-mantle.xmf,1177,-5.81015e-07,7.10371e-06,0,1.02611e-06,-1.6279e+09,-1.62687e+09,-1.62782e+09,137139,0.0371687,0.0268226,0,0.0458363,-10840.6,-56360.6,-0,57393.7,137139
step02_gravity_refstate-mantle.xmf,1178,-1.28073e-06,8.21354e-06,0,1.67084e-06,-1.59575e+09,-1.59448e+09,-1.59558e+09,223308,0.0351559,0.0399479,0,0.0532144,-8941.92,-55365.8,-0,56083.2,223308
step02_gravity_refstate-mantle.xmf,1179,-9.20024e-07,7.64061e-06,0,1.33756e-06,-1.61123e+09,-1.61009e+09,-1.61111e+09,178766,0.0362894,0.0331622,0,0.0491594,-9877.13,-55844.8,-0,56711.5,178766
step02_gravity_refstate-mantle.xmf,1180,-4.16146e-07,6.85883e-06,0,5.09513e-07,-1.68047e+09,-1.6795e+09,-1.68042e+09,68096.5,0.0380129,0.0140293,0,0.0405191,-11652.1,-57985,-0,59144.2,68096.5
step02_gravity_refstate-mantle.xmf,1181,-2.76543e-07,6.68049e-06,0,2.59631e-07,-1.71046e+09,-1.70953e+09,-1.71043e+09,34699.7,0.0383279,0.00732037,0,0.0390207,-12117,-58912,-0,60145.2,34699.7
step02_gravity_refstate-mantle.xmf,1182,-8.70966e-08,6.43175e-06,0,-3.64142e-09,-1.74567e+09,-1.74479e+09,-1.74565e+09,-486.676,0.0385069,-1.14768e-19,0,0.0385069,-12699.5,-60000,-0,61329.3,486.676
step02_gravity_refstate-mantle.xmf,1183,-8.94794e-06,2.05331e-05,0,-1.89743e-06,-1.42875e+09,-1.42481e+09,-1.42756e+09,-253591,-0.00516379,0.152993,-0,0.15308,566.988,-50187.4,0,50190.6,253591
step02_gravity_refstate-mantle.xmf,1184,-7.77585e-06,1.88118e-05,0,-3.37688e-06,-1.43879e+09,-1.43524e+09,-1.43776e+09,-451320,-0.0103037,0.143911,-0,0.144279,1218.21,-50501,0,50515.7,451320
step02_gravity_refstate-mantle.xmf,1185,-3.81222e-06,1.34072e-05,0,-5.87821e-06,-1.42535e+09,-1.42305e+09,-1.42484e+09,-785623,-0.023627,0.131013,-0,0.133127,3414.06,-50098.3,0,50214.5,785623
step02_gravity_refstate-mantle.xmf,1186,-3.24918e-06,1.23234e-05,0,-5.416e-06,-1.4369e+09,-1.43481e+09,-1.43646e+09,-723848,-0.0253421,0.120518,-0,0.123153,3976.22,-50456,0,50612.5,723848
step02_gravity_refstate-mantle.xmf,1187,-2.06284e-06,1.03108e-05,0,-4.83412e-06,-1.44004e+09,-1.43839e+09,-1.43977e+09,-646080,-0.0283835,0.107688,-0,0.111366,5149.4,-50556,0,50817.5,646080
step02_gravity_refstate-mantle.xmf,1188,-1.75833e-06,9.66687e-06,0,-4.34208e-06,-1.45392e+09,-1.45239e+09,-1.45368e+09,-580320,-0.0296274,0.0975917,-0,0.10199,5778.44,-50985,0,51311.4,580320
step02_gravity_refstate-mantle.xmf,1189,5.36799e-07,5.12876e-06,0,-7.48711e-07,-1.57266e+09,-1.57205e+09,-1.57274e+09,-100065,-0.0359791,0.0295462,-0,0.0465562,13916.6,-54656.8,0,56400.7,100065
step02_gravity_refstate-mantle.xmf,1190,3.62483e-07,5.44662e-06,0,-1.014e-06,-1.55317e+09,-1.55249e+09,-1.55322e+09,-135521,-0.0358158,0.0355219,-0,0.0504438,12901.6,-54054.4,0,55572.7,135521
step02_gravity_refstate-mantle.xmf,1191,3.62371e-08,6.07288e-06,0,-1.64053e-06,-1.51626e+09,-1.51545e+09,-1.51626e+09,-219257,-0.0349314,0.048914,-0,0.0601064,11050.5,-52913.6,0,54055.1,219257
step02_gravity_refstate-mantle.xmf,1192,1.8626e-07,5.78067e-06,0,-1.32363e-06,-1.53463e+09,-1.53389e+09,-1.53466e+09,-176903,-0.0354679,0.0420743,-0,0.0550292,11911.6,-53481.4,0,54791.8,176903
step02_gravity_refstate-mantle.xmf,1193,-1.47855e-06,9.05877e-06,0,-3.85239e-06,-1.46726e+09,-1.46586e+09,-1.46707e+09,-514871,-0.030825,0.0880636,-0,0.0933026,6454.68,-51397.6,0,51801.3,514871
step02_gravity_refstate-mantle.xmf,1194,-4.41814e-07,6.96642e-06,0,-2.13181e-06,-1.51649e+09,-1.5155e+09,-1.51643e+09,-284916,-0.0346479,0.0557098,-0,0.0656053,9602.08,-52919.8,0,53783.9,284916
step02_gravity_refstate-mantle.xmf,1195,-1.20116e-06,8.47983e-06,0,-3.38679e-06,-1.47985e+09,-1.47856e+09,-1.47969e+09,-452644,-0.0319514,0.0791503,-0,0.0853561,7180.84,-51786.8,0,52282.3,452644
step02_gravity_refstate-mantle.xmf,1196,-6.36189e-07,7.36249e-06,0,-2.50346e-06,-1.5031e+09,-1.50203e+09,-1.50302e+09,-334587,-0.0339061,0.0627977,-0,0.0713664,8836.8,-52506,0,53244.4,334587
step02_gravity_refstate-mantle.xmf,1197,-8.93921e-07,7.87801e-06,0,-2.94118e-06,-1.4903e+09,-1.48913e+09,-1.49018e+09,-393089,-0.032983,0.0709507,-0,0.0782425,7994.17,-52110.1,0,52719.7,393089
step02_gravity_refstate-mantle.xmf,1198,6.54912e-07,4.99895e-06,0,-4.18426e-07,-1.63253e+09,-1.63194e+09,-1.63261e+09,-55922.7,-0.0368513,0.0181182,-0,0.0410644,14970.8,-56506.4,0,58455.9,55922.7
step02_gravity_refstate-mantle.xmf,1199,8.34493e-07,4.78239e-06,0,-1.32633e-07,-1.70039e+09,-1.69986e+09,-1.7005e+09,-17726.4,-0.0369576,0.00675127,-0,0.0375692,16102,-58603.3,0,60775.1,17726.4
step02_gravity_refstate-mantle.xmf,1200,9.66631e-07,4.60008e-06,0,2.69293e-09,-1.74559e+09,-1.7451e+09,-1.74572e+09,359.91,-0.0364493,-6.43884e-19,-0,0.0364493,16875.3,-60000,0,62328,359.91
step02_gravity_refstate-mantle.xmf,1201,-4.67797e-06,1.37918e-05,0,4.06145e-06,-1.48442e+09,-1.48195e+09,-1.4838e+09,542813,0.0213919,0.106887,0,0.109006,-3329.08,-51918.4,-0,52025,542813
step02_gravity_refstate-mantle.xmf,1202,-1.64843e-06,8.80258e-06,0,2.02426e-06,-1.58026e+09,-1.57886e+09,-1.58004e+09,270542,0.0338109,0.0473649,0,0.0581946,-8056.73,-54886.1,-0,55474.3,270542
step02_gravity_refstate-mantle.xmf,1203,-7.24566e-07,7.34095e-06,0,7.31182e-07,-1.66453e+09,-1.66345e+09,-1.66443e+09,97722.5,0.0374188,0.0187736,0,0.0418642,-10780.4,-57491.8,-0,58493.8,97722.5
step02_gravity_refstate-mantle.xmf,1204,-6.75954e-06,1.74244e-05,0,-4.44588e-06,-1.43885e+09,-1.43562e+09,-1.43795e+09,-594192,-0.0147023,0.139836,-0,0.140607,1822.66,-50506.1,0,50539,594192
step02_gravity_refstate-mantle.xmf,1205,-4.91567e-06,1.4877e-05,0,-5.44608e-06,-1.43596e+09,-1.43332e+09,-1.43531e+09,-727868,-0.0208066,0.13226,-0,0.133886,2847.26,-50422.7,0,50503,727868
step02_gravity_refstate-mantle.xmf,1206,-2.815e-06,1.14416e-05,0,-4.92555e-06,-1.44932e+09,-1.44742e+09,-1.44895e+09,-658300,-0.0268616,0.110377,-0,0.113598,4546.41,-50840.6,0,51043.5,658300
step02_gravity_refstate-mantle.xmf,1207,-2.78991e-07,6.63295e-06,0,-1.80797e-06,-1.5298e+09,-1.52888e+09,-1.52976e+09,-241635,-0.0352515,0.0495039,-0,0.0607726,10318.8,-53331.2,0,54320.3,241635
step02_gravity_refstate-mantle.xmf,1208,4.41209e-07,5.36326e-06,0,-6.25098e-07,-1.61243e+09,-1.61178e+09,-1.61249e+09,-83544.3,-0.0370221,0.0231652,-0,0.0436722,13888,-55885.3,0,57585.1,83544.3
step02_gravity_refstate-mantle.xmf,1209,6.02228e-07,5.1577e-06,0,-2.85821e-07,-1.67204e+09,-1.67143e+09,-1.67212e+09,-38199.9,-0.0374916,0.0119455,-0,0.0393486,14950.2,-57727.1,0,59631.6,38199.9
step02_gravity_refstate-mantle.xmf,1210,-8.85424e-06,2.01821e-05,0,-2.15248e-07,-1.43812e+09,-1.43424e+09,-1.43694e+09,-28768,-0.000458121,0.14794,-0,0.147941,51.7631,-50476.5,0,50476.5,28768
step02_gravity_refstate-mantle.xmf,1211,-8.34724e-06,1.92474e-05,0,1.17193e-06,-1.44988e+09,-1.44619e+09,-1.44877e+09,156629,0.00383015,0.140272,0,0.140325,-455.96,-50840.8,-0,50842.8,156629
step02_gravity_refstate-mantle.xmf,1212,-2.01636e-06,9.4001e-06,0,2.38848e-06,-1.5646e+09,-1.56307e+09,-1.56433e+09,319220,0.032318,0.0553639,0,0.0641062,-7232.45,-54401.5,-0,54880.1,319220
step02_gravity_refstate-mantle.xmf,1213,-2.39725e-06,1.0026e-05,0,2.75315e-06,-1.54919e+09,-1.54753e+09,-1.54887e+09,367959,0.0306933,0.0638273,0,0.0708237,-6455.28,-53924.6,-0,54309.6,367959
step02_gravity_refstate-mantle.xmf,1214,-2.80868e-06,1.07046e-05,0,3.10266e-06,-1.53453e+09,-1.53272e+09,-1.53415e+09,414670,0.028929,0.0725898,0,0.0781419,-5714.93,-53470.6,-0,53775.2,414670
step02_gravity_refstate-mantle.xmf,1215,-7.63113e-06,1.81021e-05,0,2.26568e-06,-1.4608e+09,-1.45736e+09,-1.45978e+09,302809,0.00809962,0.132279,0,0.132527,-1020.41,-51180,-0,51190.2,302809
step02_gravity_refstate-mantle.xmf,1216,-6.83005e-06,1.6873e-05,0,2.99087e-06,-1.47168e+09,-1.46852e+09,-1.47077e+09,399729,0.0120076,0.123773,0,0.124354,-1608.4,-51518.4,-0,51543.5,399729
step02_gravity_refstate-mantle.xmf,1217,-3.29051e-06,1.14917e-05,0,3.43961e-06,-1.51987e+09,-1.51789e+09,-1.51943e+09,459704,0.0269092,0.0820832,0,0.0863815,-4970.85,-53016.6,-0,53249.1,459704
step02_gravity_refstate-mantle.xmf,1218,-6.04364e-06,1.5684e-05,0,3.41576e-06,-1.48193e+09,-1.47903e+09,-1.48112e+09,456516,0.015488,0.115364,0,0.116399,-2206.55,-51837.1,-0,51884,456516
step02_gravity_refstate-mantle.xmf,1219,-3.89836e-06,1.24491e-05,0,3.6736e-06,-1.50789e+09,-1.5057e+09,-1.50737e+09,490977,0.0244463,0.0914016,0,0.0946144,-4206.84,-52645,-0,52812.8,490977
step02_gravity_refstate-mantle.xmf,1220,-4.53317e-06,1.34212e-05,0,3.74597e-06,-1.49943e+09,-1.49703e+09,-1.49882e+09,500648,0.0218781,0.0991658,0,0.10155,-3537.93,-52381.8,-0,52501.1,500648
step02_gravity_refstate-mantle.xmf,1221,-5.27671e-06,1.45306e-05,0,3.65123e-06,-1.4914e+09,-1.48875e+09,-1.49069e+09,487987,0.0187774,0.107059,0,0.108693,-2848.9,-52131.7,-0,52209.5,487987
step02_gravity_refstate-mantle.xmf,1222,-1.83622e-06,9.03333e-06,0,1.65348e-06,-1.61179e+09,-1.61033e+09,-1.61154e+09,220987,0.0338078,0.0386802,0,0.0513724,-8058.16,-55859.4,-0,56437.7,220987
step02_gravity_refstate-mantle.xmf,1223,-1.0783e-06,7.87841e-06,0,1.01943e-06,-1.64576e+09,-1.64456e+09,-1.64562e+09,136247,0.0364747,0.0249672,0,0.0442014,-9846.8,-56911,-0,57756.6,136247
step02_gravity_refstate-mantle.xmf,1224,-1.45474e-06,8.44965e-06,0,1.32309e-06,-1.62895e+09,-1.62762e+09,-1.62875e+09,176831,0.035258,0.0314365,0,0.0472375,-8933.34,-56390.6,-0,57093.8,176831
step02_gravity_refstate-mantle.xmf,1225,-8.01771e-07,7.49934e-06,0,3.70898e-07,-1.70555e+09,-1.70444e+09,-1.70544e+09,49570.6,0.0375896,0.00937234,0,0.0387404,-10778.2,-58758.7,-0,59739.1,49570.6
step02_gravity_refstate-mantle.xmf,1226,-5.70385e-07,7.19336e-06,0,-4.9314e-09,-1.74571e+09,-1.74467e+09,-1.74563e+09,-659.081,0.0380833,-1.4974e-19,0,0.0380833,-11403.8,-60000,-0,61074.1,659.081
step02_gravity_refstate-mantle.xmf,1227,-5.9333e-06,1.61342e-05,0,-4.69926e-06,-1.44659e+09,-1.44364e+09,-1.4458e+09,-628055,-0.017378,0.132106,-0,0.133244,2296.05,-50747.4,0,50799.3,628055
step02_gravity_refstate-mantle.xmf,1228,-8.24889e-06,1.91727e-05,0,-1.6514e-06,-1.44855e+09,-1.44489e+09,-1.44745e+09,-220709,-0.00527752,0.140645,-0,0.140744,627.978,-50800.3,0,50804.1,220709
step02_gravity_refstate-mantle.xmf,1229,-6.82112e-06,1.71437e-05,0,-3.61078e-06,-1.45638e+09,-1.45317e+09,-1.45546e+09,-482581,-0.0132849,0.131205,-0,0.131876,1717.91,-51046.2,0,51075.1,482581
step02_gravity_refstate-mantle.xmf,1230,-4.20203e-06,1.36117e-05,0,-5.20721e-06,-1.4466e+09,-1.44422e+09,-1.44604e+09,-695944,-0.022979,0.122237,-0,0.124379,3407.61,-50752.8,0,50867.1,695944
step02_gravity_refstate-mantle.xmf,1231,-3.61196e-06,1.25524e-05,0,-4.84856e-06,-1.45871e+09,-1.45655e+09,-1.45823e+09,-648010,-0.0248756,0.112087,-0,0.114814,3983.76,-51128.1,0,51283.1,648010
step02_gravity_refstate-mantle.xmf,1232,-2.51495e-06,1.07773e-05,0,-4.44442e-06,-1.4646e+09,-1.46282e+09,-1.46426e+09,-593997,-0.028162,0.100141,-0,0.104025,5102.21,-51312.7,0,51565.7,593997
step02_gravity_refstate-mantle.xmf,1233,-2.17131e-06,1.01126e-05,0,-3.99739e-06,-1.4795e+09,-1.47786e+09,-1.47921e+09,-534252,-0.0295368,0.0901495,-0,0.094865,5735.34,-51773.7,0,52090.4,534252
step02_gravity_refstate-mantle.xmf,1234,2.32558e-07,5.72053e-06,0,-8.76794e-07,-1.59184e+09,-1.5911e+09,-1.59187e+09,-117184,-0.0368907,0.0289279,-0,0.0468802,12875.3,-55248.5,0,56728.9,117184
step02_gravity_refstate-mantle.xmf,1235,1.24227e-08,6.10573e-06,0,-1.17731e-06,-1.57212e+09,-1.5713e+09,-1.57212e+09,-157347,-0.0365381,0.0353441,-0,0.0508354,11868.1,-54639,0,55913,157347
step02_gravity_refstate-mantle.xmf,1236,-2.42451e-07,6.55915e-06,0,-1.55308e-06,-1.55274e+09,-1.55183e+09,-1.55271e+09,-207569,-0.0359483,0.0428289,-0,0.055916,10801.3,-54039.8,0,55108.7,207569
step02_gravity_refstate-mantle.xmf,1237,-1.82269e-06,9.4353e-06,0,-3.53054e-06,-1.49366e+09,-1.49216e+09,-1.49342e+09,-471857,-0.0309594,0.0804962,-0,0.0862445,6459.94,-52211.7,0,52609.8,471857
step02_gravity_refstate-mantle.xmf,1238,-6.20877e-07,7.21737e-06,0,-1.90017e-06,-1.54714e+09,-1.54609e+09,-1.54706e+09,-253958,-0.0353549,0.0485199,-0,0.0600346,9703.17,-53866.1,0,54733,253958
step02_gravity_refstate-mantle.xmf,1239,-8.85469e-07,7.69882e-06,0,-2.27073e-06,-1.53347e+09,-1.53232e+09,-1.53335e+09,-303484,-0.0344903,0.0556211,-0,0.0654469,8858.9,-53443.1,0,54172.4,303484
step02_gravity_refstate-mantle.xmf,1240,-1.48234e-06,8.79999e-06,0,-3.09573e-06,-1.50655e+09,-1.50518e+09,-1.50635e+09,-413744,-0.0322764,0.0717148,-0,0.0786434,7227.91,-52610.4,0,53104.6,413744
step02_gravity_refstate-mantle.xmf,1241,-1.16851e-06,8.2204e-06,0,-2.67508e-06,-1.51958e+09,-1.51832e+09,-1.51942e+09,-357524,-0.0334558,0.0634575,-0,0.0717366,8030.59,-53013.5,0,53618.3,357524
step02_gravity_refstate-mantle.xmf,1242,3.58403e-07,5.55899e-06,0,-4.68264e-07,-1.65142e+09,-1.65072e+09,-1.65146e+09,-62583.5,-0.0377356,0.0166403,-0,0.0412416,13856.8,-57089.3,0,58746.9,62583.5
step02_gravity_refstate-mantle.xmf,1243,5.02415e-07,5.39327e-06,0,-1.52986e-07,-1.71009e+09,-1.70944e+09,-1.71016e+09,-20446.6,-0.0379957,0.00596485,-0,0.0384611,14646.7,-58902.5,0,60696.2,20446.6
step02_gravity_refstate-mantle.xmf,1244,6.82956e-07,5.12958e-06,0,2.23643e-09,-1.74561e+09,-1.74501e+09,-1.7457e+09,298.899,-0.037638,-5.67805e-19,-0,0.037638,15431.1,-60000,0,61952.6,298.899
step02_gravity_refstate-mantle.xmf,1245,-2.22185e-06,9.62907e-06,0,1.9956e-06,-1.59461e+09,-1.59303e+09,-1.59431e+09,266712,0.032175,0.0465741,0,0.0566072,-7226.89,-55327.8,-0,55797.8,266712
step02_gravity_refstate-mantle.xmf,1246,-1.21652e-06,8.09782e-06,0,6.90022e-07,-1.67961e+09,-1.67837e+09,-1.67945e+09,92221.4,0.0365011,0.0167579,0,0.0401641,-9770.17,-57956.3,-0,58774.1,92221.4
step02_gravity_refstate-mantle.xmf,1247,-5.15757e-06,1.48482e-05,0,-4.65951e-06,-1.45771e+09,-1.45503e+09,-1.45702e+09,-622744,-0.0198767,0.122474,-0,0.124077,2827.92,-51092.6,0,51170.8,622744
step02_gravity_refstate-mantle.xmf,1248,-7.56783e-06,1.81542e-05,0,-2.62111e-06,-1.45677e+09,-1.45333e+09,-1.45575e+09,-350311,-0.00908838,0.134068,-0,0.134375,1135.96,-51055.8,0,51068.5,350311
step02_gravity_refstate-mantle.xmf,1249,-3.14997e-06,1.17183e-05,0,-4.51676e-06,-1.46892e+09,-1.46693e+09,-1.4685e+09,-603665,-0.0264669,0.10359,-0,0.106918,4523.26,-51444.4,0,51642.9,603665
step02_gravity_refstate-mantle.xmf,1250,1.09926e-07,5.96888e-06,0,-6.96032e-07,-1.63106e+09,-1.63028e+09,-1.63108e+09,-93024.7,-0.0376605,0.0219368,-0,0.0435837,12834.6,-56460.1,0,57900.5,93024.7
step02_gravity_refstate-mantle.xmf,1251,3.44896e-07,5.61618e-06,0,-2.96959e-07,-1.68475e+09,-1.68404e+09,-1.68479e+09,-39688.5,-0.0380837,0.0107336,-0,0.0395674,13987.1,-58119,0,59778.4,39688.5
step02_gravity_refstate-mantle.xmf,1252,-8.14169e-06,1.87975e-05,0,-3.41358e-07,-1.46025e+09,-1.45665e+09,-1.45917e+09,-45622.5,-0.000990753,0.13456,-0,0.134564,121.938,-51161.4,0,51161.6,45622.5
step02_gravity_refstate-mantle.xmf,1253,-7.76307e-06,1.8109e-05,0,8.56961e-07,-1.47198e+09,-1.46852e+09,-1.47094e+09,114533,0.00331323,0.127556,0,0.127599,-425.128,-51524.3,-0,51526.1,114533
step02_gravity_refstate-mantle.xmf,1254,-2.60933e-06,1.02354e-05,0,2.33491e-06,-1.57773e+09,-1.57602e+09,-1.57738e+09,312061,0.0304264,0.0549241,0,0.0627887,-6451.15,-54805.4,-0,55183.8,312061
step02_gravity_refstate-mantle.xmf,1255,-3.03756e-06,1.09074e-05,0,2.65178e-06,-1.56196e+09,-1.5601e+09,-1.56156e+09,354410,0.0284627,0.0635891,0,0.0696685,-5687.21,-54317.2,-0,54614.1,354410
step02_gravity_refstate-mantle.xmf,1256,-3.49483e-06,1.16246e-05,0,2.92084e-06,-1.54759e+09,-1.54557e+09,-1.54712e+09,390370,0.0263642,0.0722107,0,0.076873,-4968.43,-53871.9,-0,54100.6,390370
step02_gravity_refstate-mantle.xmf,1257,-7.20459e-06,1.72173e-05,0,1.80287e-06,-1.4831e+09,-1.47983e+09,-1.48213e+09,240953,0.00753878,0.120126,0,0.120362,-1014.88,-51869.2,-0,51879.2,240953
step02_gravity_refstate-mantle.xmf,1258,-6.56025e-06,1.62371e-05,0,2.46878e-06,-1.49361e+09,-1.49056e+09,-1.49273e+09,329952,0.0114577,0.112487,0,0.113069,-1623.84,-52195.8,-0,52221.1,329952
step02_gravity_refstate-mantle.xmf,1259,-4.01527e-06,1.24333e-05,0,3.13249e-06,-1.53382e+09,-1.53163e+09,-1.53329e+09,418657,0.023997,0.0811528,0,0.0846264,-4255.57,-53445.3,-0,53614.5,418657
step02_gravity_refstate-mantle.xmf,1260,-5.90616e-06,1.52604e-05,0,2.88933e-06,-1.50341e+09,-1.50058e+09,-1.50262e+09,386160,0.0149708,0.104949,0,0.106011,-2235.82,-52500.3,-0,52547.9,386160
step02_gravity_refstate-mantle.xmf,1261,-4.61422e-06,1.33432e-05,0,3.21218e-06,-1.52238e+09,-1.51998e+09,-1.52177e+09,429308,0.0212581,0.0896242,0,0.0921108,-3548.2,-53090.3,-0,53208.7,429308
step02_gravity_refstate-mantle.xmf,1262,-5.25857e-06,1.43022e-05,0,3.12684e-06,-1.51276e+09,-1.51015e+09,-1.51206e+09,417903,0.0181952,0.0974443,0,0.0991285,-2867.39,-52791.2,-0,52869,417903
step02_gravity_refstate-mantle.xmf,1263,-2.39626e-06,9.83413e-06,0,1.59727e-06,-1.62483e+09,-1.62319e+09,-1.62451e+09,213475,0.0319391,0.0376026,0,0.0493362,-7196.08,-56260.6,-0,56718.9,213475
step02_gravity_refstate-mantle.xmf,1264,-2.01418e-06,9.26712e-06,0,1.26537e-06,-1.64436e+09,-1.64285e+09,-1.64409e+09,169117,0.0336412,0.0296387,0,0.044835,-8002.21,-56865.1,-0,57425.4,169117
step02_gravity_refstate-mantle.xmf,1265,-1.60361e-06,8.66127e-06,0,9.62765e-07,-1.66199e+09,-1.66062e+09,-1.66177e+09,128674,0.0352302,0.0228125,0,0.0419711,-8888.35,-57410.7,-0,58094.7,128674
step02_gravity_refstate-mantle.xmf,1266,-1.41308e-06,8.41644e-06,0,3.45775e-07,-1.71403e+09,-1.71271e+09,-1.71384e+09,46212.8,0.036169,0.00829339,0,0.0371076,-9483.71,-59018.9,-0,59776,46212.8
step02_gravity_refstate-mantle.xmf,1267,-1.11109e-06,8.0122e-06,0,-2.66077e-09,-1.74576e+09,-1.74454e+09,-1.74561e+09,-355.611,0.0370269,-1.36222e-19,0,0.0370269,-10149.4,-60000,-0,60852.4,355.611
step02_gravity_refstate-mantle.xmf,1268,-5.96822e-06,1.58554e-05,0,-4.04394e-06,-1.46428e+09,-1.46137e+09,-1.46349e+09,-540472,-0.0166426,0.123415,-0,0.124532,2291.6,-51292.9,0,51344.1,540472
step02_gravity_refstate-mantle.xmf,1269,-7.53845e-06,1.78688e-05,0,-1.68941e-06,-1.47144e+09,-1.46805e+09,-1.47044e+09,-225789,-0.00621268,0.127057,-0,0.127209,802.866,-51508.7,0,51515,225789
step02_gravity_refstate-mantle.xmf,1270,-7.07024e-06,1.72686e-05,0,-2.73799e-06,-1.46966e+09,-1.46641e+09,-1.46872e+09,-365933,-0.0105141,0.125909,-0,0.126347,1384.26,-51455.3,0,51473.9,365933
step02_gravity_refstate-mantle.xmf,1271,-4.48184e-06,1.36777e-05,0,-4.49476e-06,-1.47022e+09,-1.46779e+09,-1.46962e+09,-600725,-0.0221992,0.112335,-0,0.114507,3404.15,-51480.7,0,51593.1,600725
step02_gravity_refstate-mantle.xmf,1272,-3.79472e-06,1.25374e-05,0,-4.2575e-06,-1.48215e+09,-1.47997e+09,-1.48165e+09,-569015,-0.0246337,0.102208,-0,0.105135,4081.86,-51850.9,0,52011.4,569015
step02_gravity_refstate-mantle.xmf,1273,-3.04711e-06,1.13589e-05,0,-4.03517e-06,-1.48982e+09,-1.48789e+09,-1.48941e+09,-539300,-0.0272523,0.093145,-0,0.0970499,4902.05,-52089.6,0,52319.8,539300
step02_gravity_refstate-mantle.xmf,1274,-2.53578e-06,1.04662e-05,0,-3.56655e-06,-1.50657e+09,-1.50484e+09,-1.50624e+09,-476669,-0.0292572,0.0817523,-0,0.0868298,5709.15,-52608.4,0,52917.3,476669
step02_gravity_refstate-mantle.xmf,1275,-1.43766e-07,6.38494e-06,0,-9.72693e-07,-1.61034e+09,-1.60947e+09,-1.61032e+09,-130000,-0.0373017,0.0280355,-0,0.0466627,11845.7,-55819.3,0,57062.4,130000
step02_gravity_refstate-mantle.xmf,1276,-4.18685e-07,6.84185e-06,0,-1.29264e-06,-1.59142e+09,-1.59045e+09,-1.59136e+09,-172761,-0.0367137,0.0346212,-0,0.0504631,10860.8,-55234.1,0,56291.8,172761
step02_gravity_refstate-mantle.xmf,1277,-2.12939e-06,9.75403e-06,0,-3.15843e-06,-1.52092e+09,-1.51933e+09,-1.52064e+09,-422125,-0.0309033,0.072405,-0,0.0787242,6463.67,-53052.5,0,53444.8,422125
step02_gravity_refstate-mantle.xmf,1278,-7.60593e-07,7.41017e-06,0,-1.63283e-06,-1.57777e+09,-1.57668e+09,-1.57767e+09,-218228,-0.0359107,0.0410762,-0,0.0545603,9834.51,-54811.7,0,55687,218228
step02_gravity_refstate-mantle.xmf,1279,-1.09369e-06,7.96918e-06,0,-1.9891e-06,-1.56398e+09,-1.56277e+09,-1.56384e+09,-265843,-0.0348972,0.0480155,-0,0.0593574,8907.75,-54385,0,55109.7,265843
step02_gravity_refstate-mantle.xmf,1280,-1.4222e-06,8.52916e-06,0,-2.36841e-06,-1.54943e+09,-1.5481e+09,-1.54924e+09,-316538,-0.0337125,0.0556398,-0,0.0650563,8049.95,-53934.8,0,54532.2,316538
step02_gravity_refstate-mantle.xmf,1281,-1.76328e-06,9.11755e-06,0,-2.76088e-06,-1.535e+09,-1.53354e+09,-1.53476e+09,-368992,-0.0323791,0.0637911,-0,0.0715382,7238.28,-53488.1,0,53975.6,368992
step02_gravity_refstate-mantle.xmf,1282,2.20922e-09,6.19024e-06,0,-4.57691e-07,-1.6739e+09,-1.67307e+09,-1.6739e+09,-61170.4,-0.0381931,0.0139829,-0,0.0406723,12773.6,-57783.1,0,59178.1,61170.4
step02_gravity_refstate-mantle.xmf,1283,1.38121e-07,6.01046e-06,0,-1.98017e-07,-1.71158e+09,-1.71079e+09,-1.7116e+09,-26464.9,-0.0384186,0.00637054,-0,0.0389432,13353.4,-58947.5,0,60441.1,26464.9
step02_gravity_refstate-mantle.xmf,1284,3.30951e-07,5.74234e-06,0,3.45872e-09,-1.74563e+09,-1.74491e+09,-1.74568e+09,462.258,-0.0383422,-6.07046e-19,-0,0.0383422,14040.5,-60000,0,61620.9,462.258
step02_gravity_refstate-mantle.xmf,1285,-2.77301e-06,1.03972e-05,0,1.91583e-06,-1.6065e+09,-1.60474e+09,-1.60613e+09,256051,0.0301415,0.0457803,0,0.0548119,-6446.95,-55693.4,-0,56065.3,256051
step02_gravity_refstate-mantle.xmf,1286,-1.67406e-06,8.76967e-06,0,6.20814e-07,-1.69173e+09,-1.69034e+09,-1.69151e+09,82971.8,0.0352628,0.014782,0,0.0382357,-8903.27,-58329.4,-0,59005,82971.8
step02_gravity_refstate-mantle.xmf,1287,-6.36848e-06,1.61853e-05,0,-3.23176e-06,-1.47834e+09,-1.47533e+09,-1.47749e+09,-431925,-0.0139721,0.118623,-0,0.119443,1941.46,-51725.4,0,51761.8,431925
step02_gravity_refstate-mantle.xmf,1288,-5.46284e-06,1.48933e-05,0,-3.81158e-06,-1.48166e+09,-1.47894e+09,-1.48093e+09,-509417,-0.018234,0.112536,-0,0.114003,2684.48,-51830.5,0,51899.9,509417
step02_gravity_refstate-mantle.xmf,1289,-2.79581e-07,6.62828e-06,0,-7.35167e-07,-1.64788e+09,-1.64695e+09,-1.64784e+09,-98255.1,-0.0377925,0.0205989,-0,0.0430417,11796.2,-56978.5,0,58186.8,98255.1
step02_gravity_refstate-mantle.xmf,1290,-7.54138e-06,1.76736e-05,0,-3.74729e-07,-1.48344e+09,-1.48007e+09,-1.48243e+09,-50082.5,-0.00139328,0.12144,-0,0.121448,184.764,-51878.9,0,51879.2,50082.5
step02_gravity_refstate-mantle.xmf,1291,-7.26225e-06,1.7156e-05,0,6.72703e-07,-1.49496e+09,-1.4917e+09,-1.49399e+09,89906.7,0.00305573,0.115026,0,0.115066,-419.368,-52235.3,-0,52237,89906.7
step02_gravity_refstate-mantle.xmf,1292,-3.18702e-06,1.10201e-05,0,2.18812e-06,-1.59093e+09,-1.58903e+09,-1.5905e+09,292442,0.0281139,0.0537092,0,0.0606223,-5705.27,-55211.1,-0,55505.1,292442
step02_gravity_refstate-mantle.xmf,1293,-3.6472e-06,1.17152e-05,0,2.43057e-06,-1.57545e+09,-1.5734e+09,-1.57496e+09,324846,0.0258014,0.062239,0,0.0673751,-4955.41,-54731.7,-0,54955.6,324846
step02_gravity_refstate-mantle.xmf,1294,-4.13743e-06,1.24548e-05,0,2.60766e-06,-1.56089e+09,-1.55868e+09,-1.56034e+09,348514,0.0233069,0.0708458,0,0.0745811,-4237.85,-54280.8,-0,54445.9,348514
step02_gravity_refstate-mantle.xmf,1295,-6.80951e-06,1.64326e-05,0,1.47072e-06,-1.50662e+09,-1.50351e+09,-1.50571e+09,196561,0.00722212,0.107837,0,0.108079,-1033.78,-52596.6,-0,52606.7,196561
step02_gravity_refstate-mantle.xmf,1296,-6.30632e-06,1.56896e-05,0,2.03638e-06,-1.5161e+09,-1.51316e+09,-1.51525e+09,272163,0.010956,0.101359,0,0.101949,-1633.43,-52890.7,-0,52915.9,272163
step02_gravity_refstate-mantle.xmf,1297,-4.68859e-06,1.32794e-05,0,2.68152e-06,-1.54737e+09,-1.54497e+09,-1.54674e+09,358385,0.0204504,0.0795241,0,0.0821115,-3515.79,-53861.3,-0,53975.9,358385
step02_gravity_refstate-mantle.xmf,1298,-5.77009e-06,1.49264e-05,0,2.43482e-06,-1.52488e+09,-1.52211e+09,-1.52411e+09,325414,0.014329,0.0949679,0,0.0960428,-2228.61,-53163.6,-0,53210.3,325414
step02_gravity_refstate-mantle.xmf,1299,-5.28014e-06,1.41643e-05,0,2.61196e-06,-1.53506e+09,-1.53246e+09,-1.53435e+09,349088,0.0172387,0.0879497,0,0.0896232,-2804.87,-53479.5,-0,53553,349088
step02_gravity_refstate-mantle.xmf,1300,-2.87646e-06,1.04996e-05,0,1.55246e-06,-1.6317e+09,-1.62991e+09,-1.63132e+09,207487,0.0299382,0.0376278,0,0.0480847,-6454.53,-56471.4,-0,56839.1,207487
step02_gravity_refstate-mantle.xmf,1301,-2.6167e-06,1.01264e-05,0,1.23954e-06,-1.65284e+09,-1.65114e+09,-1.65249e+09,165664,0.0312907,0.0294918,0,0.0429986,-7001.15,-57125.1,-0,57552.6,165664
step02_gravity_refstate-mantle.xmf,1302,-2.20546e-06,9.54034e-06,0,8.24167e-07,-1.68082e+09,-1.67925e+09,-1.68053e+09,110150,0.0332437,0.0193468,0,0.0384635,-7855.65,-57990.8,-0,58520.5,110150
step02_gravity_refstate-mantle.xmf,1303,-1.99721e-06,9.26095e-06,0,3.73944e-07,-1.71532e+09,-1.71382e+09,-1.71505e+09,49977.6,0.0342393,0.00876218,0,0.0353426,-8351.4,-59057.1,-0,59644.7,49977.6
step02_gravity_refstate-mantle.xmf,1304,-1.70887e-06,8.88622e-06,0,-3.17543e-09,-1.74581e+09,-1.7444e+09,-1.74559e+09,-424.397,0.0353104,-1.3911e-19,0,0.0353104,-8931.98,-60000,-0,60661.2,424.397
step02_gravity_refstate-mantle.xmf,1305,-6.79651e-06,1.66702e-05,0,-2.38205e-06,-1.48685e+09,-1.48371e+09,-1.48594e+09,-318360,-0.0102399,0.11677,-0,0.117218,1413.98,-51986.4,0,52005.6,318360
step02_gravity_refstate-mantle.xmf,1306,-4.61496e-06,1.35739e-05,0,-3.82565e-06,-1.49506e+09,-1.49263e+09,-1.49445e+09,-511298,-0.021586,0.101604,-0,0.103871,3444.18,-52246.9,0,52360.3,511298
step02_gravity_refstate-mantle.xmf,1307,-3.89212e-06,1.24479e-05,0,-3.68948e-06,-1.50727e+09,-1.50509e+09,-1.50675e+09,-493099,-0.0244667,0.0916298,-0,0.0948401,4208.08,-52626,0,52794,493099
step02_gravity_refstate-mantle.xmf,1308,-3.29945e-06,1.15046e-05,0,-3.43762e-06,-1.51997e+09,-1.518e+09,-1.51953e+09,-459438,-0.0268742,0.0821068,-0,0.086393,4960.88,-53019.9,0,53251.5,459438
step02_gravity_refstate-mantle.xmf,1309,-2.80886e-06,1.07045e-05,0,-3.10249e-06,-1.53453e+09,-1.53272e+09,-1.53415e+09,-414648,-0.028929,0.0725898,-0,0.078142,5714.93,-53470.6,0,53775.2,414648
step02_gravity_refstate-mantle.xmf,1310,-5.77859e-07,7.0987e-06,0,-1.02237e-06,-1.62815e+09,-1.62712e+09,-1.62807e+09,-136640,-0.0371773,0.0267431,-0,0.0457968,10850.9,-56368.4,0,57403.2,136640
step02_gravity_refstate-mantle.xmf,1311,-9.20803e-07,7.6416e-06,0,-1.33461e-06,-1.61152e+09,-1.61037e+09,-1.61139e+09,-178370,-0.0362929,0.0330903,-0,0.0491136,9878.45,-55853.7,0,56720.5,178370
step02_gravity_refstate-mantle.xmf,1312,-2.39553e-06,1.00237e-05,0,-2.75377e-06,-1.54914e+09,-1.54748e+09,-1.54881e+09,-368041,-0.030699,0.0638328,-0,0.0708312,6457.48,-53922.9,0,54308.2,368041
step02_gravity_refstate-mantle.xmf,1313,-1.28146e-06,8.21461e-06,0,-1.67041e-06,-1.59582e+09,-1.59455e+09,-1.59565e+09,-223251,-0.0351552,0.0399341,-0,0.0532036,8941.1,-55367.8,0,56085.1,223251
step02_gravity_refstate-mantle.xmf,1314,-1.64731e-06,8.8012e-06,0,-2.02387e-06,-1.58028e+09,-1.57888e+09,-1.58005e+09,-270491,-0.0338145,0.0473511,-0,0.0581854,8058.89,-54886.7,0,55475.2,270491
step02_gravity_refstate-mantle.xmf,1315,-2.01453e-06,9.39789e-06,0,-2.38921e-06,-1.56454e+09,-1.56301e+09,-1.56427e+09,-319319,-0.0323228,0.0553699,-0,0.0641139,7234.76,-54399.7,0,54878.6,319319
step02_gravity_refstate-mantle.xmf,1316,-3.98458e-07,6.83061e-06,0,-5.16432e-07,-1.67924e+09,-1.67828e+09,-1.67919e+09,-69021.1,-0.038021,0.0142396,-0,0.0406001,11691.5,-57947.2,0,59114.9,69021.1
step02_gravity_refstate-mantle.xmf,1317,-2.99378e-07,6.71628e-06,0,-2.61176e-07,-1.71051e+09,-1.70957e+09,-1.71047e+09,-34906.2,-0.0383111,0.00734841,-0,0.0390095,12058.4,-58913.4,0,60134.7,34906.2
step02_gravity_refstate-mantle.xmf,1318,-8.66981e-08,6.43111e-06,0,3.91472e-09,-1.74567e+09,-1.74479e+09,-1.74565e+09,523.202,-0.0385068,-7.00646e-19,-0,0.0385068,12699.5,-60000,0,61329.3,523.202
step02_gravity_refstate-mantle.xmf,1319,-7.07394e-06,1.69238e-05,0,-1.3431e-06,-1.49587e+09,-1.49267e+09,-1.49493e+09,-179505,-0.00587499,0.11389,-0,0.114042,813.967,-52264,0,52270.4,179505
step02_gravity_refstate-mantle.xmf,1320,-3.27825e-06,1.10788e-05,0,1.74231e-06,-1.62003e+09,-1.61811e+09,-1.61959e+09,232860,0.0278797,0.0436374,0,0.0517832,-5746.2,-56109.5,-0,56403,232860
step02_gravity_refstate-mantle.xmf,1321,-6.07483e-06,1.55443e-05,0,-2.89466e-06,-1.49778e+09,-1.49489e+09,-1.49696e+09,-386871,-0.0143009,0.108312,-0,0.109252,2095.17,-52326,0,52367.9,386871
step02_gravity_refstate-mantle.xmf,1322,-7.24352e-07,7.34049e-06,0,-7.30778e-07,-1.66457e+09,-1.66349e+09,-1.66447e+09,-97668.5,-0.0374196,0.0187635,-0,0.0418604,10781.2,-57493,0,58495.1,97668.5
step02_gravity_refstate-mantle.xmf,1323,-7.07309e-06,1.6787e-05,0,-3.09785e-07,-1.50695e+09,-1.50376e+09,-1.50601e+09,-41402.7,-0.00135576,0.108906,-0,0.108915,191.587,-52606,0,52606.3,41402.7
step02_gravity_refstate-mantle.xmf,1324,-6.83884e-06,1.63554e-05,0,5.52326e-07,-1.5192e+09,-1.5161e+09,-1.51828e+09,73818.3,0.00296902,0.102456,0,0.102499,-432.976,-52984.6,-0,52986.4,73818.3
step02_gravity_refstate-mantle.xmf,1325,-3.74341e-06,1.17574e-05,0,1.96398e-06,-1.60395e+09,-1.60187e+09,-1.60345e+09,262486,0.0253409,0.0519006,0,0.0577567,-4958.92,-55611.5,-0,55832.1,262486
step02_gravity_refstate-mantle.xmf,1326,-4.21281e-06,1.24445e-05,0,2.11968e-06,-1.58875e+09,-1.58653e+09,-1.58819e+09,283295,0.0226783,0.0602034,0,0.0643331,-4221.96,-55140.8,-0,55302.2,283295
step02_gravity_refstate-mantle.xmf,1327,-4.71966e-06,1.31854e-05,0,2.18175e-06,-1.57425e+09,-1.57186e+09,-1.57362e+09,291591,0.0196895,0.0686668,0,0.071434,-3485.02,-54691.4,-0,54802.3,291591
step02_gravity_refstate-mantle.xmf,1328,-6.44615e-06,1.57293e-05,0,1.20986e-06,-1.53273e+09,-1.52977e+09,-1.53187e+09,161698,0.00710326,0.0947668,0,0.0950326,-1078.2,-53403.7,-0,53414.5,161698
step02_gravity_refstate-mantle.xmf,1329,-5.89205e-06,1.49113e-05,0,1.84761e-06,-1.5436e+09,-1.54082e+09,-1.54281e+09,246934,0.0120985,0.0874337,0,0.0882668,-1920.76,-53741.1,-0,53775.4,246934
step02_gravity_refstate-mantle.xmf,1330,-5.27453e-06,1.39946e-05,0,2.10973e-06,-1.55998e+09,-1.5574e+09,-1.55927e+09,281966,0.0162405,0.0774164,0,0.0791015,-2729.41,-54248.7,-0,54317.3,281966
step02_gravity_refstate-mantle.xmf,1331,-3.26881e-06,1.10285e-05,0,1.27262e-06,-1.65263e+09,-1.65072e+09,-1.65219e+09,170086,0.0280969,0.0320599,0,0.0426295,-5913.79,-57116.6,-0,57422,170086
step02_gravity_refstate-mantle.xmf,1332,-2.93233e-06,1.05601e-05,0,8.50342e-07,-1.68257e+09,-1.68077e+09,-1.68218e+09,113648,0.0299795,0.0207966,0,0.0364866,-6586.87,-58042.6,-0,58415.2,113648
step02_gravity_refstate-mantle.xmf,1333,-2.64449e-06,1.0174e-05,0,4.21907e-07,-1.71392e+09,-1.7122e+09,-1.71356e+09,56387.9,0.0315014,0.0100829,0,0.0330757,-7170.67,-59011.7,-0,59445.8,56387.9
step02_gravity_refstate-mantle.xmf,1334,-2.34108e-06,9.78582e-06,0,-2.57265e-09,-1.74588e+09,-1.74426e+09,-1.74556e+09,-343.835,0.0329123,-1.59027e-19,0,0.0329123,-7747.36,-60000,-0,60498.1,343.835
step02_gravity_refstate-mantle.xmf,1335,-5.35051e-06,1.44618e-05,0,-3.17954e-06,-1.50829e+09,-1.50564e+09,-1.50757e+09,-424945,-0.0178703,0.0999016,-0,0.101487,2779.96,-52652.7,0,52726.1,424945
step02_gravity_refstate-mantle.xmf,1336,-6.49397e-06,1.603e-05,0,-2.01105e-06,-1.50846e+09,-1.50545e+09,-1.50759e+09,-268776,-0.0100071,0.105688,-0,0.106161,1458.09,-52654.5,0,52674.6,268776
step02_gravity_refstate-mantle.xmf,1337,-4.6486e-06,1.34005e-05,0,-3.2337e-06,-1.52077e+09,-1.51836e+09,-1.52015e+09,-432184,-0.0211114,0.0905224,-0,0.0929516,3506.52,-53040.3,0,53156.1,432184
step02_gravity_refstate-mantle.xmf,1338,-4.03292e-06,1.24579e-05,0,-3.12759e-06,-1.53388e+09,-1.53168e+09,-1.53334e+09,-418003,-0.0239116,0.0812462,-0,0.0846919,4234.64,-53447,0,53614.5,418003
step02_gravity_refstate-mantle.xmf,1339,-3.49482e-06,1.16247e-05,0,-2.92095e-06,-1.54762e+09,-1.5456e+09,-1.54715e+09,-390385,-0.0263635,0.0722018,-0,0.0768644,4968.35,-53872.8,0,54101.4,390385
step02_gravity_refstate-mantle.xmf,1340,-3.03144e-06,1.08991e-05,0,-2.6464e-06,-1.56232e+09,-1.56046e+09,-1.56192e+09,-353691,-0.0284911,0.0634139,-0,0.0695203,5698.29,-54328.3,0,54626.3,353691
step02_gravity_refstate-mantle.xmf,1341,-1.077e-06,7.87587e-06,0,-1.0144e-06,-1.64613e+09,-1.64494e+09,-1.64599e+09,-135574,-0.0364834,0.0248628,-0,0.0441497,9853.24,-56922.5,0,57769,135574
step02_gravity_refstate-mantle.xmf,1342,-1.45405e-06,8.44739e-06,0,-1.32029e-06,-1.62908e+09,-1.62776e+09,-1.62889e+09,-176457,-0.0352633,0.0313923,-0,0.047212,8936.77,-56394.7,0,57098.4,176457
step02_gravity_refstate-mantle.xmf,1343,-2.61721e-06,1.02466e-05,0,-2.32995e-06,-1.57821e+09,-1.57649e+09,-1.57786e+09,-311397,-0.0304024,0.0548068,-0,0.0626744,6443.64,-54820.1,0,55197.5,311397
step02_gravity_refstate-mantle.xmf,1344,-1.84337e-06,9.04215e-06,0,-1.65234e-06,-1.61196e+09,-1.61051e+09,-1.61172e+09,-220836,-0.0337892,0.0386638,-0,0.0513478,8048.17,-55864.9,0,56441.6,220836
step02_gravity_refstate-mantle.xmf,1345,-2.22993e-06,9.63964e-06,0,-1.98987e-06,-1.59516e+09,-1.59358e+09,-1.59486e+09,-265946,-0.0321559,0.0464377,-0,0.0564841,7219.58,-55344.8,0,55813.7,265946
step02_gravity_refstate-mantle.xmf,1346,-8.04609e-07,7.50351e-06,0,-3.71362e-07,-1.70553e+09,-1.70442e+09,-1.70542e+09,-49632.6,-0.0375845,0.00938159,-0,0.0387377,10771.9,-58758.2,0,59737.4,49632.6
step02_gravity_refstate-mantle.xmf,1347,-5.70073e-07,7.19282e-06,0,4.94905e-09,-1.74571e+09,-1.74467e+09,-1.74563e+09,661.441,-0.0380832,-8.94917e-19,-0,0.0380832,11403.8,-60000,0,61074.1,661.441
step02_gravity_refstate-mantle.xmf,1348,-6.70674e-06,1.61985e-05,0,-1.09556e-06,-1.51924e+09,-1.51618e+09,-1.51835e+09,-146422,-0.00562221,0.101901,-0,0.102056,824.688,-52986.6,0,52993,146422
step02_gravity_refstate-mantle.xmf,1349,-3.78647e-06,1.17543e-05,0,1.50584e-06,-1.63433e+09,-1.63225e+09,-1.63382e+09,201255,0.0250734,0.0407473,0,0.0478437,-4999.99,-56549.7,-0,56770.3,201255
step02_gravity_refstate-mantle.xmf,1350,-5.90395e-06,1.50991e-05,0,-2.41798e-06,-1.52075e+09,-1.51795e+09,-1.51996e+09,-323163,-0.0138166,0.0973167,-0,0.0982926,2122.3,-53035.7,0,53078.2,323163
step02_gravity_refstate-mantle.xmf,1351,-1.20976e-06,8.08808e-06,0,-6.83896e-07,-1.68006e+09,-1.67882e+09,-1.6799e+09,-91402.7,-0.0365211,0.0166224,-0,0.040126,9785.71,-57970.3,0,58790.4,91402.7
step02_gravity_refstate-mantle.xmf,1352,-6.67915e-06,1.6047e-05,0,-2.67969e-07,-1.53175e+09,-1.52871e+09,-1.53085e+09,-35814.1,-0.00139706,0.0963119,-0,0.096322,209.102,-53372.6,0,53373,35814.1
step02_gravity_refstate-mantle.xmf,1353,-6.48882e-06,1.56993e-05,0,4.38347e-07,-1.54441e+09,-1.54144e+09,-1.54354e+09,58585,0.00281916,0.0899637,0,0.0900078,-433.655,-53764,-0,53765.8,58585
step02_gravity_refstate-mantle.xmf,1354,-4.24971e-06,1.24132e-05,0,1.66736e-06,-1.61749e+09,-1.61526e+09,-1.61692e+09,222842,0.0221739,0.0491894,0,0.0539563,-4218.14,-56028,-0,56186.5,222842
step02_gravity_refstate-mantle.xmf,1355,-4.71879e-06,1.30822e-05,0,1.72866e-06,-1.60227e+09,-1.59989e+09,-1.60164e+09,231035,0.019043,0.0573788,0,0.0604563,-3462,-55556.7,-0,55664.4,231035
step02_gravity_refstate-mantle.xmf,1356,-5.19712e-06,1.37688e-05,0,1.68145e-06,-1.58721e+09,-1.58467e+09,-1.58651e+09,224726,0.0156224,0.0657849,0,0.0676145,-2715.46,-55089.8,-0,55156.7,224726
step02_gravity_refstate-mantle.xmf,1357,-6.14456e-06,1.51563e-05,0,1.03389e-06,-1.55827e+09,-1.55543e+09,-1.55745e+09,138180,0.00724504,0.082432,0,0.0827498,-1154.97,-54193.2,-0,54205.5,138180
step02_gravity_refstate-mantle.xmf,1358,-5.69369e-06,1.4487e-05,0,1.46247e-06,-1.57234e+09,-1.56965e+09,-1.57158e+09,195459,0.0116441,0.0743411,0,0.0752475,-1934.56,-54629.2,-0,54663.5,195459
step02_gravity_refstate-mantle.xmf,1359,-3.85039e-06,1.18091e-05,0,1.06864e-06,-1.66485e+09,-1.66275e+09,-1.66433e+09,142823,0.0246174,0.0297189,0,0.0385906,-4966.39,-57492.1,-0,57706.2,142823
step02_gravity_refstate-mantle.xmf,1360,-3.46433e-06,1.12805e-05,0,8.62862e-07,-1.68144e+09,-1.67947e+09,-1.68098e+09,115322,0.0270572,0.0226009,0,0.0352547,-5670.31,-58005.9,-0,58282.4,115322
step02_gravity_refstate-mantle.xmf,1361,-3.36861e-06,1.11645e-05,0,4.43823e-07,-1.71279e+09,-1.71085e+09,-1.71234e+09,59317,0.0276731,0.0114727,0,0.029957,-5895.58,-58974.6,-0,59268.6,59317
step02_gravity_refstate-mantle.xmf,1362,-2.98778e-06,1.06842e-05,0,-1.31848e-09,-1.74594e+09,-1.74411e+09,-1.74554e+09,-176.215,0.0298325,-1.86445e-19,0,0.0298325,-6591.22,-60000,-0,60360.9,176.215
step02_gravity_refstate-mantle.xmf,1363,-5.27861e-06,1.41655e-05,0,-2.64492e-06,-1.53346e+09,-1.53086e+09,-1.53276e+09,-353493,-0.0173225,0.0886147,-0,0.090292,2812.66,-53430.1,0,53504,353493
step02_gravity_refstate-mantle.xmf,1364,-6.23884e-06,1.54885e-05,0,-1.65563e-06,-1.53178e+09,-1.52888e+09,-1.53095e+09,-221275,-0.00960497,0.0942938,-0,0.0947817,1470.19,-53375.2,0,53395.4,221275
step02_gravity_refstate-mantle.xmf,1365,-4.68004e-06,1.327e-05,0,-2.69529e-06,-1.54682e+09,-1.54442e+09,-1.54619e+09,-360225,-0.0205094,0.0797044,-0,0.0823008,3525.49,-53844.4,0,53959.7,360225
step02_gravity_refstate-mantle.xmf,1366,-4.13777e-06,1.24556e-05,0,-2.60832e-06,-1.56084e+09,-1.55862e+09,-1.56028e+09,-348603,-0.0233042,0.0708719,-0,0.0746051,4236.92,-54279,0,54444.1,348603
step02_gravity_refstate-mantle.xmf,1367,-3.64935e-06,1.17213e-05,0,-2.44264e-06,-1.57476e+09,-1.5727e+09,-1.57427e+09,-326459,-0.0257927,0.0625139,-0,0.0676258,4949.6,-54710.4,0,54933.8,326459
step02_gravity_refstate-mantle.xmf,1368,-3.21489e-06,1.10599e-05,0,-2.17934e-06,-1.59163e+09,-1.58972e+09,-1.5912e+09,-291269,-0.0279885,0.0536115,-0,0.0604777,5669.03,-55232.8,0,55523,291269
step02_gravity_refstate-mantle.xmf,1369,-1.58048e-06,8.62688e-06,0,-9.6668e-07,-1.66118e+09,-1.65982e+09,-1.66097e+09,-129197,-0.0352955,0.0229466,-0,0.042099,8929.57,-57386,0,58076.6,129197
step02_gravity_refstate-mantle.xmf,1370,-1.99413e-06,9.2331e-06,0,-1.25358e-06,-1.64474e+09,-1.64324e+09,-1.64447e+09,-167540,-0.0337252,0.0294269,-0,0.0447586,8044.68,-56876.8,0,57442.9,167540
step02_gravity_refstate-mantle.xmf,1371,-2.81061e-06,1.04479e-05,0,-1.88734e-06,-1.6088e+09,-1.60703e+09,-1.60842e+09,-252242,-0.0300032,0.0451879,-0,0.0542414,6405.15,-55764.2,0,56130.9,252242
step02_gravity_refstate-mantle.xmf,1372,-2.41017e-06,9.84809e-06,0,-1.56655e-06,-1.62715e+09,-1.62551e+09,-1.62683e+09,-209369,-0.0319156,0.0369107,-0,0.0487956,7191.8,-56332.2,0,56789.4,209369
step02_gravity_refstate-mantle.xmf,1373,-1.41772e-06,8.42288e-06,0,-3.49794e-07,-1.71371e+09,-1.7124e+09,-1.71352e+09,-46749.9,-0.0361534,0.00838288,-0,0.0371126,9472.81,-59009.2,0,59764.7,46749.9
step02_gravity_refstate-mantle.xmf,1374,-1.11099e-06,8.0122e-06,0,2.91791e-09,-1.74576e+09,-1.74454e+09,-1.74561e+09,389.979,-0.0370269,-7.99082e-19,-0,0.0370269,10149.4,-60000,0,60852.4,389.979
step02_gravity_refstate-mantle.xmf,1375,-6.38589e-06,1.55808e-05,0,-9.10292e-07,-1.54355e+09,-1.54062e+09,-1.5427e+09,-121661,-0.00553124,0.0899094,-0,0.0900794,853.791,-53738.1,0,53744.9,121661
step02_gravity_refstate-mantle.xmf,1376,-4.27935e-06,1.24018e-05,0,1.23908e-06,-1.64718e+09,-1.64495e+09,-1.64661e+09,165603,0.0216704,0.0378703,0,0.0436322,-4194.26,-56945,-0,57099.3,165603
step02_gravity_refstate-mantle.xmf,1377,-5.75409e-06,1.47265e-05,0,-1.96472e-06,-1.54582e+09,-1.54308e+09,-1.54505e+09,-262585,-0.0131232,0.0858307,-0,0.0868281,2105.46,-53810,0,53851.2,262585
step02_gravity_refstate-mantle.xmf,1378,-1.67355e-06,8.76626e-06,0,-6.51942e-07,-1.68899e+09,-1.6876e+09,-1.68877e+09,-87132.1,-0.0352444,0.0155381,-0,0.0385175,8892.54,-58244.7,0,58919.6,87132.1
step02_gravity_refstate-mantle.xmf,1379,-6.35572e-06,1.54453e-05,0,-2.64268e-07,-1.5572e+09,-1.55429e+09,-1.55635e+09,-35319.4,-0.00163138,0.0839001,-0,0.083916,256.689,-54159.5,0,54160.1,35319.4
step02_gravity_refstate-mantle.xmf,1380,-6.19569e-06,1.51573e-05,0,3.29549e-07,-1.5711e+09,-1.56824e+09,-1.57027e+09,44044.3,0.00257753,0.0772454,0,0.0772884,-415.683,-54589.1,-0,54590.7,44044.3
step02_gravity_refstate-mantle.xmf,1381,-4.70833e-06,1.2999e-05,0,1.32136e-06,-1.63076e+09,-1.6284e+09,-1.63013e+09,176600,0.0184652,0.0459794,0,0.0495487,-3432.64,-56436.5,-0,56540.8,176600
step02_gravity_refstate-mantle.xmf,1382,-5.12982e-06,1.3591e-05,0,1.29437e-06,-1.61547e+09,-1.61297e+09,-1.61479e+09,172992,0.0149968,0.0539218,0,0.0559684,-2682.15,-55963,-0,56027.2,172992
step02_gravity_refstate-mantle.xmf,1383,-5.5395e-06,1.4173e-05,0,1.13637e-06,-1.60042e+09,-1.59779e+09,-1.59968e+09,151876,0.0111734,0.0619287,0,0.0629286,-1924.77,-55496.8,-0,55530.2,151876
step02_gravity_refstate-mantle.xmf,1384,-5.91233e-06,1.47184e-05,0,8.09741e-07,-1.58562e+09,-1.58286e+09,-1.58483e+09,108222,0.00692679,0.0698103,0,0.0701531,-1151.84,-55038.5,-0,55050.5,108222
step02_gravity_refstate-mantle.xmf,1385,-3.91017e-06,1.18833e-05,0,6.45524e-07,-1.69582e+09,-1.69371e+09,-1.6953e+09,86274.3,0.0241494,0.0184778,0,0.0304076,-4905,-58448.8,-0,58654.2,86274.3
step02_gravity_refstate-mantle.xmf,1386,-4.33901e-06,1.24587e-05,0,8.18907e-07,-1.67814e+09,-1.6759e+09,-1.67756e+09,109447,0.0209078,0.0261696,0,0.033496,-4088.28,-57901.1,-0,58045.3,109447
step02_gravity_refstate-mantle.xmf,1387,-3.62081e-06,1.15483e-05,0,2.27298e-10,-1.74601e+09,-1.74398e+09,-1.74552e+09,30.3783,0.0260929,-1.23662e-19,0,0.0260929,-5459.16,-60000,-0,60247.8,30.3783
step02_gravity_refstate-mantle.xmf,1388,-5.23707e-06,1.39462e-05,0,-2.13865e-06,-1.5599e+09,-1.55733e+09,-1.5592e+09,-285831,-0.0165362,0.0772497,-0,0.0789998,2785.58,-54246.4,0,54317.9,285831
step02_gravity_refstate-mantle.xmf,1389,-6.04835e-06,1.50907e-05,0,-1.35717e-06,-1.5533e+09,-1.55048e+09,-1.5525e+09,-181386,-0.00918629,0.0841466,-0,0.0846465,1461.97,-54040.2,0,54060,181386
step02_gravity_refstate-mantle.xmf,1390,-4.71372e-06,1.31768e-05,0,-2.18366e-06,-1.57428e+09,-1.57189e+09,-1.57365e+09,-291847,-0.0197348,0.068622,-0,0.0714034,3494.76,-54692.1,0,54803.6,291847
step02_gravity_refstate-mantle.xmf,1391,-4.2135e-06,1.24458e-05,0,-2.11924e-06,-1.58881e+09,-1.58658e+09,-1.58824e+09,-283237,-0.022677,0.0601836,-0,0.0643142,4221.87,-55142.4,0,55303.8,283237
step02_gravity_refstate-mantle.xmf,1392,-3.77912e-06,1.18062e-05,0,-1.94883e-06,-1.60473e+09,-1.60264e+09,-1.60422e+09,-260462,-0.0251426,0.0517869,-0,0.0575676,4909.26,-55635.5,0,55851.7,260462
step02_gravity_refstate-mantle.xmf,1393,-3.37362e-06,1.12102e-05,0,-1.70331e-06,-1.62278e+09,-1.62083e+09,-1.62233e+09,-227648,-0.0273958,0.0431099,-0,0.0510783,5610.14,-56194.3,0,56473.6,227648
step02_gravity_refstate-mantle.xmf,1394,-2.08535e-06,9.35786e-06,0,-8.52219e-07,-1.67708e+09,-1.67555e+09,-1.6768e+09,-113899,-0.0337051,0.0200974,-0,0.0392421,8067.08,-57875.5,0,58435.1,113899
step02_gravity_refstate-mantle.xmf,1395,-2.54958e-06,1.00198e-05,0,-1.12517e-06,-1.66041e+09,-1.65873e+09,-1.66007e+09,-150379,-0.0316602,0.0267906,-0,0.0414741,7159.62,-57359.1,0,57804.2,150379
step02_gravity_refstate-mantle.xmf,1396,-2.97422e-06,1.06297e-05,0,-1.42451e-06,-1.64139e+09,-1.63957e+09,-1.64099e+09,-190386,-0.0295392,0.0347655,-0,0.0456202,6345.72,-56770.2,0,57123.8,190386
step02_gravity_refstate-mantle.xmf,1397,-2.07251e-06,9.36653e-06,0,-4.05826e-07,-1.71292e+09,-1.71139e+09,-1.71264e+09,-54238.7,-0.0339479,0.00956408,-0,0.0352694,8207.54,-58982.6,0,59550.9,54238.7
step02_gravity_refstate-mantle.xmf,1398,-1.70876e-06,8.88556e-06,0,3.91047e-09,-1.74581e+09,-1.7444e+09,-1.74559e+09,522.634,-0.0353105,-9.11841e-19,-0,0.0353105,8931.98,-60000,0,60661.2,522.634
step02_gravity_refstate-mantle.xmf,1399,-6.08209e-06,1.50209e-05,0,-8.40522e-07,-1.5699e+09,-1.56708e+09,-1.56908e+09,-112336,-0.00613705,0.0772535,-0,0.0774969,994.131,-54552.4,0,54561.4,112336
step02_gravity_refstate-mantle.xmf,1400,-4.70944e-06,1.29637e-05,0,9.52171e-07,-1.65932e+09,-1.65696e+09,-1.65869e+09,127258,0.0178289,0.0346492,0,0.0389671,-3368.83,-57318.6,-0,57417.5,127258
step02_gravity_refstate-mantle.xmf,1401,-3.91755e-06,1.19246e-05,0,2.83608e-07,-1.72425e+09,-1.72213e+09,-1.72372e+09,37904.3,0.0240267,0.00803125,0,0.0253334,-4903.48,-59326.8,-0,59529.1,37904.3
step02_gravity_refstate-mantle.xmf,1402,-5.70798e-06,1.4511e-05,0,-1.40471e-06,-1.57331e+09,-1.57061e+09,-1.57255e+09,-187739,-0.0113258,0.0740355,-0,0.0748968,1881.43,-54659,0,54691.4,187739
step02_gravity_refstate-mantle.xmf,1403,-5.95996e-06,1.47359e-05,0,2.22235e-07,-1.59825e+09,-1.59549e+09,-1.59746e+09,29701.7,0.00216222,0.0647236,0,0.0647597,-362.705,-55428.4,-0,55429.6,29701.7
step02_gravity_refstate-mantle.xmf,1404,-6.08156e-06,1.4953e-05,0,-2.74878e-07,-1.58371e+09,-1.58089e+09,-1.58289e+09,-36737.4,-0.00209772,0.0714091,-0,0.0714399,344.783,-54978.8,0,54979.9,36737.4
step02_gravity_refstate-mantle.xmf,1405,-5.06823e-06,1.34541e-05,0,9.66684e-07,-1.64335e+09,-1.64087e+09,-1.64267e+09,129197,0.0145335,0.0423209,0,0.0447469,-2659.13,-56824.1,-0,56886.3,129197
step02_gravity_refstate-mantle.xmf,1406,-5.42278e-06,1.39435e-05,0,8.41037e-07,-1.6292e+09,-1.62661e+09,-1.62847e+09,112405,0.0105909,0.049506,0,0.0506262,-1878.28,-56385.8,-0,56417,112405
step02_gravity_refstate-mantle.xmf,1407,-5.72862e-06,1.43821e-05,0,6.07481e-07,-1.61358e+09,-1.61089e+09,-1.61281e+09,81189.8,0.00651782,0.0572722,0,0.0576419,-1122.23,-55902.5,-0,55913.7,81189.8
step02_gravity_refstate-mantle.xmf,1408,-4.77852e-06,1.3046e-05,0,6.01537e-07,-1.68764e+09,-1.68526e+09,-1.687e+09,80395.4,0.0166144,0.0235446,0,0.0288164,-3161.47,-58193.1,-0,58278.9,80395.4
step02_gravity_refstate-mantle.xmf,1409,-4.42924e-06,1.25917e-05,0,3.76496e-07,-1.71342e+09,-1.71115e+09,-1.71283e+09,50318.6,0.0199176,0.0127091,0,0.0236269,-3909.65,-58990.7,-0,59120.2,50318.6
step02_gravity_refstate-mantle.xmf,1410,-4.2066e-06,1.2332e-05,0,2.58529e-09,-1.74607e+09,-1.74386e+09,-1.74551e+09,345.524,0.0217375,-1.86944e-19,0,0.0217375,-4346.66,-60000,-0,60157.2,345.524
step02_gravity_refstate-mantle.xmf,1411,-5.19496e-06,1.37643e-05,0,-1.67175e-06,-1.58787e+09,-1.58533e+09,-1.58717e+09,-223430,-0.0156023,0.0655088,-0,0.0673412,2713.8,-55110.2,0,55177,223430
step02_gravity_refstate-mantle.xmf,1412,-4.72243e-06,1.30871e-05,0,-1.72334e-06,-1.60248e+09,-1.6001e+09,-1.60185e+09,-230324,-0.019005,0.0573164,-0,0.0603851,3454.66,-55563.1,0,55670.3,230324
step02_gravity_refstate-mantle.xmf,1413,-4.27614e-06,1.24479e-05,0,-1.647e-06,-1.61838e+09,-1.61614e+09,-1.6178e+09,-220122,-0.0219825,0.0489669,-0,0.0536749,4176.31,-56055.4,0,56210.7,220122
step02_gravity_refstate-mantle.xmf,1414,-3.88467e-06,1.18879e-05,0,-1.4731e-06,-1.63575e+09,-1.63364e+09,-1.63523e+09,-196880,-0.0244578,0.0406337,-0,0.0474266,4843.75,-56593.4,0,56800.3,196880
step02_gravity_refstate-mantle.xmf,1415,-3.52647e-06,1.13812e-05,0,-1.24144e-06,-1.65437e+09,-1.65238e+09,-1.6539e+09,-165918,-0.0266364,0.0324114,-0,0.0419523,5487.91,-57169.5,0,57432.3,165918
step02_gravity_refstate-mantle.xmf,1416,-2.62976e-06,1.01326e-05,0,-6.81007e-07,-1.69398e+09,-1.69227e+09,-1.69363e+09,-91016.6,-0.031514,0.0163504,-0,0.035503,7155.54,-58395.8,0,58832.6,91016.6
step02_gravity_refstate-mantle.xmf,1417,-3.12427e-06,1.08188e-05,0,-9.44603e-07,-1.67601e+09,-1.67415e+09,-1.67559e+09,-126246,-0.0289579,0.0235314,-0,0.0373133,6237.38,-57839.3,0,58174.6,126246
step02_gravity_refstate-mantle.xmf,1418,-2.33989e-06,9.78366e-06,0,1.10409e-09,-1.74588e+09,-1.74426e+09,-1.74556e+09,147.562,-0.0329117,-6.70345e-19,-0,0.0329117,7747.36,-60000,0,60498.1,147.562
step02_gravity_refstate-mantle.xmf,1419,-5.83519e-06,1.45853e-05,0,-7.61567e-07,-1.59547e+09,-1.59274e+09,-1.59469e+09,-101783,-0.00683534,0.0653481,-0,0.0657046,1151.88,-55342.9,0,55354.8,101783
step02_gravity_refstate-mantle.xmf,1420,-5.00245e-06,1.33629e-05,0,7.21199e-07,-1.66884e+09,-1.66639e+09,-1.66817e+09,96388.2,0.014386,0.0317414,0,0.0348493,-2677.17,-57611.7,-0,57673.9,96388.2
step02_gravity_refstate-mantle.xmf,1421,-5.5142e-06,1.41419e-05,0,-1.13225e-06,-1.60176e+09,-1.59913e+09,-1.60102e+09,-151325,-0.0113152,0.0612884,-0,0.0623242,1953.67,-55538.2,0,55572.5,151325
step02_gravity_refstate-mantle.xmf,1422,-2.65635e-06,1.01954e-05,0,-2.91613e-07,-1.7237e+09,-1.72198e+09,-1.72334e+09,-38974.1,-0.0314816,0.00700787,-0,0.0322521,7169.29,-59313.9,0,59745.6,38974.1
step02_gravity_refstate-mantle.xmf,1423,-5.76632e-06,1.43991e-05,0,1.47683e-07,-1.6271e+09,-1.6244e+09,-1.62633e+09,19737.8,0.00186911,0.0517487,0,0.0517824,-324.276,-56319.8,-0,56320.8,19737.8
step02_gravity_refstate-mantle.xmf,1424,-5.85791e-06,1.45634e-05,0,-2.54712e-07,-1.61115e+09,-1.60842e+09,-1.61037e+09,-34042.2,-0.00246512,0.0588566,-0,0.0589082,420.352,-55827.1,0,55828.7,34042.2
step02_gravity_refstate-mantle.xmf,1425,-5.33868e-06,1.37957e-05,0,5.65447e-07,-1.66116e+09,-1.65861e+09,-1.66045e+09,75572,0.00995335,0.0358971,0,0.0372515,-1808.12,-57373.5,-0,57401.9,75572
step02_gravity_refstate-mantle.xmf,1426,-5.59103e-06,1.41406e-05,0,4.34576e-07,-1.64157e+09,-1.63893e+09,-1.64082e+09,58081.1,0.00606115,0.04498,0,0.0453866,-1072.49,-56767.3,-0,56777.4,58081.1
step02_gravity_refstate-mantle.xmf,1427,-5.13977e-06,1.35275e-05,0,4.34925e-07,-1.68985e+09,-1.68736e+09,-1.68917e+09,58127.7,0.0118778,0.0234651,0,0.0263001,-2208.94,-58260.4,-0,58302.2,58127.7
step02_gravity_refstate-mantle.xmf,1428,-4.93583e-06,1.32627e-05,0,2.66736e-07,-1.71634e+09,-1.7139e+09,-1.71568e+09,35649.3,0.0143175,0.012212,0,0.0188181,-2715.58,-59079,-0,59141.4,35649.3
step02_gravity_refstate-mantle.xmf,1429,-4.71587e-06,1.30051e-05,0,3.67465e-09,-1.74612e+09,-1.74376e+09,-1.74549e+09,491.117,0.0168406,-1.80759e-19,0,0.0168406,-3249.15,-60000,-0,60087.9,491.117
step02_gravity_refstate-mantle.xmf,1430,-5.11497e-06,1.35717e-05,0,-1.29403e-06,-1.61608e+09,-1.61358e+09,-1.6154e+09,-172948,-0.0150972,0.0536214,-0,0.0557061,2703.46,-55981.7,0,56046.9,172948
step02_gravity_refstate-mantle.xmf,1431,-4.70819e-06,1.2998e-05,0,-1.30499e-06,-1.63192e+09,-1.62955e+09,-1.63129e+09,-174412,-0.0184291,0.0455251,-0,0.0491138,3428.27,-56472.2,0,56576.2,174412
step02_gravity_refstate-mantle.xmf,1432,-4.31156e-06,1.24445e-05,0,-1.20319e-06,-1.64918e+09,-1.64694e+09,-1.6486e+09,-160807,-0.0213915,0.0372292,-0,0.0429372,4134.61,-57006.6,0,57156.3,160807
step02_gravity_refstate-mantle.xmf,1433,-3.98785e-06,1.20025e-05,0,-1.04775e-06,-1.66524e+09,-1.6631e+09,-1.66471e+09,-140031,-0.0236456,0.0300286,-0,0.0382208,4718.96,-57503.9,0,57697.2,140031
step02_gravity_refstate-mantle.xmf,1434,-3.71365e-06,1.16271e-05,0,-8.1177e-07,-1.68494e+09,-1.68289e+09,-1.68444e+09,-108493,-0.0254905,0.0220013,-0,0.0336723,5239.62,-58113.1,0,58348.9,108493
step02_gravity_refstate-mantle.xmf,1435,-3.26268e-06,1.1024e-05,0,-4.43167e-07,-1.71301e+09,-1.7111e+09,-1.71257e+09,-59229.3,-0.0282944,0.0112475,-0,0.030448,6083.35,-58981.7,0,59294.6,59229.3
step02_gravity_refstate-mantle.xmf,1436,-2.98765e-06,1.06835e-05,0,1.55484e-09,-1.74594e+09,-1.74411e+09,-1.74554e+09,207.804,-0.0298328,-1.07885e-18,-0,0.0298328,6591.22,-60000,0,60360.9,207.804
step02_gravity_refstate-mantle.xmf,1437,-5.6521e-06,1.42686e-05,0,-6.30185e-07,-1.62143e+09,-1.61877e+09,-1.62067e+09,-84224.2,-0.00702105,0.0536947,-0,0.0541518,1221.03,-56145.1,0,56158.4,84224.2
step02_gravity_refstate-mantle.xmf,1438,-5.3683e-06,1.38751e-05,0,-8.62722e-07,-1.63142e+09,-1.62884e+09,-1.6307e+09,-115303,-0.0111742,0.0483907,-0,0.0496641,1990.6,-56454.6,0,56489.7,115303
step02_gravity_refstate-mantle.xmf,1439,-5.62761e-06,1.41716e-05,0,7.60457e-08,-1.65468e+09,-1.65203e+09,-1.65392e+09,10163.5,0.00135698,0.039588,0,0.0396112,-241.254,-57172.1,-0,57172.6,10163.5
step02_gravity_refstate-mantle.xmf,1440,-5.68431e-06,1.42681e-05,0,-2.18749e-07,-1.63934e+09,-1.63668e+09,-1.63858e+09,-29235.9,-0.00274318,0.0462727,-0,0.0463539,481.98,-56698.3,0,56700.4,29235.9
step02_gravity_refstate-mantle.xmf,1441,-5.50927e-06,1.40236e-05,0,2.79829e-07,-1.66598e+09,-1.66337e+09,-1.66524e+09,37399.2,0.00511374,0.0344471,0,0.0348246,-920.199,-57521.7,-0,57529,37399.2
step02_gravity_refstate-mantle.xmf,1442,-5.39779e-06,1.38664e-05,0,2.56507e-07,-1.68959e+09,-1.68701e+09,-1.68887e+09,34282.2,0.00675379,0.024142,0,0.0250689,-1235.99,-58251.3,-0,58264.4,34282.2
step02_gravity_refstate-mantle.xmf,1443,-5.25796e-06,1.36871e-05,0,1.6746e-07,-1.71725e+09,-1.71472e+09,-1.71655e+09,22381,0.00896325,0.0122231,0,0.0151573,-1665.51,-59106.4,-0,59129.8,22381
step02_gravity_refstate-mantle.xmf,1444,-5.10904e-06,1.3521e-05,0,4.68923e-09,-1.74617e+09,-1.74368e+09,-1.74548e+09,626.716,0.0114993,-1.76218e-19,0,0.0114993,-2161.95,-60000,-0,60038.9,626.716
step02_gravity_refstate-mantle.xmf,1445,-5.03457e-06,1.34108e-05,0,-9.63032e-07,-1.64525e+09,-1.64279e+09,-1.64458e+09,-128709,-0.0148011,0.0414374,-0,0.0440015,2716.31,-56883.1,0,56947.9,128709
step02_gravity_refstate-mantle.xmf,1446,-4.69398e-06,1.29433e-05,0,-9.34847e-07,-1.66123e+09,-1.65887e+09,-1.6606e+09,-124942,-0.0179306,0.0338442,-0,0.0383006,3394.5,-57377.6,0,57478,124942
step02_gravity_refstate-mantle.xmf,1447,-4.30037e-06,1.24109e-05,0,-7.64343e-07,-1.68329e+09,-1.68105e+09,-1.68271e+09,-102154,-0.0212068,0.0240875,-0,0.0320926,4166.77,-58060.2,0,58209.5,102154
step02_gravity_refstate-mantle.xmf,1448,-3.98638e-06,1.20055e-05,0,-3.71467e-07,-1.7169e+09,-1.71476e+09,-1.71637e+09,-49646.6,-0.0235222,0.0108219,-0,0.0258922,4770.42,-59099.7,0,59291.9,49646.6
step02_gravity_refstate-mantle.xmf,1449,-3.62144e-06,1.15475e-05,0,-8.51278e-10,-1.74601e+09,-1.74398e+09,-1.74552e+09,-113.773,-0.0260927,-1.03753e-18,-0,0.0260927,5459.16,-60000,0,60247.8,113.773
step02_gravity_refstate-mantle.xmf,1450,-5.49976e-06,1.40121e-05,0,-4.84466e-07,-1.65066e+09,-1.64806e+09,-1.64993e+09,-64748.9,-0.00719883,0.0408592,-0,0.0414885,1286.99,-57048.6,0,57063.1,64748.9
step02_gravity_refstate-mantle.xmf,1451,-5.24313e-06,1.36726e-05,0,-6.26401e-07,-1.6619e+09,-1.65937e+09,-1.6612e+09,-83718.4,-0.0112624,0.0353385,-0,0.0370898,2056.86,-57396.4,0,57433.3,83718.4
step02_gravity_refstate-mantle.xmf,1452,-5.52748e-06,1.40201e-05,0,3.16862e-08,-1.68662e+09,-1.68401e+09,-1.68588e+09,4234.86,0.000976753,0.0256885,0,0.0257071,-177.159,-58159.1,-0,58159.4,4234.86
step02_gravity_refstate-mantle.xmf,1453,-5.55245e-06,1.40594e-05,0,-1.87229e-07,-1.66767e+09,-1.66505e+09,-1.66693e+09,-25023.2,-0.00324295,0.0338424,-0,0.0339975,582.862,-57573.6,0,57576.6,25023.2
step02_gravity_refstate-mantle.xmf,1454,-5.43494e-06,1.39178e-05,0,5.9516e-08,-1.71729e+09,-1.71471e+09,-1.71657e+09,7954.32,0.00336891,0.012417,0,0.0128659,-619.257,-59107,-0,59110.2,7954.32
step02_gravity_refstate-mantle.xmf,1455,-5.35751e-06,1.38448e-05,0,5.43698e-09,-1.74619e+09,-1.74363e+09,-1.74548e+09,726.653,0.00583672,-1.74912e-19,0,0.00583672,-1080.34,-60000,-0,60009.7,726.653
step02_gravity_refstate-mantle.xmf,1456,-4.97562e-06,1.33219e-05,0,-7.2075e-07,-1.66913e+09,-1.66669e+09,-1.66847e+09,-96328.2,-0.0146259,0.0315635,-0,0.0347875,2725.73,-57620.8,0,57685.3,96328.2
step02_gravity_refstate-mantle.xmf,1457,-4.76355e-06,1.30288e-05,0,-5.96629e-07,-1.6886e+09,-1.68623e+09,-1.68797e+09,-79739.5,-0.0167696,0.0231218,-0,0.0285629,3195.3,-58223,0,58310.6,79739.5
step02_gravity_refstate-mantle.xmf,1458,-4.50348e-06,1.2693e-05,0,-3.3548e-07,-1.71637e+09,-1.71407e+09,-1.71576e+09,-44836.9,-0.0191495,0.0116651,-0,0.0224227,3739.71,-59081.4,0,59199.7,44836.9
step02_gravity_refstate-mantle.xmf,1459,-4.20981e-06,1.23366e-05,0,-2.47838e-09,-1.74607e+09,-1.74386e+09,-1.74551e+09,-331.235,-0.0217383,-1.12199e-18,-0,0.0217383,4346.66,-60000,0,60157.2,331.235
step02_gravity_refstate-mantle.xmf,1460,-5.37701e-06,1.38268e-05,0,-3.61498e-07,-1.67917e+09,-1.6766e+09,-1.67845e+09,-48314.3,-0.00776973,0.028509,-0,0.0295488,1417.88,-57929.4,0,57946.7,48314.3
step02_gravity_refstate-mantle.xmf,1461,-5.11113e-06,1.3493e-05,0,-4.54611e-07,-1.68862e+09,-1.68613e+09,-1.68793e+09,-60758.7,-0.012233,0.0239301,-0,0.0268755,2276.82,-58222.3,0,58266.8,60758.7
step02_gravity_refstate-mantle.xmf,1462,-5.45067e-06,1.39365e-05,0,-1.52799e-07,-1.69312e+09,-1.69053e+09,-1.69239e+09,-20421.6,-0.00415841,0.0227862,-0,0.0231626,759.068,-58360.1,0,58365.1,20421.6
step02_gravity_refstate-mantle.xmf,1463,-5.44854e-06,1.39393e-05,0,-4.96393e-08,-1.71793e+09,-1.71534e+09,-1.7172e+09,-6634.29,-0.0024152,0.0121597,-0,0.0123972,443.674,-59126.6,0,59128.3,6634.29
step02_gravity_refstate-mantle.xmf,1464,-5.44274e-06,1.39561e-05,0,4.8068e-09,-1.7462e+09,-1.74361e+09,-1.74547e+09,642.428,-3.82145e-07,-1.67696e-19,-0,3.82145e-07,-6.27115e-08,-60000,-0,60000,642.428
step02_gravity_refstate-mantle.xmf,1465,-4.93069e-06,1.32606e-05,0,-2.67516e-07,-1.71661e+09,-1.71418e+09,-1.71595e+09,-35753.5,-0.0143804,0.0120917,-0,0.0187884,2728.53,-59087.6,0,59150.6,35753.5
step02_gravity_refstate-mantle.xmf,1466,-4.71631e-06,1.30064e-05,0,-3.80936e-09,-1.74612e+09,-1.74375e+09,-1.74549e+09,-509.122,-0.0168408,-1.16667e-18,-0,0.0168408,3249.15,-60000,0,60087.9,509.122
step02_gravity_refstate-mantle.xmf,1467,-5.27496e-06,1.37235e-05,0,-1.88705e-07,-1.7127e+09,-1.71016e+09,-1.71199e+09,-25220.4,-0.00836015,0.0141855,-0,0.0164657,1549.08,-58965.6,0,58985.9,25220.4
step02_gravity_refstate-mantle.xmf,1468,-5.35596e-06,1.38426e-05,0,6.31039e-09,-1.74619e+09,-1.74363e+09,-1.74548e+09,843.384,-0.00583854,-1.91278e-19,-0,0.00583854,1080.34,-60000,0,60009.7,843.384
step02_gravity_refstate-mantle.xmf,1469,-5.11016e-06,1.35219e-05,0,-7.03109e-09,-1.74617e+09,-1.74368e+09,-1.74548e+09,-939.705,-0.0114987,-1.37161e-18,-0,0.0114987,2161.95,-60000,0,60038.9,939.705
step02_gravity_refstate-intrusion.xmf,0,1.37801e-05,-1.32175e-05,0,1.29354e-05,-1.09737e+09,-1.09995e+09,-1.09869e+09,1.23352e+06,-0.0187792,0.264572,-0,0.265238,-1000,-40000,-0,40012.5,1.23352e+06
step02_gravity_refstate-intrusion.xmf,1,1.1305e-05,-1.01579e-05,0,1.82859e-05,-1.11378e+09,-1.11582e+09,-1.11485e+09,1.74374e+06,-0.0149324,0.270418,-0,0.27083,-1000,-40500.4,-0,40512.7,1.74374e+06
step02_gravity_refstate-intrusion.xmf,2,9.10354e-06,-7.06157e-06,0,2.17767e-05,-1.13012e+09,-1.13166e+09,-1.13099e+09,2.07663e+06,-0.0113988,0.274719,-0,0.274955,-1000,-41000.4,-0,41012.6,2.07663e+06
step02_gravity_refstate-intrusion.xmf,3,1.37848e-05,-1.32157e-05,0,-1.29389e-05,-1.09737e+09,-1.09995e+09,-1.09869e+09,-1.23386e+06,0.0187767,0.264572,0,0.265238,1000,-40000,0,40012.5,1.23386e+06
step02_gravity_refstate-intrusion.xmf,4,1.12737e-05,-1.01367e-05,0,-1.82822e-05,-1.11378e+09,-1.11582e+09,-1.11485e+09,-1.74339e+06,0.0149322,0.27042,0,0.270831,1000,-40500.4,0,40512.7,1.74339e+06
step02_gravity_refstate-intrusion.xmf,5,7.03769e-06,-4.12878e-06,0,2.39659e-05,-1.14647e+09,-1.14754e+09,-1.14714e+09,2.28539e+06,-0.00844301,0.277519,-0,0.277648,-1000,-41500.9,-0,41512.9,2.28539e+06
step02_gravity_refstate-intrusion.xmf,6,9.13916e-06,-7.06908e-06,0,-2.18209e-05,-1.13012e+09,-1.13166e+09,-1.13099e+09,-2.08084e+06,0.0114016,0.274718,0,0.274955,1000,-41000.4,0,41012.6,2.08084e+06
step02_gravity_refstate-intrusion.xmf,7,6.94831e-06,-4.08793e-06,0,-2.39485e-05,-1.14648e+09,-1.14754e+09,-1.14715e+09,-2.28373e+06,0.00844351,0.277524,0,0.277652,1000,-41500.9,0,41512.9,2.28373e+06
step02_gravity_refstate-intrusion.xmf,8,5.11045e-06,-1.40631e-06,0,2.53301e-05,-1.1628e+09,-1.16342e+09,-1.16329e+09,2.41548e+06,-0.00595768,0.278906,-0,0.27897,-1000,-42001.1,-0,42013,2.41548e+06
step02_gravity_refstate-intrusion.xmf,9,5.09329e-06,-1.41201e-06,0,-2.53343e-05,-1.16281e+09,-1.16343e+09,-1.16329e+09,-2.41588e+06,0.0059565,0.278905,0,0.278969,1000,-42001.1,0,42013,2.41588e+06
step02_gravity_refstate-intrusion.xmf,10,3.34527e-06,1.14393e-06,0,2.61711e-05,-1.1791e+09,-1.17931e+09,-1.17942e+09,2.49568e+06,-0.00381946,0.278973,-0,0.278999,-1000,-42500.6,-0,42512.4,2.49568e+06
step02_gravity_refstate-intrusion.xmf,11,3.35164e-06,1.14195e-06,0,-2.61704e-05,-1.1791e+09,-1.17931e+09,-1.17942e+09,-2.49561e+06,0.00381958,0.278973,0,0.278999,1000,-42500.6,0,42512.4,2.49561e+06
step02_gravity_refstate-intrusion.xmf,12,1.71701e-06,3.55419e-06,0,2.66289e-05,-1.19537e+09,-1.19519e+09,-1.19553e+09,2.53933e+06,-0.00192303,0.277801,-0,0.277808,-1000,-42999.8,-0,43011.5,2.53933e+06
step02_gravity_refstate-intrusion.xmf,13,1.72058e-06,3.55479e-06,0,-2.66325e-05,-1.19537e+09,-1.19519e+09,-1.19553e+09,-2.53967e+06,0.00192366,0.277801,0,0.277808,1000,-42999.8,0,43011.5,2.53967e+06
step02_gravity_refstate-intrusion.xmf,14,1.90629e-07,5.88793e-06,0,2.68071e-05,-1.21165e+09,-1.21111e+09,-1.21167e+09,2.55632e+06,-0.000186105,0.27544,-0,0.27544,-1000,-43499.6,-0,43511.1,2.55632e+06
step02_gravity_refstate-intrusion.xmf,15,1.80662e-07,5.89954e-06,0,-2.68142e-05,-1.21165e+09,-1.2111e+09,-1.21167e+09,-2.557e+06,0.000186724,0.275441,0,0.275441,1000,-43499.6,0,43511.1,2.557e+06
step02_gravity_refstate-intrusion.xmf,16,-1.26212e-06,8.19654e-06,0,2.67509e-05,-1.22794e+09,-1.22704e+09,-1.22782e+09,2.55097e+06,0.00145663,0.271914,0,0.271918,-1000,-44000,-0,44011.4,2.55097e+06
step02_gravity_refstate-intrusion.xmf,17,-1.26872e-06,8.1984e-06,0,-2.67489e-05,-1.22794e+09,-1.22704e+09,-1.22782e+09,-2.55077e+06,-0.00145675,0.271915,-0,0.271919,1000,-44000,0,44011.4,2.55077e+06
step02_gravity_refstate-intrusion.xmf,18,-2.65412e-06,1.05203e-05,0,2.64751e-05,-1.24422e+09,-1.24296e+09,-1.24396e+09,2.52466e+06,0.00305518,0.26723,0,0.267247,-1000,-44500.4,-0,44511.6,2.52466e+06
step02_gravity_refstate-intrusion.xmf,19,-2.65462e-06,1.05199e-05,0,-2.64766e-05,-1.24422e+09,-1.24296e+09,-1.24396e+09,-2.52481e+06,-0.00305545,0.26723,-0,0.267247,1000,-44500.4,0,44511.6,2.52481e+06
step02_gravity_refstate-intrusion.xmf,20,-4.0058e-06,1.28969e-05,0,2.59472e-05,-1.26047e+09,-1.25885e+09,-1.26008e+09,2.47433e+06,0.00465182,0.261377,0,0.261419,-1000,-45000.2,-0,45011.3,2.47433e+06
step02_gravity_refstate-intrusion.xmf,21,-4.00203e-06,1.28989e-05,0,-2.59506e-05,-1.26046e+09,-1.25885e+09,-1.26008e+09,-2.47465e+06,-0.00465151,0.261377,-0,0.261418,1000,-45000.2,0,45011.3,2.47465e+06
step02_gravity_refstate-intrusion.xmf,22,-5.30456e-06,1.5363e-05,0,2.5106e-05,-1.27668e+09,-1.27471e+09,-1.27618e+09,2.39411e+06,0.00628381,0.254323,0,0.254401,-1000,-45499.4,-0,45510.4,2.39411e+06
step02_gravity_refstate-intrusion.xmf,23,-5.3058e-06,1.53636e-05,0,-2.51107e-05,-1.27668e+09,-1.27471e+09,-1.27618e+09,-2.39456e+06,-0.00628324,0.254323,-0,0.254401,1000,-45499.4,0,45510.4,2.39456e+06
step02_gravity_refstate-intrusion.xmf,24,-6.50216e-06,1.79679e-05,0,2.39394e-05,-1.29289e+09,-1.29056e+09,-1.29227e+09,2.28286e+06,0.00797642,0.246002,0,0.246131,-1000,-45998.9,-0,46009.8,2.28286e+06
step02_gravity_refstate-intrusion.xmf,25,-6.51926e-06,1.79388e-05,0,-2.38744e-05,-1.29289e+09,-1.29056e+09,-1.29227e+09,-2.27666e+06,-0.00797776,0.246003,-0,0.246133,1000,-45998.9,0,46009.8,2.27666e+06
step02_gravity_refstate-intrusion.xmf,26,-7.58718e-06,2.06334e-05,0,2.20882e-05,-1.3091e+09,-1.3064e+09,-1.30837e+09,2.10633e+06,0.0097331,0.236359,0,0.236559,-1000,-46499.1,-0,46509.9,2.10633e+06
step02_gravity_refstate-intrusion.xmf,27,-7.57483e-06,2.06269e-05,0,-2.20928e-05,-1.30909e+09,-1.3064e+09,-1.30837e+09,-2.10677e+06,-0.00973188,0.236354,-0,0.236555,1000,-46499.1,0,46509.9,2.10677e+06
step02_gravity_refstate-intrusion.xmf,28,-8.29437e-06,2.33828e-05,0,1.96682e-05,-1.32525e+09,-1.32223e+09,-1.32446e+09,1.87556e+06,0.0114572,0.225339,0,0.22563,-1000,-46999.6,-0,47010.3,1.87556e+06
step02_gravity_refstate-intrusion.xmf,29,-8.29999e-06,2.33724e-05,0,-1.96305e-05,-1.32525e+09,-1.32223e+09,-1.32446e+09,-1.87196e+06,-0.0114546,0.22534,-0,0.225631,1000,-46999.6,0,47010.3,1.87196e+06
step02_gravity_refstate-intrusion.xmf,30,-8.73538e-06,2.59314e-05,0,1.60462e-05,-1.34136e+09,-1.33805e+09,-1.34053e+09,1.53016e+06,0.0128111,0.213005,0,0.21339,-1000,-47499.6,-0,47510.1,1.53016e+06
step02_gravity_refstate-intrusion.xmf,31,-8.72802e-06,2.59216e-05,0,-1.60374e-05,-1.34136e+09,-1.33805e+09,-1.34053e+09,-1.52932e+06,-0.012811,0.213003,-0,0.213388,1000,-47499.6,0,47510.1,1.52932e+06
step02_gravity_refstate-intrusion.xmf,32,-1.08611e-05,3.22089e-05,0,1.13372e-05,-1.35752e+09,-1.35342e+09,-1.35649e+09,1.08111e+06,0.0124355,0.199588,0,0.199975,-1000,-48000,-0,48010.4,1.08111e+06
step02_gravity_refstate-intrusion.xmf,33,-1.07208e-05,3.21736e-05,0,-1.12823e-05,-1.3575e+09,-1.35341e+09,-1.35648e+09,-1.07588e+06,-0.0124223,0.199598,-0,0.199984,1000,-48000,0,48010.4,1.07588e+06
step02_gravity_refstate-intrusion.xmf,34,-1.28044e-05,4.04264e-05,0,-6.81406e-06,-1.35735e+09,-1.35227e+09,-1.35613e+09,-649788,-0.00652905,0.206503,-0,0.206606,499.828,-48000,0,48002.6,649788
step02_gravity_refstate-intrusion.xmf,35,-1.3314e-05,4.25128e-05,0,-2.34733e-07,-1.35731e+09,-1.35199e+09,-1.35604e+09,-22384.1,-1.68682e-06,0.209096,-0,0.209096,1.02887e-10,-48000,0,48000,22384.1
step02_gravity_refstate-intrusion.xmf,36,-1.2777e-05,4.08213e-05,0,7.65845e-06,-1.35732e+09,-1.35221e+09,-1.35611e+09,730309,0.00652397,0.206504,0,0.206607,-499.828,-48000,-0,48002.6,730309
step02_gravity_refstate-intrusion.xmf,37,1.96895e-05,-2.3862e-05,0,6.66528e-06,-1.09708e+09,-1.10123e+09,-1.09896e+09,635601,-0.0100544,0.276342,-0,0.276525,-499.828,-40000,-0,40003.1,635601
step02_gravity_refstate-intrusion.xmf,38,2.0703e-05,-2.56715e-05,0,9.00304e-09,-1.09703e+09,-1.10145e+09,-1.099e+09,858.53,1.18075e-06,0.280488,0,0.280488,-1.02887e-10,-40000,-0,40000,858.53
step02_gravity_refstate-intrusion.xmf,39,1.968e-05,-2.38414e-05,0,-6.65905e-06,-1.09708e+09,-1.10123e+09,-1.09896e+09,-635007,0.0100604,0.276345,0,0.276528,499.828,-40000,0,40003.1,635007
step02_gravity_refstate-intrusion.xmf,40,1.57177e-05,-1.68737e-05,0,1.00142e-05,-1.10906e+09,-1.11216e+09,-1.11055e+09,954956,-0.0108941,0.280922,-0,0.281133,-636.528,-40363.5,-0,40368.6,954956
step02_gravity_refstate-intrusion.xmf,41,1.72971e-05,-1.93147e-05,0,3.68993e-06,-1.11036e+09,-1.11385e+09,-1.11201e+09,351872,-0.00418847,0.288505,-0,0.288536,-241.272,-40406.9,-0,40407.6,351872
step02_gravity_refstate-intrusion.xmf,42,1.72883e-05,-1.93109e-05,0,-3.78982e-06,-1.11032e+09,-1.11381e+09,-1.11197e+09,-361397,0.00431075,0.288418,0,0.28845,248.271,-40405.7,0,40406.4,361397
step02_gravity_refstate-intrusion.xmf,43,1.59681e-05,-1.69443e-05,0,-9.6734e-06,-1.10903e+09,-1.11216e+09,-1.11055e+09,-922455,0.0108915,0.280924,0,0.281135,636.385,-40363.7,0,40368.7,922455
step02_gravity_refstate-intrusion.xmf,44,1.33519e-05,-1.28374e-05,0,1.06368e-05,-1.12171e+09,-1.12421e+09,-1.12298e+09,1.01432e+06,-0.00803737,0.288432,-0,0.288544,-567.006,-40750.4,-0,40754.3,1.01432e+06
step02_gravity_refstate-intrusion.xmf,45,1.32078e-05,-1.26138e-05,0,-1.12926e-05,-1.12172e+09,-1.12418e+09,-1.12298e+09,-1.07686e+06,0.0084577,0.287585,0,0.287709,599.413,-40750.4,0,40754.8,1.07686e+06
step02_gravity_refstate-intrusion.xmf,46,1.33938e-05,-1.29897e-05,0,3.74486e-07,-1.12698e+09,-1.1295e+09,-1.12826e+09,35711,-6.50887e-05,0.297865,-0,0.297865,-4.72709,-40913.1,-0,40913.1,35711
step02_gravity_refstate-intrusion.xmf,47,9.60059e-06,-7.74216e-06,0,-1.15729e-05,-1.14044e+09,-1.14209e+09,-1.14135e+09,-1.10359e+06,0.00527539,0.295527,0,0.295574,518.069,-41320.2,0,41323.5,1.10359e+06
step02_gravity_refstate-intrusion.xmf,48,1.01373e-05,-8.2001e-06,0,1.15589e-05,-1.13797e+09,-1.13972e+09,-1.13893e+09,1.10226e+06,-0.0056366,0.294655,-0,0.294708,-528.703,-41245.6,-0,41249,1.10226e+06
step02_gravity_refstate-intrusion.xmf,49,9.17677e-06,-6.8986e-06,0,1.56251e-06,-1.14661e+09,-1.14814e+09,-1.14749e+09,149001,-0.000598192,0.3037,-0,0.3037,-65.4055,-41510.4,-0,41510.4,149001
step02_gravity_refstate-intrusion.xmf,50,6.75415e-06,-3.7952e-06,0,-1.69222e-05,-1.15477e+09,-1.15578e+09,-1.15542e+09,-1.6137e+06,0.00518019,0.292313,0,0.292358,696.855,-41756.6,0,41762.4,1.6137e+06
step02_gravity_refstate-intrusion.xmf,51,7.20784e-06,-4.14513e-06,0,1.30351e-05,-1.155e+09,-1.15608e+09,-1.15569e+09,1.24303e+06,-0.00406413,0.297562,-0,0.29759,-539.5,-41765.1,-0,41768.6,1.24303e+06
step02_gravity_refstate-intrusion.xmf,52,7.46809e-06,-4.59316e-06,0,-7.67118e-06,-1.15535e+09,-1.1565e+09,-1.15606e+09,-731523,0.00244067,0.302639,0,0.302649,320.241,-41776.4,0,41777.7,731523
step02_gravity_refstate-intrusion.xmf,53,6.10848e-06,-2.52453e-06,0,1.87321e-06,-1.16539e+09,-1.16621e+09,-1.16597e+09,178629,-0.000438058,0.306356,-0,0.306356,-72.7117,-42083.6,-0,42083.7,178629
step02_gravity_refstate-intrusion.xmf,54,5.06979e-06,-1.20642e-06,0,-1.33048e-05,-1.16961e+09,-1.1702e+09,-1.17009e+09,-1.26874e+06,0.00278171,0.299203,0,0.299216,524.397,-42211.4,0,42214.6,1.26874e+06
step02_gravity_refstate-intrusion.xmf,55,4.84368e-06,-8.91282e-07,0,1.44216e-05,-1.1709e+09,-1.17145e+09,-1.17136e+09,1.37524e+06,-0.00289732,0.297947,-0,0.297961,-567.563,-42250.8,-0,42254.7,1.37524e+06
step02_gravity_refstate-intrusion.xmf,56,3.95762e-06,3.75991e-07,0,6.94332e-06,-1.17951e+09,-1.17986e+09,-1.17989e+09,662115,-0.00108078,0.304943,-0,0.304945,-269.91,-42515,-0,42515.9,662115
step02_gravity_refstate-intrusion.xmf,57,3.71338e-06,8.07898e-07,0,-3.49167e-06,-1.18198e+09,-1.18226e+09,-1.18234e+09,-332965,0.000499625,0.306417,0,0.306418,135.735,-42590.9,0,42591.1,332965
step02_gravity_refstate-intrusion.xmf,58,2.77754e-06,2.08944e-06,0,-1.50436e-05,-1.18784e+09,-1.18791e+09,-1.18811e+09,-1.43456e+06,0.00166461,0.297428,0,0.297432,574.294,-42769.8,0,42773.6,1.43456e+06
step02_gravity_refstate-intrusion.xmf,59,2.85094e-06,1.98503e-06,0,1.56515e-05,-1.18721e+09,-1.18729e+09,-1.18748e+09,1.49252e+06,-0.00177556,0.296696,-0,0.296701,-597.611,-42750.2,-0,42754.4,1.49252e+06
step02_gravity_refstate-intrusion.xmf,60,2.1331e-06,3.02696e-06,0,4.51225e-06,-1.19439e+09,-1.1943e+09,-1.19459e+09,430288,-0.000371132,0.305379,-0,0.30538,-171.899,-42970.5,-0,42970.8,430288
step02_gravity_refstate-intrusion.xmf,61,1.96441e-06,3.26947e-06,0,-5.74687e-06,-1.19573e+09,-1.1956e+09,-1.19591e+09,-548022,0.000436091,0.30474,0,0.30474,218.311,-43011.6,0,43012.1,548022
step02_gravity_refstate-intrusion.xmf,62,8.01733e-07,4.97699e-06,0,-1.44094e-05,-1.20563e+09,-1.20523e+09,-1.20571e+09,-1.37408e+06,0.000460623,0.296529,0,0.296529,541.809,-43315.1,0,43318.5,1.37408e+06
step02_gravity_refstate-intrusion.xmf,63,1.12153e-06,4.53504e-06,0,1.47407e-05,-1.2029e+09,-1.20258e+09,-1.20301e+09,1.40568e+06,-0.000639758,0.296492,-0,0.296492,-555.758,-43231.5,-0,43235.1,1.40568e+06
step02_gravity_refstate-intrusion.xmf,64,4.33849e-07,5.56627e-06,0,8.80948e-07,-1.20939e+09,-1.2089e+09,-1.20943e+09,84007.2,-1.50126e-05,0.304207,-0,0.304207,-33.2343,-43430.3,-0,43430.3,84007.2
step02_gravity_refstate-intrusion.xmf,65,-6.47456e-07,7.17202e-06,0,-1.89575e-05,-1.21982e+09,-1.21907e+09,-1.21976e+09,-1.80779e+06,-0.000471589,0.287907,-0,0.287907,710.069,-43750.3,0,43756,1.80779e+06
step02_gravity_refstate-intrusion.xmf,66,-6.07791e-07,7.15857e-06,0,1.41403e-05,-1.21943e+09,-1.21869e+09,-1.21937e+09,1.34842e+06,0.000336654,0.294266,0,0.294266,-531.803,-43738.5,-0,43741.7,1.34842e+06
step02_gravity_refstate-intrusion.xmf,67,-6.37502e-07,7.20102e-06,0,-8.89282e-06,-1.21943e+09,-1.21868e+09,-1.21937e+09,-848020,-0.000214486,0.299095,-0,0.299095,334.985,-43738.4,0,43739.6,848020
step02_gravity_refstate-intrusion.xmf,68,-1.55483e-06,8.607e-06,0,1.71315e-06,-1.22787e+09,-1.2269e+09,-1.22772e+09,163366,0.00010019,0.300101,0,0.300101,-65.5242,-43997.2,-0,43997.3,163366
step02_gravity_refstate-intrusion.xmf,69,-2.12028e-06,9.53975e-06,0,-1.37754e-05,-1.23443e+09,-1.23332e+09,-1.23423e+09,-1.31362e+06,-0.00114357,0.290721,-0,0.290723,521.805,-44199,0,44202.1,1.31362e+06
step02_gravity_refstate-intrusion.xmf,70,-2.31218e-06,9.8472e-06,0,1.39838e-05,-1.23638e+09,-1.23522e+09,-1.23616e+09,1.33349e+06,0.00126705,0.289894,0,0.289897,-530.208,-44258.7,-0,44261.9,1.33349e+06
step02_gravity_refstate-intrusion.xmf,71,-3.51078e-06,1.17801e-05,0,4.21395e-07,-1.2465e+09,-1.24504e+09,-1.24616e+09,40184.2,5.62351e-05,0.294399,0,0.294399,-16.0856,-44569.1,-0,44569.1,40184.2
step02_gravity_refstate-intrusion.xmf,72,-3.84281e-06,1.24083e-05,0,-1.47276e-05,-1.25238e+09,-1.25083e+09,-1.25201e+09,-1.40443e+06,-0.00228382,0.283282,-0,0.283291,567.503,-44750.3,0,44753.9,1.40443e+06
step02_gravity_refstate-intrusion.xmf,73,-3.84415e-06,1.24074e-05,0,1.47281e-05,-1.25238e+09,-1.25083e+09,-1.25201e+09,1.40448e+06,0.00228375,0.283284,0,0.283294,-567.424,-44750.3,-0,44753.9,1.40448e+06
step02_gravity_refstate-intrusion.xmf,74,-4.96688e-06,1.41905e-05,0,5.68864e-06,-1.26053e+09,-1.2587e+09,-1.26005e+09,542469,0.00109957,0.28747,0,0.287472,-221.941,-44999.9,-0,45000.4,542469
step02_gravity_refstate-intrusion.xmf,75,-5.06895e-06,1.43944e-05,0,-4.61321e-06,-1.26147e+09,-1.25962e+09,-1.26099e+09,-439916,-0.000926479,0.287486,-0,0.287487,182.909,-45028.9,0,45029.3,439916
step02_gravity_refstate-intrusion.xmf,76,-5.40968e-06,1.51479e-05,0,-1.50884e-05,-1.26869e+09,-1.26673e+09,-1.26817e+09,-1.43883e+06,-0.00343065,0.27537,-0,0.275392,599.047,-45251.4,0,45255.4,1.43883e+06
step02_gravity_refstate-intrusion.xmf,77,-5.4278e-06,1.51183e-05,0,1.44997e-05,-1.26835e+09,-1.26639e+09,-1.26784e+09,1.38269e+06,0.00328822,0.276241,0,0.27626,-576.664,-45241.1,-0,45244.7,1.38269e+06
step02_gravity_refstate-intrusion.xmf,78,-6.47968e-06,1.68206e-05,0,3.31885e-06,-1.27389e+09,-1.27167e+09,-1.27327e+09,316485,0.000850277,0.281976,0,0.281978,-132.443,-45410,-0,45410.2,316485
step02_gravity_refstate-intrusion.xmf,79,-6.65867e-06,1.71957e-05,0,-6.69164e-06,-1.27632e+09,-1.27404e+09,-1.27568e+09,-638115,-0.00181807,0.279212,-0,0.279218,271.889,-45484.9,0,45485.7,638115
step02_gravity_refstate-intrusion.xmf,80,-7.14275e-06,1.82701e-05,0,-1.35379e-05,-1.28488e+09,-1.28246e+09,-1.2842e+09,-1.29098e+06,-0.00428086,0.268035,-0,0.268069,567.563,-45749.2,0,45752.7,1.29098e+06
step02_gravity_refstate-intrusion.xmf,81,-7.46361e-06,1.86612e-05,0,1.23959e-05,-1.28622e+09,-1.28373e+09,-1.28551e+09,1.18208e+06,0.00404935,0.268507,0,0.268537,-524.118,-45789.7,-0,45792.7,1.18208e+06
step02_gravity_refstate-intrusion.xmf,82,-8.48787e-06,2.03406e-05,0,-1.82022e-06,-1.29039e+09,-1.28764e+09,-1.28958e+09,-173577,-0.000612605,0.272892,-0,0.272893,72.9854,-45916.4,0,45916.5,173577
step02_gravity_refstate-intrusion.xmf,83,-8.9541e-06,2.17544e-05,0,-1.18488e-05,-1.30069e+09,-1.29776e+09,-1.29983e+09,-1.1299e+06,-0.00510448,0.259094,-0,0.259144,539.5,-46234.9,0,46238,1.1299e+06
step02_gravity_refstate-intrusion.xmf,84,-8.45368e-06,2.11311e-05,0,1.57451e-05,-1.30092e+09,-1.2981e+09,-1.30012e+09,1.50145e+06,0.00647198,0.254171,0,0.254253,-696.855,-46243.4,-0,46248.6,1.50145e+06
step02_gravity_refstate-intrusion.xmf,85,-9.4736e-06,2.25593e-05,0,7.00599e-06,-1.30036e+09,-1.29731e+09,-1.29946e+09,668092,0.00308325,0.263897,0,0.263915,-320.13,-46223.8,-0,46224.9,668092
step02_gravity_refstate-intrusion.xmf,86,-1.07674e-05,2.56074e-05,0,9.99918e-06,-1.31515e+09,-1.31168e+09,-1.31412e+09,953521,0.00587583,0.249109,0,0.249178,-518.069,-46679.8,-0,46682.7,953521
step02_gravity_refstate-intrusion.xmf,87,-1.10267e-05,2.52987e-05,0,-1.53113e-06,-1.30905e+09,-1.30558e+09,-1.30799e+09,-146009,-0.000703656,0.259881,-0,0.259882,65.4055,-46489.6,0,46489.7,146009
step02_gravity_refstate-intrusion.xmf,88,-1.10219e-05,2.61779e-05,0,-9.99205e-06,-1.31757e+09,-1.31402e+09,-1.31652e+09,-952842,-0.00615543,0.246944,-0,0.247021,528.703,-46754.4,0,46757.4,952842
step02_gravity_refstate-intrusion.xmf,89,-1.40653e-05,3.20212e-05,0,-5.15622e-08,-1.32846e+09,-1.32407e+09,-1.32712e+09,-4916.97,-6.63255e-05,0.243004,-0,0.243004,4.72709,-47086.9,0,47086.9,4916.97
step02_gravity_refstate-intrusion.xmf,90,-1.26956e-05,3.07841e-05,0,-8.83845e-06,-1.33359e+09,-1.32945e+09,-1.33238e+09,-842834,-0.00764697,0.232063,-0,0.232189,567.006,-47249.6,0,47253,842834
step02_gravity_refstate-intrusion.xmf,91,-1.22425e-05,3.03022e-05,0,9.68238e-06,-1.33355e+09,-1.32949e+09,-1.33238e+09,923312,0.00804067,0.23139,0,0.23153,-599.413,-47249.6,-0,47253.4,923312
step02_gravity_refstate-intrusion.xmf,92,-1.53533e-05,3.77075e-05,0,3.38436e-06,-1.34476e+09,-1.3397e+09,-1.3433e+09,322733,0.00363176,0.224515,0,0.224545,-248.271,-47594.3,-0,47595,322733
step02_gravity_refstate-intrusion.xmf,93,-1.53525e-05,3.77121e-05,0,-3.30279e-06,-1.34472e+09,-1.33966e+09,-1.34326e+09,-314954,-0.00353204,0.224606,-0,0.224633,241.272,-47593.1,0,47593.8,314954
step02_gravity_refstate-intrusion.xmf,94,-1.36984e-05,3.47709e-05,0,-9.11233e-06,-1.34604e+09,-1.34142e+09,-1.34473e+09,-868952,-0.00897235,0.218192,-0,0.218376,636.528,-47636.5,0,47640.7,868952
step02_gravity_refstate-intrusion.xmf,95,-1.36548e-05,3.47321e-05,0,9.0972e-06,-1.34603e+09,-1.34142e+09,-1.34473e+09,867509,0.00897241,0.218196,0,0.218381,-636.385,-47636.3,-0,47640.6,867509
step02_gravity_refstate-crust.xmf,0,1.53388e-05,-2.10891e-05,0,1.80594e-05,-1.09791e+09,-1.10041e+09,-1.09896e+09,1.23888e+06,-0.0187792,0.264572,-0,0.265238,-1000,-40000,-0,40012.5,1.23888e+06
step02_gravity_refstate-crust.xmf,1,6.45146e-06,-1.14838e-05,0,1.58352e-05,-1.09849e+09,-1.09972e+09,-1.09893e+09,1.0863e+06,-0.0234384,0.250818,-0,0.25191,-1513.8,-40000,-0,40028.6,1.0863e+06
step02_gravity_refstate-crust.xmf,2,3.63218e-06,-6.68224e-06,0,1.42789e-05,-1.0986e+09,-1.09931e+09,-1.09885e+09,979533,-0.0261505,0.236584,-0,0.238025,-2053.41,-40000,-0,40052.7,979533
step02_gravity_refstate-crust.xmf,3,1.71397e-06,-3.30745e-06,0,1.28236e-05,-1.09867e+09,-1.09901e+09,-1.09879e+09,879697,-0.0276551,0.222612,-0,0.224323,-2618.77,-40000,-0,40085.6,879697
step02_gravity_refstate-crust.xmf,4,2.78973e-07,4.24992e-06,0,-2.6989e-09,-1.09851e+09,-1.09824e+09,-1.09853e+09,-185.145,3.96891e-20,0.0439207,0,0.0439207,-40000,-40000,-0,56568.5,185.145
step02_gravity_refstate-crust.xmf,5,2.63673e-07,4.2702e-06,0,-2.47798e-08,-1.09851e+09,-1.09823e+09,-1.09853e+09,-1699.9,0.000644324,0.0441121,0,0.0441168,-37629,-40000,-0,54917.6,1699.9
step02_gravity_refstate-crust.xmf,6,1.158e-05,-1.86486e-05,0,-1.62887e-05,-1.09823e+09,-1.1003e+09,-1.09902e+09,-1.11741e+06,0.0187767,0.264572,0,0.265238,1000,-40000,0,40012.5,1.11741e+06
step02_gravity_refstate-crust.xmf,7,6.40857e-06,-1.13244e-05,0,-1.58319e-05,-1.09849e+09,-1.09971e+09,-1.09893e+09,-1.08607e+06,0.0234449,0.250819,0,0.251913,1513.8,-40000,0,40028.6,1.08607e+06
step02_gravity_refstate-crust.xmf,8,3.52416e-07,-8.14741e-07,0,1.14421e-05,-1.09872e+09,-1.0988e+09,-1.09874e+09,784926,-0.0282611,0.209047,-0,0.210949,-3211.88,-40000,-0,40128.7,784926
step02_gravity_refstate-crust.xmf,9,2.23994e-07,4.31862e-06,0,-4.16049e-08,-1.09851e+09,-1.09823e+09,-1.09853e+09,-2854.1,0.00119498,0.0446607,0,0.0446767,-35372.8,-40000,-0,53396.9,2854.1
step02_gravity_refstate-crust.xmf,10,1.61106e-07,4.3929e-06,0,-5.04306e-08,-1.09852e+09,-1.09822e+09,-1.09853e+09,-3459.54,0.00160954,0.0455434,0,0.0455718,-33225.7,-40000,-0,51999.5,3459.54
step02_gravity_refstate-crust.xmf,11,-6.30494e-07,1.11757e-06,0,1.01611e-05,-1.09874e+09,-1.09862e+09,-1.0987e+09,697050,-0.0281745,0.195976,-0,0.19799,-3834.57,-40000,-0,40183.4,697050
step02_gravity_refstate-crust.xmf,12,-1.30431e-06,2.51652e-06,0,8.91892e-06,-1.09876e+09,-1.0985e+09,-1.09867e+09,611838,-0.0275348,0.183454,-0,0.185508,-4488.57,-40000,-0,40251.1,611838
step02_gravity_refstate-crust.xmf,13,7.87403e-08,4.48902e-06,0,-4.78912e-08,-1.09852e+09,-1.09822e+09,-1.09853e+09,-3285.34,0.00185574,0.0467526,0,0.0467894,-31182.5,-40000,-0,50718.3,3285.34
step02_gravity_refstate-crust.xmf,14,-2.08905e-08,4.60311e-06,0,-3.14037e-08,-1.09853e+09,-1.09821e+09,-1.09853e+09,-2154.29,0.00191302,0.048291,0,0.0483289,-29238.1,-40000,-0,49546.6,2154.29
step02_gravity_refstate-crust.xmf,15,3.61405e-06,-6.60793e-06,0,-1.42796e-05,-1.0986e+09,-1.0993e+09,-1.09885e+09,-979582,0.0261528,0.236585,0,0.238026,2053.41,-40000,0,40052.7,979582
step02_gravity_refstate-crust.xmf,16,-1.36055e-07,4.73113e-06,0,1.98263e-09,-1.09853e+09,-1.0982e+09,-1.09852e+09,136.008,0.00176923,0.050168,0,0.0501992,-27387.8,-40000,-0,48477.7,136.008
step02_gravity_refstate-crust.xmf,17,1.71588e-06,-3.30902e-06,0,-1.28181e-05,-1.09867e+09,-1.09901e+09,-1.09879e+09,-879322,0.0276549,0.222611,0,0.224323,2618.77,-40000,0,40085.6,879322
step02_gravity_refstate-crust.xmf,18,-1.77084e-06,3.60225e-06,0,7.7983e-06,-1.09876e+09,-1.09839e+09,-1.09864e+09,534963,-0.0264749,0.171517,-0,0.173548,-5175.58,-40000,-0,40333.4,534963
step02_gravity_refstate-crust.xmf,19,-2.05928e-06,4.41076e-06,0,6.77531e-06,-1.09876e+09,-1.09832e+09,-1.09862e+09,464786,-0.0250877,0.160191,-0,0.162144,-5897.33,-40000,-0,40432.4,464786
step02_gravity_refstate-crust.xmf,20,-2.23355e-06,5.05074e-06,0,5.85024e-06,-1.09875e+09,-1.09825e+09,-1.0986e+09,401326,-0.02346,0.149482,-0,0.151312,-6655.64,-40000,-0,40549.9,401326
step02_gravity_refstate-crust.xmf,21,-2.2859e-06,5.43167e-06,0,5.02832e-06,-1.09874e+09,-1.09821e+09,-1.09859e+09,344942,-0.0216598,0.13939,-0,0.141063,-7452.39,-40000,-0,40688.3,344942
step02_gravity_refstate-crust.xmf,22,-2.6435e-07,4.87056e-06,0,5.36382e-08,-1.09854e+09,-1.09819e+09,-1.09852e+09,3679.58,0.00141853,0.0523972,0,0.0524164,-25627,-40000,-0,47505.2,3679.58
step02_gravity_refstate-crust.xmf,23,-4.03207e-07,5.01711e-06,0,1.26272e-07,-1.09855e+09,-1.09818e+09,-1.09852e+09,8662.28,0.000860736,0.0549951,0,0.0550018,-23951.4,-40000,-0,46622.6,8662.28
step02_gravity_refstate-crust.xmf,24,-5.52052e-07,5.16815e-06,0,2.21821e-07,-1.09856e+09,-1.09817e+09,-1.09852e+09,15216.9,0.000101149,0.0579785,0,0.0579785,-22356.9,-40000,-0,45823.9,15216.9
step02_gravity_refstate-crust.xmf,25,2.78971e-07,4.24993e-06,0,2.71276e-09,-1.09851e+09,-1.09824e+09,-1.09853e+09,186.095,-1.27403e-20,0.0439207,-0,0.0439207,40000,-40000,0,56568.5,186.095
step02_gravity_refstate-crust.xmf,26,2.63707e-07,4.2701e-06,0,2.48236e-08,-1.09851e+09,-1.09823e+09,-1.09853e+09,1702.9,-0.000644303,0.044112,-0,0.0441168,37629,-40000,0,54917.6,1702.9
step02_gravity_refstate-crust.xmf,27,-2.27582e-06,5.72388e-06,0,4.29645e-06,-1.09873e+09,-1.09818e+09,-1.09857e+09,294736,-0.0197467,0.129905,-0,0.131397,-8289.57,-40000,-0,40849.9,294736
step02_gravity_refstate-crust.xmf,28,-7.08056e-07,5.31951e-06,0,3.42963e-07,-1.09857e+09,-1.09816e+09,-1.09852e+09,23527.2,-0.000852712,0.0613655,-0,0.0613714,-20839.5,-40000,-0,45103,23527.2
step02_gravity_refstate-crust.xmf,29,3.52147e-07,-8.17968e-07,0,-1.14373e-05,-1.09872e+09,-1.0988e+09,-1.09874e+09,-784596,0.0282611,0.209047,0,0.210949,3211.88,-40000,0,40128.7,784596
step02_gravity_refstate-crust.xmf,30,-1.53742e-06,5.95919e-06,0,1.42118e-06,-1.09864e+09,-1.09812e+09,-1.09853e+09,97493.2,-0.00807579,0.0849407,-0,0.0853237,-14284.9,-40000,-0,42474.2,97493.2
step02_gravity_refstate-crust.xmf,31,-1.36733e-06,5.84455e-06,0,1.13868e-06,-1.09862e+09,-1.09813e+09,-1.09853e+09,78113.7,-0.00635616,0.0792873,-0,0.0795416,-15469.2,-40000,-0,42887,78113.7
step02_gravity_refstate-crust.xmf,32,-1.70004e-06,6.03559e-06,0,1.75375e-06,-1.09865e+09,-1.09812e+09,-1.09854e+09,120307,-0.0098974,0.0910938,-0,0.0916299,-13158,-40000,-0,42108.6,120307
step02_gravity_refstate-crust.xmf,33,-8.69076e-07,5.46762e-06,0,4.92239e-07,-1.09858e+09,-1.09815e+09,-1.09852e+09,33767.6,-0.00198973,0.0651734,-0,0.0652038,-19395.5,-40000,-0,44454.3,33767.6
step02_gravity_refstate-crust.xmf,34,-1.19965e-06,5.72806e-06,0,8.89869e-07,-1.09861e+09,-1.09813e+09,-1.09853e+09,61045,-0.00475725,0.0741185,-0,0.074271,-16713.6,-40000,-0,43351.4,61045
step02_gravity_refstate-crust.xmf,35,-1.03561e-06,5.61045e-06,0,6.71311e-07,-1.0986e+09,-1.09814e+09,-1.09853e+09,46052,-0.00329574,0.0694187,-0,0.0694969,-18021.3,-40000,-0,43872.2,46052
step02_gravity_refstate-crust.xmf,36,-6.29333e-07,1.07901e-06,0,-1.0142e-05,-1.09874e+09,-1.09863e+09,-1.0987e+09,-695738,0.0281741,0.195975,0,0.19799,3834.57,-40000,0,40183.4,695738
step02_gravity_refstate-crust.xmf,37,-1.30255e-06,2.51092e-06,0,-8.91823e-06,-1.09876e+09,-1.0985e+09,-1.09867e+09,-611790,0.0275344,0.183454,0,0.185508,4488.57,-40000,0,40251.1,611790
step02_gravity_refstate-crust.xmf,38,2.23958e-07,4.31855e-06,0,4.18021e-08,-1.09851e+09,-1.09823e+09,-1.09853e+09,2867.62,-0.00119501,0.0446607,-0,0.0446767,35372.8,-40000,0,53396.9,2867.62
step02_gravity_refstate-crust.xmf,39,-2.21426e-06,5.91143e-06,0,3.6486e-06,-1.09871e+09,-1.09816e+09,-1.09856e+09,250294,-0.0177671,0.121016,-0,0.122313,-9169.24,-40000,-0,41037.5,250294
step02_gravity_refstate-crust.xmf,40,-2.11718e-06,6.02029e-06,0,3.07995e-06,-1.0987e+09,-1.09814e+09,-1.09855e+09,211285,-0.0157623,0.112706,-0,0.113803,-10093.6,-40000,-0,41253.9,211285
step02_gravity_refstate-crust.xmf,41,-1.99251e-06,6.06533e-06,0,2.57996e-06,-1.09868e+09,-1.09813e+09,-1.09855e+09,176985,-0.0137639,0.104961,-0,0.105859,-11064.9,-40000,-0,41502.2,176985
step02_gravity_refstate-crust.xmf,42,-1.84938e-06,6.05992e-06,0,2.14285e-06,-1.09867e+09,-1.09813e+09,-1.09854e+09,147000,-0.0118007,0.097762,-0,0.0984717,-12085.5,-40000,-0,41785.9,147000
step02_gravity_refstate-crust.xmf,43,1.61172e-07,4.39249e-06,0,5.01926e-08,-1.09852e+09,-1.09822e+09,-1.09853e+09,3443.21,-0.00160947,0.0455434,-0,0.0455718,33225.7,-40000,0,51999.5,3443.21
step02_gravity_refstate-crust.xmf,44,-1.76983e-06,3.59929e-06,0,-7.79961e-06,-1.09876e+09,-1.0984e+09,-1.09864e+09,-535054,0.0264748,0.171517,0,0.173548,5175.58,-40000,0,40333.4,535054
step02_gravity_refstate-crust.xmf,45,-2.06163e-06,4.41573e-06,0,-6.77696e-06,-1.09876e+09,-1.09832e+09,-1.09862e+09,-464900,0.0250879,0.160191,0,0.162144,5897.33,-40000,0,40432.4,464900
step02_gravity_refstate-crust.xmf,46,-2.28631e-06,5.43246e-06,0,-5.02836e-06,-1.09874e+09,-1.09821e+09,-1.09859e+09,-344945,0.02166,0.13939,0,0.141063,7452.39,-40000,0,40688.3,344945
step02_gravity_refstate-crust.xmf,47,-2.23124e-06,5.03803e-06,0,-5.85225e-06,-1.09875e+09,-1.09826e+09,-1.0986e+09,-401464,0.0234603,0.149482,0,0.151312,6655.64,-40000,0,40549.9,401464
step02_gravity_refstate-crust.xmf,48,7.8667e-08,4.48865e-06,0,4.74602e-08,-1.09852e+09,-1.09822e+09,-1.09853e+09,3255.77,-0.00185574,0.0467526,-0,0.0467894,31182.5,-40000,0,50718.3,3255.77
step02_gravity_refstate-crust.xmf,49,-2.10695e-08,4.60297e-06,0,3.1115e-08,-1.09853e+09,-1.09821e+09,-1.09853e+09,2134.49,-0.00191309,0.048291,-0,0.0483289,29238.1,-40000,0,49546.6,2134.49
step02_gravity_refstate-crust.xmf,50,-2.27729e-06,5.72456e-06,0,-4.29553e-06,-1.09873e+09,-1.09818e+09,-1.09857e+09,-294673,0.0197466,0.129905,0,0.131398,8289.57,-40000,0,40849.9,294673
step02_gravity_refstate-crust.xmf,51,-1.36193e-07,4.73171e-06,0,-1.57395e-09,-1.09853e+09,-1.0982e+09,-1.09852e+09,-107.973,-0.00176929,0.0501679,-0,0.0501991,27387.8,-40000,0,48477.7,107.973
step02_gravity_refstate-crust.xmf,52,-2.64417e-07,4.87091e-06,0,-5.33202e-08,-1.09854e+09,-1.09819e+09,-1.09852e+09,-3657.76,-0.00141856,0.0523972,-0,0.0524164,25627,-40000,0,47505.2,3657.76
step02_gravity_refstate-crust.xmf,53,-4.01458e-07,5.00934e-06,0,-1.30505e-07,-1.09855e+09,-1.09818e+09,-1.09852e+09,-8952.64,-0.000860689,0.0549951,-0,0.0550018,23951.4,-40000,0,46622.6,8952.64
step02_gravity_refstate-crust.xmf,54,-5.52325e-07,5.16942e-06,0,-2.20756e-07,-1.09856e+09,-1.09817e+09,-1.09852e+09,-15143.9,-0.000101307,0.0579783,-0,0.0579784,22356.9,-40000,0,45823.9,15143.9
step02_gravity_refstate-crust.xmf,55,-2.21594e-06,5.91305e-06,0,-3.64843e-06,-1.09871e+09,-1.09816e+09,-1.09856e+09,-250283,0.0177675,0.121016,0,0.122313,9169.24,-40000,0,41037.5,250283
step02_gravity_refstate-crust.xmf,56,-7.07747e-07,5.31969e-06,0,-3.43215e-07,-1.09857e+09,-1.09816e+09,-1.09852e+09,-23544.6,0.000852908,0.0613654,0,0.0613713,20839.5,-40000,0,45103,23544.6
step02_gravity_refstate-crust.xmf,57,-1.36711e-06,5.84551e-06,0,-1.13809e-06,-1.09862e+09,-1.09813e+09,-1.09853e+09,-78073.2,0.0063561,0.0792872,0,0.0795415,15469.2,-40000,0,42887,78073.2
step02_gravity_refstate-crust.xmf,58,-1.53788e-06,5.96134e-06,0,-1.42072e-06,-1.09864e+09,-1.09812e+09,-1.09853e+09,-97461.5,0.00807577,0.0849406,0,0.0853237,14284.9,-40000,0,42474.2,97461.5
step02_gravity_refstate-crust.xmf,59,-2.11819e-06,6.02101e-06,0,-3.07894e-06,-1.0987e+09,-1.09814e+09,-1.09855e+09,-211215,0.0157625,0.112707,0,0.113804,10093.6,-40000,0,41253.9,211215
step02_gravity_refstate-crust.xmf,60,-1.19965e-06,5.72908e-06,0,-8.89262e-07,-1.09861e+09,-1.09813e+09,-1.09853e+09,-61003.4,0.00475728,0.0741184,0,0.0742709,16713.6,-40000,0,43351.4,61003.4
step02_gravity_refstate-crust.xmf,61,-1.03163e-06,5.59757e-06,0,-6.75243e-07,-1.0986e+09,-1.09814e+09,-1.09853e+09,-46321.6,0.00329561,0.0694186,0,0.0694968,18021.3,-40000,0,43872.2,46321.6
step02_gravity_refstate-crust.xmf,62,-8.66863e-07,5.45701e-06,0,-4.96798e-07,-1.09858e+09,-1.09815e+09,-1.09852e+09,-34080.3,0.00198978,0.0651734,0,0.0652038,19395.5,-40000,0,44454.3,34080.3
step02_gravity_refstate-crust.xmf,63,-1.99249e-06,6.06646e-06,0,-2.5796e-06,-1.09868e+09,-1.09813e+09,-1.09855e+09,-176961,0.0137642,0.104961,0,0.105859,11064.9,-40000,0,41502.2,176961
step02_gravity_refstate-crust.xmf,64,-1.84869e-06,6.0596e-06,0,-2.14175e-06,-1.09867e+09,-1.09813e+09,-1.09854e+09,-146924,0.0118006,0.0977619,0,0.0984715,12085.5,-40000,0,41785.9,146924
step02_gravity_refstate-crust.xmf,65,-1.70023e-06,6.03734e-06,0,-1.75344e-06,-1.09865e+09,-1.09812e+09,-1.09854e+09,-120286,0.00989751,0.0910938,0,0.0916299,13158,-40000,0,42108.6,120286
step02_gravity_refstate-crust.xmf,66,1.034e-06,-2.33195e-07,0,8.87224e-08,-5.72348e+07,-5.73217e+07,-5.73057e+07,6086.35,-0.00388769,0.179535,-0,0.179577,-3647.86,-2087.51,-0,4202.93,6086.35
step02_gravity_refstate-crust.xmf,67,1.21285e-06,-4.60765e-07,0,-1.84423e-10,115189,379.297,31987.8,-12.6514,-0.00623111,0.178115,-0,0.178224,-4841.35,0,-0,4841.35,12.6514
step02_gravity_refstate-crust.xmf,68,1.30146e-06,-4.92062e-07,0,5.77998e-09,123705,669.617,34425.1,396.507,-0.00318247,0.179313,-0,0.179342,-2418.42,0,-0,2418.42,396.507
step02_gravity_refstate-crust.xmf,69,1.07063e-06,-2.3642e-07,0,4.18479e-08,-6.05863e+07,-6.0676e+07,-6.06597e+07,2870.77,-0.0013748,0.180409,-0,0.180414,-1285.04,-2209.67,-0,2556.16,2870.77
step02_gravity_refstate-crust.xmf,70,9.53929e-07,-2.08659e-07,0,1.37708e-07,-5.43462e+07,-5.4426e+07,-5.44117e+07,9446.8,-0.00629385,0.177894,-0,0.178005,-6020.94,-1982.07,-0,6338.79,9446.8
step02_gravity_refstate-crust.xmf,71,8.53906e-07,-3.75657e-08,0,2.09606e-07,-1.11288e+08,-1.1135e+08,-1.11347e+08,14378.9,-0.00435426,0.179075,-0,0.179128,-4814.81,-4054.96,-0,6294.85,14378.9
step02_gravity_refstate-crust.xmf,72,9.029e-07,-4.86554e-08,0,1.26259e-07,-1.15301e+08,-1.15367e+08,-1.15363e+08,8661.34,-0.00236426,0.180318,-0,0.180333,-2585.05,-4201.24,-0,4932.84,8661.34
step02_gravity_refstate-crust.xmf,73,1.32878e-06,-5.01849e-07,0,4.9634e-09,126326,744.269,35171.1,340.489,1.56815e-06,0.179719,0,0.179719,6.99292e-08,0,0,6.99292e-08,340.489
step02_gravity_refstate-crust.xmf,74,1.05754e-06,-4.04949e-07,0,3.25135e-09,100303,-23.4913,27756,223.043,-0.00901953,0.176173,-0,0.176404,-7275.8,0,-0,7275.8,223.043
step02_gravity_refstate-crust.xmf,75,8.19166e-07,-1.68022e-07,0,1.76124e-07,-5.09019e+07,-5.09696e+07,-5.09581e+07,12082.1,-0.00856052,0.175483,-0,0.175691,-8466.06,-1856.19,-0,8667.16,12082.1
step02_gravity_refstate-crust.xmf,76,8.88688e-07,-3.39182e-07,0,1.74399e-09,84335.5,103.69,23371.6,119.638,-0.0114348,0.173566,-0,0.173942,-9728.87,0,-0,9728.87,119.638
step02_gravity_refstate-crust.xmf,77,7.91056e-07,9.70672e-08,0,2.40927e-07,-1.67664e+08,-1.67711e+08,-1.67718e+08,16527.6,-0.00311769,0.179672,-0,0.179699,-3804.8,-6107.31,-0,7195.54,16527.6
step02_gravity_refstate-crust.xmf,78,9.1293e-07,-4.37144e-08,0,2.04851e-08,-1.21163e+08,-1.21228e+08,-1.21225e+08,1405.28,-0.000314183,0.18083,-0,0.180831,-344.948,-4414.68,-0,4428.14,1405.28
step02_gravity_refstate-crust.xmf,79,1.04324e-06,-2.14967e-07,0,-3.37596e-08,-6.75332e+07,-6.76195e+07,-6.76048e+07,-2315.91,0.00134864,0.180466,0,0.180471,1288.13,-2462.5,0,2779.07,2315.91
step02_gravity_refstate-crust.xmf,80,6.25325e-07,-6.92371e-08,0,2.35185e-07,-5.78106e+07,-5.78582e+07,-5.78535e+07,16133.7,-0.0103123,0.172197,-0,0.172506,-11139.7,-2107.08,-0,11337.2,16133.7
step02_gravity_refstate-crust.xmf,81,7.69991e-07,-5.23345e-09,0,2.89411e-07,-1.07917e+08,-1.0797e+08,-1.0797e+08,19853.6,-0.00626848,0.177088,-0,0.177199,-7117.34,-3931.93,-0,8131.21,19853.6
step02_gravity_refstate-crust.xmf,82,7.27858e-07,1.23234e-07,0,3.48884e-07,-1.64616e+08,-1.64657e+08,-1.64666e+08,23933.4,-0.00476128,0.178075,-0,0.178139,-5946.01,-5996.14,-0,8444.45,23933.4
step02_gravity_refstate-crust.xmf,83,8.23652e-07,8.37302e-08,0,1.10385e-07,-1.727e+08,-1.72751e+08,-1.72757e+08,7572.41,-0.00135649,0.180591,-0,0.180596,-1641.24,-6290.78,-0,6501.35,7572.41
step02_gravity_refstate-crust.xmf,84,7.14314e-07,2.12347e-07,0,3.7358e-07,-2.18673e+08,-2.18708e+08,-2.18722e+08,25627.6,-0.00382528,0.178552,-0,0.178593,-4989.05,-7964.25,-0,9397.87,25627.6
step02_gravity_refstate-crust.xmf,85,7.68249e-07,1.83839e-07,0,2.27997e-07,-2.21875e+08,-2.21915e+08,-2.21927e+08,15640.6,-0.00224422,0.179903,-0,0.179917,-2863.15,-8080.96,-0,8573.19,15640.6
step02_gravity_refstate-crust.xmf,86,1.30271e-06,-4.94699e-07,0,1.07317e-09,123732,429.858,34366.2,73.6197,0.00318021,0.179314,0,0.179342,2418.42,0,0,2418.42,73.6197
step02_gravity_refstate-crust.xmf,87,6.64225e-07,-2.54342e-07,0,4.72329e-09,62999,-14.707,17433.2,324.017,-0.0133752,0.170396,-0,0.17092,-12207.6,0,-0,12207.6,324.017
step02_gravity_refstate-crust.xmf,88,6.49714e-07,4.69863e-08,0,3.54646e-07,-1.07261e+08,-1.07303e+08,-1.07306e+08,24328.7,-0.00785043,0.174602,-0,0.174778,-9316.91,-3907.65,-0,10103.2,24328.7
step02_gravity_refstate-crust.xmf,89,7.32751e-07,2.68587e-07,0,3.69716e-07,-2.67173e+08,-2.67205e+08,-2.67223e+08,25362.5,-0.0031426,0.178813,-0,0.17884,-4082.35,-9730.09,-0,10551.8,25362.5
step02_gravity_refstate-crust.xmf,90,8.25005e-07,9.0123e-08,0,-2.88216e-08,-1.78938e+08,-1.78989e+08,-1.78995e+08,-1977.16,0.000384074,0.180772,0,0.180772,467.321,-6517.91,0,6534.64,1977.16
step02_gravity_refstate-crust.xmf,91,8.81727e-07,-1.05887e-08,0,-8.71176e-08,-1.31913e+08,-1.31974e+08,-1.31974e+08,-5976.27,0.00149343,0.180633,0,0.180639,1686.19,-4805.98,0,5093.2,5976.27
step02_gravity_refstate-crust.xmf,92,1.04059e-06,-2.42079e-07,0,-8.575e-08,-5.47887e+07,-5.48767e+07,-5.48601e+07,-5882.45,0.00398965,0.179476,0,0.17952,3716.32,-1998.47,0,4219.59,5882.45
step02_gravity_refstate-crust.xmf,93,4.82794e-07,-6.51328e-08,0,1.85174e-07,-4.00157e+07,-4.00533e+07,-4.00488e+07,12702.9,-0.0122774,0.16883,-0,0.169276,-13463.4,-1458.66,-0,13542.2,12702.9
step02_gravity_refstate-crust.xmf,94,4.28323e-07,-1.65311e-07,0,4.08269e-09,40569.3,-153.895,11186.4,280.073,-0.0147663,0.166786,-0,0.167438,-14719.3,0,-0,14719.3,280.073
step02_gravity_refstate-crust.xmf,95,5.17297e-07,1.29219e-07,0,4.23175e-07,-1.15204e+08,-1.15231e+08,-1.1524e+08,29029.8,-0.00890304,0.171803,-0,0.172034,-11378.4,-4196.42,-0,12127.6,29029.8
step02_gravity_refstate-crust.xmf,96,6.41453e-07,1.64821e-07,0,4.42521e-07,-1.60362e+08,-1.60395e+08,-1.60406e+08,30356.9,-0.00629306,0.17583,-0,0.175942,-8127.8,-5840.99,-0,10008.9,30356.9
step02_gravity_refstate-crust.xmf,97,6.36441e-07,2.59958e-07,0,5.00289e-07,-2.13372e+08,-2.13398e+08,-2.13416e+08,34319.8,-0.00530328,0.17652,-0,0.176599,-7152.2,-7771.01,-0,10561.4,34319.8
step02_gravity_refstate-crust.xmf,98,6.58359e-07,3.15495e-07,0,5.23163e-07,-2.6193e+08,-2.61953e+08,-2.61975e+08,35889,-0.00461695,0.177012,-0,0.177072,-6205.85,-9538.97,-0,11380,35889
step02_gravity_refstate-crust.xmf,99,7.92832e-07,1.69352e-07,0,6.30274e-08,-2.26099e+08,-2.26141e+08,-2.26153e+08,4323.68,-0.000590017,0.18052,-0,0.180521,-745.706,-8234.82,-0,8268.51,4323.68
step02_gravity_refstate-crust.xmf,100,7.80322e-07,2.31094e-07,0,1.86505e-07,-2.72337e+08,-2.72374e+08,-2.7239e+08,12794.2,-0.00155141,0.179892,-0,0.179899,-1972.21,-9918.2,-0,10112.4,12794.2
step02_gravity_refstate-crust.xmf,101,6.98227e-07,3.43024e-07,0,5.29878e-07,-3.07768e+08,-3.07792e+08,-3.07816e+08,36349.6,-0.00415814,0.177265,-0,0.177314,-5391.56,-11208,-0,12437.3,36349.6
step02_gravity_refstate-crust.xmf,102,7.83133e-07,2.82222e-07,0,3.31739e-07,-3.20577e+08,-3.20612e+08,-3.20631e+08,22757.3,-0.00248158,0.178924,-0,0.178942,-3077.47,-11674.5,-0,12073.4,22757.3
step02_gravity_refstate-crust.xmf,103,9.3102e-07,-9.55941e-08,0,-1.17462e-07,-9.91328e+07,-9.92032e+07,-9.91966e+07,-8057.9,0.00277591,0.180134,0,0.180155,2922.01,-3612.65,0,4646.44,8057.9
step02_gravity_refstate-crust.xmf,104,1.18795e-06,-4.55066e-07,0,-1.10282e-09,112665,-46.3042,31171.2,-75.6536,0.00623373,0.178116,0,0.178225,4841.35,0,0,4841.35,75.6536
step02_gravity_refstate-crust.xmf,105,8.86956e-07,-1.46908e-07,0,-1.77403e-07,-6.76507e+07,-6.77217e+07,-6.77116e+07,-12169.8,0.00634031,0.177693,0,0.177806,6355.87,-2466.25,0,6817.59,12169.8
step02_gravity_refstate-crust.xmf,106,1.07618e-06,-4.10643e-07,0,-8.62548e-10,102132,136.302,28306.4,-59.1708,0.0090169,0.176173,0,0.176404,7275.8,0,0,7275.8,59.1708
step02_gravity_refstate-crust.xmf,107,2.85603e-07,4.92668e-08,0,2.4858e-07,-5.29272e+07,-5.29434e+07,-5.29468e+07,17052.6,-0.012594,0.165463,-0,0.165942,-15645,-1928.1,-0,15763.4,17052.6
step02_gravity_refstate-crust.xmf,108,4.00353e-07,1.28805e-07,0,4.00217e-07,-9.63946e+07,-9.64132e+07,-9.6422e+07,27454.9,-0.0103774,0.16863,-0,0.168949,-13549.3,-3511.16,-0,13996.8,27454.9
step02_gravity_refstate-crust.xmf,109,5.23119e-07,2.27054e-07,0,5.17482e-07,-1.58405e+08,-1.58425e+08,-1.58441e+08,35499.2,-0.00761673,0.172982,-0,0.173149,-10349.4,-5769.36,-0,11848.9,35499.2
step02_gravity_refstate-crust.xmf,110,7.60023e-07,3.45028e-07,0,5.25742e-07,-3.54739e+08,-3.54768e+08,-3.54791e+08,36065.9,-0.0038027,0.177389,-0,0.17743,-4618.57,-12918.2,-0,13719,36065.9
step02_gravity_refstate-crust.xmf,111,7.97785e-07,1.14027e-07,0,-1.707e-07,-1.85549e+08,-1.85596e+08,-1.85604e+08,-11710,0.00203257,0.180255,0,0.180267,2511.49,-6758.51,0,7210.07,11710
step02_gravity_refstate-crust.xmf,112,7.86398e-07,1.79183e-07,0,-1.08503e-07,-2.31747e+08,-2.31789e+08,-2.31801e+08,-7443.31,0.00105934,0.180378,0,0.180381,1344.5,-8440.44,0,8546.85,7443.31
step02_gravity_refstate-crust.xmf,113,8.26917e-07,2.97386e-07,0,3.73359e-07,-3.67115e+08,-3.67151e+08,-3.67172e+08,25612.4,-0.00263711,0.17843,-0,0.17845,-3077.74,-13369,-0,13718.7,25612.4
step02_gravity_refstate-crust.xmf,114,8.36468e-07,3.31803e-07,0,5.17666e-07,-3.9718e+08,-3.97215e+08,-3.97238e+08,35511.9,-0.00354856,0.177419,-0,0.177454,-3983.73,-14463.6,-0,15002.2,35511.9
step02_gravity_refstate-crust.xmf,115,8.34061e-07,2.72088e-08,0,-1.81918e-07,-1.42511e+08,-1.42566e+08,-1.42568e+08,-12479.6,0.00284683,0.18,0,0.180023,3316.23,-5191.68,0,6160.43,12479.6
step02_gravity_refstate-crust.xmf,116,8.4016e-07,-2.36893e-08,0,-2.18462e-07,-1.14486e+08,-1.14545e+08,-1.14544e+08,-14986.5,0.0043347,0.179066,0,0.179119,4832.43,-4171.35,0,6383.77,14986.5
step02_gravity_refstate-crust.xmf,117,8.08556e-07,-1.59889e-07,0,-1.7747e-07,-5.14567e+07,-5.15231e+07,-5.15121e+07,-12174.4,0.00881913,0.175108,0,0.17533,8800.82,-1876.36,0,8998.62,12174.4
step02_gravity_refstate-crust.xmf,118,1.8289e-07,-6.98549e-08,0,5.57044e-09,17353.8,15.5493,4807.6,382.132,-0.0155426,0.162879,-0,0.163619,-17270.8,0,-0,17270.8,382.132
step02_gravity_refstate-crust.xmf,119,-7.36995e-08,2.82056e-08,0,4.83095e-09,-6990.73,-0.0363744,-1934.94,331.403,-0.0156726,0.158831,-0,0.159602,-19869.6,0,-0,19869.6,331.403
step02_gravity_refstate-crust.xmf,120,4.59617e-08,1.9441e-07,0,3.08688e-07,-6.89443e+07,-6.89342e+07,-6.89475e+07,21176,-0.0124473,0.160736,-0,0.161217,-18507.2,-2510.47,-0,18676.7,21176
step02_gravity_refstate-crust.xmf,121,-3.27747e-07,1.23061e-07,0,4.56885e-09,-31189.1,-263.681,-8705.69,313.423,-0.0151386,0.154798,-0,0.155536,-22522.7,0,-0,22522.7,313.423
step02_gravity_refstate-crust.xmf,122,-1.65772e-07,2.44611e-07,0,2.4778e-07,-5.75819e+07,-5.75537e+07,-5.75705e+07,16997.7,-0.0127353,0.156334,-0,0.156852,-21274.9,-2096.03,-0,21377.9,16997.7
step02_gravity_refstate-crust.xmf,123,4.00535e-07,2.89052e-07,0,5.65957e-07,-1.56149e+08,-1.56157e+08,-1.56176e+08,38824.6,-0.00867144,0.169752,-0,0.169973,-12536.6,-5686.83,-0,13766.1,38824.6
step02_gravity_refstate-crust.xmf,124,6.70085e-07,4.2709e-07,0,6.89579e-07,-3.47111e+08,-3.47127e+08,-3.47157e+08,47305.1,-0.0050867,0.175533,-0,0.175607,-6475.53,-12640.3,-0,14202.4,47305.1
step02_gravity_refstate-crust.xmf,125,5.36356e-07,3.23979e-07,0,6.0411e-07,-2.10473e+08,-2.10487e+08,-2.1051e+08,41442,-0.00659388,0.173859,-0,0.173984,-9329.07,-7665.15,-0,12074.2,41442
step02_gravity_refstate-crust.xmf,126,6.09743e-07,4.2182e-07,0,6.8055e-07,-3.04726e+08,-3.04739e+08,-3.04768e+08,46685.8,-0.00542715,0.175127,-0,0.175211,-7347.59,-11097,-0,13309,46685.8
step02_gravity_refstate-crust.xmf,127,5.64082e-07,3.90115e-07,0,6.56399e-07,-2.59901e+08,-2.59913e+08,-2.5994e+08,45029,-0.00590276,0.174566,-0,0.174665,-8309.47,-9464.86,-0,12594.9,45029
step02_gravity_refstate-crust.xmf,128,7.43946e-07,4.12636e-07,0,6.96794e-07,-3.89573e+08,-3.89596e+08,-3.89624e+08,47800,-0.00487096,0.175757,-0,0.175825,-5727.92,-14186.5,-0,15299.2,47800
step02_gravity_refstate-crust.xmf,129,7.9503e-07,2.20342e-07,0,-1.37013e-08,-2.74763e+08,-2.74802e+08,-2.74818e+08,-939.91,0.000136159,0.180219,0,0.180219,171.92,-10006.6,0,10008.1,939.91
step02_gravity_refstate-crust.xmf,130,8.15572e-07,2.46666e-07,0,1.10325e-07,-3.15593e+08,-3.15632e+08,-3.15649e+08,7568.29,-0.000811101,0.179779,-0,0.17978,-996.172,-11493.1,-0,11536.2,7568.29
step02_gravity_refstate-crust.xmf,131,8.56275e-07,2.60314e-07,0,1.7792e-07,-3.61444e+08,-3.61485e+08,-3.61503e+08,12205.3,-0.00124519,0.179244,-0,0.179248,-1446.3,-13162.6,-0,13241.8,12205.3
step02_gravity_refstate-crust.xmf,132,9.00815e-07,2.66027e-07,0,3.06877e-07,-4.01634e+08,-4.01677e+08,-4.01696e+08,21051.7,-0.00207592,0.178538,-0,0.17855,-2262.62,-14625.9,-0,14799.9,21051.7
step02_gravity_refstate-crust.xmf,133,7.50501e-07,1.39482e-07,0,-3.02287e-07,-1.81471e+08,-1.81513e+08,-1.81523e+08,-20736.9,0.00368873,0.179069,0,0.179107,4629.03,-6609.9,0,8069.61,20736.9
step02_gravity_refstate-crust.xmf,134,8.89562e-07,-3.39866e-07,0,-1.32138e-09,84403.6,64.8602,23379.7,-90.6466,0.0114345,0.173566,0,0.173942,9728.87,0,0,9728.87,90.6466
step02_gravity_refstate-crust.xmf,135,7.19521e-07,9.37994e-09,0,-3.15095e-07,-1.04033e+08,-1.04082e+08,-1.04082e+08,-21615.5,0.00718974,0.175859,0,0.176006,8264.91,-3790.35,0,9092.6,21615.5
step02_gravity_refstate-crust.xmf,136,9.37783e-07,2.8033e-07,0,4.88592e-07,-4.40522e+08,-4.40567e+08,-4.40586e+08,33517.4,-0.00322781,0.177505,-0,0.177534,-3289.21,-16041.9,-0,16375.6,33517.4
step02_gravity_refstate-crust.xmf,137,8.40316e-07,3.71523e-07,0,7.0075e-07,-4.34256e+08,-4.34289e+08,-4.34314e+08,48071.4,-0.00471267,0.175921,-0,0.175984,-5017.76,-15813.5,-0,16590.5,48071.4
step02_gravity_refstate-crust.xmf,138,-3.26482e-07,2.87229e-07,0,2.05791e-07,-5.12857e+07,-5.12436e+07,-5.12633e+07,14117.3,-0.0124922,0.153245,-0,0.153753,-23309.4,-1866.23,-0,23384,14117.3
step02_gravity_refstate-crust.xmf,139,-5.53593e-07,2.10321e-07,0,9.86102e-09,-52576.5,-172.071,-14600.1,676.466,-0.0139453,0.150947,-0,0.15159,-25237.6,0,-0,25237.6,676.466
step02_gravity_refstate-crust.xmf,140,1.83794e-07,2.75432e-07,0,4.76633e-07,-1.13996e+08,-1.1399e+08,-1.14009e+08,32697,-0.0107295,0.163865,-0,0.164216,-16398.1,-4151.31,-0,16915.4,32697
step02_gravity_refstate-crust.xmf,141,2.5724e-07,3.77406e-07,0,6.1698e-07,-1.61366e+08,-1.61358e+08,-1.61384e+08,42324.8,-0.0093355,0.166005,-0,0.166267,-14793.4,-5876.31,-0,15917.8,42324.8
step02_gravity_refstate-crust.xmf,142,4.1589e-07,4.01214e-07,0,6.76952e-07,-2.0789e+08,-2.07891e+08,-2.07918e+08,46438.9,-0.00765963,0.170683,-0,0.170855,-11522.7,-7570.73,-0,13787.2,46438.9
step02_gravity_refstate-crust.xmf,143,7.52701e-07,2.07845e-07,0,-2.73122e-07,-2.34575e+08,-2.34612e+08,-2.34627e+08,-18736.2,0.00262014,0.179545,0,0.179564,3374.33,-8543.3,0,9185.54,18736.2
step02_gravity_refstate-crust.xmf,144,7.77969e-07,2.40334e-07,0,-2.11609e-07,-2.80315e+08,-2.80352e+08,-2.80368e+08,-14516.4,0.00176011,0.179724,0,0.179733,2234.24,-10208.7,0,10450.3,14516.4
step02_gravity_refstate-crust.xmf,145,7.08641e-07,1.01402e-07,0,-3.55824e-07,-1.46594e+08,-1.46635e+08,-1.46642e+08,-24409.5,0.00553513,0.177339,0,0.177426,6798.06,-5339.91,0,8644.55,24409.5
step02_gravity_refstate-crust.xmf,146,6.53075e-07,-1.01344e-07,0,-2.04952e-07,-5.02944e+07,-5.03462e+07,-5.03392e+07,-14059.7,0.0105396,0.172224,0,0.172546,11102.6,-1833.5,0,11253,14059.7
step02_gravity_refstate-crust.xmf,147,6.14045e-07,5.54459e-08,0,-3.64991e-07,-1.03741e+08,-1.03779e+08,-1.03783e+08,-25038.4,0.00847257,0.173496,0,0.173703,10181,-3779.36,0,10859.8,25038.4
step02_gravity_refstate-crust.xmf,148,9.57759e-07,3.00644e-07,0,7.015e-07,-4.78948e+08,-4.78993e+08,-4.79014e+08,48122.9,-0.004587,0.176086,-0,0.176146,-4367.17,-17440.9,-0,17979.4,48122.9
step02_gravity_refstate-crust.xmf,149,-9.6791e-08,4.38225e-07,0,4.85108e-07,-1.24897e+08,-1.2486e+08,-1.2489e+08,33278.4,-0.0106183,0.156637,-0,0.156997,-20578.4,-4547.28,-0,21074.8,33278.4
step02_gravity_refstate-crust.xmf,150,-2.32625e-07,4.39033e-07,0,4.05404e-07,-1.07927e+08,-1.07881e+08,-1.07911e+08,27810.7,-0.0107388,0.153511,-0,0.153886,-22654.7,-3928.94,-0,22992.8,27810.7
step02_gravity_refstate-crust.xmf,151,-3.79616e-07,4.4014e-07,0,3.1805e-07,-9.08376e+07,-9.07814e+07,-9.08116e+07,21818.2,-0.0105662,0.150423,-0,0.150794,-24856.9,-3306.18,-0,25075.8,21818.2
step02_gravity_refstate-crust.xmf,152,2.93469e-07,4.82684e-07,0,7.28109e-07,-2.08314e+08,-2.08301e+08,-2.08334e+08,49948.2,-0.00842078,0.167187,-0,0.167399,-13659.6,-7585.82,-0,15624.7,49948.2
step02_gravity_refstate-crust.xmf,153,6.35099e-07,5.25369e-07,0,8.58849e-07,-3.86181e+08,-3.86189e+08,-3.86225e+08,58917,-0.00608702,0.173445,-0,0.173552,-7535.41,-14062.7,-0,15954.4,58917
step02_gravity_refstate-crust.xmf,154,5.6511e-07,5.31544e-07,0,8.33746e-07,-3.45581e+08,-3.45583e+08,-3.4562e+08,57195,-0.00623996,0.173034,-0,0.173147,-8358.96,-12584.3,-0,15107.5,57195
step02_gravity_refstate-crust.xmf,155,4.46329e-07,4.89166e-07,0,7.7184e-07,-2.62014e+08,-2.62011e+08,-2.62045e+08,52948.2,-0.00702039,0.171354,-0,0.171498,-10521.9,-9541.45,-0,14203.8,52948.2
step02_gravity_refstate-crust.xmf,156,5.03089e-07,5.23237e-07,0,8.11963e-07,-3.06064e+08,-3.06062e+08,-3.06098e+08,55700.7,-0.0065439,0.172335,-0,0.172459,-9344.19,-11145.4,-0,14544.2,55700.7
step02_gravity_refstate-crust.xmf,157,7.23827e-07,4.9723e-07,0,8.82866e-07,-4.29301e+08,-4.29316e+08,-4.2935e+08,60564.6,-0.00601548,0.173762,-0,0.173866,-6751.07,-15632.8,-0,17028.3,60564.6
step02_gravity_refstate-crust.xmf,158,8.18633e-07,2.50998e-07,0,-1.24942e-07,-3.22489e+08,-3.22528e+08,-3.22545e+08,-8571.01,0.000956014,0.179681,0,0.179684,1166.87,-11744.2,0,11802,8571.01
step02_gravity_refstate-crust.xmf,159,8.70848e-07,2.47571e-07,0,-2.64433e-08,-3.63799e+08,-3.63842e+08,-3.63858e+08,-1814.01,0.000204821,0.179432,0,0.179432,236.18,-13248.4,0,13250.5,1814.01
step02_gravity_refstate-crust.xmf,160,9.34498e-07,2.32217e-07,0,8.12091e-08,-4.05077e+08,-4.05126e+08,-4.05142e+08,5570.94,-0.000535903,0.17904,-0,0.179041,-574.643,-14751.4,-0,14762.6,5570.94
step02_gravity_refstate-crust.xmf,161,1.00461e-06,2.09643e-07,0,2.36124e-07,-4.45887e+08,-4.45942e+08,-4.45956e+08,16198.1,-0.00153991,0.178479,-0,0.178486,-1522.38,-16237.4,-0,16308.6,16198.1
step02_gravity_refstate-crust.xmf,162,1.07836e-06,1.83619e-07,0,4.53457e-07,-4.89584e+08,-4.89645e+08,-4.89658e+08,31107.2,-0.00290152,0.177585,-0,0.177608,-2616.05,-17828.4,-0,18019.3,31107.2
step02_gravity_refstate-crust.xmf,163,6.97505e-07,2.58649e-07,0,-4.24454e-07,-2.41074e+08,-2.41104e+08,-2.41122e+08,-29117.5,0.00398592,0.178125,0,0.178169,5267.1,-8779.76,0,10238.5,29117.5
step02_gravity_refstate-crust.xmf,164,6.01792e-07,1.71449e-07,0,-4.63136e-07,-1.52333e+08,-1.52362e+08,-1.52374e+08,-31771.1,0.00700459,0.174662,0,0.174802,9124.95,-5548.53,0,10679.5,31771.1
step02_gravity_refstate-crust.xmf,165,6.70514e-07,-2.56679e-07,0,-2.94101e-09,63598.4,-6.98626,17601.2,-201.753,0.0133765,0.170395,0,0.170919,12207.6,0,0,12207.6,201.753
step02_gravity_refstate-crust.xmf,166,1.08002e-06,2.2165e-07,0,7.12722e-07,-5.20736e+08,-5.20795e+08,-5.2081e+08,48892.7,-0.0045829,0.176193,-0,0.176253,-3904.98,-18962.6,-0,19360.5,48892.7
step02_gravity_refstate-crust.xmf,167,8.33162e-07,4.40596e-07,0,9.0647e-07,-4.73404e+08,-4.73431e+08,-4.73461e+08,62183.8,-0.00599974,0.17405,-0,0.174153,-6018.54,-17238.8,-0,18259.2,62183.8
step02_gravity_refstate-crust.xmf,168,1.17232e-06,1.19388e-07,0,5.26191e-07,-5.28732e+08,-5.28805e+08,-5.28813e+08,36096.7,-0.00333702,0.17728,-0,0.177311,-2729.95,-19254,-0,19446.5,36096.7
step02_gravity_refstate-crust.xmf,169,4.19459e-08,4.0465e-07,0,5.30834e-07,-1.33726e+08,-1.33701e+08,-1.33729e+08,36415.2,-0.0104581,0.160144,-0,0.160485,-18438.4,-4869.21,-0,19070.5,36415.2
step02_gravity_refstate-crust.xmf,170,-5.55084e-07,4.05728e-07,0,2.0637e-07,-6.10227e+07,-6.09568e+07,-6.09846e+07,14157,-0.0104881,0.147897,-0,0.148268,-27031.5,-2219.98,-0,27122.5,14157
step02_gravity_refstate-crust.xmf,171,9.63945e-08,5.34517e-07,0,6.89938e-07,-1.8455e+08,-1.8452e+08,-1.84557e+08,47329.7,-0.00939586,0.161465,-0,0.161738,-17184.6,-6719.96,-0,18451.8,47329.7
step02_gravity_refstate-crust.xmf,172,1.85865e-07,5.60898e-07,0,7.57932e-07,-2.1174e+08,-2.11714e+08,-2.11753e+08,51994.1,-0.00882023,0.164017,-0,0.164254,-15443.5,-7710.22,-0,17261.2,51994.1
step02_gravity_refstate-crust.xmf,173,3.17654e-07,5.91112e-07,0,8.38524e-07,-2.60348e+08,-2.6033e+08,-2.6037e+08,57522.7,-0.0078668,0.167764,-0,0.167948,-12726.7,-9480.45,-0,15869.7,57522.7
step02_gravity_refstate-crust.xmf,174,-7.55222e-07,2.86093e-07,0,7.92101e-09,-71761.2,-326.945,-19953,543.381,-0.0121322,0.147447,-0,0.147945,-28021.6,0,-0,28021.6,543.381
step02_gravity_refstate-crust.xmf,175,7.33422e-07,2.85969e-07,0,-3.95135e-07,-2.85828e+08,-2.85858e+08,-2.85878e+08,-27106.3,0.00324174,0.17855,0,0.178579,4186.29,-10409.3,0,11219.5,27106.3
step02_gravity_refstate-crust.xmf,176,7.88028e-07,2.87424e-07,0,-3.3826e-07,-3.28518e+08,-3.28553e+08,-3.28573e+08,-23204.6,0.00253876,0.178815,0,0.178833,3122.98,-11963.7,0,12364.6,23204.6
step02_gravity_refstate-crust.xmf,177,1.18514e-06,9.29833e-08,0,3.35804e-07,-5.18488e+08,-5.18563e+08,-5.18569e+08,23036.2,-0.00212767,0.177958,-0,0.177971,-1766.77,-18881,-0,18963.5,23036.2
step02_gravity_refstate-crust.xmf,178,6.74795e-07,2.22219e-07,0,-4.36243e-07,-2.05099e+08,-2.0513e+08,-2.05145e+08,-29926.3,0.00477838,0.177485,0,0.177549,6299.52,-7469.9,0,9771.56,29926.3
step02_gravity_refstate-crust.xmf,179,5.97742e-07,2.65759e-07,0,-5.24534e-07,-2.01073e+08,-2.01096e+08,-2.01114e+08,-35983,0.00593615,0.175565,0,0.175665,8079.7,-7323.09,0,10904.6,35983
step02_gravity_refstate-crust.xmf,180,4.59214e-07,-1.53968e-08,0,-2.3884e-07,-5.37029e+07,-5.37354e+07,-5.37344e+07,-16384.4,0.0117795,0.168717,0,0.169128,13552.2,-1956.94,0,13692.8,16384.4
step02_gravity_refstate-crust.xmf,181,4.60873e-07,1.3572e-07,0,-4.2256e-07,-1.08307e+08,-1.08329e+08,-1.08338e+08,-28987.6,0.00961111,0.170186,0,0.170457,12497.1,-3945.1,0,13105,28987.6
step02_gravity_refstate-crust.xmf,182,4.28505e-07,-1.6479e-07,0,-4.43668e-09,40611.8,-88.248,11216.3,-304.356,0.0147657,0.166786,0,0.167439,14719.3,0,0,14719.3,304.356
step02_gravity_refstate-crust.xmf,183,4.77431e-07,2.46624e-07,0,-5.40319e-07,-1.56144e+08,-1.5616e+08,-1.56177e+08,-37065.9,0.00812947,0.171626,0,0.171818,11306.1,-5686.91,0,12655.8,37065.9
step02_gravity_refstate-crust.xmf,184,9.57876e-07,3.55828e-07,0,9.26639e-07,-5.14823e+08,-5.14864e+08,-5.14888e+08,63567.4,-0.00599268,0.174383,-0,0.174485,-5362.29,-18747.1,-0,19498.9,63567.4
step02_gravity_refstate-crust.xmf,185,1.23265e-06,8.43233e-08,0,6.85539e-07,-5.57828e+08,-5.57907e+08,-5.57913e+08,47028,-0.00428476,0.176661,-0,0.176713,-3274.65,-20313.4,-0,20575.7,47028
step02_gravity_refstate-crust.xmf,186,-4.57883e-08,6.07086e-07,0,6.64829e-07,-1.82641e+08,-1.82596e+08,-1.82638e+08,45607.3,-0.00948756,0.157159,-0,0.157445,-19636,-6649.98,-0,20731.5,45607.3
step02_gravity_refstate-crust.xmf,187,-1.68632e-07,6.38156e-07,0,6.04655e-07,-1.73248e+08,-1.73192e+08,-1.73236e+08,41479.4,-0.0094055,0.153561,-0,0.153848,-21842.9,-6307.57,-0,22735.3,41479.4
step02_gravity_refstate-crust.xmf,188,-2.86555e-07,6.53416e-07,0,5.27422e-07,-1.61607e+08,-1.61543e+08,-1.61588e+08,36181.2,-0.00911461,0.150258,-0,0.150534,-24036.7,-5883.33,-0,24746.3,36181.2
step02_gravity_refstate-crust.xmf,189,-4.04869e-07,6.47608e-07,0,4.33171e-07,-1.45486e+08,-1.45414e+08,-1.45458e+08,29715.5,-0.00863933,0.147277,-0,0.14753,-26294.5,-5295.94,-0,26822.5,29715.5
step02_gravity_refstate-crust.xmf,190,1.97524e-07,6.7581e-07,0,8.68008e-07,-2.57055e+08,-2.57023e+08,-2.57069e+08,59545.3,-0.00841708,0.164118,-0,0.164334,-14819.8,-9360.21,-0,17528.3,59545.3
step02_gravity_refstate-crust.xmf,191,5.12112e-07,6.52371e-07,0,9.85684e-07,-3.82749e+08,-3.82739e+08,-3.82784e+08,67617.9,-0.0071053,0.170632,-0,0.17078,-9370.88,-13937.4,-0,16794.8,67617.9
step02_gravity_refstate-crust.xmf,192,5.885e-07,6.43463e-07,0,1.03388e-06,-4.25088e+08,-4.25084e+08,-4.25128e+08,70923.9,-0.00715467,0.170983,-0,0.171132,-8567.08,-15479.1,-0,17691.8,70923.9
step02_gravity_refstate-crust.xmf,193,4.56862e-07,6.46333e-07,0,9.41325e-07,-3.46689e+08,-3.46676e+08,-3.46721e+08,64574.9,-0.00714636,0.170235,-0,0.170385,-10117.3,-12624.4,-0,16178.2,64574.9
step02_gravity_refstate-crust.xmf,194,3.65155e-07,6.81565e-07,0,9.43965e-07,-3.19241e+08,-3.1922e+08,-3.19266e+08,64756,-0.00758635,0.168343,-0,0.168514,-11605.6,-11624.8,-0,16426.4,64756
step02_gravity_refstate-crust.xmf,195,6.91628e-07,6.04944e-07,0,1.06391e-06,-4.68188e+08,-4.68194e+08,-4.68235e+08,72984.4,-0.00718496,0.171534,-0,0.171684,-7668.03,-17048.6,-0,18693.7,72984.4
step02_gravity_refstate-crust.xmf,196,-6.89054e-07,4.74864e-07,0,1.76739e-07,-6.59872e+07,-6.59074e+07,-6.594e+07,12124.3,-0.00862954,0.144568,-0,0.144825,-29787.7,-2400.28,-0,29884.3,12124.3
step02_gravity_refstate-crust.xmf,197,-9.20439e-07,3.48972e-07,0,7.05761e-09,-87447.7,-366.119,-24305.6,484.152,-0.00974338,0.144459,-0,0.144787,-30882.2,0,-0,30882.2,484.152
step02_gravity_refstate-crust.xmf,198,8.56354e-07,2.6831e-07,0,-2.56453e-07,-3.68838e+08,-3.68878e+08,-3.68897e+08,-17592.7,0.00181918,0.178935,0,0.178944,2096.91,-13431.8,0,13594.5,17592.7
step02_gravity_refstate-crust.xmf,199,9.36574e-07,2.34152e-07,0,-1.60622e-07,-4.09352e+08,-4.09401e+08,-4.09417e+08,-11018.6,0.00109858,0.178886,0,0.17889,1170.41,-14907,0,14952.9,11018.6
step02_gravity_refstate-crust.xmf,200,1.02832e-06,1.84364e-07,0,-3.58566e-08,-4.49337e+08,-4.49395e+08,-4.49408e+08,-2459.76,0.000245442,0.178732,0,0.178733,239.68,-16363,0,16364.8,2459.76
step02_gravity_refstate-crust.xmf,201,1.13971e-06,1.11522e-07,0,1.29874e-07,-4.93705e+08,-4.93776e+08,-4.93783e+08,8909.33,-0.000812805,0.178425,-0,0.178427,-714.218,-17978.6,-0,17992.8,8909.33
step02_gravity_refstate-crust.xmf,202,1.30569e-06,2.68322e-09,0,3.9107e-07,-5.55315e+08,-5.55404e+08,-5.55404e+08,26827.4,-0.0024126,0.177866,-0,0.177882,-1817.94,-20222.1,-0,20303.6,26827.4
step02_gravity_refstate-crust.xmf,203,6.23819e-07,3.25837e-07,0,-5.59463e-07,-2.48388e+08,-2.48408e+08,-2.48431e+08,-38379.1,0.00518018,0.176219,0,0.176295,7083.29,-9045.83,0,11489.1,38379.1
step02_gravity_refstate-crust.xmf,204,6.67812e-07,3.51302e-07,0,-5.56884e-07,-2.91081e+08,-2.91103e+08,-2.91127e+08,-38202.2,0.00454412,0.176836,0,0.176895,6030.15,-10600.3,0,12195.5,38202.2
step02_gravity_refstate-crust.xmf,205,5.00369e-07,3.37559e-07,0,-6.22636e-07,-2.0441e+08,-2.04422e+08,-2.04445e+08,-42712.8,0.0070306,0.172858,0,0.173001,10100.1,-7444.31,0,12547.1,42712.8
step02_gravity_refstate-crust.xmf,206,2.5892e-07,6.31241e-08,0,-2.48195e-07,-5.35845e+07,-5.35979e+07,-5.36022e+07,-17026.2,0.0126683,0.164876,0,0.165362,16011.9,-1951.94,0,16130.5,17026.2
step02_gravity_refstate-crust.xmf,207,1.78784e-07,-6.8356e-08,0,-3.8498e-09,16961.3,7.51568,4696.74,-264.096,0.0155435,0.16288,0,0.16362,17270.8,0,0,17270.8,264.096
step02_gravity_refstate-crust.xmf,208,1.10143e-06,2.47279e-07,0,9.3823e-07,-5.5505e+08,-5.55109e+08,-5.55126e+08,64362.6,-0.00596377,0.174827,-0,0.174929,-4744.72,-20212,-0,20761.4,64362.6
step02_gravity_refstate-crust.xmf,209,8.11022e-07,5.27699e-07,0,1.11028e-06,-5.10439e+08,-5.10459e+08,-5.10495e+08,76165,-0.00728695,0.17198,-0,0.172134,-6903.24,-18587.2,-0,19827.7,76165
step02_gravity_refstate-crust.xmf,210,1.27044e-06,9.75612e-08,0,9.53014e-07,-5.94104e+08,-5.94184e+08,-5.94191e+08,65376.8,-0.00590321,0.175418,-0,0.175518,-4169.01,-21634.2,-0,22032.3,65376.8
step02_gravity_refstate-crust.xmf,211,1.39587e-06,-6.09986e-08,0,6.12681e-07,-5.90896e+08,-5.90996e+08,-5.90992e+08,42029.9,-0.00372873,0.17734,-0,0.177379,-2570.65,-21517.7,-0,21670.7,42029.9
step02_gravity_refstate-crust.xmf,212,-5.31409e-07,6.60073e-07,0,3.45953e-07,-1.34873e+08,-1.34791e+08,-1.34836e+08,23732.4,-0.00767163,0.144275,-0,0.144479,-28790.8,-4909.06,-0,29206.3,23732.4
step02_gravity_refstate-crust.xmf,213,9.21268e-08,7.33158e-07,0,8.59382e-07,-2.49852e+08,-2.49808e+08,-2.49858e+08,58953.6,-0.00872068,0.160826,-0,0.161062,-16706.2,-9097.61,-0,19022.8,58953.6
step02_gravity_refstate-crust.xmf,214,2.26302e-07,7.91247e-07,0,9.86279e-07,-3.11528e+08,-3.1149e+08,-3.11544e+08,67658.8,-0.00823238,0.164364,-0,0.16457,-13900,-11343.6,-0,17941.2,67658.8
step02_gravity_refstate-crust.xmf,215,-8.00884e-07,5.18732e-07,0,1.32039e-07,-6.61263e+07,-6.60358e+07,-6.60714e+07,9057.9,-0.0065504,0.141958,-0,0.142109,-32575.5,-2404.96,-0,32664.2,9057.9
step02_gravity_refstate-crust.xmf,216,-1.04471e-06,3.95651e-07,0,6.12339e-09,-99272.6,-463.987,-27605.7,420.065,-0.00685475,0.142144,-0,0.142309,-33826.9,0,-0,33826.9,420.065
step02_gravity_refstate-crust.xmf,217,7.30217e-07,3.5085e-07,0,-5.30246e-07,-3.33623e+08,-3.33649e+08,-3.33673e+08,-36374.9,0.00396414,0.17733,0,0.177375,4976.12,-12149.4,0,13128.9,36374.9
step02_gravity_refstate-crust.xmf,218,8.0987e-07,3.24352e-07,0,-4.77468e-07,-3.74462e+08,-3.74496e+08,-3.74518e+08,-32754.3,0.00336861,0.177736,0,0.177767,3928.77,-13636.5,0,14191.1,32754.3
step02_gravity_refstate-crust.xmf,219,1.25251e-06,3.09163e-08,0,1.6633e-07,-5.32451e+08,-5.32535e+08,-5.32537e+08,11410.2,-0.00103598,0.178294,-0,0.178297,-824.828,-19389.5,-0,19407.1,11410.2
step02_gravity_refstate-crust.xmf,220,5.29909e-07,4.0401e-07,0,-6.71762e-07,-2.51488e+08,-2.51497e+08,-2.51525e+08,-46082.9,0.0062574,0.173831,0,0.173943,8948.27,-9158.46,0,12804.3,46082.9
step02_gravity_refstate-crust.xmf,221,5.74876e-08,1.4571e-07,0,-2.45306e-07,-5.37726e+07,-5.37665e+07,-5.37765e+07,-16828,0.0130486,0.16088,0,0.161408,18477,-1958.1,0,18580.4,16828
step02_gravity_refstate-crust.xmf,222,-7.19504e-08,2.77695e-08,0,-3.5641e-09,-6814.9,25.89,-1879.1,-244.497,0.0156723,0.15883,0,0.159601,19869.6,0,0,19869.6,244.497
step02_gravity_refstate-crust.xmf,223,3.03802e-07,1.99363e-07,0,-4.40503e-07,-1.06043e+08,-1.0605e+08,-1.06064e+08,-30218.5,0.0105605,0.166536,0,0.16687,14826.6,-3862.14,0,15321.3,30218.5
step02_gravity_refstate-crust.xmf,224,3.34555e-07,3.27706e-07,0,-5.93318e-07,-1.58114e+08,-1.58114e+08,-1.58137e+08,-40701.6,0.00904909,0.167954,0,0.168197,13646.2,-5758.16,0,14811.3,40701.6
step02_gravity_refstate-crust.xmf,225,3.74864e-07,4.32208e-07,0,-7.0146e-07,-2.09523e+08,-2.09519e+08,-2.09549e+08,-48120.1,0.00793482,0.169514,0,0.1697,12244.5,-7630.09,0,14427.2,48120.1
step02_gravity_refstate-crust.xmf,226,9.41145e-07,4.30308e-07,0,1.15416e-06,-5.5036e+08,-5.50395e+08,-5.50424e+08,79175.6,-0.00740769,0.172453,-0,0.172612,-6235.08,-20040.9,-0,20988.4,79175.6
step02_gravity_refstate-crust.xmf,227,1.46015e-06,-1.11388e-07,0,8.38599e-07,-6.21808e+08,-6.21916e+08,-6.21908e+08,57527.9,-0.00506274,0.176704,-0,0.176777,-3236.4,-22643.3,-0,22873.4,57527.9
step02_gravity_refstate-crust.xmf,228,1.57007e-06,-2.39379e-07,0,5.2364e-07,-6.2307e+08,-6.23195e+08,-6.23178e+08,35921.7,-0.00310607,0.178064,-0,0.178091,-1934.26,-22689.5,-0,22771.8,35921.7
step02_gravity_refstate-crust.xmf,229,-1.98616e-08,7.8639e-07,0,8.2626e-07,-2.42001e+08,-2.41946e+08,-2.42e+08,56681.4,-0.00884295,0.157186,-0,0.157435,-18785.9,-8811.43,-0,20749.7,56681.4
step02_gravity_refstate-crust.xmf,230,-1.32304e-07,8.42181e-07,0,7.77054e-07,-2.36996e+08,-2.3693e+08,-2.36987e+08,53305.9,-0.00871357,0.153362,-0,0.153609,-20968.6,-8628.86,-0,22674.6,53305.9
step02_gravity_refstate-crust.xmf,231,-2.36695e-07,8.63005e-07,0,6.96212e-07,-2.2542e+08,-2.25344e+08,-2.25403e+08,47760.1,-0.0084111,0.149882,-0,0.150118,-23182.7,-8207,-0,24592.6,47760.1
step02_gravity_refstate-crust.xmf,232,-3.34902e-07,8.78261e-07,0,6.05961e-07,-2.1509e+08,-2.15007e+08,-2.15067e+08,41568.9,-0.00787758,0.146619,-0,0.14683,-25424.5,-7830.58,-0,26603.1,41568.9
step02_gravity_refstate-crust.xmf,233,-4.29762e-07,8.87853e-07,0,5.04001e-07,-2.05008e+08,-2.04917e+08,-2.04978e+08,34574.4,-0.00706904,0.143526,-0,0.1437,-27819.5,-7463.15,-0,28803.2,34574.4
step02_gravity_refstate-crust.xmf,234,1.04453e-07,8.83679e-07,0,9.91848e-07,-3.05815e+08,-3.05761e+08,-3.05822e+08,68040.8,-0.00855955,0.160561,-0,0.160789,-15976.7,-11135.3,-0,19474.3,68040.8
step02_gravity_refstate-crust.xmf,235,3.81455e-07,7.77562e-07,0,1.06655e-06,-3.75527e+08,-3.755e+08,-3.75553e+08,73165,-0.00786531,0.167506,-0,0.16769,-11237,-13674.2,-0,17699,73165
step02_gravity_refstate-crust.xmf,236,4.40309e-07,8.00854e-07,0,1.13961e-06,-4.19265e+08,-4.1924e+08,-4.19295e+08,78177,-0.0080449,0.167727,-0,0.16792,-10446,-15266.8,-0,18498.5,78177
step02_gravity_refstate-crust.xmf,237,5.14724e-07,8.1564e-07,0,1.23806e-06,-4.69986e+08,-4.69966e+08,-4.70022e+08,84930.8,-0.00844183,0.167685,-0,0.167898,-9698.33,-17113.7,-0,19670.7,84930.8
step02_gravity_refstate-crust.xmf,238,6.62765e-07,7.13263e-07,0,1.25034e-06,-5.09015e+08,-5.09011e+08,-5.0906e+08,85773.2,-0.00836307,0.169199,-0,0.169406,-8398.12,-18535,-0,20348.8,85773.2
step02_gravity_refstate-crust.xmf,239,-6.31204e-07,6.93819e-07,0,2.65712e-07,-1.32868e+08,-1.32778e+08,-1.32825e+08,18227.9,-0.00615246,0.141459,-0,0.141593,-31461.9,-4835.73,-0,31831.4,18227.9
step02_gravity_refstate-crust.xmf,240,-8.71122e-07,5.52038e-07,0,8.62141e-08,-6.78386e+07,-6.7741e+07,-6.77789e+07,5914.28,-0.00418744,0.140089,-0,0.140151,-35365.1,-2467.06,-0,35451.1,5914.28
step02_gravity_refstate-crust.xmf,241,-1.123e-06,4.25714e-07,0,2.1103e-09,-106695,-452.928,-29656.9,144.766,-0.00356601,0.140655,-0,0.1407,-36863.6,0,-0,36863.6,144.766
step02_gravity_refstate-crust.xmf,242,9.03751e-07,2.76145e-07,0,-4.01316e-07,-4.13978e+08,-4.14021e+08,-4.1404e+08,-27530.2,0.00272312,0.178039,0,0.17806,2917.19,-15075.4,0,15355,27530.2
step02_gravity_refstate-crust.xmf,243,1.00997e-06,2.08936e-07,0,-3.01034e-07,-4.52588e+08,-4.52643e+08,-4.52657e+08,-20651,0.00198826,0.178249,0,0.17826,1942.16,-16481.3,0,16595.4,20651
step02_gravity_refstate-crust.xmf,244,1.12707e-06,1.24852e-07,0,-1.84521e-07,-4.91245e+08,-4.91313e+08,-4.91322e+08,-12658.1,0.00119852,0.178351,0,0.178355,1061.51,-17889,0,17920.5,12658.1
step02_gravity_refstate-crust.xmf,245,1.25267e-06,2.80678e-08,0,-8.17302e-08,-5.30259e+08,-5.30343e+08,-5.30345e+08,-5606.69,0.000526751,0.178373,0,0.178374,420.651,-19309.7,0,19314.3,5606.69
step02_gravity_refstate-crust.xmf,246,1.37501e-06,-7.31937e-08,0,7.99427e-08,-5.64224e+08,-5.64323e+08,-5.64318e+08,5484.07,-0.000481526,0.178407,-0,0.178408,-351.127,-20546.6,-0,20549.6,5484.07
step02_gravity_refstate-crust.xmf,247,1.48055e-06,-1.62559e-07,0,2.97276e-07,-5.94436e+08,-5.94548e+08,-5.94537e+08,20393.2,-0.00178791,0.178302,-0,0.178311,-1200.74,-21646.8,-0,21680,20393.2
step02_gravity_refstate-crust.xmf,248,5.8322e-07,4.34541e-07,0,-6.99192e-07,-2.95992e+08,-2.96002e+08,-2.96032e+08,-47964.6,0.00570249,0.174606,0,0.174699,7860.29,-10778.9,0,13340.5,47964.6
step02_gravity_refstate-crust.xmf,249,6.50159e-07,4.38443e-07,0,-7.01748e-07,-3.39343e+08,-3.39358e+08,-3.39388e+08,-48139.9,0.00524512,0.175275,0,0.175353,6788.55,-12357.4,0,14099.3,48139.9
step02_gravity_refstate-crust.xmf,250,-1.42938e-07,2.25333e-07,0,-2.3331e-07,-5.3802e+07,-5.37768e+07,-5.37922e+07,-16005.1,0.0129295,0.156777,0,0.15731,21016.4,-1958.49,0,21107.5,16005.1
step02_gravity_refstate-crust.xmf,251,-3.27322e-07,1.22188e-07,0,-5.45958e-09,-31179,-342.665,-8724.75,-374.527,0.0151377,0.154797,0,0.155535,22522.7,0,0,22522.7,374.527
step02_gravity_refstate-crust.xmf,252,4.26635e-07,4.95258e-07,0,-7.74225e-07,-2.56368e+08,-2.56363e+08,-2.56397e+08,-53111.8,0.00719513,0.170847,0,0.170998,10911.1,-9335.81,0,14360,53111.8
step02_gravity_refstate-crust.xmf,253,1.34691e-07,2.73828e-07,0,-4.47544e-07,-1.06126e+08,-1.06116e+08,-1.06135e+08,-30701.5,0.011081,0.16258,0,0.162957,17209,-3864.58,0,17637.6,30701.5
step02_gravity_refstate-crust.xmf,254,1.07633e-06,3.27915e-07,0,1.19639e-06,-5.86397e+08,-5.86448e+08,-5.86471e+08,82072.5,-0.00755885,0.17292,-0,0.173085,-5701.66,-21353.2,-0,22101.3,82072.5
step02_gravity_refstate-crust.xmf,255,7.66753e-07,6.4175e-07,0,1.32039e-06,-5.46482e+08,-5.46491e+08,-5.46535e+08,90578.9,-0.0086207,0.169601,-0,0.16982,-7743.18,-19899.3,-0,21352.8,90578.9
step02_gravity_refstate-crust.xmf,256,1.64276e-06,-3.12232e-07,0,7.66124e-07,-6.51805e+08,-6.51939e+08,-6.51918e+08,52556.1,-0.00450994,0.1777,-0,0.177757,-2607,-23735.8,-0,23878.5,52556.1
step02_gravity_refstate-crust.xmf,257,1.35662e-06,2.02797e-08,0,1.10478e-06,-6.2712e+08,-6.27212e+08,-6.27213e+08,75787.9,-0.00668342,0.175095,-0,0.175223,-4325.61,-22836.5,-0,23242.5,75787.9
step02_gravity_refstate-crust.xmf,258,-5.21427e-07,9.04072e-07,0,4.01421e-07,-1.98868e+08,-1.9877e+08,-1.98832e+08,27537.5,-0.00592756,0.14067,-0,0.140795,-30349.9,-7239.27,-0,31201.3,27537.5
step02_gravity_refstate-crust.xmf,259,-6.32498e-09,9.57304e-07,0,9.66403e-07,-2.99168e+08,-2.99102e+08,-2.99168e+08,66295.2,-0.00865131,0.156856,-0,0.157094,-18000.2,-10893,-0,21039.6,66295.2
step02_gravity_refstate-crust.xmf,260,2.56538e-07,8.91389e-07,0,1.09792e-06,-3.65136e+08,-3.65093e+08,-3.65154e+08,75317.4,-0.00836165,0.164261,-0,0.164474,-13097.7,-13295.6,-0,18663.4,75317.4
step02_gravity_refstate-crust.xmf,261,1.2605e-07,1.01014e-06,0,1.11367e-06,-3.59845e+08,-3.59784e+08,-3.59853e+08,76397.9,-0.0087063,0.160366,-0,0.160602,-15135.1,-13102.6,-0,20018.7,76397.9
step02_gravity_refstate-crust.xmf,262,5.10536e-07,9.09758e-07,0,1.37614e-06,-5.13123e+08,-5.13096e+08,-5.13158e+08,94403.2,-0.00931812,0.165906,-0,0.166167,-9898.15,-18684.2,-0,21144.1,94403.2
step02_gravity_refstate-crust.xmf,263,-7.09963e-07,7.14569e-07,0,1.81536e-07,-1.29807e+08,-1.29709e+08,-1.29758e+08,12453.3,-0.004399,0.139382,-0,0.139451,-34139.2,-4723.99,-0,34464.5,12453.3
step02_gravity_refstate-crust.xmf,264,-9.28479e-07,5.53056e-07,0,3.42679e-08,-6.08708e+07,-6.07692e+07,-6.08071e+07,2350.78,-0.00207832,0.139314,-0,0.139329,-37781.3,-2213.16,-0,37846.1,2350.78
step02_gravity_refstate-crust.xmf,265,-1.13083e-06,4.27211e-07,0,-4.00007e-09,-107501,-619.725,-29926.4,-274.405,-4.29855e-19,0.140129,-0,0.140129,-40000,0,-0,40000,274.405
step02_gravity_refstate-crust.xmf,266,7.36018e-07,4.09941e-07,0,-6.75388e-07,-3.79459e+08,-3.79481e+08,-3.79509e+08,-46331.6,0.00477144,0.175941,0,0.176005,5701.71,-13818.2,0,14948.3,46331.6
step02_gravity_refstate-crust.xmf,267,8.3873e-07,3.55321e-07,0,-6.26603e-07,-4.18802e+08,-4.18835e+08,-4.1886e+08,-42985,0.00425625,0.176536,0,0.176587,4639.05,-15250.8,0,15940.8,42985
step02_gravity_refstate-crust.xmf,268,1.63779e-06,-3.21665e-07,0,1.73549e-07,-6.25693e+08,-6.25827e+08,-6.25805e+08,11905.5,-0.00101188,0.178784,-0,0.178787,-618.217,-22785.1,-0,22793.5,11905.5
step02_gravity_refstate-crust.xmf,269,-3.42249e-07,3.02371e-07,0,-2.20933e-07,-5.49603e+07,-5.49161e+07,-5.49368e+07,-15156,0.012253,0.152778,0,0.153269,23593.9,-1999.97,0,23678.5,15156
step02_gravity_refstate-crust.xmf,270,-5.54155e-07,2.07697e-07,0,-6.23261e-09,-52750.6,-487.559,-14735.6,-427.557,0.0139467,0.150947,0,0.15159,25237.6,0,0,25237.6,427.557
step02_gravity_refstate-crust.xmf,271,4.78861e-07,5.37975e-07,0,-8.18282e-07,-3.01412e+08,-3.01408e+08,-3.01445e+08,-56134.1,0.00670966,0.171856,0,0.171987,9717.03,-10976,0,14659.2,56134.1
step02_gravity_refstate-crust.xmf,272,-3.07031e-08,3.50881e-07,0,-4.35936e-07,-1.06752e+08,-1.06726e+08,-1.0675e+08,-29905.2,0.0111843,0.158527,0,0.158921,19608.9,-3886.83,0,19990.4,29905.2
step02_gravity_refstate-crust.xmf,273,1.84221e-07,4.01314e-07,0,-6.09602e-07,-1.56423e+08,-1.56408e+08,-1.56435e+08,-41818.7,0.00970097,0.163942,0,0.164229,16042.9,-5696.1,0,17024.1,41818.7
step02_gravity_refstate-crust.xmf,274,2.30247e-07,5.50126e-07,0,-7.74334e-07,-2.19486e+08,-2.19464e+08,-2.19502e+08,-53119.3,0.00858464,0.165283,0,0.165506,14638.7,-7992.39,0,16678.4,53119.3
step02_gravity_refstate-crust.xmf,275,3.06753e-07,6.04936e-07,0,-8.49559e-07,-2.62845e+08,-2.62825e+08,-2.62867e+08,-58279.7,0.00792156,0.167386,0,0.167573,12913.3,-9571.33,0,16073.7,58279.7
step02_gravity_refstate-crust.xmf,276,1.7533e-06,-4.3667e-07,0,4.15161e-07,-6.53699e+08,-6.53849e+08,-6.53819e+08,28480,-0.00239258,0.178855,-0,0.178871,-1350.34,-23805,-0,23843.2,28480
step02_gravity_refstate-crust.xmf,277,8.84277e-07,5.50244e-07,0,1.38477e-06,-5.81828e+08,-5.81851e+08,-5.81889e+08,94995.5,-0.0088618,0.170118,-0,0.170349,-7129.79,-21186.5,-0,22354,94995.5
step02_gravity_refstate-crust.xmf,278,1.19304e-06,2.25914e-07,0,1.2694e-06,-6.18814e+08,-6.1888e+08,-6.18896e+08,87081,-0.00785559,0.173212,-0,0.17339,-5376.98,-22533.7,-0,23166.4,87081
step02_gravity_refstate-crust.xmf,279,1.5069e-06,-1.42739e-07,0,1.08612e-06,-6.51363e+08,-6.51476e+08,-6.51466e+08,74508.2,-0.00643196,0.175967,-0,0.176084,-3830.21,-23719.4,-0,24026.7,74508.2
step02_gravity_refstate-crust.xmf,280,-1.13436e-07,1.02424e-06,0,9.17792e-07,-2.93573e+08,-2.93495e+08,-2.93565e+08,62960.5,-0.00852676,0.152999,-0,0.153236,-20119.5,-10688.9,-0,22782.6,62960.5
step02_gravity_refstate-crust.xmf,281,-2.11537e-07,1.07224e-06,0,8.44753e-07,-2.86494e+08,-2.86406e+08,-2.86479e+08,57950.1,-0.00818897,0.149273,-0,0.149498,-22291.2,-10430.9,-0,24611,57950.1
step02_gravity_refstate-crust.xmf,282,-3.0085e-07,1.10208e-06,0,7.51754e-07,-2.78066e+08,-2.77969e+08,-2.78045e+08,51570.3,-0.00764643,0.145764,-0,0.145964,-24530.4,-10123.7,-0,26537.3,51570.3
step02_gravity_refstate-crust.xmf,283,-3.8056e-07,1.11889e-06,0,6.46585e-07,-2.69502e+08,-2.69399e+08,-2.69476e+08,44355.7,-0.00691075,0.142577,-0,0.142744,-26809,-9811.67,-0,28548.1,44355.7
step02_gravity_refstate-crust.xmf,284,-4.52767e-07,1.13635e-06,0,5.31239e-07,-2.63397e+08,-2.63288e+08,-2.63366e+08,36443,-0.00592824,0.139567,-0,0.139693,-29233.4,-9589.14,-0,30766,36443
step02_gravity_refstate-crust.xmf,285,7.82061e-09,1.11229e-06,0,1.09668e-06,-3.5479e+08,-3.54715e+08,-3.54791e+08,75232.5,-0.00880406,0.156476,-0,0.156724,-17136.5,-12918.3,-0,21460.2,75232.5
step02_gravity_refstate-crust.xmf,286,2.93608e-07,9.52692e-07,0,1.20201e-06,-4.13176e+08,-4.13131e+08,-4.13196e+08,82457.7,-0.00866725,0.164127,-0,0.164356,-12356.7,-15044.7,-0,19468.7,82457.7
step02_gravity_refstate-crust.xmf,287,3.47971e-07,9.83282e-07,0,1.29156e-06,-4.56341e+08,-4.56297e+08,-4.56365e+08,88601.3,-0.00902503,0.164255,-0,0.164503,-11563.2,-16616.5,-0,20243.9,88601.3
step02_gravity_refstate-crust.xmf,288,3.61057e-07,1.06318e-06,0,1.4127e-06,-5.01115e+08,-5.01066e+08,-5.01139e+08,96911.2,-0.00972043,0.163044,-0,0.163333,-11353.3,-18246.7,-0,21490.4,96911.2
step02_gravity_refstate-crust.xmf,289,5.92931e-07,8.66741e-07,0,1.43862e-06,-5.44626e+08,-5.44607e+08,-5.44667e+08,98689.7,-0.00959757,0.166372,-0,0.166649,-9239.27,-19831.4,-0,21878,98689.7
step02_gravity_refstate-crust.xmf,290,-5.89767e-07,9.20207e-07,0,2.94111e-07,-1.95087e+08,-1.94984e+08,-1.95047e+08,20176,-0.00452128,0.138326,-0,0.1384,-32942.1,-7101.39,-0,33698.8,20176
step02_gravity_refstate-crust.xmf,291,-7.54423e-07,7.34588e-07,0,9.06269e-08,-1.31083e+08,-1.30981e+08,-1.31031e+08,6217.01,-0.00217352,0.137848,-0,0.137865,-37158,-4770.28,-0,37462.9,6217.01
step02_gravity_refstate-crust.xmf,292,-8.64065e-07,6.15508e-07,0,-2.19093e-09,-8.69416e+07,-8.68401e+07,-8.68823e+07,-150.298,-4.4056e-19,0.138478,-0,0.138478,-40000,-3162.65,-0,40124.8,150.298
step02_gravity_refstate-crust.xmf,293,9.56427e-07,2.7659e-07,0,-5.54438e-07,-4.56987e+08,-4.57033e+08,-4.57052e+08,-38034.4,0.00366034,0.177068,0,0.177106,3614.69,-16641.4,0,17029.4,38034.4
step02_gravity_refstate-crust.xmf,294,1.08725e-06,1.76307e-07,0,-4.60936e-07,-4.94479e+08,-4.94542e+08,-4.94554e+08,-31620.2,0.00297536,0.177527,0,0.177552,2652,-18006.7,0,18200.9,31620.2
step02_gravity_refstate-crust.xmf,295,1.22396e-06,6.33821e-08,0,-3.6252e-07,-5.3087e+08,-5.3095e+08,-5.30954e+08,-24868.9,0.00229411,0.17788,0,0.177895,1846.26,-19331.9,0,19419.9,24868.9
step02_gravity_refstate-crust.xmf,296,1.37153e-06,-6.77839e-08,0,-2.34088e-07,-5.66276e+08,-5.66375e+08,-5.6637e+08,-16058.4,0.00145719,0.178243,0,0.178249,1058.47,-20621.3,0,20648.4,16058.4
step02_gravity_refstate-crust.xmf,297,1.51426e-06,-2.00495e-07,0,-4.93067e-08,-5.97566e+08,-5.97684e+08,-5.9767e+08,-3382.44,0.000318015,0.178585,0,0.178585,210.734,-21760.8,0,21761.8,3382.44
step02_gravity_refstate-crust.xmf,298,5.51158e-07,5.45241e-07,0,-8.47469e-07,-3.4424e+08,-3.44241e+08,-3.44278e+08,-58136.4,0.0063617,0.172712,0,0.172829,8594.41,-12535.5,0,15198.8,58136.4
step02_gravity_refstate-crust.xmf,299,6.38398e-07,5.23587e-07,0,-8.52152e-07,-3.8534e+08,-3.85348e+08,-3.85384e+08,-58457.6,0.00604528,0.173538,0,0.173644,7482.08,-14032.1,0,15902.2,58457.6
step02_gravity_refstate-crust.xmf,300,-1.90084e-07,4.20757e-07,0,-4.10931e-07,-1.07197e+08,-1.07156e+08,-1.07184e+08,-28189.8,0.0108941,0.154525,0,0.154908,22029.2,-3902.51,0,22372.2,28189.8
step02_gravity_refstate-crust.xmf,301,-5.08589e-07,3.9022e-07,0,-2.1923e-07,-6.23107e+07,-6.2249e+07,-6.22758e+07,-15039.2,0.010853,0.14889,0,0.149285,26262.1,-2267.03,0,26359.7,15039.2
step02_gravity_refstate-crust.xmf,302,3.66627e-07,6.52085e-07,0,-9.20939e-07,-3.07609e+08,-3.0759e+08,-3.07634e+08,-63176.4,0.00754753,0.168572,0,0.168741,11636.7,-11201.3,0,16151.8,63176.4
step02_gravity_refstate-crust.xmf,303,3.78138e-08,4.84953e-07,0,-6.14266e-07,-1.59414e+08,-1.59384e+08,-1.59417e+08,-42138.7,0.00989977,0.159899,0,0.160205,18339.5,-5804.54,0,19236.2,42138.7
step02_gravity_refstate-crust.xmf,304,2.04759e-07,7.15543e-07,0,-9.07236e-07,-2.74346e+08,-2.74311e+08,-2.7436e+08,-62236.4,0.0083246,0.164196,0,0.164407,14538.5,-9989.79,0,17639.9,62236.4
step02_gravity_refstate-crust.xmf,305,-7.53814e-07,2.83353e-07,0,-6.31616e-09,-71721.3,-571.644,-20009.7,-433.288,0.0121306,0.147446,0,0.147944,28021.6,0,0,28021.6,433.288
step02_gravity_refstate-crust.xmf,306,1.85619e-06,-5.54912e-07,0,6.85509e-07,-6.81723e+08,-6.81889e+08,-6.81851e+08,47025.9,-0.00389304,0.178796,-0,0.178838,-2033.3,-24825.5,-0,24908.6,47025.9
step02_gravity_refstate-crust.xmf,307,1.00408e-06,4.60915e-07,0,1.45474e-06,-6.14865e+08,-6.14902e+08,-6.14934e+08,99794.9,-0.00916367,0.170561,-0,0.170807,-6651.06,-22389.6,-0,23356.6,99794.9
step02_gravity_refstate-crust.xmf,308,6.89893e-07,7.93849e-07,0,1.52587e-06,-5.79657e+08,-5.79649e+08,-5.79704e+08,104675,-0.00995369,0.166858,-0,0.167154,-8578.59,-21107,-0,22783.7,104675
step02_gravity_refstate-crust.xmf,309,1.69857e-06,-3.55676e-07,0,1.05124e-06,-6.80004e+08,-6.80145e+08,-6.8012e+08,72115,-0.00607506,0.177124,-0,0.177228,-3274.1,-24762.5,-0,24978,72115
step02_gravity_refstate-crust.xmf,310,1.32909e-06,7.73748e-08,0,1.34329e-06,-6.49513e+08,-6.49599e+08,-6.49605e+08,92149.4,-0.00807362,0.17376,-0,0.173947,-5015.47,-23651.7,-0,24177.6,92149.4
step02_gravity_refstate-crust.xmf,311,-5.20142e-07,1.15029e-06,0,4.08101e-07,-2.58906e+08,-2.58791e+08,-2.5887e+08,27995.7,-0.00469235,0.136921,-0,0.137001,-31816.2,-9425.39,-0,33183,27995.7
step02_gravity_refstate-crust.xmf,312,-1.02053e-07,1.19725e-06,0,1.04844e-06,-3.48667e+08,-3.48578e+08,-3.4866e+08,71922.7,-0.00867294,0.1525,-0,0.152747,-19228.3,-12695,-0,23041.1,71922.7
step02_gravity_refstate-crust.xmf,313,1.53124e-07,1.10767e-06,0,1.22358e-06,-4.0893e+08,-4.08864e+08,-4.0894e+08,83937.8,-0.00905385,0.160151,-0,0.160407,-14328.1,-14889.8,-0,20664,83937.8
step02_gravity_refstate-crust.xmf,314,2.2188e-08,1.24111e-06,0,1.21347e-06,-4.05118e+08,-4.05034e+08,-4.05119e+08,83244.1,-0.009182,0.156035,-0,0.156305,-16318.5,-14750.7,-0,21997.2,83244.1
step02_gravity_refstate-crust.xmf,315,4.13034e-07,1.08751e-06,0,1.51364e-06,-5.40875e+08,-5.40829e+08,-5.40903e+08,103835,-0.0102993,0.16279,-0,0.163116,-10801.7,-19694.4,-0,22462.2,103835
step02_gravity_refstate-crust.xmf,316,-6.45165e-07,9.08292e-07,0,1.8814e-07,-1.8584e+08,-1.85734e+08,-1.85796e+08,12906.4,-0.00311348,0.137007,-0,0.137042,-35332.7,-6764.49,-0,35974.4,12906.4
step02_gravity_refstate-crust.xmf,317,7.44562e-07,4.69548e-07,0,-8.32207e-07,-4.24173e+08,-4.24192e+08,-4.24224e+08,-57089.4,0.005681,0.174383,0,0.174475,6373.44,-15446.2,0,16709.4,57089.4
step02_gravity_refstate-crust.xmf,318,8.68971e-07,3.85623e-07,0,-7.88553e-07,-4.61813e+08,-4.61846e+08,-4.61873e+08,-54094.7,0.0052311,0.175218,0,0.175296,5283.73,-16816.9,0,17627.4,54094.7
step02_gravity_refstate-crust.xmf,319,1.654e-06,-3.38295e-07,0,-1.84306e-07,-6.29298e+08,-6.29435e+08,-6.29412e+08,-12643.4,0.00109948,0.178815,0,0.178818,664.871,-22916.4,0,22926,12643.4
step02_gravity_refstate-crust.xmf,320,1.8024e-06,-4.97476e-07,0,3.35006e-08,-6.5609e+08,-6.56248e+08,-6.56214e+08,2298.14,-0.000178948,0.179317,-0,0.179317,-99.5591,-23892.1,-0,23892.3,2298.14
step02_gravity_refstate-crust.xmf,321,1.94908e-06,-6.57671e-07,0,2.79566e-07,-6.83544e+08,-6.83722e+08,-6.83677e+08,19178.2,-0.00155681,0.179738,-0,0.179745,-797.155,-24892,-0,24904.7,19178.2
step02_gravity_refstate-crust.xmf,322,-3.52785e-07,4.80922e-07,0,-3.72954e-07,-1.06369e+08,-1.06312e+08,-1.06345e+08,-25584.7,0.0102485,0.150697,0,0.151045,24495,-3871.78,0,24799.1,25584.7
step02_gravity_refstate-crust.xmf,323,4.35047e-07,6.72792e-07,0,-9.63619e-07,-3.49866e+08,-3.49849e+08,-3.49895e+08,-66104.3,0.00730587,0.169645,0,0.169802,10420.1,-12740,0,16458.6,66104.3
step02_gravity_refstate-crust.xmf,324,-9.97688e-08,5.59778e-07,0,-5.88685e-07,-1.60146e+08,-1.60101e+08,-1.60139e+08,-40383.8,0.00980971,0.155854,0,0.156162,20662.7,-5830.75,0,21469.7,40383.8
step02_gravity_refstate-crust.xmf,325,8.6481e-08,6.22801e-07,0,-7.67916e-07,-2.1281e+08,-2.12774e+08,-2.12816e+08,-52679,0.00904141,0.160953,0,0.161207,17136.9,-7748.89,0,18807.4,52679
step02_gravity_refstate-crust.xmf,326,1.15358e-07,7.5487e-07,0,-8.98894e-07,-2.6465e+08,-2.64606e+08,-2.64658e+08,-61664.1,0.0086041,0.161447,0,0.161677,16157.5,-9636.49,0,18813,61664.1
step02_gravity_refstate-crust.xmf,327,2.37451e-07,7.95624e-07,0,-9.99915e-07,-3.17919e+08,-3.17881e+08,-3.17936e+08,-68594.1,0.00820163,0.164619,0,0.164823,13666.5,-11576.4,0,17910.5,68594.1
step02_gravity_refstate-crust.xmf,328,-6.51477e-07,4.70355e-07,0,-1.96147e-07,-6.95712e+07,-6.94943e+07,-6.95266e+07,-13455.7,0.00897444,0.14523,0,0.145507,29125.4,-2530.9,0,29235.2,13455.7
step02_gravity_refstate-crust.xmf,329,-8.95275e-07,3.42577e-07,0,-2.8011e-09,-84923.2,-6.5253,-23507.3,-192.156,0.00974243,0.144458,0,0.144786,30882.2,0,0,30882.2,192.156
step02_gravity_refstate-crust.xmf,330,7.95985e-07,7.06517e-07,0,1.60043e-06,-6.10183e+08,-6.10189e+08,-6.10237e+08,109789,-0.0102438,0.167481,-0,0.167794,-7980.3,-22218.6,-0,23608.3,109789
step02_gravity_refstate-crust.xmf,331,1.12342e-06,3.4944e-07,0,1.54297e-06,-6.46285e+08,-6.46338e+08,-6.46362e+08,105848,-0.00950438,0.171036,-0,0.1713,-6246.94,-23533.7,-0,24348.7,105848
step02_gravity_refstate-crust.xmf,332,1.50312e-06,-1.15258e-07,0,1.37637e-06,-6.78365e+08,-6.78476e+08,-6.78468e+08,94418.7,-0.00803906,0.174793,-0,0.174977,-4520.7,-24702.5,-0,25112.7,94418.7
step02_gravity_refstate-crust.xmf,333,-2.0037e-07,1.2646e-06,0,9.75476e-07,-3.42453e+08,-3.42352e+08,-3.42439e+08,66917.7,-0.00832671,0.14858,-0,0.148813,-21376.8,-12468.5,-0,24747.3,66917.7
step02_gravity_refstate-crust.xmf,334,-2.86322e-07,1.31605e-06,0,8.83614e-07,-3.36639e+08,-3.36529e+08,-3.3662e+08,60615.9,-0.00778387,0.144828,-0,0.145037,-23566.3,-12256.6,-0,26563,60615.9
step02_gravity_refstate-crust.xmf,335,-3.5924e-07,1.34572e-06,0,7.75355e-07,-3.29496e+08,-3.29379e+08,-3.29471e+08,53189.4,-0.00706542,0.141435,-0,0.141611,-25791.6,-11996.3,-0,28445,53189.4
step02_gravity_refstate-crust.xmf,336,-4.2229e-07,1.36682e-06,0,6.55287e-07,-3.23405e+08,-3.23282e+08,-3.23376e+08,44952.7,-0.00616741,0.138305,-0,0.138442,-28103.5,-11774.3,-0,30470.4,44952.7
step02_gravity_refstate-crust.xmf,337,-4.74869e-07,1.38143e-06,0,5.26131e-07,-3.18487e+08,-3.18359e+08,-3.18454e+08,36092.6,-0.00509678,0.135548,-0,0.135644,-30501.2,-11595,-0,32630.8,36092.6
step02_gravity_refstate-crust.xmf,338,-9.55863e-08,1.35507e-06,0,1.16986e-06,-4.0081e+08,-4.0071e+08,-4.00803e+08,80252.4,-0.00906243,0.151861,-0,0.152132,-18361.5,-14593.6,-0,23454.6,80252.4
step02_gravity_refstate-crust.xmf,339,1.8277e-07,1.17323e-06,0,1.33162e-06,-4.53599e+08,-4.53531e+08,-4.53612e+08,91349.3,-0.00951449,0.15996,-0,0.160243,-13565.4,-16516.3,-0,21373,91349.3
step02_gravity_refstate-crust.xmf,340,2.098e-07,1.24118e-06,0,1.44117e-06,-4.97156e+08,-4.97085e+08,-4.9717e+08,98864,-0.0101051,0.159451,-0,0.159771,-12954.2,-18102.2,-0,22259.9,98864
step02_gravity_refstate-crust.xmf,341,2.39766e-07,1.29232e-06,0,1.55179e-06,-5.37512e+08,-5.3744e+08,-5.37529e+08,106453,-0.0107445,0.158977,-0,0.159339,-12386.6,-19571.7,-0,23162,106453
step02_gravity_refstate-crust.xmf,342,4.89537e-07,1.05736e-06,0,1.61161e-06,-5.76499e+08,-5.7646e+08,-5.76533e+08,110557,-0.0107865,0.163111,-0,0.163467,-10120,-20991.7,-0,23303.7,110557
step02_gravity_refstate-crust.xmf,343,-5.71135e-07,1.17067e-06,0,2.58664e-07,-2.58022e+08,-2.57903e+08,-2.57983e+08,17744.3,-0.00302848,0.134544,-0,0.134578,-34872.2,-9393.06,-0,36115.1,17744.3
step02_gravity_refstate-crust.xmf,344,-6.3276e-07,1.02024e-06,0,1.13283e-07,-2.15284e+08,-2.15171e+08,-2.15241e+08,7771.23,-0.00159898,0.135053,-0,0.135062,-37497.2,-7836.67,-0,38307.3,7771.23
step02_gravity_refstate-crust.xmf,345,-6.96516e-07,8.67277e-07,0,-9.12798e-10,-1.70926e+08,-1.70819e+08,-1.70878e+08,-62.6179,-3.19861e-19,0.136209,-0,0.136209,-40000,-6221.26,-0,40480.9,62.6179
step02_gravity_refstate-crust.xmf,346,1.00877e-06,2.75778e-07,0,-7.25939e-07,-4.98778e+08,-4.98828e+08,-4.98847e+08,-49799.4,0.00470283,0.175991,0,0.176054,4262.24,-18163,0,18656.4,49799.4
step02_gravity_refstate-crust.xmf,347,1.15768e-06,1.47299e-07,0,-6.4955e-07,-5.34155e+08,-5.34224e+08,-5.34234e+08,-44559.1,0.00411823,0.176684,0,0.176732,3355.33,-19451.4,0,19738.6,44559.1
step02_gravity_refstate-crust.xmf,348,1.31879e-06,-2.93005e-09,0,-5.57005e-07,-5.68808e+08,-5.68899e+08,-5.68899e+08,-38210.6,0.0034524,0.177353,0,0.177386,2529.6,-20713.4,0,20867.3,38210.6
step02_gravity_refstate-crust.xmf,349,1.50414e-06,-1.9145e-07,0,-4.37611e-07,-6.05383e+08,-6.055e+08,-6.05487e+08,-30020.1,0.00265017,0.178075,0,0.178094,1733.37,-22045.4,0,22113.4,30020.1
step02_gravity_refstate-crust.xmf,350,2.08667e-06,-8.11687e-07,0,5.75651e-07,-7.11308e+08,-7.11507e+08,-7.11451e+08,39489.6,-0.00313136,0.180055,-0,0.180083,-1476.42,-25903.1,-0,25945.1,39489.6
step02_gravity_refstate-crust.xmf,351,5.20919e-07,6.60299e-07,0,-9.99794e-07,-3.91049e+08,-3.9104e+08,-3.91085e+08,-68585.8,0.00714616,0.170584,0,0.170734,9281.17,-14239.7,0,16997.3,68585.8
step02_gravity_refstate-crust.xmf,352,6.25469e-07,6.15649e-07,0,-1.01384e-06,-4.31042e+08,-4.31043e+08,-4.31085e+08,-69549.6,0.00697184,0.17157,0,0.171711,8137.42,-15696,0,17680,69549.6
step02_gravity_refstate-crust.xmf,353,-2.27423e-07,6.23526e-07,0,-5.49102e-07,-1.60718e+08,-1.6066e+08,-1.60702e+08,-37668.4,0.00941587,0.152025,0,0.152317,22943.4,-5851.15,0,23677.8,37668.4
step02_gravity_refstate-crust.xmf,354,-4.4397e-07,6.43187e-07,0,-4.00002e-07,-1.39296e+08,-1.39222e+08,-1.39266e+08,-27440.2,0.00842565,0.146344,0,0.146587,27079.7,-5070.42,0,27550.3,27440.2
step02_gravity_refstate-crust.xmf,355,3.17983e-07,8.03954e-07,0,-1.05443e-06,-3.56043e+08,-3.56009e+08,-3.56064e+08,-72333.9,0.00803326,0.166237,0,0.166431,12216.7,-12964.6,0,17813.7,72333.9
step02_gravity_refstate-crust.xmf,356,1.411e-07,8.52904e-07,0,-9.94226e-07,-3.06831e+08,-3.06782e+08,-3.06841e+08,-68203.9,0.00848046,0.161805,0,0.162027,15316.5,-11172.4,0,18958.3,68203.9
step02_gravity_refstate-crust.xmf,357,-4.39215e-08,7.04441e-07,0,-7.51493e-07,-2.13529e+08,-2.13478e+08,-2.13526e+08,-51552.4,0.00908237,0.156819,0,0.157082,19412.1,-7774.66,0,20911.1,51552.4
step02_gravity_refstate-crust.xmf,358,-7.79961e-07,5.23916e-07,0,-1.44008e-07,-7.11299e+07,-7.10404e+07,-7.10764e+07,-9878.92,0.0066095,0.142026,0,0.14218,32373.5,-2587.21,0,32476.7,9878.92
step02_gravity_refstate-crust.xmf,359,-1.02779e-06,3.93233e-07,0,1.4821e-09,-97494.9,-13.0224,-26988.8,101.672,0.0068573,0.142144,0,0.142309,33826.9,0,0,33826.9,101.672
step02_gravity_refstate-crust.xmf,360,1.93451e-06,-6.395e-07,0,1.01063e-06,-7.09675e+08,-7.09852e+08,-7.09808e+08,69329.4,-0.00560221,0.178523,-0,0.178611,-2716.57,-25843.3,-0,25985.7,69329.4
step02_gravity_refstate-crust.xmf,361,9.00164e-07,6.34829e-07,0,1.70352e-06,-6.43191e+08,-6.43209e+08,-6.43252e+08,116862,-0.0107233,0.167816,-0,0.168159,-7536.24,-23420.6,-0,24603.3,116862
step02_gravity_refstate-crust.xmf,362,5.79236e-07,9.81718e-07,0,1.70221e-06,-6.06713e+08,-6.06685e+08,-6.06753e+08,116772,-0.0111501,0.163818,-0,0.164197,-9425.27,-22091.9,-0,24018.5,116772
step02_gravity_refstate-crust.xmf,363,1.71735e-06,-3.57574e-07,0,1.38264e-06,-7.08084e+08,-7.08226e+08,-7.08202e+08,94849,-0.00784218,0.176218,-0,0.176393,-3960.41,-25784.9,-0,26087.3,94849
step02_gravity_refstate-crust.xmf,364,1.26797e-06,1.82904e-07,0,1.63437e-06,-6.76609e+08,-6.76684e+08,-6.76696e+08,112118,-0.00974653,0.171866,-0,0.172142,-5785.29,-24638,-0,25308.2,112118
step02_gravity_refstate-crust.xmf,365,-5.21288e-07,1.4082e-06,0,3.92479e-07,-3.18932e+08,-3.18799e+08,-3.18896e+08,26924,-0.00383965,0.13304,-0,0.133095,-33016.8,-11611.1,-0,34999,26924
step02_gravity_refstate-crust.xmf,366,-1.98597e-07,1.44773e-06,0,1.09801e-06,-3.9617e+08,-3.96057e+08,-3.96157e+08,75323.7,-0.00871452,0.14772,-0,0.147977,-20465.9,-14424.4,-0,25038.3,75323.7
step02_gravity_refstate-crust.xmf,367,4.06902e-08,1.34422e-06,0,1.32348e-06,-4.51079e+08,-4.5099e+08,-4.51082e+08,90790.9,-0.00969295,0.155657,-0,0.155958,-15513.2,-16424.2,-0,22592.4,90790.9
step02_gravity_refstate-crust.xmf,368,-8.9682e-08,1.49305e-06,0,1.28584e-06,-4.49452e+08,-4.49343e+08,-4.49445e+08,88209,-0.00961655,0.151212,-0,0.151518,-17505.2,-16364.7,-0,23963.2,88209
step02_gravity_refstate-crust.xmf,369,2.97549e-07,1.29796e-06,0,1.6475e-06,-5.71718e+08,-5.7165e+08,-5.71739e+08,113018,-0.011287,0.159189,-0,0.159588,-11685.1,-20817.2,-0,23872.5,113018
step02_gravity_refstate-crust.xmf,370,7.53315e-07,5.32916e-07,0,-9.98912e-07,-4.68274e+08,-4.6829e+08,-4.68326e+08,-68525.3,0.00667833,0.1727,0,0.172829,6964.88,-17051.9,0,18419.4,68525.3
step02_gravity_refstate-crust.xmf,371,8.9777e-07,4.1703e-07,0,-9.61131e-07,-5.03613e+08,-5.03646e+08,-5.03675e+08,-65933.6,0.00627802,0.173822,0,0.173935,5848.58,-18338.8,0,19248.9,65933.6
step02_gravity_refstate-crust.xmf,372,1.64617e-06,-3.29434e-07,0,-4.84022e-07,-6.38047e+08,-6.38182e+08,-6.3816e+08,-33203.9,0.00285882,0.178401,0,0.178424,1698.09,-23234.9,0,23296.9,33203.9
step02_gravity_refstate-crust.xmf,373,1.79793e-06,-4.92072e-07,0,-3.42784e-07,-6.59744e+08,-6.59901e+08,-6.59868e+08,-23515,0.00198515,0.179102,0,0.179113,1097.38,-24025.2,0,24050.2,23515
step02_gravity_refstate-crust.xmf,374,1.97251e-06,-6.88453e-07,0,-1.47571e-07,-6.85538e+08,-6.8572e+08,-6.85673e+08,-10123.4,0.000842362,0.179906,0,0.179908,427.822,-24964.6,0,24968.3,10123.4
step02_gravity_refstate-crust.xmf,375,2.15982e-06,-9.06408e-07,0,1.02475e-07,-7.13088e+08,-7.13298e+08,-7.13236e+08,7029.78,-0.000540792,0.180735,-0,0.180735,-251.131,-25968,-0,25969.2,7029.78
step02_gravity_refstate-crust.xmf,376,-3.32981e-07,6.77556e-07,0,-5.02779e-07,-1.62246e+08,-1.62177e+08,-1.62223e+08,-34490.6,0.00879648,0.148734,0,0.148994,25016.6,-5906.43,0,25704.4,34490.6
step02_gravity_refstate-crust.xmf,377,3.93649e-07,8.09712e-07,0,-1.10406e-06,-3.95944e+08,-3.95915e+08,-3.95971e+08,-75738.5,0.00800418,0.167292,0,0.167483,11035.5,-14417.6,0,18156.2,75738.5
step02_gravity_refstate-crust.xmf,378,-1.60885e-07,7.82448e-07,0,-7.10639e-07,-2.14991e+08,-2.14926e+08,-2.1498e+08,-48749.9,0.00883007,0.152772,0,0.153027,21673,-7827.51,0,23043.2,48749.9
step02_gravity_refstate-crust.xmf,379,-3.25163e-09,8.48125e-07,0,-8.93685e-07,-2.66541e+08,-2.66482e+08,-2.6654e+08,-61306.8,0.00871477,0.157468,0,0.157709,18242.4,-9704.98,0,20663.3,61306.8
step02_gravity_refstate-crust.xmf,380,3.27594e-08,9.84618e-07,0,-1.02803e-06,-3.20992e+08,-3.20927e+08,-3.20994e+08,-70522.8,0.00866469,0.157976,0,0.158213,17033.2,-11687.7,0,20657.5,70522.8
step02_gravity_refstate-crust.xmf,381,1.21126e-07,9.96553e-07,0,-1.09822e-06,-3.53225e+08,-3.53165e+08,-3.53233e+08,-75337.7,0.00867746,0.160334,0,0.160569,15270,-12861.5,0,19964.8,75337.7
step02_gravity_refstate-crust.xmf,382,2.14407e-07,9.28735e-07,0,-1.1108e-06,-3.64089e+08,-3.6404e+08,-3.64104e+08,-76200.8,0.00850371,0.163019,0,0.163241,13743.4,-13257.3,0,19095.5,76200.8
step02_gravity_refstate-crust.xmf,383,-9.2953e-07,5.05172e-07,0,-6.25329e-08,-4.71385e+07,-4.70401e+07,-4.70747e+07,-4289.76,0.00453808,0.140529,0,0.140602,35288,-1713.15,0,35329.5,4289.76
step02_gravity_refstate-crust.xmf,384,-1.12104e-06,4.24951e-07,0,-4.33272e-09,-106509,-454.307,-29605.9,-297.225,0.003563,0.140656,0,0.140701,36863.6,0,0,36863.6,297.225
step02_gravity_refstate-crust.xmf,385,-5.73014e-07,7.12015e-07,0,-3.25714e-07,-1.44536e+08,-1.44448e+08,-1.44497e+08,-22344,0.00676445,0.142505,0,0.142665,30133.6,-5260.75,0,30589.4,22344
step02_gravity_refstate-crust.xmf,386,2.18844e-06,-9.5228e-07,0,9.30666e-07,-7.37796e+08,-7.38011e+08,-7.37946e+08,63843.7,-0.00496288,0.180122,-0,0.18019,-2170.46,-26867.6,-0,26955.1,63843.7
step02_gravity_refstate-crust.xmf,387,2.33527e-06,-1.11654e-06,0,4.23804e-07,-7.40123e+08,-7.40359e+08,-7.40283e+08,29073,-0.00220833,0.181469,-0,0.181483,-940.72,-26952.6,-0,26969,29073
step02_gravity_refstate-crust.xmf,388,6.60406e-07,9.26709e-07,0,1.81787e-06,-6.3924e+08,-6.39222e+08,-6.39286e+08,124706,-0.0116822,0.164119,-0,0.164535,-8906.94,-23276.3,-0,24922.3,124706
step02_gravity_refstate-crust.xmf,389,1.01966e-06,5.18275e-07,0,1.81526e-06,-6.74535e+08,-6.74569e+08,-6.74605e+08,124527,-0.0111435,0.168468,-0,0.168836,-7059.87,-24562,-0,25556.5,124527
step02_gravity_refstate-crust.xmf,390,1.4573e-06,-3.70695e-08,0,1.70132e-06,-7.06302e+08,-7.06404e+08,-7.06402e+08,116710,-0.00980959,0.173197,-0,0.173474,-5228.12,-25719.5,-0,26245.5,116710
step02_gravity_refstate-crust.xmf,391,-2.85833e-07,1.51894e-06,0,1.00386e-06,-3.91447e+08,-3.91323e+08,-3.91428e+08,68864.6,-0.00816357,0.143732,-0,0.143963,-22620.8,-14252.2,-0,26736.2,68864.6
step02_gravity_refstate-crust.xmf,392,-3.57224e-07,1.5672e-06,0,8.9219e-07,-3.86099e+08,-3.85967e+08,-3.86074e+08,61204.3,-0.00743566,0.140047,-0,0.140244,-24817.8,-14057.3,-0,28522.4,61204.3
step02_gravity_refstate-crust.xmf,393,-4.14704e-07,1.5988e-06,0,7.69507e-07,-3.81039e+08,-3.80901e+08,-3.8101e+08,52788.2,-0.00656542,0.136731,-0,0.136888,-27041.2,-13872.9,-0,30392.1,52788.2
step02_gravity_refstate-crust.xmf,394,-4.60059e-07,1.61364e-06,0,6.38119e-07,-3.75477e+08,-3.75335e+08,-3.75446e+08,43774.9,-0.00557002,0.133885,-0,0.134,-29303.5,-13670.3,-0,32335.3,43774.9
step02_gravity_refstate-crust.xmf,395,-4.95786e-07,1.62558e-06,0,5.01276e-07,-3.71855e+08,-3.7171e+08,-3.71821e+08,34387.5,-0.00445972,0.131422,-0,0.131498,-31620.6,-13538.3,-0,34396.9,34387.5
step02_gravity_refstate-crust.xmf,396,-2.03188e-07,1.61994e-06,0,1.21535e-06,-4.47523e+08,-4.47398e+08,-4.47509e+08,83372.8,-0.00928458,0.146712,-0,0.147006,-19581.4,-16294.2,-0,25474.2,83372.8
step02_gravity_refstate-crust.xmf,397,5.71921e-08,1.4244e-06,0,1.43831e-06,-4.9438e+08,-4.94286e+08,-4.94384e+08,98668.1,-0.0102976,0.15526,-0,0.155601,-14751.1,-18000.8,-0,23272.9,98668.1
step02_gravity_refstate-crust.xmf,398,8.1015e-08,1.48857e-06,0,1.54825e-06,-5.34159e+08,-5.34063e+08,-5.34165e+08,106210,-0.0109423,0.154938,-0,0.155324,-14031.1,-19449.2,-0,23982.2,106210
step02_gravity_refstate-crust.xmf,399,1.16583e-07,1.52195e-06,0,1.65794e-06,-5.70287e+08,-5.7019e+08,-5.70295e+08,113735,-0.0115812,0.154979,-0,0.155411,-13265.4,-20764.7,-0,24640.3,113735
step02_gravity_refstate-crust.xmf,400,3.62126e-07,1.27567e-06,0,1.75185e-06,-6.03995e+08,-6.03933e+08,-6.0402e+08,120177,-0.0118201,0.159561,-0,0.159998,-11000.5,-21992.5,-0,24590.3,120177
step02_gravity_refstate-crust.xmf,401,1.68092e-07,1.52854e-06,0,1.75574e-06,-6.0099e+08,-6.00897e+08,-6.01002e+08,120444,-0.0121488,0.15532,-0,0.155795,-12534.8,-21882.7,-0,25218.5,120444
step02_gravity_refstate-crust.xmf,402,-5.41601e-07,1.50184e-06,0,2.6497e-07,-3.37488e+08,-3.37348e+08,-3.37451e+08,18176.9,-0.00252516,0.13035,-0,0.130374,-35428.1,-12286.7,-0,37498.2,18176.9
step02_gravity_refstate-crust.xmf,403,-5.71673e-07,1.32312e-06,0,1.28589e-07,-2.93104e+08,-2.92974e+08,-2.93065e+08,8821.21,-0.00136147,0.131691,-0,0.131698,-37635.6,-10670.5,-0,39119,8821.21
step02_gravity_refstate-crust.xmf,404,-6.03675e-07,1.16347e-06,0,-6.97281e-10,-2.5228e+08,-2.52159e+08,-2.52239e+08,-47.8335,-2.68709e-19,0.133201,-0,0.133201,-40000,-9183.87,-0,41040.8,47.8335
step02_gravity_refstate-crust.xmf,405,1.05102e-06,2.82906e-07,0,-9.18567e-07,-5.38378e+08,-5.38431e+08,-5.3845e+08,-63013.7,0.00586476,0.174784,0,0.174882,4888.02,-19604.9,0,20205.1,63013.7
step02_gravity_refstate-crust.xmf,406,1.21688e-06,1.25523e-07,0,-8.58368e-07,-5.71546e+08,-5.71621e+08,-5.7163e+08,-58884.1,0.00535827,0.175737,0,0.175819,4007.39,-20812.8,0,21195.1,58884.1
step02_gravity_refstate-crust.xmf,407,1.38941e-06,-4.86087e-08,0,-7.92399e-07,-6.03584e+08,-6.03683e+08,-6.0368e+08,-54358.6,0.00483449,0.176632,0,0.176698,3256.27,-21979.6,0,22219.5,54358.6
step02_gravity_refstate-crust.xmf,408,1.55382e-06,-2.19018e-07,0,-7.54314e-07,-6.33783e+08,-6.33904e+08,-6.33889e+08,-51745.9,0.00449147,0.17737,0,0.177427,2745.55,-23079.4,0,23242.2,51745.9
step02_gravity_refstate-crust.xmf,409,4.88714e-07,7.81595e-07,0,-1.15601e-06,-4.36997e+08,-4.36977e+08,-4.37031e+08,-79302.3,0.00803316,0.168262,0,0.168453,9897.11,-15912.5,0,18739.3,79302.3
step02_gravity_refstate-crust.xmf,410,6.05598e-07,7.23705e-07,0,-1.2017e-06,-4.8061e+08,-4.80602e+08,-4.80651e+08,-82436.7,0.00809763,0.169221,0,0.169415,8767.95,-17500.7,0,19574.2,82436.7
step02_gravity_refstate-crust.xmf,411,-2.65175e-07,8.40296e-07,0,-6.53731e-07,-2.14794e+08,-2.14718e+08,-2.14776e+08,-44845.9,0.00835952,0.14911,0,0.149344,23850,-7820.02,0,25099.3,44845.9
step02_gravity_refstate-crust.xmf,412,-3.58978e-07,8.77205e-07,0,-5.77749e-07,-2.11323e+08,-2.11238e+08,-2.11298e+08,-39633.6,0.00770345,0.145811,0,0.146014,26044.1,-7693.32,0,27156.6,39633.6
step02_gravity_refstate-crust.xmf,413,2.6876e-07,9.53452e-07,0,-1.1787e-06,-4.00061e+08,-4.00014e+08,-4.00079e+08,-80858.6,0.00862088,0.163777,0,0.164003,12752,-14567.2,0,19360.2,80858.6
step02_gravity_refstate-crust.xmf,414,-1.1888e-07,9.37447e-07,0,-8.61073e-07,-2.6834e+08,-2.68267e+08,-2.68332e+08,-59069.6,0.00857364,0.153321,0,0.15356,20430.7,-9770.14,0,22646.6,59069.6
step02_gravity_refstate-crust.xmf,415,2.18411e-08,1.12791e-06,0,-1.12922e-06,-3.66684e+08,-3.66609e+08,-3.66686e+08,-77464.5,0.00887066,0.156811,0,0.157062,16737.2,-13351.3,0,21410.1,77464.5
step02_gravity_refstate-crust.xmf,416,-9.12598e-07,5.62422e-07,0,-4.31124e-08,-6.63788e+07,-6.62776e+07,-6.63162e+07,-2957.51,0.00221424,0.13925,0,0.139267,37592.4,-2413.77,0,37669.8,2957.51
step02_gravity_refstate-crust.xmf,417,-7.65808e-07,6.63484e-07,0,-1.32022e-07,-1.10969e+08,-1.10871e+08,-1.10917e+08,-9056.69,0.00384101,0.13923,0,0.139283,35174.6,-4037.87,0,35405.6,9056.69
step02_gravity_refstate-crust.xmf,418,-4.46456e-07,9.18756e-07,0,-4.8994e-07,-2.10419e+08,-2.10325e+08,-2.10388e+08,-33609.9,0.00674111,0.142565,0,0.142724,28422.3,-7660.13,0,29436.5,33609.9
step02_gravity_refstate-crust.xmf,419,-6.36907e-07,7.8859e-07,0,-2.52705e-07,-1.57616e+08,-1.57518e+08,-1.57572e+08,-17335.6,0.00492055,0.139533,0,0.13962,32894.3,-5736.8,0,33390.8,17335.6
step02_gravity_refstate-crust.xmf,420,-1.12925e-06,4.26383e-07,0,4.26906e-09,-107360,-644.207,-29894.1,292.857,1.65957e-19,0.14013,0,0.14013,40000,0,0,40000,292.857
step02_gravity_refstate-crust.xmf,421,2.46742e-06,-1.31015e-06,0,8.36249e-07,-7.65846e+08,-7.66105e+08,-7.66016e+08,57366.7,-0.00427356,0.181906,-0,0.181956,-1682.99,-27889.4,-0,27940.1,57366.7
step02_gravity_refstate-crust.xmf,422,1.9687e-06,-6.7584e-07,0,1.37615e-06,-7.3622e+08,-7.36401e+08,-7.36355e+08,94403.6,-0.00746011,0.17794,-0,0.178097,-3387.04,-26809.7,-0,27022.8,94403.6
step02_gravity_refstate-crust.xmf,423,7.5779e-07,8.59901e-07,0,1.94047e-06,-6.71684e+08,-6.71677e+08,-6.71736e+08,133116,-0.0122418,0.164572,-0,0.165027,-8397.16,-24457.7,-0,25859.1,133116
step02_gravity_refstate-crust.xmf,424,4.25085e-07,1.23475e-06,0,1.87414e-06,-6.35868e+08,-6.35812e+08,-6.35897e+08,128566,-0.0123851,0.159939,-0,0.160418,-10370.4,-23153,-0,25369.4,128566
step02_gravity_refstate-crust.xmf,425,1.68271e-06,-2.97345e-07,0,1.74513e-06,-7.35059e+08,-7.35195e+08,-7.35175e+08,119716,-0.009737,0.174887,-0,0.175158,-4651.16,-26766.9,-0,27168,119716
step02_gravity_refstate-crust.xmf,426,1.16713e-06,3.38226e-07,0,1.93547e-06,-7.04732e+08,-7.04788e+08,-7.04812e+08,132773,-0.0114605,0.169559,-0,0.169945,-6521.81,-25661.7,-0,26477.5,132773
step02_gravity_refstate-crust.xmf,427,-5.21558e-07,1.64868e-06,0,3.72671e-07,-3.73125e+08,-3.72976e+08,-3.7309e+08,25565.2,-0.00335106,0.129397,-0,0.12944,-33792.8,-13584.4,-0,36421,25565.2
step02_gravity_refstate-crust.xmf,428,-2.96092e-07,1.71837e-06,0,1.11947e-06,-4.44931e+08,-4.44793e+08,-4.44911e+08,76795.8,-0.00873045,0.142416,-0,0.142683,-21689.3,-16199.6,-0,27071.3,76795.8
step02_gravity_refstate-crust.xmf,429,-8.14299e-08,1.60772e-06,0,1.39876e-06,-4.9413e+08,-4.94014e+08,-4.94124e+08,95955.1,-0.0102666,0.150663,-0,0.151013,-16658.2,-17991.4,-0,24519.1,95955.1
step02_gravity_refstate-crust.xmf,430,-2.08193e-07,1.77096e-06,0,1.33092e-06,-4.95132e+08,-4.94996e+08,-4.95117e+08,91300.9,-0.0099808,0.145837,-0,0.146178,-18665.4,-18027.7,-0,25949.8,91300.9
step02_gravity_refstate-crust.xmf,431,5.02491e-09,1.74495e-06,0,1.72793e-06,-5.99528e+08,-5.99408e+08,-5.99528e+08,118536,-0.0122383,0.151248,-0,0.151742,-13974.6,-21829.1,-0,25919.1,118536
step02_gravity_refstate-crust.xmf,432,7.75583e-07,5.77214e-07,0,-1.15482e-06,-5.10964e+08,-5.10977e+08,-5.11017e+08,-79220.5,0.0076101,0.171258,0,0.171427,7300.56,-18606.2,0,19987.2,79220.5
step02_gravity_refstate-crust.xmf,433,9.14421e-07,4.58167e-07,0,-1.15146e-06,-5.43474e+08,-5.43506e+08,-5.43537e+08,-78990,0.00742693,0.172284,0,0.172444,6392.07,-19790.1,0,20796.8,78990
step02_gravity_refstate-crust.xmf,434,1.72455e-06,-4.06328e-07,0,-6.94423e-07,-6.62025e+08,-6.62171e+08,-6.62143e+08,-47637.4,0.00403894,0.178231,0,0.178277,2249.28,-24108,0,24212.7,47637.4
step02_gravity_refstate-crust.xmf,435,1.92616e-06,-6.32517e-07,0,-5.71037e-07,-6.87907e+08,-6.88083e+08,-6.8804e+08,-39173.2,0.00322107,0.179302,0,0.179331,1640.35,-25050.8,0,25104.4,39173.2
step02_gravity_refstate-crust.xmf,436,2.14606e-06,-8.92125e-07,0,-3.8127e-07,-7.14739e+08,-7.14948e+08,-7.14887e+08,-26155.1,0.00208764,0.180528,0,0.18054,967.904,-26028.1,0,26046.1,26155.1
step02_gravity_refstate-crust.xmf,437,2.37539e-06,-1.17316e-06,0,-1.27383e-07,-7.41397e+08,-7.41641e+08,-7.4156e+08,-8738.49,0.000675717,0.181793,0,0.181795,285.517,-26999.1,0,27000.6,8738.49
step02_gravity_refstate-crust.xmf,438,2.63215e-06,-1.51499e-06,0,2.21697e-07,-7.7122e+08,-7.71504e+08,-7.714e+08,15208.4,-0.00108008,0.183201,-0,0.183204,-411.26,-28085.3,-0,28088.3,15208.4
step02_gravity_refstate-crust.xmf,439,3.42756e-07,9.62876e-07,0,-1.24607e-06,-4.4069e+08,-4.40648e+08,-4.40714e+08,-85480.1,0.00882467,0.164579,0,0.164816,11673,-16046.6,0,19843.2,85480.1
step02_gravity_refstate-crust.xmf,440,1.49412e-07,1.08618e-06,0,-1.20993e-06,-4.0143e+08,-4.01366e+08,-4.01441e+08,-83001.5,0.00898254,0.160277,0,0.160529,14410.1,-14616.8,0,20525.6,83001.5
step02_gravity_refstate-crust.xmf,441,-2.19047e-07,1.01502e-06,0,-8.00979e-07,-2.69309e+08,-2.69224e+08,-2.69294e+08,-54947.1,0.00819261,0.149326,0,0.14955,22631,-9805.15,0,24663.8,54947.1
step02_gravity_refstate-crust.xmf,442,-8.91371e-08,1.08772e-06,0,-9.94026e-07,-3.20247e+08,-3.20167e+08,-3.20241e+08,-68190.2,0.00860015,0.153564,0,0.153805,19288.9,-11660.2,0,22539.3,68190.2
step02_gravity_refstate-crust.xmf,443,3.95294e-08,1.2194e-06,0,-1.21376e-06,-4.04483e+08,-4.04402e+08,-4.04486e+08,-83263.7,0.00916771,0.156641,0,0.156909,16050.8,-14727.7,0,21783.7,83263.7
step02_gravity_refstate-crust.xmf,444,-7.24847e-08,1.22772e-06,0,-1.11199e-06,-3.69088e+08,-3.68999e+08,-3.69083e+08,-76282.8,0.00884563,0.153394,0,0.153649,18342.5,-13438.6,0,22738.6,76282.8
step02_gravity_refstate-crust.xmf,445,-5.2582e-07,9.7353e-07,0,-4.01166e-07,-2.15736e+08,-2.15633e+08,-2.157e+08,-27520,0.00548512,0.139524,0,0.139632,30884.6,-7853.46,0,31867.4,27520
step02_gravity_refstate-crust.xmf,446,-8.61023e-07,6.13983e-07,0,1.97596e-09,-8.69413e+07,-8.68402e+07,-8.68823e+07,135.551,1.30514e-19,0.138477,0,0.138477,40000,-3162.65,0,40124.8,135.551
step02_gravity_refstate-crust.xmf,447,2.75049e-06,-1.68215e-06,0,7.88731e-07,-7.92779e+08,-7.93083e+08,-7.92968e+08,54106.9,-0.00384038,0.183741,-0,0.183781,-1366.43,-28870.4,-0,28902.8,54106.9
step02_gravity_refstate-crust.xmf,448,2.24199e-06,-1.02314e-06,0,1.34241e-06,-7.63215e+08,-7.63439e+08,-7.63369e+08,92089.4,-0.00697093,0.179863,-0,0.179998,-2849.55,-27793.1,-0,27938.8,92089.4
step02_gravity_refstate-crust.xmf,449,4.94354e-07,1.19123e-06,0,2.01174e-06,-6.68567e+08,-6.68519e+08,-6.68601e+08,138005,-0.0130199,0.160284,-0,0.160812,-9792.4,-24343.7,-0,26239.4,138005
step02_gravity_refstate-crust.xmf,450,8.73309e-07,7.42038e-07,0,2.0817e-06,-7.0339e+08,-7.03399e+08,-7.0345e+08,142805,-0.0127633,0.165407,-0,0.165899,-7843.7,-25612.3,-0,26786.4,142805
step02_gravity_refstate-crust.xmf,451,1.35089e-06,1.15509e-07,0,2.03731e-06,-7.33069e+08,-7.33153e+08,-7.33161e+08,139760,-0.0116408,0.171077,-0,0.171472,-5947.02,-26693.7,-0,27348.2,139760
step02_gravity_refstate-crust.xmf,452,-3.6839e-07,1.78436e-06,0,1.00213e-06,-4.40493e+08,-4.40345e+08,-4.40468e+08,68746.3,-0.00797771,0.138452,-0,0.138681,-23858.4,-16037.9,-0,28747.8,68746.3
step02_gravity_refstate-crust.xmf,453,-4.23424e-07,1.82864e-06,0,8.74264e-07,-4.36302e+08,-4.36148e+08,-4.36273e+08,59974.5,-0.00709338,0.134877,-0,0.135063,-26038.7,-15885.1,-0,30501.6,59974.5
step02_gravity_refstate-crust.xmf,454,-4.64168e-07,1.8517e-06,0,7.38464e-07,-4.31451e+08,-4.31292e+08,-4.31419e+08,50658.6,-0.006099,0.131789,-0,0.13193,-28245.7,-15708.4,-0,32319.8,50658.6
step02_gravity_refstate-crust.xmf,455,-5.15737e-07,1.85772e-06,0,4.5001e-07,-4.21352e+08,-4.21189e+08,-4.21316e+08,30870.7,-0.0038338,0.127128,-0,0.127186,-32821.7,-15340.5,-0,36229.7,30870.7
step02_gravity_refstate-crust.xmf,456,-4.93516e-07,1.85755e-06,0,5.99857e-07,-4.25992e+08,-4.25831e+08,-4.25958e+08,41150.2,-0.00503486,0.129281,-0,0.129379,-30449.8,-15509.5,-0,34172.1,41150.2
step02_gravity_refstate-crust.xmf,457,-3.15132e-07,1.91444e-06,0,1.23134e-06,-4.97074e+08,-4.96921e+08,-4.97053e+08,84469.7,-0.00943372,0.140855,-0,0.141171,-20800.2,-18098.2,-0,27571.5,84469.7
step02_gravity_refstate-crust.xmf,458,-7.25324e-08,1.69506e-06,0,1.51995e-06,-5.36156e+08,-5.36035e+08,-5.36151e+08,104269,-0.010986,0.150305,-0,0.150706,-15784.7,-19521.6,-0,25104.8,104269
step02_gravity_refstate-crust.xmf,459,-6.25214e-08,1.78388e-06,0,1.64617e-06,-5.77809e+08,-5.77682e+08,-5.77804e+08,112927,-0.0117795,0.149806,-0,0.150269,-14979.9,-21038.2,-0,25826.4,112927
step02_gravity_refstate-crust.xmf,460,2.15163e-07,1.52589e-06,0,1.8717e-06,-6.32185e+08,-6.32095e+08,-6.32199e+08,128398,-0.0127651,0.155569,-0,0.156092,-11867.6,-23018.5,-0,25897.8,128398
step02_gravity_refstate-crust.xmf,461,3.06209e-08,1.77294e-06,0,1.83364e-06,-6.28316e+08,-6.28197e+08,-6.28318e+08,125788,-0.0128487,0.151236,-0,0.15178,-13357.9,-22877.3,-0,26491.6,125788
step02_gravity_refstate-crust.xmf,462,-5.34068e-07,1.82878e-06,0,2.86664e-07,-4.11922e+08,-4.1176e+08,-4.11886e+08,19665.1,-0.00247484,0.125846,-0,0.12587,-35414.1,-14997.1,-0,38458.7,19665.1
step02_gravity_refstate-crust.xmf,463,-5.46081e-07,1.65411e-06,0,1.35197e-07,-3.71063e+08,-3.70912e+08,-3.71025e+08,9274.55,-0.0012234,0.127427,-0,0.127433,-37767.6,-13509.3,-0,40111,9274.55
step02_gravity_refstate-crust.xmf,464,-5.59055e-07,1.48497e-06,0,-4.65759e-10,-3.31219e+08,-3.31078e+08,-3.3118e+08,-31.951,-2.39206e-19,0.129394,-0,0.129394,-40000,-12058.4,-0,41778,31.951
step02_gravity_refstate-crust.xmf,465,1.07766e-06,3.03884e-07,0,-1.13178e-06,-5.76174e+08,-5.76228e+08,-5.76248e+08,-77640.1,0.00713409,0.173423,0,0.17357,5488.63,-20981,0,21687.1,77640.1
step02_gravity_refstate-crust.xmf,466,1.25039e-06,1.27801e-07,0,-1.09192e-06,-6.05822e+08,-6.05899e+08,-6.05908e+08,-74905.7,0.00672382,0.174597,0,0.174727,4660.85,-22060.8,0,22547.8,74905.7
step02_gravity_refstate-crust.xmf,467,1.42677e-06,-5.87207e-08,0,-1.0603e-06,-6.35247e+08,-6.35349e+08,-6.35345e+08,-72736.6,0.00636565,0.175656,0,0.175772,3987.82,-23132.5,0,23473.7,72736.6
step02_gravity_refstate-crust.xmf,468,1.60641e-06,-2.55696e-07,0,-1.03428e-06,-6.63303e+08,-6.63431e+08,-6.63414e+08,-70951.8,0.00604511,0.176679,0,0.176782,3439.75,-24154.3,0,24398,70951.8
step02_gravity_refstate-crust.xmf,469,2.88208e-06,-1.84018e-06,0,2.69488e-07,-7.97223e+08,-7.97547e+08,-7.97421e+08,18486.8,-0.00130237,0.184762,-0,0.184766,-451.428,-29032.5,-0,29036,18486.8
step02_gravity_refstate-crust.xmf,470,3.05883e-06,-2.07221e-06,0,6.55709e-07,-8.16595e+08,-8.16947e+08,-8.16805e+08,44981.6,-0.00302634,0.18578,-0,0.185805,-979.502,-29738.1,-0,29754.2,44981.6
step02_gravity_refstate-crust.xmf,471,6.47959e-07,7.4289e-07,0,-1.30341e-06,-5.17873e+08,-5.17866e+08,-5.17917e+08,-89413.7,0.00866262,0.168546,0,0.168768,8603.6,-18857.4,0,20727.4,89413.7
step02_gravity_refstate-crust.xmf,472,4.26658e-07,9.40006e-07,0,-1.32165e-06,-4.80636e+08,-4.80601e+08,-4.80666e+08,-90665.3,0.00908635,0.165292,0,0.165541,10681.7,-17501.2,0,20503.5,90665.3
step02_gravity_refstate-crust.xmf,473,-3.07409e-07,1.0761e-06,0,-7.28768e-07,-2.70062e+08,-2.69967e+08,-2.70041e+08,-49993.5,0.00761522,0.145684,0,0.145883,24774.3,-9832.29,0,26654.1,49993.5
step02_gravity_refstate-crust.xmf,474,-3.88897e-07,1.13104e-06,0,-6.35477e-07,-2.71072e+08,-2.70967e+08,-2.71045e+08,-43593.7,0.00678286,0.142072,0,0.142234,27114.4,-9868.82,0,28854.6,43593.7
step02_gravity_refstate-crust.xmf,475,2.02985e-07,1.12564e-06,0,-1.30159e-06,-4.43113e+08,-4.43049e+08,-4.43127e+08,-89289.4,0.0093272,0.160796,0,0.161067,13387.6,-16134.5,0,20965.4,89289.4
step02_gravity_refstate-crust.xmf,476,-1.93947e-07,1.18519e-06,0,-9.42095e-07,-3.22991e+08,-3.22897e+08,-3.22978e+08,-64627.7,0.00829804,0.149335,0,0.149566,21436.6,-11759.9,0,24450.4,64627.7
step02_gravity_refstate-crust.xmf,477,-5.94321e-08,1.33359e-06,0,-1.20132e-06,-4.07533e+08,-4.07438e+08,-4.07529e+08,-82410.8,0.00918121,0.15322,0,0.153495,17572,-14838.5,0,22999.1,82410.8
step02_gravity_refstate-crust.xmf,478,-7.47065e-07,7.54709e-07,0,-7.81684e-08,-1.37056e+08,-1.36953e+08,-1.37005e+08,-5362.35,0.00180593,0.137549,0,0.137561,37607.4,-4987.8,0,37936.7,5362.35
step02_gravity_refstate-crust.xmf,479,-6.43835e-07,9.06782e-07,0,-1.91628e-07,-1.86499e+08,-1.86393e+08,-1.86455e+08,-13145.7,0.00313519,0.137006,0,0.137042,35291.7,-6788.5,0,35938.7,13145.7
step02_gravity_refstate-crust.xmf,480,-4.55841e-07,1.17924e-06,0,-5.31549e-07,-2.73313e+08,-2.73201e+08,-2.73281e+08,-36464.3,0.00576033,0.138855,0,0.138974,29474.4,-9950.21,0,31108.7,36464.3
step02_gravity_refstate-crust.xmf,481,-5.6266e-07,1.06426e-06,0,-3.19429e-07,-2.33512e+08,-2.334e+08,-2.33473e+08,-21912.8,0.00410159,0.136738,0,0.136799,33188.1,-8500.6,0,34259.5,21912.8
step02_gravity_refstate-crust.xmf,482,2.53918e-06,-1.41355e-06,0,1.30013e-06,-7.89511e+08,-7.89782e+08,-7.89685e+08,89188.8,-0.00644646,0.181959,-0,0.182073,-2374.22,-28751,-0,28848.9,89188.8
step02_gravity_refstate-crust.xmf,483,2.85449e-06,-1.83722e-06,0,1.25316e-06,-8.14275e+08,-8.14597e+08,-8.14471e+08,85966.9,-0.00591469,0.184184,-0,0.184279,-1969.64,-29653.2,-0,29718.6,85966.9
step02_gravity_refstate-crust.xmf,484,1.94686e-06,-6.45808e-07,0,1.78236e-06,-7.62179e+08,-7.62357e+08,-7.62313e+08,122270,-0.00946189,0.176961,-0,0.177214,-4051.59,-27754.8,-0,28048.9,122270
step02_gravity_refstate-crust.xmf,485,5.86315e-07,1.12641e-06,0,2.16038e-06,-7.01591e+08,-7.01554e+08,-7.01631e+08,148202,-0.0136755,0.160924,-0,0.161504,-9182.74,-25546.2,-0,27146.5,148202
step02_gravity_refstate-crust.xmf,486,2.55852e-07,1.5128e-06,0,2.01701e-06,-6.65331e+08,-6.65245e+08,-6.65349e+08,138367,-0.0134678,0.15576,-0,0.156341,-11228.3,-24225.4,-0,26701.1,138367
step02_gravity_refstate-crust.xmf,487,1.57844e-06,-1.47074e-07,0,2.16876e-06,-7.63885e+08,-7.64003e+08,-7.63993e+08,148777,-0.0118863,0.172871,-0,0.173279,-5397.12,-27816.2,-0,28334.9,148777
step02_gravity_refstate-crust.xmf,488,1.02086e-06,5.52051e-07,0,2.22728e-06,-7.32351e+08,-7.32384e+08,-7.32422e+08,152792,-0.0131303,0.166823,-0,0.167339,-7222.95,-26667,-0,27627.9,152792
step02_gravity_refstate-crust.xmf,489,-3.90823e-07,2.00006e-06,0,1.10717e-06,-4.93488e+08,-4.93324e+08,-4.93461e+08,75951.5,-0.00864776,0.136615,-0,0.136888,-22925.8,-17967.4,-0,29127.7,75951.5
step02_gravity_refstate-crust.xmf,490,-2.08436e-07,1.89243e-06,0,1.44573e-06,-5.37862e+08,-5.37718e+08,-5.37847e+08,99177.3,-0.0107336,0.145234,-0,0.14563,-17735.9,-19583.5,-0,26421.1,99177.3
step02_gravity_refstate-crust.xmf,491,-3.2452e-07,2.05789e-06,0,1.34536e-06,-5.40208e+08,-5.40044e+08,-5.40185e+08,92291.8,-0.0102262,0.140201,-0,0.140573,-19725,-19668.7,-0,27855.5,92291.8
step02_gravity_refstate-crust.xmf,492,-1.23537e-07,1.97064e-06,0,1.75947e-06,-6.21765e+08,-6.21622e+08,-6.21757e+08,120700,-0.012635,0.147112,-0,0.147654,-14871.9,-22638.5,-0,27086.5,120700
step02_gravity_refstate-crust.xmf,493,7.61821e-07,6.55881e-07,0,-1.33831e-06,-5.49318e+08,-5.49325e+08,-5.4937e+08,-91807.8,0.00873899,0.169367,0,0.169592,7822.63,-20002.6,0,21477.8,91807.8
step02_gravity_refstate-crust.xmf,494,9.06407e-07,5.25291e-07,0,-1.36026e-06,-5.80918e+08,-5.80944e+08,-5.8098e+08,-93313.5,0.00869394,0.17049,0,0.170711,6964.45,-21153.4,0,22270.4,93313.5
step02_gravity_refstate-crust.xmf,495,1.80234e-06,-4.82662e-07,0,-9.68548e-07,-6.90067e+08,-6.90223e+08,-6.9019e+08,-66442.4,0.00551273,0.177928,0,0.178013,2851.2,-25129.1,0,25290.3,66442.4
step02_gravity_refstate-crust.xmf,496,2.04785e-06,-7.72324e-07,0,-8.51625e-07,-7.16614e+08,-7.16808e+08,-7.16755e+08,-58421.5,0.00466532,0.179445,0,0.179506,2187.38,-26096.1,0,26187.7,58421.5
step02_gravity_refstate-crust.xmf,497,2.31083e-06,-1.09673e-06,0,-6.70067e-07,-7.43067e+08,-7.43301e+08,-7.43225e+08,-45966.6,0.00353473,0.181129,0,0.181163,1500.55,-27059.7,0,27101.3,45966.6
step02_gravity_refstate-crust.xmf,498,2.57416e-06,-1.43267e-06,0,-4.06814e-07,-7.66947e+08,-7.67222e+08,-7.67123e+08,-27907.5,0.0020882,0.182785,0,0.182797,809.684,-27929.7,0,27941.4,27907.5
step02_gravity_refstate-crust.xmf,499,2.84884e-06,-1.79502e-06,0,-2.8606e-07,-7.94045e+08,-7.94364e+08,-7.9424e+08,-19623.7,0.00139914,0.184534,0,0.18454,490.34,-28916.7,0,28920.9,19623.7
step02_gravity_refstate-crust.xmf,500,3.13031e-06,-2.16991e-06,0,-4.79933e-10,-8.17529e+08,-8.17892e+08,-8.17744e+08,-32.9234,2.37067e-05,0.186336,0,0.186336,7.42351,-29772.3,0,29772.3,32.9234
step02_gravity_refstate-crust.xmf,501,3.39288e-06,-2.53146e-06,0,4.20916e-07,-8.39385e+08,-8.39791e+08,-8.39618e+08,28874.8,-0.00183076,0.188046,-0,0.188055,-539.254,-30568.5,-0,30573.2,28874.8
step02_gravity_refstate-crust.xmf,502,3.21286e-06,-2.32851e-06,0,1.13713e-06,-8.37796e+08,-8.38176e+08,-8.38016e+08,78007.4,-0.0050946,0.186734,-0,0.186803,-1533.83,-30510.2,-0,30548.7,78007.4
step02_gravity_refstate-crust.xmf,503,5.09332e-07,9.13953e-07,0,-1.40028e-06,-5.19129e+08,-5.19102e+08,-5.19164e+08,-96059,0.00943721,0.165705,0,0.165973,9899.03,-18902.9,0,21338,96059
step02_gravity_refstate-crust.xmf,504,2.71077e-07,1.14301e-06,0,-1.38572e-06,-4.83512e+08,-4.83452e+08,-4.83531e+08,-95060.4,0.00972839,0.161381,0,0.161674,12383.2,-17605.6,0,21524.5,95060.4
step02_gravity_refstate-crust.xmf,505,6.82134e-08,1.28882e-06,0,-1.31808e-06,-4.45669e+08,-4.45585e+08,-4.45673e+08,-90420.3,0.00960078,0.156757,0,0.157051,15143.1,-16227.3,0,22195.4,90420.3
step02_gravity_refstate-crust.xmf,506,-2.81032e-07,1.267e-06,0,-8.62869e-07,-3.24629e+08,-3.24523e+08,-3.2461e+08,-59192.8,0.00777599,0.145308,0,0.145516,23614,-11819.3,0,26406.8,59192.8
step02_gravity_refstate-crust.xmf,507,-1.75656e-07,1.34124e-06,0,-1.06764e-06,-3.73138e+08,-3.73034e+08,-3.73126e+08,-73239.9,0.00862388,0.149217,0,0.149466,20303.8,-13585.8,0,24429.9,73239.9
step02_gravity_refstate-crust.xmf,508,-7.03767e-08,1.46662e-06,0,-1.30166e-06,-4.5082e+08,-4.50715e+08,-4.50815e+08,-89293.7,0.00966236,0.151974,0,0.152281,17135.8,-16414.5,0,23729.2,89293.7
step02_gravity_refstate-crust.xmf,509,-1.59093e-07,1.49154e-06,0,-1.19828e-06,-4.24733e+08,-4.2462e+08,-4.24722e+08,-82201.8,0.00917096,0.149093,0,0.149374,19077.8,-15464.5,0,24558.3,82201.8
step02_gravity_refstate-crust.xmf,510,-5.07066e-07,1.19399e-06,0,-4.32981e-07,-2.70454e+08,-2.70337e+08,-2.70419e+08,-29702.5,0.00481295,0.136774,0,0.136859,31463.6,-9845.95,0,32968.2,29702.5
step02_gravity_refstate-crust.xmf,511,-6.95554e-07,8.67227e-07,0,1.32836e-09,-1.70926e+08,-1.70819e+08,-1.70878e+08,91.1258,1.05712e-19,0.136209,0,0.136209,40000,-6221.26,0,40480.9,91.1258
step02_gravity_refstate-crust.xmf,512,3.60538e-06,-2.84205e-06,0,9.41712e-07,-8.59778e+08,-8.6022e+08,-8.60025e+08,64601.5,-0.00394759,0.189511,-0,0.189552,-1076.9,-31311.3,-0,31329.8,64601.5
step02_gravity_refstate-crust.xmf,513,2.24871e-06,-1.04166e-06,0,1.76879e-06,-7.87459e+08,-7.87684e+08,-7.87613e+08,121339,-0.00897212,0.179342,-0,0.179567,-3451.86,-28675.7,-0,28882.7,121339
step02_gravity_refstate-crust.xmf,514,3.05508e-07,1.4928e-06,0,2.1844e-06,-6.99929e+08,-6.99848e+08,-6.9995e+08,149850,-0.0142484,0.156037,-0,0.156686,-10591.2,-25485.2,-0,27598.3,149850
step02_gravity_refstate-crust.xmf,515,7.04854e-07,9.95494e-07,0,2.33012e-06,-7.33327e+08,-7.33307e+08,-7.33375e+08,159847,-0.0142635,0.162148,-0,0.162774,-8502.17,-26701.9,-0,28022.8,159847
step02_gravity_refstate-crust.xmf,516,1.17567e-06,3.58538e-07,0,2.34962e-06,-7.5676e+08,-7.56816e+08,-7.56841e+08,161184,-0.0133981,0.168336,-0,0.168868,-6685.83,-27555.9,-0,28355.4,161184
step02_gravity_refstate-crust.xmf,517,-5.31379e-07,2.08854e-06,0,3.8469e-07,-4.70385e+08,-4.70205e+08,-4.70348e+08,26389.7,-0.00321562,0.122614,-0,0.122656,-34016.7,-17125.9,-0,38084.6,26389.7
step02_gravity_refstate-crust.xmf,518,-4.4467e-07,2.05709e-06,0,9.71477e-07,-4.89802e+08,-4.8963e+08,-4.89771e+08,66643.3,-0.00772261,0.132758,-0,0.132982,-25079.4,-17833.1,-0,30773.3,66643.3
step02_gravity_refstate-crust.xmf,519,-4.81991e-07,2.09311e-06,0,8.30531e-07,-4.86462e+08,-4.86285e+08,-4.86429e+08,56974.4,-0.00670559,0.129348,-0,0.129522,-27241.3,-17711.4,-0,32492.8,56974.4
step02_gravity_refstate-crust.xmf,520,-5.06149e-07,2.10435e-06,0,6.84116e-07,-4.81449e+08,-4.8127e+08,-4.81415e+08,46930.4,-0.0055994,0.126526,-0,0.12665,-29453.9,-17528.9,-0,34275.3,46930.4
step02_gravity_refstate-crust.xmf,521,-5.21625e-07,2.10148e-06,0,5.36765e-07,-4.76113e+08,-4.75933e+08,-4.76077e+08,36822.1,-0.0044444,0.124286,-0,0.124366,-31688.3,-17334.5,-0,36119.7,36822.1
step02_gravity_refstate-crust.xmf,522,-4.26244e-07,2.2292e-06,0,1.22554e-06,-5.49835e+08,-5.49653e+08,-5.49806e+08,84071.7,-0.00950913,0.134503,-0,0.134838,-21874.2,-20019,-0,29652,84071.7
step02_gravity_refstate-crust.xmf,523,-2.11766e-07,1.98778e-06,0,1.56683e-06,-5.76825e+08,-5.76674e+08,-5.7681e+08,107484,-0.0115125,0.144866,-0,0.145323,-16815.9,-21002.1,-0,26904.7,107484
step02_gravity_refstate-crust.xmf,524,4.96416e-08,1.81151e-06,0,1.97042e-06,-6.62455e+08,-6.62335e+08,-6.62459e+08,135171,-0.013616,0.15105,-0,0.151662,-12713,-24120.4,-0,27265.6,135171
step02_gravity_refstate-crust.xmf,525,-1.27937e-07,2.06016e-06,0,1.89132e-06,-6.58876e+08,-6.58726e+08,-6.58867e+08,129744,-0.013467,0.14641,-0,0.147028,-14218.2,-23989.7,-0,27886.6,129744
step02_gravity_refstate-crust.xmf,526,-2.40744e-07,2.1288e-06,0,1.6711e-06,-6.16307e+08,-6.16144e+08,-6.1629e+08,114637,-0.012273,0.143315,-0,0.14384,-16308.7,-22439.6,-0,27740,114637
step02_gravity_refstate-crust.xmf,527,-5.40226e-07,1.98419e-06,0,1.18352e-07,-4.45209e+08,-4.45036e+08,-4.45172e+08,8118.98,-0.00100573,0.122419,-0,0.122423,-38139.9,-16209.2,-0,41441.4,8118.98
step02_gravity_refstate-crust.xmf,528,-5.42917e-07,1.81862e-06,0,-1.52672e-10,-4.07952e+08,-4.0779e+08,-4.07914e+08,-10.4733,-1.95646e-19,0.124779,-0,0.124779,-40000,-14852.5,-0,42668.5,10.4733
step02_gravity_refstate-crust.xmf,529,3.67119e-06,-2.99016e-06,0,1.51746e-06,-8.74986e+08,-8.75443e+08,-8.75238e+08,104098,-0.00633738,0.190081,-0,0.190186,-1643.34,-31865,-0,31907.3,104098
step02_gravity_refstate-crust.xmf,530,4.05665e-06,-3.54133e-06,0,7.82187e-07,-8.85152e+08,-8.85673e+08,-8.8543e+08,53658,-0.00306531,0.192884,-0,0.192908,-744.991,-32235.8,-0,32244.4,53658
step02_gravity_refstate-crust.xmf,531,1.0728e-06,3.56023e-07,0,-1.35523e-06,-6.0938e+08,-6.09429e+08,-6.09454e+08,-92968.6,0.00846201,0.171855,0,0.172063,6095.05,-22190,0,23011.8,92968.6
step02_gravity_refstate-crust.xmf,532,1.24796e-06,1.68549e-07,0,-1.34565e-06,-6.37014e+08,-6.37088e+08,-6.371e+08,-92311.8,0.00819197,0.173179,0,0.173373,5326.58,-23196.4,0,23800.2,92311.8
step02_gravity_refstate-crust.xmf,533,1.43426e-06,-3.82078e-08,0,-1.33954e-06,-6.64811e+08,-6.64912e+08,-6.6491e+08,-91892.4,0.00792806,0.174476,0,0.174656,4658.13,-24208.9,0,24652.9,91892.4
step02_gravity_refstate-crust.xmf,534,1.6279e-06,-2.59345e-07,0,-1.3387e-06,-6.91847e+08,-6.91976e+08,-6.91959e+08,-91834.5,0.00768648,0.175761,0,0.175929,4094.6,-25193.6,0,25524.1,91834.5
step02_gravity_refstate-crust.xmf,535,3.76461e-06,-3.05763e-06,0,1.10345e-07,-8.62724e+08,-8.63192e+08,-8.62982e+08,7569.67,-0.000432411,0.190589,-0,0.190589,-115.459,-31418.8,-0,31419,7569.67
step02_gravity_refstate-crust.xmf,536,5.96886e-07,8.70538e-07,0,-1.48025e-06,-5.54685e+08,-5.54666e+08,-5.54726e+08,-101545,0.00980664,0.166083,0,0.166372,9226.54,-20197.6,0,22205.2,101545
step02_gravity_refstate-crust.xmf,537,3.41313e-07,1.1301e-06,0,-1.48311e-06,-5.22265e+08,-5.22211e+08,-5.22288e+08,-101741,0.0101748,0.161884,0,0.162203,11485.2,-19016.7,0,22215.9,101741
step02_gravity_refstate-crust.xmf,538,-3.58448e-07,1.3368e-06,0,-7.69945e-07,-3.27208e+08,-3.27092e+08,-3.27184e+08,-52818.2,0.00705325,0.141477,0,0.141653,25835.3,-11913,0,28449.6,52818.2
step02_gravity_refstate-crust.xmf,539,-4.22256e-07,1.39703e-06,0,-6.61865e-07,-3.3045e+08,-3.30325e+08,-3.30421e+08,-45404,0.00614547,0.13793,0,0.138067,28118.4,-12030.8,0,30584.1,45404
step02_gravity_refstate-crust.xmf,540,1.15023e-07,1.33501e-06,0,-1.4216e-06,-4.87133e+08,-4.87049e+08,-4.87141e+08,-97521.6,0.0101242,0.157131,0,0.157457,14124.2,-17737.1,0,22673.7,97521.6
step02_gravity_refstate-crust.xmf,541,-2.70556e-07,1.44453e-06,0,-9.93237e-07,-3.76497e+08,-3.76379e+08,-3.76478e+08,-68136.1,0.00816171,0.14489,0,0.145119,22435.7,-13707.9,0,26291.9,68136.1
step02_gravity_refstate-crust.xmf,542,-6.3011e-07,1.0331e-06,0,-1.0633e-07,-2.18634e+08,-2.1852e+08,-2.18591e+08,-7294.27,0.00148173,0.134877,0,0.134885,37668.5,-7958.63,0,38500.1,7294.27
step02_gravity_refstate-crust.xmf,543,-5.72407e-07,1.20002e-06,0,-2.34099e-07,-2.64474e+08,-2.64352e+08,-2.64435e+08,-16059.2,0.00269925,0.133951,0,0.133978,35410,-9627.98,0,36695.6,16059.2
step02_gravity_refstate-crust.xmf,544,-4.82565e-07,1.45488e-06,0,-5.34607e-07,-3.3566e+08,-3.35527e+08,-3.35627e+08,-36674.1,0.00498179,0.134487,0,0.134579,30655.8,-12220.3,0,33001.8,36674.1
step02_gravity_refstate-crust.xmf,545,-5.26718e-07,1.3427e-06,0,-3.72528e-07,-3.03111e+08,-3.02983e+08,-3.03075e+08,-25555.4,0.00379011,0.133685,0,0.133739,33193.6,-11035,0,34979.8,25555.4
step02_gravity_refstate-crust.xmf,546,2.55494e-06,-1.45592e-06,0,1.78516e-06,-8.12067e+08,-8.12342e+08,-8.12242e+08,122462,-0.00861818,0.181687,-0,0.181891,-2990.78,-29572.2,-0,29723,122462
step02_gravity_refstate-crust.xmf,547,2.91086e-06,-1.94789e-06,0,1.79157e-06,-8.36901e+08,-8.37234e+08,-8.371e+08,122902,-0.00818084,0.1844,-0,0.184581,-2548.9,-30477,-0,30583.4,122902
step02_gravity_refstate-crust.xmf,548,3.2998e-06,-2.48734e-06,0,1.70535e-06,-8.58182e+08,-8.58579e+08,-8.58409e+08,116987,-0.00737982,0.187339,-0,0.187484,-2080.81,-31252.5,-0,31321.7,116987
step02_gravity_refstate-crust.xmf,549,1.90173e-06,-5.89712e-07,0,2.16341e-06,-7.8724e+08,-7.87411e+08,-7.8737e+08,148410,-0.0112908,0.175938,-0,0.1763,-4572.84,-28667,-0,29029.5,148410
step02_gravity_refstate-crust.xmf,550,3.83954e-07,1.43571e-06,0,2.36433e-06,-7.34193e+08,-7.34121e+08,-7.34219e+08,162193,-0.0150353,0.156831,-0,0.15755,-9883.68,-26732.8,-0,28501.4,162193
step02_gravity_refstate-crust.xmf,551,5.90336e-08,1.84121e-06,0,2.1371e-06,-6.97788e+08,-6.97666e+08,-6.97792e+08,146605,-0.014458,0.150916,-0,0.151607,-12063.9,-25406.8,-0,28125.4,146605
step02_gravity_refstate-crust.xmf,552,1.28942e-06,2.36203e-07,0,2.53342e-06,-7.83081e+08,-7.83153e+08,-7.83169e+08,173793,-0.0140141,0.169201,-0,0.169781,-6384.95,-28514.4,-0,29220.5,173793
step02_gravity_refstate-crust.xmf,553,8.46023e-07,8.04794e-07,0,2.50379e-06,-7.60636e+08,-7.60639e+08,-7.60694e+08,171760,-0.0146964,0.163842,-0,0.1645,-7830.45,-27696.4,-0,28782,171760
step02_gravity_refstate-crust.xmf,554,-5.37707e-07,2.11534e-06,0,2.48533e-07,-4.7485e+08,-4.74668e+08,-4.74813e+08,17049.3,-0.00209075,0.120947,-0,0.120965,-36123.1,-17288.5,-0,40047.1,17049.3
step02_gravity_refstate-crust.xmf,555,-4.7739e-07,2.28756e-06,0,1.06552e-06,-5.42527e+08,-5.42337e+08,-5.42494e+08,73094.8,-0.0084392,0.130389,-0,0.130662,-24126.9,-19752.8,-0,31181.4,73094.8
step02_gravity_refstate-crust.xmf,556,-3.47679e-07,2.20742e-06,0,1.46505e-06,-5.84572e+08,-5.84396e+08,-5.84548e+08,100503,-0.011065,0.139026,-0,0.139466,-18807,-21283.9,-0,28402.6,100503
step02_gravity_refstate-crust.xmf,557,-4.12849e-07,2.29013e-06,0,1.34354e-06,-5.77159e+08,-5.76973e+08,-5.7713e+08,92167,-0.010361,0.135567,-0,0.135963,-20439.4,-21013.9,-0,29314.7,92167
step02_gravity_refstate-crust.xmf,558,-2.7836e-07,2.27058e-06,0,1.78723e-06,-6.55598e+08,-6.55423e+08,-6.55579e+08,122604,-0.0130845,0.141782,-0,0.142384,-15767.5,-23870.1,-0,28607.6,122604
step02_gravity_refstate-crust.xmf,559,4.02184e-06,-3.52584e-06,0,1.61116e-06,-8.94179e+08,-8.94696e+08,-8.94454e+08,110526,-0.00627992,0.192713,-0,0.192815,-1490.87,-32564.3,-0,32598.4,110526
step02_gravity_refstate-crust.xmf,560,7.15128e-07,7.78005e-07,0,-1.5465e-06,-5.8768e+08,-5.87675e+08,-5.87729e+08,-106090,0.0100452,0.166959,0,0.16726,8441.2,-21399.2,0,23003.9,106090
step02_gravity_refstate-crust.xmf,561,8.7339e-07,6.21055e-07,0,-1.5737e-06,-6.15532e+08,-6.15549e+08,-6.15591e+08,-107956,0.00999313,0.168494,0,0.16879,7519.53,-22413.5,0,23641.3,107956
step02_gravity_refstate-crust.xmf,562,1.86027e-06,-5.39599e-07,0,-1.2773e-06,-7.18147e+08,-7.18312e+08,-7.18275e+08,-87623,0.00710636,0.177482,0,0.177625,3419.43,-26151.6,0,26374.2,87623
step02_gravity_refstate-crust.xmf,563,2.14208e-06,-8.86055e-07,0,-1.18024e-06,-7.44157e+08,-7.44364e+08,-7.44304e+08,-80964.1,0.00628324,0.179445,0,0.179555,2726.74,-27099.1,0,27235.9,80964.1
step02_gravity_refstate-crust.xmf,564,2.44478e-06,-1.27131e-06,0,-1.01977e-06,-7.69444e+08,-7.69699e+08,-7.69612e+08,-69955.9,0.00520747,0.181573,0,0.181647,2040.14,-28020.3,0,28094.5,69955.9
step02_gravity_refstate-crust.xmf,565,2.75513e-06,-1.67805e-06,0,-8.58209e-07,-7.94538e+08,-7.94842e+08,-7.94727e+08,-58873.1,0.004188,0.183701,0,0.183749,1483.75,-28934.5,0,28972.5,58873.1
step02_gravity_refstate-crust.xmf,566,3.08101e-06,-2.11405e-06,0,-6.51535e-07,-8.18418e+08,-8.18775e+08,-8.1863e+08,-44695.3,0.00303243,0.185924,0,0.185949,974.504,-29804.5,0,29820.5,44695.3
step02_gravity_refstate-crust.xmf,567,3.42303e-06,-2.581e-06,0,-3.43653e-07,-8.41067e+08,-8.41479e+08,-8.41302e+08,-23574.6,0.00153212,0.188255,0,0.188262,447.765,-30629.8,0,30633,23574.6
step02_gravity_refstate-crust.xmf,568,4.18658e-07,1.10487e-06,0,-1.57827e-06,-5.58975e+08,-5.58928e+08,-5.59004e+08,-108269,0.0106478,0.16233,0,0.162679,10695.7,-20353.4,0,22992.6,108269
step02_gravity_refstate-crust.xmf,569,1.73834e-07,1.35785e-06,0,-1.51708e-06,-5.25242e+08,-5.25161e+08,-5.25254e+08,-104072,0.0106635,0.157604,0,0.157965,13164.9,-19124.8,0,23217.9,104072
step02_gravity_refstate-crust.xmf,570,-2.63602e-08,1.5199e-06,0,-1.41599e-06,-4.91262e+08,-4.91156e+08,-4.9126e+08,-97137.2,0.0102673,0.152719,0,0.153064,15872.2,-17887.1,0,23914,97137.2
step02_gravity_refstate-crust.xmf,571,-3.45386e-07,1.53225e-06,0,-8.94915e-07,-3.79673e+08,-3.79544e+08,-3.79649e+08,-61391.2,0.00749847,0.140781,0,0.140981,24602.9,-13823.4,0,28220.3,61391.2
step02_gravity_refstate-crust.xmf,572,-2.63489e-07,1.60752e-06,0,-1.11389e-06,-4.25047e+08,-4.24919e+08,-4.25029e+08,-76413.1,0.0087094,0.144463,0,0.144725,21276.6,-15475.7,0,26309.5,76413.1
step02_gravity_refstate-crust.xmf,573,-1.82203e-07,1.67547e-06,0,-1.29634e-06,-4.7436e+08,-4.74233e+08,-4.74348e+08,-88929,0.00974468,0.147213,0,0.147535,18633.8,-17271.4,0,25407.1,88929
step02_gravity_refstate-crust.xmf,574,-6.03269e-07,1.16337e-06,0,8.73817e-10,-2.5228e+08,-2.52159e+08,-2.52239e+08,59.9439,9.35914e-20,0.133201,0,0.133201,40000,-9183.87,0,41040.8,59.9439
step02_gravity_refstate-crust.xmf,575,3.30345e-06,-2.52743e-06,0,2.21243e-06,-8.74298e+08,-8.74698e+08,-8.74525e+08,151773,-0.00937871,0.187487,-0,0.187722,-2522.03,-31839.1,-0,31938.9,151773
step02_gravity_refstate-crust.xmf,576,3.66226e-06,-3.04633e-06,0,2.22088e-06,-8.9189e+08,-8.9235e+08,-8.92141e+08,152352,-0.00895868,0.190337,-0,0.190547,-2207.53,-32480.2,-0,32555.2,152352
step02_gravity_refstate-crust.xmf,577,2.19387e-06,-9.90811e-07,0,2.22018e-06,-8.10671e+08,-8.1089e+08,-8.10822e+08,152304,-0.0110186,0.178453,-0,0.178792,-4021.99,-29520.6,-0,29793.4,152304
step02_gravity_refstate-crust.xmf,578,1.59682e-06,-1.78242e-07,0,2.44141e-06,-7.90469e+08,-7.90591e+08,-7.90579e+08,167481,-0.0130344,0.172648,-0,0.173139,-5502.69,-28784,-0,29305.3,167481
step02_gravity_refstate-crust.xmf,579,8.49214e-08,1.86238e-06,0,2.32844e-06,-7.3394e+08,-7.33818e+08,-7.33946e+08,159731,-0.015369,0.150978,-0,0.151758,-11390.6,-26723,-0,29049.4,159731
step02_gravity_refstate-crust.xmf,580,5.21612e-07,1.27074e-06,0,2.56656e-06,-7.64901e+08,-7.64849e+08,-7.64936e+08,176066,-0.0156563,0.158791,-0,0.159561,-9020.78,-27851,-0,29275.5,176066
step02_gravity_refstate-crust.xmf,581,9.884e-07,6.31835e-07,0,2.62126e-06,-7.80459e+08,-7.80484e+08,-7.80527e+08,179818,-0.0149452,0.165509,-0,0.166182,-7295.01,-28418.4,-0,29339.8,179818
step02_gravity_refstate-crust.xmf,582,-5.3994e-07,2.33855e-06,0,3.07695e-07,-5.24254e+08,-5.24056e+08,-5.24217e+08,21107.9,-0.00257481,0.117438,-0,0.117466,-35227.3,-19087.4,-0,40066.1,21107.9
step02_gravity_refstate-crust.xmf,583,-5.40923e-07,2.35114e-06,0,4.5979e-07,-5.28177e+08,-5.27978e+08,-5.2814e+08,31541.6,-0.00382427,0.118864,-0,0.118926,-32914.1,-19230.3,-0,38120.1,31541.6
step02_gravity_refstate-crust.xmf,584,-5.10156e-07,2.33043e-06,0,9.12616e-07,-5.3908e+08,-5.38885e+08,-5.39045e+08,62605.5,-0.0073505,0.126668,-0,0.126881,-26297.8,-19627.3,-0,32814.7,62605.5
step02_gravity_refstate-crust.xmf,585,-5.28901e-07,2.35364e-06,0,7.62702e-07,-5.36121e+08,-5.35923e+08,-5.36084e+08,52321.4,-0.0062252,0.123492,-0,0.123649,-28447.6,-19519.5,-0,34500.4,52321.4
step02_gravity_refstate-crust.xmf,586,-5.37921e-07,2.35932e-06,0,6.11623e-07,-5.32558e+08,-5.32359e+08,-5.32521e+08,41957.3,-0.00504569,0.120868,-0,0.120973,-30651,-19389.8,-0,36269.1,41957.3
step02_gravity_refstate-crust.xmf,587,-5.26996e-07,2.54315e-06,0,1.13221e-06,-5.96662e+08,-5.96451e+08,-5.96626e+08,77669.8,-0.00906785,0.126955,-0,0.127279,-23478.1,-21723.9,-0,31986.7,77669.8
step02_gravity_refstate-crust.xmf,588,-4.89914e-07,2.48894e-06,0,1.27679e-06,-6.01925e+08,-6.01721e+08,-6.01891e+08,87588.1,-0.0100482,0.130604,-0,0.13099,-21622,-21915.6,-0,30786.4,87588.1
step02_gravity_refstate-crust.xmf,589,-3.343e-07,2.26507e-06,0,1.58019e-06,-6.14281e+08,-6.14103e+08,-6.14258e+08,108401,-0.0118533,0.139657,-0,0.140159,-17663.1,-22365.7,-0,28499.3,108401
step02_gravity_refstate-crust.xmf,590,-1.39439e-07,2.14152e-06,0,2.03722e-06,-6.9463e+08,-6.94474e+08,-6.94621e+08,139753,-0.0143161,0.145793,-0,0.146495,-13584.2,-25291.5,-0,28708.7,139753
step02_gravity_refstate-crust.xmf,591,-3.03593e-07,2.38799e-06,0,1.91567e-06,-6.92223e+08,-6.92038e+08,-6.92202e+08,131415,-0.0139203,0.140784,-0,0.14147,-15111.9,-25203.5,-0,29386.9,131415
step02_gravity_refstate-crust.xmf,592,-3.9142e-07,2.44565e-06,0,1.66032e-06,-6.52674e+08,-6.5248e+08,-6.52647e+08,113898,-0.0125072,0.137255,-0,0.137824,-17351.4,-23763.5,-0,29424,113898
step02_gravity_refstate-crust.xmf,593,-5.40399e-07,2.32744e-06,0,1.51496e-07,-5.21141e+08,-5.20944e+08,-5.21104e+08,10392.6,-0.0012731,0.116595,-0,0.116602,-37639.5,-18974.1,-0,42151.5,10392.6
step02_gravity_refstate-crust.xmf,594,-5.40115e-07,2.15415e-06,0,1.73934e-11,-4.82688e+08,-4.82503e+08,-4.82651e+08,1.19319,-2.47503e-19,0.119374,-0,0.119374,-40000,-17573.9,-0,43690.3,1.19319
step02_gravity_refstate-crust.xmf,595,4.1717e-06,-3.65603e-06,0,-3.36216e-07,-8.86537e+08,-8.87074e+08,-8.86823e+08,-23064.4,0.00134744,0.193421,0,0.193426,323.936,-32286.5,0,32288.1,23064.4
step02_gravity_refstate-crust.xmf,596,4.47279e-06,-4.13525e-06,0,1.26898e-06,-9.09157e+08,-9.09747e+08,-9.09464e+08,87052.1,-0.00466717,0.195822,-0,0.195877,-1021.03,-33110.5,-0,33126.2,87052.1
step02_gravity_refstate-crust.xmf,597,1.03529e-06,4.4825e-07,0,-1.57839e-06,-6.39745e+08,-6.39785e+08,-6.39816e+08,-108278,0.00981458,0.170057,0,0.17034,6689.47,-23295.4,0,24236.9,108278
step02_gravity_refstate-crust.xmf,598,1.2108e-06,2.48089e-07,0,-1.6071e-06,-6.65973e+08,-6.66039e+08,-6.66056e+08,-110247,0.00968961,0.171496,0,0.171769,5968.54,-24250.7,0,24974.4,110247
step02_gravity_refstate-crust.xmf,599,1.40432e-06,2.51224e-08,0,-1.63758e-06,-6.93313e+08,-6.93407e+08,-6.93409e+08,-112338,0.00956602,0.17299,0,0.173255,5310.1,-25246.5,0,25798.9,112338
step02_gravity_refstate-crust.xmf,600,1.62717e-06,-2.40985e-07,0,-1.65694e-06,-7.20389e+08,-7.20517e+08,-7.20501e+08,-113666,0.00934087,0.17471,0,0.174959,4665.66,-26232.7,0,26644.4,113666
step02_gravity_refstate-crust.xmf,601,3.71019e-06,-3.00832e-06,0,-7.8946e-07,-8.64127e+08,-8.64588e+08,-8.64382e+08,-54157,0.00331529,0.190224,0,0.190253,884.99,-31469.8,0,31482.2,54157
step02_gravity_refstate-crust.xmf,602,5.1404e-07,1.04744e-06,0,-1.68033e-06,-5.95136e+08,-5.95099e+08,-5.95171e+08,-115271,0.0111202,0.16298,0,0.163359,9897.1,-21670.2,0,23823.3,115271
step02_gravity_refstate-crust.xmf,603,2.37122e-07,1.34637e-06,0,-1.62873e-06,-5.62065e+08,-5.61989e+08,-5.62081e+08,-111731,0.0112231,0.158169,0,0.158566,12242,-20465.6,0,23847.6,111731
step02_gravity_refstate-crust.xmf,604,-4.08413e-07,1.60663e-06,0,-7.86379e-07,-3.84092e+08,-3.83954e+08,-3.84064e+08,-53945.6,0.0066762,0.136954,0,0.137116,26779.3,-13984.1,0,30210.7,53945.6
step02_gravity_refstate-crust.xmf,605,-4.5563e-07,1.67572e-06,0,-6.74936e-07,-3.90826e+08,-3.90679e+08,-3.90794e+08,-46300.6,0.00577628,0.133553,0,0.133678,28855.3,-14229.1,0,32172.9,46300.6
step02_gravity_refstate-crust.xmf,606,9.82208e-09,1.57367e-06,0,-1.52541e-06,-5.30219e+08,-5.30112e+08,-5.3022e+08,-104643,0.0109109,0.15299,0,0.153379,14876,-19305.6,0,24372.2,104643
step02_gravity_refstate-crust.xmf,607,-2.66677e-07,1.76739e-06,0,-1.22797e-06,-4.72417e+08,-4.72277e+08,-4.72399e+08,-84238.9,0.00935816,0.143693,0,0.143997,20261.3,-17200.5,0,26577.7,84238.9
step02_gravity_refstate-crust.xmf,608,-3.47953e-07,1.71729e-06,0,-1.01717e-06,-4.29869e+08,-4.29727e+08,-4.29845e+08,-69778,0.00808501,0.139968,0,0.140202,23411.8,-15651.1,0,28161.5,69778
step02_gravity_refstate-crust.xmf,609,-1.61968e-07,1.73777e-06,0,-1.40038e-06,-5.07622e+08,-5.07491e+08,-5.07611e+08,-96066.3,0.0103432,0.147633,0,0.147995,17573.1,-18482.5,0,25503.3,96066.3
step02_gravity_refstate-crust.xmf,610,-5.70422e-07,1.33758e-06,0,-1.26364e-07,-2.96448e+08,-2.96317e+08,-2.96408e+08,-8668.55,0.00132856,0.131514,0,0.131521,37686,-10792.2,0,39200.9,8668.55
step02_gravity_refstate-crust.xmf,611,-5.40883e-07,1.4982e-06,0,-2.68685e-07,-3.36756e+08,-3.36616e+08,-3.36718e+08,-18431.8,0.00256174,0.130428,0,0.130453,35361.3,-12260.1,0,37426.3,18431.8
step02_gravity_refstate-crust.xmf,612,-5.15902e-07,1.64574e-06,0,-4.18727e-07,-3.73897e+08,-3.73748e+08,-3.73861e+08,-28724.7,0.00372838,0.129944,0,0.129998,33061.9,-13612.5,0,35754.6,28724.7
step02_gravity_refstate-crust.xmf,613,2.50945e-06,-1.43564e-06,0,2.32607e-06,-8.35819e+08,-8.36089e+08,-8.35991e+08,159569,-0.0109251,0.181091,-0,0.18142,-3575.66,-30436.7,-0,30646.1,159569
step02_gravity_refstate-crust.xmf,614,2.88946e-06,-1.98485e-06,0,2.42645e-06,-8.60932e+08,-8.61267e+08,-8.61131e+08,166455,-0.0107095,0.184262,-0,0.184573,-3123.81,-31351.7,-0,31507,166455
step02_gravity_refstate-crust.xmf,615,3.17216e-06,-2.42738e-06,0,2.80294e-06,-8.88417e+08,-8.88801e+08,-8.88635e+08,192282,-0.0116238,0.186802,-0,0.187163,-3030.98,-32352.8,-0,32494.5,192282
step02_gravity_refstate-crust.xmf,616,4.13426e-06,-3.75246e-06,0,2.19229e-06,-9.10193e+08,-9.10734e+08,-9.10477e+08,150391,-0.00825676,0.193801,-0,0.193977,-1847,-33147.4,-0,33198.8,150391
step02_gravity_refstate-crust.xmf,617,1.79769e-06,-4.72215e-07,0,2.55338e-06,-8.1018e+08,-8.10336e+08,-8.10303e+08,175162,-0.0130733,0.174587,-0,0.175076,-5061.97,-29502,-0,29933.1,175162
step02_gravity_refstate-crust.xmf,618,1.72924e-07,1.75182e-06,0,2.44693e-06,-7.51401e+08,-7.51293e+08,-7.51413e+08,167860,-0.0157734,0.152773,-0,0.153585,-10651.8,-27358.9,-0,29359.3,167860
step02_gravity_refstate-crust.xmf,619,2.42397e-07,1.67147e-06,0,2.57658e-06,-7.69462e+08,-7.69364e+08,-7.69479e+08,176754,-0.0162114,0.153941,-0,0.154793,-10103.6,-28016.6,-0,29782.8,176754
step02_gravity_refstate-crust.xmf,620,-1.60965e-07,2.21294e-06,0,2.20291e-06,-7.29049e+08,-7.28886e+08,-7.29038e+08,151120,-0.0151789,0.145358,-0,0.146148,-12950.8,-26544.5,-0,29535.3,151120
step02_gravity_refstate-crust.xmf,621,1.40029e-06,8.12487e-08,0,2.74173e-06,-8.07963e+08,-8.08054e+08,-8.08059e+08,188082,-0.0146294,0.170259,-0,0.170886,-6096.55,-29420.5,-0,30045.5,188082
step02_gravity_refstate-crust.xmf,622,9.91106e-07,6.3572e-07,0,2.83428e-06,-8.04002e+08,-8.04026e+08,-8.04069e+08,194432,-0.0157939,0.165305,-0,0.166057,-7217.53,-29275.5,-0,30152,194432
step02_gravity_refstate-crust.xmf,623,6.69424e-07,1.08267e-06,0,2.79524e-06,-7.94776e+08,-7.94747e+08,-7.94822e+08,191754,-0.0162777,0.160877,-0,0.161699,-8250.21,-28939,-0,30092,191754
step02_gravity_refstate-crust.xmf,624,-5.47865e-07,2.5717e-06,0,9.84138e-07,-5.90917e+08,-5.90703e+08,-5.90879e+08,67511.9,-0.00799981,0.123624,-0,0.123883,-25418.4,-21514.7,-0,33301.3,67511.9
step02_gravity_refstate-crust.xmf,625,-4.51409e-07,2.44659e-06,0,1.39272e-06,-6.10226e+08,-6.10027e+08,-6.10195e+08,95540.7,-0.0108124,0.133409,-0,0.133846,-20157.8,-22217.8,-0,29999.5,95540.7
step02_gravity_refstate-crust.xmf,626,-4.59518e-07,2.53547e-06,0,1.51165e-06,-6.41028e+08,-6.40823e+08,-6.40997e+08,103699,-0.0116454,0.133558,-0,0.134065,-19032.7,-23339.3,-0,30115.9,103699
step02_gravity_refstate-crust.xmf,627,-4.36652e-07,2.59364e-06,0,1.77449e-06,-6.90548e+08,-6.9034e+08,-6.90518e+08,121730,-0.0133048,0.1358,-0,0.13645,-16690.3,-25142.3,-0,30177.9,121730
step02_gravity_refstate-crust.xmf,628,-5.413e-07,2.55198e-06,0,2.48854e-07,-5.71084e+08,-5.70872e+08,-5.71047e+08,17071.4,-0.00210652,0.112791,-0,0.112811,-36079.7,-20792.7,-0,41642.2,17071.4
step02_gravity_refstate-crust.xmf,629,4.59836e-06,-4.34457e-06,0,2.35936e-07,-9.08703e+08,-9.09317e+08,-9.09019e+08,16185.2,-0.00088307,0.196693,-0,0.196695,-191.264,-33094.1,-0,33094.7,16185.2
step02_gravity_refstate-crust.xmf,630,4.72881e-06,-4.6231e-06,0,2.04621e-06,-9.2962e+08,-9.30262e+08,-9.29944e+08,140370,-0.00717056,0.198049,-0,0.198179,-1438.06,-33855.7,-0,33886.2,140370
step02_gravity_refstate-crust.xmf,631,5.08948e-06,-5.03853e-06,0,9.61325e-07,-9.30426e+08,-9.31121e+08,-9.30775e+08,65946.9,-0.00326855,0.200016,-0,0.200043,-638.2,-33885.9,-0,33891.9,65946.9
step02_gravity_refstate-crust.xmf,632,8.26827e-07,7.25139e-07,0,-1.75767e-06,-6.44438e+08,-6.44445e+08,-6.44495e+08,-120576,0.0111201,0.166637,0,0.167008,7958.52,-23465.9,0,24778.7,120576
step02_gravity_refstate-crust.xmf,633,6.53472e-07,9.3841e-07,0,-1.7743e-06,-6.30874e+08,-6.30854e+08,-6.30919e+08,-121717,0.0115032,0.164201,0,0.164604,8978.43,-22971.7,0,24664,121717
step02_gravity_refstate-crust.xmf,634,1.87087e-06,-5.47392e-07,0,-1.62842e-06,-7.4492e+08,-7.45086e+08,-7.45049e+08,-111710,0.00885872,0.176733,0,0.176955,3997.33,-27126.3,0,27419.2,111710
step02_gravity_refstate-crust.xmf,635,2.22194e-06,-9.88509e-07,0,-1.52695e-06,-7.71297e+08,-7.71517e+08,-7.71449e+08,-104749,0.00790566,0.179437,0,0.179611,3178.88,-28087.3,0,28266.6,104749
step02_gravity_refstate-crust.xmf,636,2.55728e-06,-1.43094e-06,0,-1.42771e-06,-7.96219e+08,-7.96493e+08,-7.96395e+08,-97940.9,0.00703145,0.181957,0,0.182092,2541.44,-28995.3,0,29106.5,97940.9
step02_gravity_refstate-crust.xmf,637,2.91317e-06,-1.90756e-06,0,-1.28831e-06,-8.19805e+08,-8.20136e+08,-8.20005e+08,-88377.8,0.00603359,0.18456,0,0.184659,1967.98,-29854.7,0,29919.5,88377.8
step02_gravity_refstate-crust.xmf,638,3.29415e-06,-2.42825e-06,0,-1.08954e-06,-8.42256e+08,-8.42649e+08,-8.42482e+08,-74742.2,0.00483752,0.187296,0,0.187359,1427.46,-30672.8,0,30706,74742.2
step02_gravity_refstate-crust.xmf,639,3.96224e-06,-3.39061e-06,0,-1.42032e-06,-8.87838e+08,-8.88342e+08,-8.8811e+08,-97433.7,0.00567413,0.192164,0,0.192248,1381.22,-32333.4,0,32362.9,97433.7
step02_gravity_refstate-crust.xmf,640,3.11279e-07,1.3199e-06,0,-1.74341e-06,-5.98219e+08,-5.9815e+08,-5.98241e+08,-119598,0.0118097,0.158746,0,0.159185,11385.7,-21782.1,0,24578.3,119598
step02_gravity_refstate-crust.xmf,641,-4.97796e-07,1.78693e-06,0,-5.54672e-07,-4.09271e+08,-4.09114e+08,-4.09237e+08,-38050.5,0.0047295,0.1297,0,0.129787,31054.1,-14900.7,0,34444,38050.5
step02_gravity_refstate-crust.xmf,642,6.9347e-08,1.58394e-06,0,-1.63122e-06,-5.65432e+08,-5.65328e+08,-5.65437e+08,-111901,0.0115339,0.153724,0,0.154156,13827.4,-20587.8,0,24800.3,111901
step02_gravity_refstate-crust.xmf,643,-1.40922e-07,1.839e-06,0,-1.52979e-06,-5.52766e+08,-5.5263e+08,-5.52756e+08,-104943,0.0111898,0.147525,0,0.147949,16444.5,-20126.3,0,25990.2,104943
step02_gravity_refstate-crust.xmf,644,-4.10163e-07,1.81187e-06,0,-9.00761e-07,-4.35369e+08,-4.35217e+08,-4.35341e+08,-61792.2,0.00728928,0.135739,0,0.135935,25562.8,-15851.2,0,30078.6,61792.2
step02_gravity_refstate-crust.xmf,645,-2.67027e-07,1.90745e-06,0,-1.33443e-06,-5.15578e+08,-5.15429e+08,-5.1556e+08,-91541.7,0.0100733,0.143016,0,0.14337,19285.6,-18772,0,26913.2,91541.7
step02_gravity_refstate-crust.xmf,646,-3.51997e-07,1.88451e-06,0,-1.13201e-06,-4.76051e+08,-4.75897e+08,-4.76027e+08,-77656.1,0.00878135,0.13927,0,0.139546,22228.7,-17332.6,0,28187.5,77656.1
step02_gravity_refstate-crust.xmf,647,-5.59166e-07,1.48506e-06,0,5.24032e-10,-3.31219e+08,-3.31078e+08,-3.3118e+08,35.9486,9.00572e-20,0.129394,0,0.129394,40000,-12058.4,0,41778,35.9486
step02_gravity_refstate-crust.xmf,648,3.60666e-06,-3.05268e-06,0,2.91694e-06,-9.09478e+08,-9.09935e+08,-9.09726e+08,200102,-0.0114267,0.190455,-0,0.190797,-2674.07,-33120.3,-0,33228.1,200102
step02_gravity_refstate-crust.xmf,649,2.05792e-06,-8.44647e-07,0,2.71286e-06,-8.34433e+08,-8.34632e+08,-8.34574e+08,186102,-0.0131976,0.17705,-0,0.177541,-4596.32,-30385.4,-0,30731.1,186102
step02_gravity_refstate-crust.xmf,650,-1.35514e-09,2.01593e-06,0,2.5028e-06,-7.68008e+08,-7.67869e+08,-7.68007e+08,171692,-0.0162975,0.149229,-0,0.150117,-11229.2,-27963.2,-0,30133.6,171692
step02_gravity_refstate-crust.xmf,651,-1.93795e-07,2.31403e-06,0,2.36804e-06,-7.62797e+08,-7.62625e+08,-7.62784e+08,162448,-0.0160414,0.144546,-0,0.145433,-12450.3,-27773.2,-0,30436.2,162448
step02_gravity_refstate-crust.xmf,652,2.83108e-07,1.62753e-06,0,2.78407e-06,-7.9701e+08,-7.96918e+08,-7.97029e+08,190987,-0.0169612,0.15474,-0,0.155666,-9554.55,-29019.6,-0,30552,190987
step02_gravity_refstate-crust.xmf,653,-5.45739e-07,2.59248e-06,0,3.76657e-07,-5.80099e+08,-5.79884e+08,-5.80062e+08,25838.7,-0.00319016,0.113216,-0,0.113261,-34078.3,-21120.9,-0,40092.7,25838.7
step02_gravity_refstate-crust.xmf,654,-5.55833e-07,2.60891e-06,0,5.24706e-07,-5.84079e+08,-5.83862e+08,-5.84041e+08,35994.8,-0.00441646,0.114865,-0,0.11495,-31845.3,-21265.8,-0,38293,35994.8
step02_gravity_refstate-crust.xmf,655,-5.59199e-07,2.59775e-06,0,8.30678e-07,-5.8838e+08,-5.88163e+08,-5.88342e+08,56984.5,-0.00684927,0.120261,-0,0.120456,-27487,-21422.3,-0,34848.9,56984.5
step02_gravity_refstate-crust.xmf,656,-5.60772e-07,2.61046e-06,0,6.76913e-07,-5.86496e+08,-5.86279e+08,-5.86458e+08,46436.2,-0.00564706,0.117275,-0,0.117411,-29634.4,-21353.8,-0,36526.5,46436.2
step02_gravity_refstate-crust.xmf,657,-5.91935e-07,2.80676e-06,0,1.04684e-06,-6.39882e+08,-6.39649e+08,-6.39842e+08,71813.4,-0.0086288,0.120492,-0,0.1208,-24566.5,-23297.5,-0,33856.9,71813.4
step02_gravity_refstate-crust.xmf,658,-5.75689e-07,2.76561e-06,0,1.20289e-06,-6.43463e+08,-6.43234e+08,-6.43423e+08,82518.4,-0.00973883,0.124172,-0,0.124553,-22686.5,-23427.9,-0,32612,82518.4
step02_gravity_refstate-crust.xmf,659,-5.39614e-07,2.69572e-06,0,1.35705e-06,-6.46647e+08,-6.46425e+08,-6.4661e+08,93093.6,-0.0107642,0.128169,-0,0.12862,-20885.8,-23543.8,-0,31472.7,93093.6
step02_gravity_refstate-crust.xmf,660,-3.37753e-07,2.49745e-06,0,2.05378e-06,-7.26558e+08,-7.26363e+08,-7.26535e+08,140889,-0.0147425,0.139936,-0,0.140711,-14477.1,-26453.6,-0,30155.9,140889
step02_gravity_refstate-crust.xmf,661,-4.76665e-07,2.7276e-06,0,1.89485e-06,-7.25592e+08,-7.25372e+08,-7.25559e+08,129987,-0.0141017,0.134698,-0,0.135434,-15993.7,-26418.2,-0,30882.3,129987
step02_gravity_refstate-crust.xmf,662,-5.31192e-07,2.7608e-06,0,1.61578e-06,-6.89393e+08,-6.89167e+08,-6.89357e+08,110842,-0.0124933,0.130873,-0,0.131468,-18336.5,-25100.2,-0,31084.5,110842
step02_gravity_refstate-crust.xmf,663,-5.37735e-07,2.48268e-06,0,3.43731e-10,-5.55632e+08,-5.55425e+08,-5.55595e+08,23.5799,-2.16588e-19,0.113216,-0,0.113216,-40000,-20230,-0,44824.7,23.5799
step02_gravity_refstate-crust.xmf,664,-5.35283e-07,2.65187e-06,0,1.29236e-07,-5.93596e+08,-5.93377e+08,-5.93559e+08,8865.59,-0.001111,0.109948,-0,0.109953,-37916.4,-21612.4,-0,43643.5,8865.59
step02_gravity_refstate-crust.xmf,665,4.58777e-06,-4.28997e-06,0,-8.82779e-07,-9.10008e+08,-9.10617e+08,-9.10323e+08,-60558.7,0.00327624,0.196458,0,0.196485,709.076,-33141.7,0,33149.3,60558.7
step02_gravity_refstate-crust.xmf,666,5.49028e-06,-5.69587e-06,0,1.77709e-06,-9.50549e+08,-9.51316e+08,-9.50925e+08,121909,-0.00568197,0.203212,-0,0.203292,-1006.04,-34619.1,-0,34633.7,121909
step02_gravity_refstate-crust.xmf,667,9.6843e-07,5.70583e-07,0,-1.79407e-06,-6.66131e+08,-6.66159e+08,-6.66198e+08,-123073,0.0111092,0.168045,0,0.168412,7268.6,-24256,0,25321.6,123073
step02_gravity_refstate-crust.xmf,668,1.13992e-06,3.67179e-07,0,-1.87754e-06,-6.94506e+08,-6.94559e+08,-6.94584e+08,-128800,0.0112204,0.16951,0,0.169881,6583.98,-25289.4,0,26132.4,128800
step02_gravity_refstate-crust.xmf,669,1.34215e-06,1.24348e-07,0,-1.95862e-06,-7.23215e+08,-7.23298e+08,-7.23307e+08,-134361,0.0112791,0.171226,0,0.171597,5914.7,-26335,0,26991,134361
step02_gravity_refstate-crust.xmf,670,1.59476e-06,-1.9565e-07,0,-2.05266e-06,-7.54222e+08,-7.54345e+08,-7.54332e+08,-140812,0.0112768,0.173387,0,0.173753,5221.72,-27464.4,0,27956.4,140812
step02_gravity_refstate-crust.xmf,671,3.46114e-06,-2.70164e-06,0,-1.597e-06,-8.64463e+08,-8.64886e+08,-8.647e+08,-109555,0.00679208,0.188498,0,0.18862,1853.06,-31481.5,0,31535.9,109555
step02_gravity_refstate-crust.xmf,672,3.98841e-07,1.2631e-06,0,-1.86432e-06,-6.32496e+08,-6.32437e+08,-6.32524e+08,-127893,0.0123748,0.159522,0,0.160001,10560.4,-23030.2,0,25336,127893
step02_gravity_refstate-crust.xmf,673,1.2565e-07,1.57279e-06,0,-1.75369e-06,-5.9977e+08,-5.99671e+08,-5.99779e+08,-120303,0.0121709,0.154411,0,0.15489,12874,-21838.2,0,25350.4,120303
step02_gravity_refstate-crust.xmf,674,-4.58545e-07,1.88747e-06,0,-7.79371e-07,-4.41387e+08,-4.41226e+08,-4.41356e+08,-53464.9,0.00638415,0.131954,0,0.132108,27670.3,-16070.2,0,31998.4,53464.9
step02_gravity_refstate-crust.xmf,675,-4.92999e-07,1.9607e-06,0,-6.60476e-07,-4.50401e+08,-4.50233e+08,-4.50368e+08,-45308.6,0.00545751,0.128577,0,0.128693,29643.3,-16398.4,0,33876.7,45308.6
step02_gravity_refstate-crust.xmf,676,-5.55545e-08,1.75351e-06,0,-1.60302e-06,-5.65764e+08,-5.6564e+08,-5.6576e+08,-109967,0.0115446,0.150078,0,0.150521,15164.2,-20599.7,0,25579.3,109967
step02_gravity_refstate-crust.xmf,677,-3.58781e-07,2.03449e-06,0,-1.24275e-06,-5.18963e+08,-5.18799e+08,-5.18939e+08,-85253,0.00953648,0.138609,0,0.138936,21104.3,-18895.1,0,28327,85253
step02_gravity_refstate-crust.xmf,678,-4.2665e-07,2.0188e-06,0,-1.0168e-06,-4.86962e+08,-4.86794e+08,-4.86932e+08,-69752.5,0.00802357,0.134307,0,0.134546,24353.8,-17729.7,0,30124,69752.5
step02_gravity_refstate-crust.xmf,679,-2.73361e-07,2.02426e-06,0,-1.45535e-06,-5.56923e+08,-5.56765e+08,-5.56904e+08,-99836.7,0.0108725,0.142566,0,0.14298,18255.7,-20277.4,0,27284.4,99836.7
step02_gravity_refstate-crust.xmf,680,-5.4568e-07,1.651e-06,0,-1.42266e-07,-3.70372e+08,-3.70222e+08,-3.70335e+08,-9759.48,0.00128957,0.127504,0,0.12751,37646.8,-13484.1,0,39988.8,9759.48
step02_gravity_refstate-crust.xmf,681,-5.3292e-07,1.8154e-06,0,-2.94669e-07,-4.09191e+08,-4.0903e+08,-4.09154e+08,-20214.3,0.00254766,0.126107,0,0.126133,35278.2,-14897.7,0,38294.8,20214.3
step02_gravity_refstate-crust.xmf,682,-5.24176e-07,1.98881e-06,0,-4.56929e-07,-4.50125e+08,-4.49953e+08,-4.50089e+08,-31345.4,0.00382049,0.125081,0,0.125139,32857.8,-16388.2,0,36717.9,31345.4
step02_gravity_refstate-crust.xmf,683,2.35286e-06,-1.28161e-06,0,2.91795e-06,-8.59669e+08,-8.59918e+08,-8.5983e+08,200172,-0.0133998,0.179851,-0,0.180349,-4171.41,-31304.6,-0,31581.3,200172
step02_gravity_refstate-crust.xmf,684,2.66067e-06,-1.75434e-06,0,3.18024e-06,-8.84433e+08,-8.84735e+08,-8.84615e+08,218164,-0.0137292,0.182848,-0,0.183363,-3819.96,-32206.7,-0,32432.4,218164
step02_gravity_refstate-crust.xmf,685,3.00203e-06,-2.29206e-06,0,3.48082e-06,-9.07938e+08,-9.08301e+08,-9.08144e+08,238784,-0.0140794,0.186187,-0,0.186719,-3501.56,-33063,-0,33247.9,238784
step02_gravity_refstate-crust.xmf,686,4.15351e-06,-3.90083e-06,0,3.0105e-06,-9.29221e+08,-9.29773e+08,-9.29506e+08,206521,-0.0108802,0.194735,-0,0.195039,-2277.4,-33840,-0,33916.5,206521
step02_gravity_refstate-crust.xmf,687,4.83631e-06,-4.9217e-06,0,2.97811e-06,-9.48607e+08,-9.49276e+08,-9.48939e+08,204298,-0.00990506,0.199811,-0,0.200056,-1839.2,-34546.9,-0,34595.8,204298
step02_gravity_refstate-crust.xmf,688,1.58894e-06,-2.203e-07,0,2.96352e-06,-8.32618e+08,-8.32743e+08,-8.32727e+08,203297,-0.0150083,0.17239,-0,0.173042,-5634.4,-30318.4,-0,30837.5,203297
step02_gravity_refstate-crust.xmf,689,-6.63703e-09,2.05321e-06,0,2.69417e-06,-7.96956e+08,-7.96815e+08,-7.96956e+08,184820,-0.0171096,0.149279,-0,0.150256,-10733,-29017.1,-0,30938.5,184820
step02_gravity_refstate-crust.xmf,690,-3.83597e-07,2.60331e-06,0,2.20595e-06,-7.59397e+08,-7.59192e+08,-7.59371e+08,151328,-0.0155611,0.139231,-0,0.140098,-13853.7,-27649.1,-0,30925.7,151328
step02_gravity_refstate-crust.xmf,691,1.13458e-06,4.27378e-07,0,3.08046e-06,-8.30778e+08,-8.30826e+08,-8.30856e+08,211320,-0.0163958,0.167152,-0,0.167954,-6719.85,-30250.5,-0,30987.9,211320
step02_gravity_refstate-crust.xmf,692,7.11299e-07,1.01485e-06,0,3.08827e-06,-8.26904e+08,-8.26883e+08,-8.26953e+08,211855,-0.0172385,0.161696,-0,0.162613,-7824.94,-30108.7,-0,31108.9,211855
step02_gravity_refstate-crust.xmf,693,3.30868e-07,1.55814e-06,0,3.03331e-06,-8.25224e+08,-8.2514e+08,-8.25247e+08,208085,-0.0177601,0.155921,-0,0.15693,-8975.48,-30046.9,-0,31358.8,208085
step02_gravity_refstate-crust.xmf,694,-5.37134e-07,2.81852e-06,0,2.65308e-07,-6.30451e+08,-6.3022e+08,-6.30414e+08,18200.1,-0.00231176,0.107231,-0,0.107256,-35623.8,-22954.4,-0,42378.8,18200.1
step02_gravity_refstate-crust.xmf,695,-5.95023e-07,2.83594e-06,0,8.89508e-07,-6.38169e+08,-6.37934e+08,-6.38129e+08,61020.2,-0.00745277,0.116924,-0,0.117161,-26545.5,-23235.2,-0,35278,61020.2
step02_gravity_refstate-crust.xmf,696,-5.83191e-07,2.91436e-06,0,1.72456e-06,-7.25487e+08,-7.25247e+08,-7.25447e+08,118305,-0.013266,0.129523,-0,0.130201,-17562.7,-26414.2,-0,31720,118305
step02_gravity_refstate-crust.xmf,697,5.12806e-06,-5.15262e-06,0,-3.04141e-07,-9.30586e+08,-9.31291e+08,-9.30938e+08,-20864,0.00103461,0.200458,0,0.200461,200.87,-33891.7,0,33892.3,20864
step02_gravity_refstate-crust.xmf,698,5.76164e-06,-6.05521e-06,0,4.37433e-07,-9.50801e+08,-9.51611e+08,-9.51196e+08,30007.9,-0.00136453,0.204551,-0,0.204555,-237.596,-34628.8,-0,34629.6,30007.9
step02_gravity_refstate-crust.xmf,699,1.96281e-06,-6.61777e-07,0,-1.91968e-06,-7.74701e+08,-7.74881e+08,-7.74835e+08,-131690,0.010119,0.176867,0,0.177156,4188.07,-28210.7,0,28519.8,131690
step02_gravity_refstate-crust.xmf,700,7.25406e-07,8.8061e-07,0,-1.93399e-06,-6.66843e+08,-6.66832e+08,-6.66892e+08,-132672,0.0122072,0.16428,0,0.164733,8542.7,-24281.4,0,25740.3,132672
step02_gravity_refstate-crust.xmf,701,2.27876e-06,-1.0799e-06,0,-1.91841e-06,-7.98346e+08,-7.98576e+08,-7.98502e+08,-131603,0.00960196,0.179398,0,0.179654,3579.58,-29072.1,0,29291.7,131603
step02_gravity_refstate-crust.xmf,702,2.64079e-06,-1.56902e-06,0,-1.87806e-06,-8.22332e+08,-8.22621e+08,-8.22513e+08,-128835,0.0089122,0.182276,0,0.182493,2979.72,-29946.1,0,30094,128835
step02_gravity_refstate-crust.xmf,703,3.03785e-06,-2.10475e-06,0,-1.77929e-06,-8.44558e+08,-8.4491e+08,-8.44766e+08,-122060,0.00800537,0.185337,0,0.18551,2409.78,-30756,0,30850.3,122060
step02_gravity_refstate-crust.xmf,704,3.48185e-06,-2.76948e-06,0,-2.11726e-06,-8.8022e+08,-8.80649e+08,-8.80459e+08,-145244,0.00881588,0.188826,0,0.189032,2290.05,-32055.1,0,32136.8,145244
step02_gravity_refstate-crust.xmf,705,4.33702e-06,-3.99318e-06,0,-1.89643e-06,-9.12482e+08,-9.13053e+08,-9.1278e+08,-130095,0.0070411,0.195076,0,0.195203,1539.84,-33231.2,0,33266.8,130095
step02_gravity_refstate-crust.xmf,706,4.90802e-07,1.20714e-06,0,-1.99325e-06,-6.66336e+08,-6.66287e+08,-6.6637e+08,-136737,0.0129847,0.160198,0,0.160723,9849.77,-24262.5,0,26185.6,136737
step02_gravity_refstate-crust.xmf,707,1.86e-07,1.55615e-06,0,-1.88563e-06,-6.3455e+08,-6.34456e+08,-6.34563e+08,-129354,0.0128534,0.154976,0,0.155508,12017.4,-23104.6,0,26043,129354
step02_gravity_refstate-crust.xmf,708,-5.09646e-07,1.98715e-06,0,-5.66241e-07,-4.5263e+08,-4.52458e+08,-4.52595e+08,-38844.1,0.00470978,0.126629,0,0.126717,31137.1,-16479.5,0,35229.1,38844.1
step02_gravity_refstate-crust.xmf,709,-3.02694e-08,1.79983e-06,0,-1.7213e-06,-6.01017e+08,-6.00891e+08,-6.01015e+08,-118081,0.0122635,0.150127,0,0.150627,14329.8,-21883.3,0,26157.6,118081
step02_gravity_refstate-crust.xmf,710,-1.60776e-07,1.98051e-06,0,-1.66037e-06,-5.99463e+08,-5.99316e+08,-5.99452e+08,-113902,0.0120901,0.146129,0,0.146628,15763.9,-21826.5,0,26923.9,113902
step02_gravity_refstate-crust.xmf,711,-4.72378e-07,2.10086e-06,0,-8.81057e-07,-4.9137e+08,-4.91193e+08,-4.91337e+08,-60440.5,0.00707995,0.130187,0,0.130379,26491.5,-17890.1,0,31966.5,60440.5
step02_gravity_refstate-crust.xmf,712,-3.67117e-07,2.18014e-06,0,-1.3524e-06,-5.60944e+08,-5.60769e+08,-5.60919e+08,-92774.8,0.0103503,0.137873,0,0.138261,20029.6,-20423.6,0,28606.1,92774.8
step02_gravity_refstate-crust.xmf,713,-4.29279e-07,2.14581e-06,0,-1.13104e-06,-5.23157e+08,-5.2298e+08,-5.23127e+08,-77589.6,0.00883562,0.134274,0,0.134565,22976.2,-19047.6,0,29844.9,77589.6
step02_gravity_refstate-crust.xmf,714,-2.77696e-07,2.14822e-06,0,-1.57437e-06,-5.98531e+08,-5.98365e+08,-5.98512e+08,-108002,0.0117279,0.141878,0,0.142362,17315.1,-21792.3,0,27833.8,108002
step02_gravity_refstate-crust.xmf,715,-5.43164e-07,1.81872e-06,0,2.18974e-10,-4.07952e+08,-4.0779e+08,-4.07914e+08,15.0216,8.91377e-20,0.124779,0,0.124779,40000,-14852.5,0,42668.5,15.0216
step02_gravity_refstate-crust.xmf,716,3.45541e-06,-2.95039e-06,0,3.69701e-06,-9.28776e+08,-9.29215e+08,-9.29013e+08,253615,-0.0140572,0.190283,-0,0.190801,-3120.21,-33822.4,-0,33966,253615
step02_gravity_refstate-crust.xmf,717,1.82747e-06,-5.82137e-07,0,3.22368e-06,-8.5882e+08,-8.58985e+08,-8.58945e+08,221144,-0.0154284,0.17505,-0,0.175729,-5161.59,-31272.7,-0,31695.8,221144
step02_gravity_refstate-crust.xmf,718,5.89418e-06,-6.4734e-06,0,2.61328e-06,-9.71186e+08,-9.72034e+08,-9.7159e+08,179271,-0.00789256,0.206957,-0,0.207107,-1256.81,-35370.8,-0,35393.1,179271
step02_gravity_refstate-crust.xmf,719,6.29761e-06,-6.90691e-06,0,1.3497e-06,-9.69518e+08,-9.70424e+08,-9.6995e+08,92589.7,-0.00394261,0.208479,-0,0.208517,-619.412,-35311,-0,35316.5,92589.7
step02_gravity_refstate-crust.xmf,720,-2.4884e-07,2.41131e-06,0,2.54828e-06,-7.94328e+08,-7.94146e+08,-7.94311e+08,174812,-0.0168772,0.143896,-0,0.144882,-11967.9,-28921,-0,31299.5,174812
step02_gravity_refstate-crust.xmf,721,-4.37675e-07,2.7314e-06,0,2.35951e-06,-7.92062e+08,-7.91845e+08,-7.92032e+08,161862,-0.0163648,0.138275,-0,0.13924,-13309.8,-28838.3,-0,31761.6,161862
step02_gravity_refstate-crust.xmf,722,-1.13018e-08,2.06351e-06,0,2.91802e-06,-8.25082e+08,-8.2494e+08,-8.25081e+08,200176,-0.0179349,0.14981,-0,0.15088,-10184.4,-30041.1,-0,31720.5,200176
step02_gravity_refstate-crust.xmf,723,-5.52208e-07,2.84618e-06,0,4.24579e-07,-6.3577e+08,-6.35537e+08,-6.35732e+08,29126.1,-0.00367856,0.108513,-0,0.108575,-33098.7,-23148,-0,40390,29126.1
step02_gravity_refstate-crust.xmf,724,-5.74501e-07,2.86626e-06,0,5.76328e-07,-6.39213e+08,-6.38977e+08,-6.39173e+08,39536.1,-0.00495549,0.110525,-0,0.110636,-30815.9,-23273.3,-0,38616.9,39536.1
step02_gravity_refstate-crust.xmf,725,-5.88646e-07,2.86213e-06,0,7.30543e-07,-6.39456e+08,-6.39219e+08,-6.39415e+08,50115.3,-0.00621531,0.113401,-0,0.113571,-28640.1,-23282.1,-0,36909.5,50115.3
step02_gravity_refstate-crust.xmf,726,-5.95107e-07,2.89334e-06,0,1.44605e-06,-6.8901e+08,-6.88771e+08,-6.88969e+08,99199.1,-0.0115135,0.125998,-0,0.126523,-20068.6,-25086.2,-0,32125.8,99199.1
step02_gravity_refstate-crust.xmf,727,-6.36339e-07,3.06581e-06,0,9.40199e-07,-6.84893e+08,-6.84639e+08,-6.84849e+08,64497.7,-0.00800983,0.113603,-0,0.113885,-25620.7,-24936.4,-0,35752.5,64497.7
step02_gravity_refstate-crust.xmf,728,-6.42418e-07,3.03767e-06,0,1.10294e-06,-6.86375e+08,-6.86122e+08,-6.86331e+08,75661.9,-0.00921902,0.117318,-0,0.11768,-23725.4,-24990.3,-0,34458.8,75661.9
step02_gravity_refstate-crust.xmf,729,-6.31699e-07,2.98637e-06,0,1.2715e-06,-6.88348e+08,-6.881e+08,-6.88304e+08,87224.6,-0.0103961,0.121378,-0,0.121822,-21882.2,-25062.1,-0,33270.7,87224.6
step02_gravity_refstate-crust.xmf,730,-5.22634e-07,2.8489e-06,0,2.02162e-06,-7.57401e+08,-7.5717e+08,-7.57365e+08,138683,-0.01486,0.133847,-0,0.134669,-15324.1,-27576.2,-0,31548,138683
step02_gravity_refstate-crust.xmf,731,-6.25369e-07,3.04254e-06,0,1.83396e-06,-7.56326e+08,-7.56075e+08,-7.56284e+08,125810,-0.0139909,0.128679,-0,0.129437,-16808.2,-27537,-0,32261.5,125810
step02_gravity_refstate-crust.xmf,732,-6.72781e-07,3.12032e-06,0,1.53847e-06,-7.34515e+08,-7.34255e+08,-7.34469e+08,105539,-0.0122544,0.123281,-0,0.123888,-19270.3,-26742.9,-0,32962.5,105539
step02_gravity_refstate-crust.xmf,733,-5.2535e-07,2.79693e-06,0,4.53196e-10,-6.26988e+08,-6.2676e+08,-6.26952e+08,31.0892,-2.02296e-19,0.106357,-0,0.106357,-40000,-22828.3,-0,46055.8,31.0892
step02_gravity_refstate-crust.xmf,734,-5.22297e-07,2.91151e-06,0,1.16478e-07,-6.53077e+08,-6.52842e+08,-6.53041e+08,7990.37,-0.0010337,0.103902,-0,0.103907,-38001.9,-23778.3,-0,44828,7990.37
step02_gravity_refstate-crust.xmf,735,4.98189e-06,-4.93375e-06,0,-1.49366e-06,-9.31393e+08,-9.32073e+08,-9.31735e+08,-102465,0.00516142,0.199501,0,0.199568,1011.46,-33920.8,0,33935.9,102465
step02_gravity_refstate-crust.xmf,736,1.70026e-06,-3.25963e-07,0,-2.29218e-06,-7.83197e+08,-7.83336e+08,-7.83314e+08,-157243,0.0121661,0.17391,0,0.174335,5142.61,-28519.5,0,28979.4,157243
step02_gravity_refstate-crust.xmf,737,8.6734e-07,7.39881e-07,0,-2.0383e-06,-6.96298e+08,-6.96306e+08,-6.96357e+08,-139827,0.0125553,0.165541,0,0.166016,7861.32,-25354.1,0,26544.9,139827
step02_gravity_refstate-crust.xmf,738,1.02935e-06,5.36193e-07,0,-2.16685e-06,-7.24823e+08,-7.24857e+08,-7.24893e+08,-148646,0.0128345,0.167116,0,0.167608,7182.15,-26392.9,0,27352.7,148646
step02_gravity_refstate-crust.xmf,739,1.21733e-06,3.00313e-07,0,-2.29472e-06,-7.52728e+08,-7.52791e+08,-7.52812e+08,-157417,0.0130734,0.168932,0,0.169437,6536.04,-27409.2,0,28177.7,157417
step02_gravity_refstate-crust.xmf,740,3.15217e-06,-2.29992e-06,0,-2.25019e-06,-8.67791e+08,-8.68165e+08,-8.68007e+08,-154363,0.00973519,0.186275,0,0.186529,2710,-31602,0,31718,154363
step02_gravity_refstate-crust.xmf,741,3.81199e-06,-3.268e-06,0,-2.19939e-06,-8.97357e+08,-8.97843e+08,-8.97619e+08,-150878,0.00863678,0.191445,0,0.19164,2065.41,-32679.6,0,32744.8,150878
step02_gravity_refstate-crust.xmf,742,2.51131e-07,1.5223e-06,0,-2.02842e-06,-6.67919e+08,-6.67832e+08,-6.67936e+08,-139150,0.0135379,0.155606,0,0.156194,11231.4,-24319.6,0,26787.9,139150
step02_gravity_refstate-crust.xmf,743,-1.75476e-09,1.8221e-06,0,-1.86097e-06,-6.36447e+08,-6.36322e+08,-6.36447e+08,-127663,0.0130315,0.150369,0,0.150932,13466.6,-23173.3,0,26802,127663
step02_gravity_refstate-crust.xmf,744,-5.05578e-07,2.16787e-06,0,-7.40952e-07,-4.97058e+08,-4.96875e+08,-4.97024e+08,-50829.3,0.00603424,0.126408,0,0.126552,28654,-18097.2,0,33890.4,50829.3
step02_gravity_refstate-crust.xmf,745,-5.24846e-07,2.20726e-06,0,-5.86029e-07,-4.99816e+08,-4.99629e+08,-4.9978e+08,-40201.6,0.00482791,0.123185,0,0.12328,30996.5,-18197.6,0,35943.5,40201.6
step02_gravity_refstate-crust.xmf,746,-4.44457e-07,2.30248e-06,0,-1.23704e-06,-5.64537e+08,-5.64349e+08,-5.64507e+08,-84860.8,0.00964918,0.133383,0,0.133731,21832.4,-20554.3,0,29985.6,84860.8
step02_gravity_refstate-crust.xmf,747,-4.97129e-07,2.32628e-06,0,-1.00252e-06,-5.44632e+08,-5.44438e+08,-5.44598e+08,-68772.7,0.00799826,0.128429,0,0.128678,25055.7,-19829.4,0,31953,68772.7
step02_gravity_refstate-crust.xmf,748,-3.87599e-07,2.31268e-06,0,-1.47064e-06,-6.01208e+08,-6.01022e+08,-6.01181e+08,-100886,0.0111979,0.137141,0,0.137598,19006,-21889.6,0,28989.4,100886
step02_gravity_refstate-crust.xmf,749,-5.39791e-07,1.98106e-06,0,-1.51085e-07,-4.44675e+08,-4.44502e+08,-4.44638e+08,-10364.4,0.00128201,0.122596,0,0.122603,37627.7,-16189.7,0,40962.8,10364.4
step02_gravity_refstate-crust.xmf,750,-5.3765e-07,2.13968e-06,0,-3.0516e-07,-4.80725e+08,-4.80541e+08,-4.80688e+08,-20934,0.0025514,0.120964,0,0.120991,35264.7,-17502.4,0,39369.2,20934
step02_gravity_refstate-crust.xmf,751,2.08326e-06,-9.8392e-07,0,3.50937e-06,-8.83064e+08,-8.83275e+08,-8.83207e+08,240743,-0.01584,0.177948,-0,0.178651,-4740.29,-32155.7,-0,32503.3,240743
step02_gravity_refstate-crust.xmf,752,2.36462e-06,-1.44334e-06,0,3.84383e-06,-9.06581e+08,-9.06842e+08,-9.06743e+08,263687,-0.0162823,0.181207,-0,0.181937,-4351.71,-33012.3,-0,33297.9,263687
step02_gravity_refstate-crust.xmf,753,2.70224e-06,-1.99846e-06,0,4.18981e-06,-9.28041e+08,-9.28364e+08,-9.28226e+08,287421,-0.0165939,0.184993,-0,0.185736,-3960.53,-33794.1,-0,34025.4,287421
step02_gravity_refstate-crust.xmf,754,4.00708e-06,-3.79158e-06,0,3.94277e-06,-9.4892e+08,-9.49455e+08,-9.49195e+08,270474,-0.013888,0.195033,-0,0.195527,-2736.09,-34556.7,-0,34664.9,270474
step02_gravity_refstate-crust.xmf,755,5.15234e-06,-5.5112e-06,0,3.7627e-06,-9.6951e+08,-9.70241e+08,-9.69863e+08,258122,-0.0117286,0.203087,-0,0.203425,-1967.91,-35308.3,-0,35363.1,258122
step02_gravity_refstate-crust.xmf,756,6.74588e-06,-7.79173e-06,0,2.51842e-06,-9.87526e+08,-9.88524e+08,-9.87989e+08,172763,-0.0068893,0.212255,-0,0.212366,-980.326,-35967.1,-0,35980.5,172763
step02_gravity_refstate-crust.xmf,757,1.31138e-06,1.18268e-07,0,3.37834e-06,-8.57047e+08,-8.57129e+08,-8.57137e+08,231754,-0.016931,0.169709,-0,0.170552,-6173.93,-31207.1,-0,31812,231754
step02_gravity_refstate-crust.xmf,758,-2.78525e-07,2.47883e-06,0,2.74217e-06,-8.23132e+08,-8.22943e+08,-8.23113e+08,188113,-0.017693,0.143896,-0,0.14498,-11415.8,-29969.7,-0,32070.3,188113
step02_gravity_refstate-crust.xmf,759,-5.84981e-07,2.97978e-06,0,2.16125e-06,-7.89184e+08,-7.88939e+08,-7.89144e+08,148262,-0.0156217,0.132979,-0,0.133894,-14670.9,-28733.3,-0,32262,148262
step02_gravity_refstate-crust.xmf,760,7.67827e-07,8.8956e-07,0,3.439e-06,-8.5767e+08,-8.57662e+08,-8.57723e+08,235915,-0.0181927,0.163076,-0,0.164087,-7366.75,-31228.8,-0,32085.9,235915
step02_gravity_refstate-crust.xmf,761,3.81749e-07,1.44916e-06,0,3.28492e-06,-8.48331e+08,-8.48258e+08,-8.48358e+08,225345,-0.0184226,0.157477,-0,0.158551,-8442.3,-30888.1,-0,32021.1,225345
step02_gravity_refstate-crust.xmf,762,-1.38407e-08,2.04258e-06,0,3.21081e-06,-8.54865e+08,-8.54724e+08,-8.54864e+08,220262,-0.0188517,0.150885,-0,0.152058,-9558.48,-31125.3,-0,32559.9,220262
step02_gravity_refstate-crust.xmf,763,-5.31957e-07,3.07935e-06,0,3.28561e-07,-6.89603e+08,-6.89356e+08,-6.89567e+08,22539.3,-0.00294312,0.101779,-0,0.101822,-34235,-25108.3,-0,42455.4,22539.3
step02_gravity_refstate-crust.xmf,764,-6.1865e-07,3.08569e-06,0,7.82245e-07,-6.85714e+08,-6.8546e+08,-6.85672e+08,53662,-0.00677724,0.110033,-0,0.110242,-27585.4,-24966.4,-0,37205.9,53662
step02_gravity_refstate-crust.xmf,765,-6.90654e-07,3.18442e-06,0,1.6547e-06,-7.55944e+08,-7.55679e+08,-7.55897e+08,113512,-0.0130473,0.123994,-0,0.124679,-18236,-27523,-0,33016.2,113512
step02_gravity_refstate-crust.xmf,766,-5.17389e-07,3.06848e-06,0,2.13397e-07,-6.8916e+08,-6.88914e+08,-6.89125e+08,14639,-0.00191607,0.100638,-0,0.100657,-36200.5,-25092.2,-0,44046.5,14639
step02_gravity_refstate-crust.xmf,767,5.62905e-06,-5.9451e-06,0,-9.86058e-07,-9.50298e+08,-9.51092e+08,-9.50684e+08,-67643.6,0.00315872,0.204102,0,0.204126,553.761,-34610.1,0,34614.5,67643.6
step02_gravity_refstate-crust.xmf,768,6.38817e-06,-7.01535e-06,0,-1.57441e-07,-9.69019e+08,-9.69939e+08,-9.69457e+08,-10800.5,0.000565782,0.208967,0,0.208968,88.5507,-35293.1,0,35293.2,10800.5
step02_gravity_refstate-crust.xmf,769,7.20005e-06,-8.2671e-06,0,8.91607e-07,-9.88054e+08,-9.89115e+08,-9.88548e+08,61164.2,-0.00233355,0.214105,-0,0.214118,-324.251,-35987.4,-0,35988.9,61164.2
step02_gravity_refstate-crust.xmf,770,1.94232e-06,-6.43529e-07,0,-2.3131e-06,-8.01767e+08,-8.01944e+08,-8.019e+08,-158679,0.0118785,0.176165,0,0.176565,4600.43,-29196,0,29556.2,158679
step02_gravity_refstate-crust.xmf,771,1.37306e-06,1.00026e-07,0,-2.47749e-06,-7.80968e+08,-7.81055e+08,-7.81062e+08,-169956,0.0135603,0.170321,0,0.17086,6104.6,-28437.6,0,29085.5,169956
step02_gravity_refstate-crust.xmf,772,5.9196e-07,1.09663e-06,0,-2.14557e-06,-6.9775e+08,-6.97715e+08,-6.97791e+08,-147186,0.0135341,0.161214,0,0.161781,9143.88,-25406.4,0,27001.8,147186
step02_gravity_refstate-crust.xmf,773,4.56322e-06,-4.41041e-06,0,-2.53443e-06,-9.3237e+08,-9.32986e+08,-9.32683e+08,-173862,0.00892283,0.197265,0,0.197466,1792.59,-33955.5,0,34002.8,173862
step02_gravity_refstate-crust.xmf,774,2.26655e-06,-1.09714e-06,0,-2.38218e-06,-8.24806e+08,-8.25036e+08,-8.24961e+08,-163417,0.011555,0.178982,0,0.179354,4021.23,-30035.3,0,30303.3,163417
step02_gravity_refstate-crust.xmf,775,2.67108e-06,-1.67455e-06,0,-2.4583e-06,-8.51203e+08,-8.51501e+08,-8.51386e+08,-168639,0.0111726,0.182465,0,0.182806,3434.07,-30997.1,0,31186.8,168639
step02_gravity_refstate-crust.xmf,776,3.35435e-06,-2.66077e-06,0,-2.69836e-06,-8.91993e+08,-8.92405e+08,-8.92223e+08,-185108,0.0110159,0.188133,0,0.188455,2793.34,-32483.3,0,32603.2,185108
step02_gravity_refstate-crust.xmf,777,3.90534e-06,-3.47312e-06,0,-2.72944e-06,-9.14254e+08,-9.1476e+08,-9.14522e+08,-187240,0.0103383,0.192548,0,0.192825,2322.6,-33294.8,0,33375.7,187240
step02_gravity_refstate-crust.xmf,778,3.353e-07,1.4662e-06,0,-2.17271e-06,-6.99393e+08,-6.99316e+08,-6.99416e+08,-149048,0.0141941,0.156499,0,0.157141,10469.5,-25465.7,0,27533.9,149048
step02_gravity_refstate-crust.xmf,779,3.62583e-08,1.82831e-06,0,-2.00616e-06,-6.70063e+08,-6.6994e+08,-6.70066e+08,-137623,0.0137964,0.15076,0,0.15139,12648,-24397.3,0,27480.9,137623
step02_gravity_refstate-crust.xmf,780,-1.56893e-07,2.05824e-06,0,-1.79181e-06,-6.37089e+08,-6.36937e+08,-6.37078e+08,-122918,0.0129236,0.145774,0,0.146345,14943.4,-23196.4,0,27593.1,122918
step02_gravity_refstate-crust.xmf,781,-2.90228e-07,2.25886e-06,0,-1.70185e-06,-6.37883e+08,-6.37708e+08,-6.37863e+08,-116747,0.0125961,0.141216,0,0.141776,16437.9,-23225.1,0,28453.6,116747
step02_gravity_refstate-crust.xmf,782,-5.27644e-07,2.38995e-06,0,-8.30759e-07,-5.4647e+08,-5.4627e+08,-5.46433e+08,-56990.1,0.0067586,0.124072,0,0.124256,27482.8,-19896.3,0,33928.8,56990.1
step02_gravity_refstate-crust.xmf,783,-4.63129e-07,2.4529e-06,0,-1.34488e-06,-6.04516e+08,-6.04316e+08,-6.04484e+08,-92259.1,0.0104966,0.132504,0,0.132919,20728.8,-22009.9,0,30234.4,92259.1
step02_gravity_refstate-crust.xmf,784,-4.8658e-07,2.37854e-06,0,-1.12525e-06,-5.65703e+08,-5.65507e+08,-5.6567e+08,-77192.4,0.00892721,0.129891,0,0.130198,23400.4,-20596.7,0,31173.8,77192.4
step02_gravity_refstate-crust.xmf,785,-4.04866e-07,2.44485e-06,0,-1.5875e-06,-6.40499e+08,-6.40304e+08,-6.40472e+08,-108903,0.0120696,0.136354,0,0.136887,18040.9,-23320.2,0,29484,108903
step02_gravity_refstate-crust.xmf,786,-5.40648e-07,2.32527e-06,0,-4.32168e-07,-5.22314e+08,-5.22117e+08,-5.22277e+08,-29646.7,0.0035978,0.118996,0,0.11905,33331.2,-19016.8,0,38374.5,29646.7
step02_gravity_refstate-crust.xmf,787,-5.40048e-07,2.15406e-06,0,-7.83998e-11,-4.82688e+08,-4.82503e+08,-4.82651e+08,-5.37823,8.97346e-20,0.119374,0,0.119374,40000,-17573.9,0,43690.3,5.37823
step02_gravity_refstate-crust.xmf,788,3.14862e-06,-2.6601e-06,0,4.5157e-06,-9.48201e+08,-9.48599e+08,-9.48417e+08,309777,-0.0167403,0.18949,-0,0.190228,-3551.91,-34528.8,-0,34711,309777
step02_gravity_refstate-crust.xmf,789,1.51857e-06,-2.16507e-07,0,3.68846e-06,-8.81967e+08,-8.82086e+08,-8.82071e+08,253028,-0.0174673,0.172547,-0,0.173429,-5676.57,-32114.7,-0,32612.5,253028
step02_gravity_refstate-crust.xmf,790,4.59779e-06,-4.67167e-06,0,3.79479e-06,-9.58928e+08,-9.59564e+08,-9.59244e+08,260323,-0.0125748,0.199321,-0,0.199717,-2279.76,-34922.1,-0,34996.4,260323
step02_gravity_refstate-crust.xmf,791,5.93534e-06,-6.70576e-06,0,3.83854e-06,-9.86746e+08,-9.87613e+08,-9.87153e+08,263324,-0.0110604,0.208784,-0,0.209077,-1644.79,-35937.1,-0,35974.7,263324
step02_gravity_refstate-crust.xmf,792,-4.90306e-07,2.81612e-06,0,2.54252e-06,-8.21197e+08,-8.2097e+08,-8.21164e+08,174417,-0.017169,0.138189,-0,0.139251,-12663.6,-29898.9,-0,32470.2,174417
step02_gravity_refstate-crust.xmf,793,-6.64467e-07,3.13587e-06,0,2.3154e-06,-8.22816e+08,-8.22555e+08,-8.22771e+08,158836,-0.01639,0.131835,-0,0.13285,-14045.6,-29957.6,-0,33086.8,158836
step02_gravity_refstate-crust.xmf,794,-3.10756e-07,2.52247e-06,0,2.95655e-06,-8.49168e+08,-8.48974e+08,-8.49147e+08,202819,-0.0184727,0.144338,-0,0.145516,-10858.7,-30917.5,-0,32768.9,202819
step02_gravity_refstate-crust.xmf,795,-5.58737e-07,3.09699e-06,0,4.65074e-07,-6.90592e+08,-6.90341e+08,-6.90554e+08,31904.1,-0.00414643,0.103608,-0,0.103691,-32023.3,-25144.2,-0,40715.2,31904.1
step02_gravity_refstate-crust.xmf,796,-5.96506e-07,3.14767e-06,0,6.1111e-07,-6.98761e+08,-6.98504e+08,-6.9872e+08,41922.2,-0.00541051,0.10532,-0,0.105459,-29772.2,-25441.6,-0,39162,41922.2
step02_gravity_refstate-crust.xmf,797,-6.98518e-07,3.21054e-06,0,1.33949e-06,-7.32002e+08,-7.31734e+08,-7.31954e+08,91889.1,-0.0110148,0.118516,-0,0.119026,-21075.6,-26651.4,-0,33977.6,91889.1
step02_gravity_refstate-crust.xmf,798,-6.54908e-07,3.30092e-06,0,8.2153e-07,-7.28913e+08,-7.28642e+08,-7.28868e+08,56356.9,-0.00723669,0.106675,-0,0.10692,-26610,-26539.3,-0,37582.2,56356.9
step02_gravity_refstate-crust.xmf,799,-6.8354e-07,3.29743e-06,0,9.78923e-07,-7.3027e+08,-7.29997e+08,-7.30223e+08,67154.1,-0.00847031,0.110078,-0,0.110404,-24749.7,-26588.5,-0,36324.9,67154.1
step02_gravity_refstate-crust.xmf,800,-6.99809e-07,3.27049e-06,0,1.14788e-06,-7.31112e+08,-7.30839e+08,-7.31064e+08,78744.4,-0.00971484,0.113961,-0,0.114375,-22940.9,-26619.1,-0,35140.6,78744.4
step02_gravity_refstate-crust.xmf,801,-6.86363e-07,3.1863e-06,0,1.94913e-06,-7.8756e+08,-7.87294e+08,-7.87513e+08,133711,-0.0146844,0.127601,-0,0.128443,-16118.3,-28674.1,-0,32893.8,133711
step02_gravity_refstate-crust.xmf,802,-7.51525e-07,3.34029e-06,0,1.73643e-06,-7.85973e+08,-7.85692e+08,-7.85921e+08,119119,-0.013598,0.122476,-0,0.123229,-17614.7,-28616.2,-0,33603.1,119119
step02_gravity_refstate-crust.xmf,803,-7.70351e-07,3.41131e-06,0,1.53877e-06,-7.79577e+08,-7.79291e+08,-7.79525e+08,105560,-0.0124471,0.118382,-0,0.119034,-19119.2,-28383.5,-0,34222.3,105560
step02_gravity_refstate-crust.xmf,804,-4.95083e-07,3.0914e-06,0,1.24985e-09,-6.96956e+08,-6.9671e+08,-6.96922e+08,85.7394,-2.06519e-19,0.0988547,-0,0.0988547,-40000,-25376.2,-0,47370.4,85.7394
step02_gravity_refstate-crust.xmf,805,-4.97357e-07,3.27875e-06,0,2.38636e-07,-7.39319e+08,-7.3906e+08,-7.39285e+08,16370.5,-0.0022046,0.0952898,-0,0.0953153,-35353.2,-26918.7,-0,44434.9,16370.5
step02_gravity_refstate-crust.xmf,806,-4.79051e-07,3.24157e-06,0,1.14434e-07,-7.3335e+08,-7.33095e+08,-7.33317e+08,7850.16,-0.00104337,0.0949648,-0,0.0949705,-37788.5,-26701.4,-0,46270.3,7850.16
step02_gravity_refstate-crust.xmf,807,5.26233e-06,-5.45415e-06,0,-2.25369e-06,-9.49583e+08,-9.50318e+08,-9.49944e+08,-154603,0.00735953,0.20204,0,0.202174,1325.89,-34583.4,0,34608.8,154603
step02_gravity_refstate-crust.xmf,808,7.81331e-06,-9.29645e-06,0,2.27765e-06,-1.00476e+09,-1.00594e+09,-1.0053e+09,156246,-0.00555385,0.218633,-0,0.218703,-695.003,-36596.6,-0,36603.2,156246
step02_gravity_refstate-crust.xmf,809,1.5802e-06,-1.80048e-07,0,-2.61813e-06,-8.04332e+08,-8.04453e+08,-8.04441e+08,-179603,0.0137389,0.172357,0,0.172904,5598.22,-29288.6,0,29818.9,179603
step02_gravity_refstate-crust.xmf,810,7.2445e-07,9.6314e-07,0,-2.28463e-06,-7.27053e+08,-7.27037e+08,-7.27103e+08,-156726,0.0140155,0.162572,0,0.163175,8447.99,-26473.5,0,27788.8,156726
step02_gravity_refstate-crust.xmf,811,8.71847e-07,7.63821e-07,0,-2.45151e-06,-7.54651e+08,-7.54658e+08,-7.54711e+08,-168173,0.0144179,0.164305,0,0.164937,7756.98,-27478.5,0,28552.4,168173
step02_gravity_refstate-crust.xmf,812,1.02281e-06,5.67504e-07,0,-2.62613e-06,-7.81208e+08,-7.81239e+08,-7.81278e+08,-180153,0.0148516,0.165997,0,0.16666,7174.31,-28445.7,0,29336.5,180153
step02_gravity_refstate-crust.xmf,813,2.89259e-06,-2.01019e-06,0,-2.77853e-06,-8.75798e+08,-8.76135e+08,-8.75997e+08,-190607,0.0119824,0.184461,0,0.18485,3342.36,-31892.9,0,32067.6,190607
step02_gravity_refstate-crust.xmf,814,8.59714e-08,1.80599e-06,0,-2.16372e-06,-7.01801e+08,-7.01683e+08,-7.01807e+08,-148431,0.0145446,0.151466,0,0.152163,11835.3,-25552.9,0,28160.7,148431
step02_gravity_refstate-crust.xmf,815,-1.51511e-07,2.1067e-06,0,-1.94129e-06,-6.72378e+08,-6.72223e+08,-6.72367e+08,-133172,0.0137653,0.145774,0,0.146423,14098.6,-24481.2,0,28250.7,133172
step02_gravity_refstate-crust.xmf,816,-5.42557e-07,2.4426e-06,0,-6.80154e-07,-5.51681e+08,-5.51476e+08,-5.51644e+08,-46658.6,0.00561001,0.120464,0,0.120595,29644,-20086.1,0,35808.1,46658.6
step02_gravity_refstate-crust.xmf,817,-5.1958e-07,2.55491e-06,0,-1.21359e-06,-6.06546e+08,-6.06335e+08,-6.0651e+08,-83252.3,0.00966322,0.128279,0,0.128643,22450.5,-22083.8,0,31491.6,83252.3
step02_gravity_refstate-crust.xmf,818,-5.44823e-07,2.59466e-06,0,-1.06887e-06,-6.0118e+08,-6.00964e+08,-6.01142e+08,-73324.2,0.00864581,0.124822,0,0.125121,24306.4,-21888.4,0,32709.3,73324.2
step02_gravity_refstate-crust.xmf,819,-5.61092e-07,2.63065e-06,0,-9.12876e-07,-5.98536e+08,-5.98317e+08,-5.98498e+08,-62623.3,0.00750083,0.121197,0,0.121429,26358.1,-21792.1,0,34200.1,62623.3
step02_gravity_refstate-crust.xmf,820,-4.9081e-07,2.58462e-06,0,-1.46282e-06,-6.41839e+08,-6.41628e+08,-6.41806e+08,-100350,0.0113717,0.131885,0,0.132374,19627.4,-23368.8,0,30517.8,100350
step02_gravity_refstate-crust.xmf,821,-5.48114e-07,2.49642e-06,0,-5.32771e-07,-5.60128e+08,-5.59919e+08,-5.60091e+08,-36548.1,0.00444936,0.117157,0,0.117241,31782.7,-20393.7,0,37762.9,36548.1
step02_gravity_refstate-crust.xmf,822,-5.40616e-07,2.32137e-06,0,-1.54187e-07,-5.19875e+08,-5.19679e+08,-5.19838e+08,-10577.2,0.00129319,0.116714,0,0.116721,37602.1,-18928,0,42097.4,10577.2
step02_gravity_refstate-crust.xmf,823,-5.44051e-07,2.47449e-06,0,-2.95363e-07,-5.5389e+08,-5.53683e+08,-5.53853e+08,-20261.9,0.00248635,0.114745,0,0.114772,35386.9,-20166.5,0,40729.9,20261.9
step02_gravity_refstate-crust.xmf,824,1.72693e-06,-5.75524e-07,0,4.04839e-06,-9.05614e+08,-9.05772e+08,-9.05732e+08,277720,-0.0180471,0.17556,-0,0.176485,-5242.25,-32975.9,-0,33390,277720
step02_gravity_refstate-crust.xmf,825,1.97161e-06,-1.00641e-06,0,4.43892e-06,-9.27451e+08,-9.27656e+08,-9.27587e+08,304510,-0.0185586,0.179054,-0,0.180013,-4817.89,-33771.2,-0,34113.2,304510
step02_gravity_refstate-crust.xmf,826,2.28151e-06,-1.54715e-06,0,4.84752e-06,-9.47354e+08,-9.47617e+08,-9.4751e+08,332540,-0.0189252,0.183198,-0,0.184173,-4382.23,-34496.2,-0,34773.4,332540
step02_gravity_refstate-crust.xmf,827,4.41112e-06,-4.57905e-06,0,4.54145e-06,-9.70299e+08,-9.70916e+08,-9.70602e+08,311544,-0.0146418,0.199378,-0,0.199915,-2566.94,-35335.5,-0,35428.6,311544
step02_gravity_refstate-crust.xmf,828,3.57364e-06,-3.37321e-06,0,4.94465e-06,-9.67214e+08,-9.6769e+08,-9.67459e+08,339203,-0.0170204,0.194036,-0,0.194781,-3222.87,-35221.6,-0,35368.8,339203
step02_gravity_refstate-crust.xmf,829,4.96589e-06,-5.48343e-06,0,4.85314e-06,-9.85353e+08,-9.8607e+08,-9.85694e+08,332925,-0.0145545,0.204006,-0,0.204524,-2304.9,-35884.4,-0,35958.3,332925
step02_gravity_refstate-crust.xmf,830,6.89699e-06,-8.2774e-06,0,3.99985e-06,-1.00349e+09,-1.00453e+09,-1.00396e+09,274389,-0.0103017,0.215077,-0,0.215324,-1350.26,-36548.1,-0,36573,274389
step02_gravity_refstate-crust.xmf,831,1.00946e-06,4.89408e-07,0,3.7556e-06,-8.8238e+08,-8.82416e+08,-8.8245e+08,257634,-0.0186413,0.167029,-0,0.168066,-6587.74,-32128.8,-0,32797.2,257634
step02_gravity_refstate-crust.xmf,832,-5.31826e-07,2.8939e-06,0,2.72373e-06,-8.47169e+08,-8.46934e+08,-8.47133e+08,186848,-0.0179133,0.138331,-0,0.139486,-12070.6,-30844.4,-0,33122.1,186848
step02_gravity_refstate-crust.xmf,833,-7.87889e-07,3.39307e-06,0,2.07731e-06,-8.25241e+08,-8.24954e+08,-8.25187e+08,142504,-0.0153878,0.125686,-0,0.126625,-15446.5,-30045.8,-0,33783.8,142504
step02_gravity_refstate-crust.xmf,834,2.033e-07,1.69885e-06,0,3.53792e-06,-8.76986e+08,-8.76883e+08,-8.77e+08,242701,-0.019512,0.155585,-0,0.156804,-8485.84,-31931,-0,33039.3,242701
step02_gravity_refstate-crust.xmf,835,-3.98532e-07,2.64083e-06,0,3.1739e-06,-8.76573e+08,-8.76364e+08,-8.76545e+08,217730,-0.0192543,0.143988,-0,0.14527,-10453.4,-31915,-0,33583.3,217730
step02_gravity_refstate-crust.xmf,836,-5.22157e-07,3.31436e-06,0,3.53726e-07,-7.43304e+08,-7.4304e+08,-7.43268e+08,24265.6,-0.0032636,0.0963205,-0,0.0963758,-33231.1,-27063.7,-0,42857.4,24265.6
step02_gravity_refstate-crust.xmf,837,-6.25442e-07,3.30532e-06,0,6.90457e-07,-7.30472e+08,-7.30202e+08,-7.30429e+08,47365.4,-0.00617058,0.103741,-0,0.103924,-28271.7,-26596.1,-0,38815.5,47365.4
step02_gravity_refstate-crust.xmf,838,-7.74549e-07,3.4732e-06,0,1.34817e-06,-7.76665e+08,-7.76374e+08,-7.76612e+08,92484.3,-0.0112398,0.114132,-0,0.114684,-20690.2,-28277.5,-0,35038.6,92484.3
step02_gravity_refstate-crust.xmf,839,6.07799e-06,-6.63061e-06,0,-1.93016e-06,-9.68671e+08,-9.69543e+08,-9.69088e+08,-132409,0.0058521,0.207488,0,0.207571,932.64,-35279.8,0,35292.1,132409
step02_gravity_refstate-crust.xmf,840,7.35096e-06,-8.55579e-06,0,-8.42372e-07,-9.91053e+08,-9.92145e+08,-9.91558e+08,-57786.7,0.00221882,0.215056,0,0.215067,302.231,-36096.8,0,36098.1,57786.7
step02_gravity_refstate-crust.xmf,841,8.24237e-06,-9.90035e-06,0,1.69547e-07,-1.00613e+09,-1.00737e+09,-1.0067e+09,11630.9,-0.000359236,0.220314,-0,0.220315,-43.9002,-36647.2,-0,36647.2,11630.9
step02_gravity_refstate-crust.xmf,842,1.84216e-06,-5.28858e-07,0,-2.72973e-06,-8.26496e+08,-8.26659e+08,-8.26622e+08,-187259,0.0137305,0.17494,0,0.175478,5046.95,-30096.1,0,30516.3,187259
step02_gravity_refstate-crust.xmf,843,1.19549e-06,3.30935e-07,0,-2.80645e-06,-8.05742e+08,-8.05801e+08,-8.05824e+08,-192522,0.0152135,0.167976,0,0.168664,6618.87,-29339.2,0,30076.5,192522
step02_gravity_refstate-crust.xmf,844,4.22931e-07,1.36239e-06,0,-2.34975e-06,-7.29635e+08,-7.2957e+08,-7.29664e+08,-161193,0.0148261,0.157691,0,0.158386,9720.75,-26566.9,0,28289.5,161193
step02_gravity_refstate-crust.xmf,845,4.72723e-06,-4.75775e-06,0,-3.13802e-06,-9.48699e+08,-9.4935e+08,-9.49024e+08,-215268,0.0105663,0.199181,0,0.199461,1977.17,-34550.1,0,34606.6,215268
step02_gravity_refstate-crust.xmf,846,3.95117e-06,-3.69671e-06,0,-3.52039e-06,-9.36345e+08,-9.36869e+08,-9.36616e+08,-241499,0.0126581,0.193996,0,0.194409,2620.08,-34098.8,0,34199.3,241499
step02_gravity_refstate-crust.xmf,847,2.1556e-06,-9.9795e-07,0,-2.88576e-06,-8.49654e+08,-8.4987e+08,-8.49801e+08,-197963,0.0136554,0.178004,0,0.178527,4491.02,-30939.7,0,31263.9,197963
step02_gravity_refstate-crust.xmf,848,2.45502e-06,-1.44525e-06,0,-3.1052e-06,-8.73486e+08,-8.73754e+08,-8.73655e+08,-213017,0.0138556,0.180932,0,0.181462,4084.37,-31807.8,0,32069,213017
step02_gravity_refstate-crust.xmf,849,2.82269e-06,-1.99342e-06,0,-3.29135e-06,-8.94715e+08,-8.95045e+08,-8.94909e+08,-225787,0.0138127,0.184359,0,0.184876,3656.25,-32581.3,0,32785.8,225787
step02_gravity_refstate-crust.xmf,850,3.31909e-06,-2.73338e-06,0,-3.4151e-06,-9.14897e+08,-9.15312e+08,-9.15125e+08,-234276,0.0133549,0.188698,0,0.18917,3149.16,-33316.9,0,33465.4,234276
step02_gravity_refstate-crust.xmf,851,1.56588e-07,1.7592e-06,0,-2.32601e-06,-7.31716e+08,-7.31606e+08,-7.31726e+08,-159564,0.0152656,0.152493,0,0.153255,11038.4,-26642.2,0,28838.4,159564
step02_gravity_refstate-crust.xmf,852,-1.28656e-07,2.12568e-06,0,-2.09807e-06,-7.04718e+08,-7.04564e+08,-7.0471e+08,-143927,0.0145863,0.146225,0,0.146951,13238.7,-25658.8,0,28872.8,143927
step02_gravity_refstate-crust.xmf,853,-3.02174e-07,2.35283e-06,0,-1.83668e-06,-6.74457e+08,-6.74275e+08,-6.74437e+08,-125996,0.013463,0.140759,0,0.141401,15588.4,-24556.7,0,29086.6,125996
step02_gravity_refstate-crust.xmf,854,-4.22849e-07,2.54985e-06,0,-1.71395e-06,-6.7571e+08,-6.75506e+08,-6.75681e+08,-117577,0.0129312,0.135953,0,0.136566,17087.7,-24602.1,0,29954.2,117577
step02_gravity_refstate-crust.xmf,855,-5.68018e-07,2.67335e-06,0,-7.58599e-07,-6.01375e+08,-6.01153e+08,-6.01336e+08,-52039.9,0.00632909,0.117535,0,0.117705,28439.7,-21895.5,0,35891.9,52039.9
step02_gravity_refstate-crust.xmf,856,-5.6265e-07,2.74698e-06,0,-1.31612e-06,-6.51073e+08,-6.50846e+08,-6.51034e+08,-90285.7,0.0105139,0.126468,0,0.126904,21393.8,-23704.9,0,31931.5,90285.7
step02_gravity_refstate-crust.xmf,857,-5.11478e-07,2.7054e-06,0,-1.57709e-06,-6.76426e+08,-6.76205e+08,-6.76391e+08,-108189,0.0122244,0.131378,0,0.131946,18605.5,-24628.1,0,30865.9,108189
step02_gravity_refstate-crust.xmf,858,-5.48051e-07,2.55946e-06,0,-4.05938e-07,-5.72786e+08,-5.72573e+08,-5.72748e+08,-27847.4,0.00342929,0.114245,0,0.114296,33645.5,-20854.6,0,39584.5,27847.4
step02_gravity_refstate-crust.xmf,859,-5.3775e-07,2.48278e-06,0,-4.82563e-10,-5.55632e+08,-5.55425e+08,-5.55595e+08,-33.1038,9.39188e-20,0.113216,0,0.113216,40000,-20230,0,44824.7,33.1038
step02_gravity_refstate-crust.xmf,860,2.659e-06,-2.13549e-06,0,5.26452e-06,-9.65999e+08,-9.66328e+08,-9.66182e+08,361146,-0.0192509,0.187746,-0,0.18873,-3974.68,-35175.6,-0,35399.5,361146
step02_gravity_refstate-crust.xmf,861,1.13462e-06,2.51879e-07,0,4.10524e-06,-9.04877e+08,-9.04938e+08,-9.04955e+08,281620,-0.0193094,0.169507,-0,0.170603,-6153.6,-32947.9,-0,33517.7,281620
step02_gravity_refstate-crust.xmf,862,5.76462e-06,-6.69162e-06,0,5.1808e-06,-1.0023e+09,-1.00316e+09,-1.0027e+09,355403,-0.0143046,0.210119,-0,0.210605,-1998.57,-36502.8,-0,36557.4,355403
step02_gravity_refstate-crust.xmf,863,8.05858e-06,-1.0011e-05,0,3.98349e-06,-1.01977e+09,-1.02101e+09,-1.02032e+09,273268,-0.00936523,0.222152,-0,0.22235,-1072.89,-37142.7,-0,37158.2,273268
step02_gravity_refstate-crust.xmf,864,9.10838e-06,-1.12632e-05,0,1.77807e-06,-1.02141e+09,-1.02281e+09,-1.02204e+09,121976,-0.00380395,0.225736,-0,0.225768,-415.762,-37205,-0,37207.3,121976
step02_gravity_refstate-crust.xmf,865,5.59029e-07,1.16052e-06,0,3.7402e-06,-8.84988e+08,-8.84947e+08,-8.85027e+08,256578,-0.0194743,0.161224,-0,0.162396,-7505.65,-32222.9,-0,33085.5,256578
step02_gravity_refstate-crust.xmf,866,-6.77781e-07,3.15377e-06,0,2.51451e-06,-8.45645e+08,-8.45382e+08,-8.45598e+08,172495,-0.0172469,0.133342,-0,0.134453,-13133.8,-30788.7,-0,33473,172495
step02_gravity_refstate-crust.xmf,867,-8.02854e-07,3.42121e-06,0,2.21062e-06,-8.41448e+08,-8.41158e+08,-8.41393e+08,151648,-0.0160539,0.126816,-0,0.127828,-14692.3,-30635.8,-0,33976.7,151648
step02_gravity_refstate-crust.xmf,868,-6.11064e-07,3.01153e-06,0,2.90995e-06,-8.73492e+08,-8.73243e+08,-8.7345e+08,199622,-0.0186186,0.138038,-0,0.139288,-11581.8,-31802.5,-0,33845.8,199622
step02_gravity_refstate-crust.xmf,869,-1.85522e-07,2.2878e-06,0,3.40414e-06,-8.82574e+08,-8.82404e+08,-8.82561e+08,233524,-0.0196912,0.148967,-0,0.150263,-9512.52,-32133.8,-0,33512.2,233524
step02_gravity_refstate-crust.xmf,870,-4.62303e-07,3.51993e-06,0,2.497e-07,-7.97832e+08,-7.97559e+08,-7.97801e+08,17129.5,-0.00239497,0.0886845,-0,0.0887169,-34341.9,-29049.5,-0,44980.4,17129.5
step02_gravity_refstate-crust.xmf,871,-5.58416e-07,3.31692e-06,0,4.69027e-07,-7.39052e+08,-7.38787e+08,-7.39014e+08,32175.2,-0.00429574,0.0986471,-0,0.0987406,-31363.7,-26908.8,-0,41325.1,32175.2
step02_gravity_refstate-crust.xmf,872,-5.88939e-07,3.46323e-06,0,5.45551e-07,-7.67588e+08,-7.6731e+08,-7.67548e+08,37424.8,-0.00502058,0.0970654,-0,0.0971952,-29750.5,-27947.8,-0,40818.8,37424.8
step02_gravity_refstate-crust.xmf,873,-6.43144e-07,3.51309e-06,0,6.85966e-07,-7.73065e+08,-7.7278e+08,-7.73021e+08,47057.3,-0.00625251,0.0994167,-0,0.0996131,-27659.8,-28147,-0,39462.9,47057.3
step02_gravity_refstate-crust.xmf,874,-7.61731e-07,3.50714e-06,0,1.17747e-06,-7.74347e+08,-7.74054e+08,-7.74295e+08,80774.7,-0.0100678,0.110347,-0,0.110805,-22233,-28193.2,-0,35904.9,80774.7
step02_gravity_refstate-crust.xmf,875,-6.92728e-07,3.53626e-06,0,8.34745e-07,-7.74791e+08,-7.74501e+08,-7.74743e+08,57263.5,-0.0074828,0.102488,-0,0.102761,-25783.3,-28209.7,-0,38217.4,57263.5
step02_gravity_refstate-crust.xmf,876,-7.34198e-07,3.53456e-06,0,9.99439e-07,-7.74786e+08,-7.74493e+08,-7.74735e+08,68561.5,-0.00876889,0.106202,-0,0.106564,-23971.8,-28209.3,-0,37019.1,68561.5
step02_gravity_refstate-crust.xmf,877,-8.39236e-07,3.5421e-06,0,1.82434e-06,-8.20808e+08,-8.20507e+08,-8.2075e+08,125150,-0.0141443,0.120403,-0,0.121231,-16966.8,-29884.4,-0,34364.9,125150
step02_gravity_refstate-crust.xmf,878,-8.50071e-07,3.69804e-06,0,1.39252e-06,-8.14967e+08,-8.14655e+08,-8.14909e+08,95527.1,-0.0116121,0.111197,-0,0.111802,-19975.5,-29672,-0,35769.3,95527.1
step02_gravity_refstate-crust.xmf,879,-8.56378e-07,3.6366e-06,0,1.60014e-06,-8.17376e+08,-8.17068e+08,-8.17317e+08,109770,-0.0128932,0.115664,-0,0.11638,-18454.7,-29759.6,-0,35017.3,109770
step02_gravity_refstate-crust.xmf,880,-4.41701e-07,3.36149e-06,0,1.18682e-09,-7.65738e+08,-7.65477e+08,-7.65708e+08,81.4161,-1.58558e-19,0.0907743,-0,0.0907743,-40000,-27880.9,-0,48758,81.4161
step02_gravity_refstate-crust.xmf,881,-4.45582e-07,3.43379e-06,0,1.65778e-07,-7.81517e+08,-7.81251e+08,-7.81486e+08,11372.4,-0.00157824,0.0896297,-0,0.0896436,-36338.9,-28455.4,-0,46154.4,11372.4
step02_gravity_refstate-crust.xmf,882,5.314e-06,-5.68063e-06,0,-3.1914e-06,-9.64215e+08,-9.64969e+08,-9.64579e+08,-218930,0.00998234,0.20348,0,0.203724,1692.66,-35115.9,0,35156.7,218930
step02_gravity_refstate-crust.xmf,883,6.65435e-06,-7.51449e-06,0,-1.18714e-06,-9.78057e+08,-9.79028e+08,-9.78513e+08,-81437.8,0.00340733,0.210937,0,0.210965,506.728,-35622.4,0,35626,81437.8
step02_gravity_refstate-crust.xmf,884,1.40949e-06,2.71448e-08,0,-2.98458e-06,-8.28471e+08,-8.28566e+08,-8.28568e+08,-204742,0.015442,0.170437,0,0.171136,6047.09,-30167.1,0,30767.2,204742
step02_gravity_refstate-crust.xmf,885,5.37192e-07,1.24549e-06,0,-2.51808e-06,-7.57888e+08,-7.5784e+08,-7.57925e+08,-172740,0.0154166,0.159114,0,0.159859,9020.52,-27595.8,0,29032.7,172740
step02_gravity_refstate-crust.xmf,886,6.55895e-07,1.0709e-06,0,-2.72673e-06,-7.84941e+08,-7.84912e+08,-7.84986e+08,-187054,0.0159683,0.160879,0,0.161669,8336.13,-28580.9,0,29771.8,187054
step02_gravity_refstate-crust.xmf,887,8.0249e-07,8.7131e-07,0,-2.91606e-06,-8.08575e+08,-8.0857e+08,-8.0863e+08,-200041,0.0164061,0.162958,0,0.163781,7695.84,-29441.6,0,30430.8,200041
step02_gravity_refstate-crust.xmf,888,-9.11796e-08,2.10943e-06,0,-2.26942e-06,-7.34646e+08,-7.34495e+08,-7.3464e+08,-155682,0.0153821,0.147134,0,0.147936,12369.2,-26748.4,0,29469.9,155682
step02_gravity_refstate-crust.xmf,889,-3.0924e-07,2.40987e-06,0,-1.99162e-06,-7.07735e+08,-7.07548e+08,-7.07713e+08,-136625,0.0143306,0.140869,0,0.141596,14688.7,-25768.3,0,29660.8,136625
step02_gravity_refstate-crust.xmf,890,-5.65463e-07,2.71387e-06,0,-6.05117e-07,-6.07061e+08,-6.06836e+08,-6.07022e+08,-41511,0.00511942,0.114078,0,0.114193,30576.6,-22102.6,0,37728.7,41511
step02_gravity_refstate-crust.xmf,891,-5.87232e-07,2.79877e-06,0,-1.14889e-06,-6.4522e+08,-6.44988e+08,-6.4518e+08,-78813.9,0.00937651,0.122571,0,0.12293,23322.6,-23491.8,0,33103,78813.9
step02_gravity_refstate-crust.xmf,892,-6.00925e-07,2.90453e-06,0,-8.3031e-07,-6.50038e+08,-6.49798e+08,-6.49997e+08,-56959.2,0.00703861,0.114491,0,0.114707,27241.4,-23667.4,0,36086.5,56959.2
step02_gravity_refstate-crust.xmf,893,-6.01243e-07,2.86094e-06,0,-9.90708e-07,-6.47252e+08,-6.47015e+08,-6.47211e+08,-67962.6,0.0082507,0.118427,0,0.118714,25224.2,-23565.9,0,34519.7,67962.6
step02_gravity_refstate-crust.xmf,894,-5.68708e-07,2.81354e-06,0,-1.44856e-06,-6.76778e+08,-6.76546e+08,-6.76739e+08,-99371.2,0.0114824,0.127505,0,0.128021,19981.2,-24640.8,0,31724.1,99371.2
step02_gravity_refstate-crust.xmf,895,-5.56464e-07,2.74868e-06,0,-4.58372e-07,-6.13989e+08,-6.13762e+08,-6.13951e+08,-31444.4,0.0039247,0.111094,0,0.111163,32702.4,-22354.9,0,39613,31444.4
step02_gravity_refstate-crust.xmf,896,-5.37175e-07,2.69134e-06,0,-1.5806e-07,-6.02413e+08,-6.02192e+08,-6.02377e+08,-10842.9,0.00135126,0.109226,0,0.109234,37460.1,-21933.5,0,43408.9,10842.9
step02_gravity_refstate-crust.xmf,897,-5.45491e-07,2.74614e-06,0,-3.1881e-07,-6.14008e+08,-6.13782e+08,-6.13971e+08,-21870.4,0.00274625,0.109369,0,0.109404,34851.1,-22355.6,0,41405,21870.4
step02_gravity_refstate-crust.xmf,898,1.28456e-06,-4.64928e-08,0,4.50913e-06,-9.27095e+08,-9.27187e+08,-9.27184e+08,309326,-0.0199839,0.172558,-0,0.173711,-5707.7,-33757,-0,34236.1,309326
step02_gravity_refstate-crust.xmf,899,1.75734e-06,-9.50353e-07,0,5.42073e-06,-9.66145e+08,-9.6633e+08,-9.66265e+08,371862,-0.0209992,0.180844,-0,0.182059,-4765.85,-35179.1,-0,35500.5,371862
step02_gravity_refstate-crust.xmf,900,1.48536e-06,-4.41472e-07,0,4.96157e-06,-9.47963e+08,-9.48095e+08,-9.48065e+08,340364,-0.0205832,0.176338,-0,0.177535,-5242.67,-34516.9,-0,34912.7,340364
step02_gravity_refstate-crust.xmf,901,3.98272e-06,-4.17779e-06,0,5.47514e-06,-9.8456e+08,-9.85119e+08,-9.84833e+08,375595,-0.0173543,0.198671,-0,0.199427,-2946.1,-35853.5,-0,35974.4,375595
step02_gravity_refstate-crust.xmf,902,3.02873e-06,-2.7962e-06,0,5.77446e-06,-9.83497e+08,-9.83896e+08,-9.83704e+08,396128,-0.0196175,0.192464,-0,0.193461,-3620.47,-35813.1,-0,35995.6,396128
step02_gravity_refstate-crust.xmf,903,4.52954e-06,-5.13691e-06,0,6.00561e-06,-1.00094e+09,-1.00161e+09,-1.00126e+09,411985,-0.017518,0.204088,-0,0.204838,-2648.77,-36450.8,-0,36546.9,411985
step02_gravity_refstate-crust.xmf,904,6.66561e-06,-8.29598e-06,0,5.69434e-06,-1.01843e+09,-1.01946e+09,-1.01889e+09,390632,-0.0140002,0.216837,-0,0.217289,-1717.48,-37091.2,-0,37130.9,390632
step02_gravity_refstate-crust.xmf,905,9.51862e-06,-1.24763e-05,0,4.08396e-06,-1.03564e+09,-1.03714e+09,-1.03629e+09,280159,-0.00827132,0.230131,-0,0.23028,-819.342,-37722.5,-0,37731.4,280159
step02_gravity_refstate-crust.xmf,906,6.08216e-07,1.01191e-06,0,4.05082e-06,-9.04898e+08,-9.0487e+08,-9.0494e+08,277886,-0.020116,0.163221,-0,0.164456,-7079.65,-32947.7,-0,33699.8,277886
step02_gravity_refstate-crust.xmf,907,-7.61075e-07,3.29683e-06,0,2.64113e-06,-8.69748e+08,-8.69469e+08,-8.69696e+08,181181,-0.0177732,0.132432,-0,0.13362,-12740.3,-31666.1,-0,34132.9,181181
step02_gravity_refstate-crust.xmf,908,-8.32474e-07,3.46077e-06,0,2.36868e-06,-8.59447e+08,-8.59153e+08,-8.5939e+08,162492,-0.0167225,0.127777,-0,0.128867,-13970.2,-31291,-0,34268,162492
step02_gravity_refstate-crust.xmf,909,-9.27881e-07,3.69334e-06,0,2.11727e-06,-8.63114e+08,-8.62797e+08,-8.63051e+08,145245,-0.0156426,0.121835,-0,0.122836,-15198.5,-31424.5,-0,34906.9,145245
step02_gravity_refstate-crust.xmf,910,1.77464e-07,1.68924e-06,0,3.88148e-06,-9.03901e+08,-9.03798e+08,-9.03914e+08,266270,-0.0204393,0.156815,-0,0.158141,-8033.23,-32910.8,-0,33877,266270
step02_gravity_refstate-crust.xmf,911,-1.86968e-07,2.25802e-06,0,3.65837e-06,-9.02318e+08,-9.0215e+08,-9.02305e+08,250964,-0.0203672,0.150447,-0,0.15182,-9014.38,-32852.5,-0,34066.8,250964
step02_gravity_refstate-crust.xmf,912,-4.94547e-07,2.76315e-06,0,3.39897e-06,-9.02125e+08,-9.01902e+08,-9.02091e+08,233169,-0.0199963,0.143879,-0,0.145262,-10050.5,-32845,-0,34348.4,233169
step02_gravity_refstate-crust.xmf,913,-7.14393e-07,3.15674e-06,0,3.10909e-06,-9.00133e+08,-8.99868e+08,-9.00084e+08,213284,-0.0193108,0.13768,-0,0.139028,-11113.8,-32772.2,-0,34605.4,213284
step02_gravity_refstate-crust.xmf,914,-5.1155e-07,3.54307e-06,0,3.73268e-07,-7.95016e+08,-7.94738e+08,-7.94981e+08,25606.2,-0.00353129,0.0909511,-0,0.0910196,-32041.2,-28946.8,-0,43180.5,25606.2
step02_gravity_refstate-crust.xmf,915,-8.2527e-07,3.73748e-06,0,1.19831e-06,-8.14346e+08,-8.14033e+08,-8.14289e+08,82203.8,-0.0103076,0.10686,-0,0.107356,-21541.9,-29649.5,-0,36649,82203.8
step02_gravity_refstate-crust.xmf,916,-9.49057e-07,3.78884e-06,0,1.89013e-06,-8.57678e+08,-8.57353e+08,-8.57613e+08,129663,-0.0145121,0.117538,-0,0.118431,-16425.9,-31226.7,-0,35283.3,129663
step02_gravity_refstate-crust.xmf,917,-4.07143e-07,3.49879e-06,0,8.38478e-08,-8.02136e+08,-8.01868e+08,-8.02108e+08,5751.96,-0.000787612,0.0864589,-0,0.0864624,-38039.7,-29206.3,-0,47958.6,5751.96
step02_gravity_refstate-crust.xmf,918,5.98086e-06,-6.68035e-06,0,-3.15061e-06,-9.79183e+08,-9.80051e+08,-9.79593e+08,-216132,0.00922853,0.208185,0,0.20839,1413.44,-35662,0,35690,216132
step02_gravity_refstate-crust.xmf,919,6.88627e-06,-7.94371e-06,0,-2.49445e-06,-9.8966e+08,-9.90678e+08,-9.90133e+08,-171119,0.00679421,0.212969,0,0.213077,952.308,-36045.1,0,36057.7,171119
step02_gravity_refstate-crust.xmf,920,1.09266e-05,-1.4287e-05,0,7.43576e-07,-1.03969e+09,-1.04142e+09,-1.04044e+09,51009.3,-0.00130065,0.234732,-0,0.234736,-120.406,-37873.1,-0,37873.3,51009.3
step02_gravity_refstate-crust.xmf,921,1.13211e-05,-1.53821e-05,0,4.10421e-06,-1.05101e+09,-1.05284e+09,-1.05179e+09,281549,-0.00711588,0.239134,-0,0.23924,-602.103,-38285,-0,38289.8,281549
step02_gravity_refstate-crust.xmf,922,8.0365e-06,-9.7221e-06,0,-2.02615e-06,-1.00728e+09,-1.00849e+09,-1.00783e+09,-138994,0.00494259,0.219795,0,0.21985,605.075,-36688.3,0,36693.3,138994
step02_gravity_refstate-crust.xmf,923,9.35217e-06,-1.1721e-05,0,-1.08768e-06,-1.02296e+09,-1.02441e+09,-1.0236e+09,-74614.8,0.00236965,0.22673,0,0.226742,254.617,-37261.6,0,37262.5,74614.8
step02_gravity_refstate-crust.xmf,924,4.42867e-06,-4.46736e-06,0,-4.06377e-06,-9.60129e+08,-9.60739e+08,-9.60433e+08,-278775,0.0134946,0.198381,0,0.19884,2467.16,-34965.5,0,35052.4,278775
step02_gravity_refstate-crust.xmf,925,5.23406e-06,-5.74053e-06,0,-4.22185e-06,-9.79027e+08,-9.7978e+08,-9.79386e+08,-289619,0.0127348,0.204582,0,0.204978,2039.66,-35654.8,0,35713,289619
step02_gravity_refstate-crust.xmf,926,1.66758e-06,-3.23886e-07,0,-3.1631e-06,-8.50954e+08,-8.5109e+08,-8.51068e+08,-216988,0.0156217,0.173263,0,0.173966,5490.16,-30986.1,0,31468.7,216988
step02_gravity_refstate-crust.xmf,927,9.78927e-07,6.16508e-07,0,-3.11357e-06,-8.30618e+08,-8.30642e+08,-8.30685e+08,-213591,0.0167631,0.165377,0,0.166225,7075.17,-30244.4,0,31060.9,213591
step02_gravity_refstate-crust.xmf,928,2.18092e-07,1.67947e-06,0,-2.52683e-06,-7.61057e+08,-7.60957e+08,-7.61072e+08,-173340,0.0159918,0.153692,0,0.154521,10283.7,-27710.5,0,29557.2,173340
step02_gravity_refstate-crust.xmf,929,3.10318e-06,-2.57373e-06,0,-4.177e-06,-9.35399e+08,-9.35788e+08,-9.35612e+08,-286542,0.0158541,0.188345,0,0.189011,3542.26,-34062.7,0,34246.4,286542
step02_gravity_refstate-crust.xmf,930,1.92864e-06,-7.50008e-07,0,-3.41742e-06,-8.73677e+08,-8.73861e+08,-8.73809e+08,-234435,0.0158548,0.176283,0,0.176995,4992.4,-31813.7,0,32203.1,234435
step02_gravity_refstate-crust.xmf,931,2.23871e-06,-1.23158e-06,0,-3.68185e-06,-8.95845e+08,-8.96083e+08,-8.95998e+08,-252575,0.0160571,0.179703,0,0.180419,4519.19,-32621.3,0,32932.8,252575
step02_gravity_refstate-crust.xmf,932,2.62258e-06,-1.83121e-06,0,-3.94291e-06,-9.16428e+08,-9.16733e+08,-9.16608e+08,-270484,0.0160803,0.183709,0,0.184412,4036.99,-33371.2,0,33614.5,270484
step02_gravity_refstate-crust.xmf,933,-4.14382e-08,2.08309e-06,0,-2.45083e-06,-7.63764e+08,-7.63618e+08,-7.63761e+08,-168127,0.0161763,0.148187,0,0.149067,11552.1,-27808.6,0,30112.7,168127
step02_gravity_refstate-crust.xmf,934,-2.97193e-07,2.43298e-06,0,-2.16114e-06,-7.38387e+08,-7.382e+08,-7.38367e+08,-148254,0.0151985,0.141573,0,0.142387,13744.9,-26884.3,0,30194.1,148254
step02_gravity_refstate-crust.xmf,935,-4.42204e-07,2.64495e-06,0,-1.85319e-06,-7.09916e+08,-7.09704e+08,-7.09885e+08,-127129,0.0138148,0.13572,0,0.136422,16145.1,-25847.5,0,30475.5,127129
step02_gravity_refstate-crust.xmf,936,-5.45025e-07,2.83082e-06,0,-1.6995e-06,-7.11112e+08,-7.10881e+08,-7.11075e+08,-116585,0.0130747,0.130724,0,0.131376,17658,-25890.9,0,31339.2,116585
step02_gravity_refstate-crust.xmf,937,-5.88881e-07,2.93986e-06,0,-6.70854e-07,-6.5495e+08,-6.54707e+08,-6.54909e+08,-46020.6,0.00578009,0.110749,0,0.110899,29349.6,-23846.3,0,37815.9,46020.6
step02_gravity_refstate-crust.xmf,938,-6.1966e-07,2.93287e-06,0,-1.21862e-06,-6.74949e+08,-6.74705e+08,-6.74906e+08,-83597.5,0.00997706,0.121365,0,0.121774,22488.6,-24574.2,0,33311.1,83597.5
step02_gravity_refstate-crust.xmf,939,-6.10904e-07,2.96239e-06,0,-1.53259e-06,-7.09779e+08,-7.09534e+08,-7.09737e+08,-105136,0.0121416,0.126098,0,0.126681,19243.1,-25842.3,0,32219.9,105136
step02_gravity_refstate-crust.xmf,940,-6.3942e-07,3.02576e-06,0,-1.35347e-06,-7.02215e+08,-7.01963e+08,-7.02171e+08,-92847.8,0.0110039,0.122105,0,0.122599,20995.9,-25566.9,0,33083.2,92847.8
step02_gravity_refstate-crust.xmf,941,-5.27042e-07,2.798e-06,0,-6.3663e-10,-6.26988e+08,-6.2676e+08,-6.26952e+08,-43.6728,6.466e-20,0.106357,0,0.106357,40000,-22828.3,0,46055.8,43.6728
step02_gravity_refstate-crust.xmf,942,2.07985e-06,-1.47616e-06,0,5.86897e-06,-9.82252e+08,-9.82496e+08,-9.82395e+08,402611,-0.0213639,0.185387,-0,0.186614,-4352.27,-35766,-0,36029.8,402611
step02_gravity_refstate-crust.xmf,943,6.74612e-07,8.35546e-07,0,4.43306e-06,-9.26885e+08,-9.26874e+08,-9.26931e+08,304108,-0.0208696,0.165717,-0,0.167026,-6624.82,-33748.2,-0,34392.3,304108
step02_gravity_refstate-crust.xmf,944,5.22176e-06,-6.21298e-06,0,6.58685e-06,-1.01719e+09,-1.01798e+09,-1.01755e+09,451858,-0.0176947,0.210255,-0,0.210999,-2363.1,-37043.5,-0,37118.8,451858
step02_gravity_refstate-crust.xmf,945,7.86252e-06,-1.00807e-05,0,6.11211e-06,-1.03428e+09,-1.03551e+09,-1.03482e+09,419291,-0.0135895,0.224569,-0,0.22498,-1446.59,-37670.3,-0,37698.1,419291
step02_gravity_refstate-crust.xmf,946,9.2574e-06,-1.26481e-05,0,6.88307e-06,-1.04939e+09,-1.0509e+09,-1.05003e+09,472179,-0.0130797,0.233242,-0,0.233609,-1196.33,-38222.1,-0,38240.8,472179
step02_gravity_refstate-crust.xmf,947,-8.75797e-07,3.47861e-06,0,2.80467e-06,-8.98075e+08,-8.97776e+08,-8.98015e+08,192400,-0.018385,0.131533,-0,0.132812,-12245.9,-32697.2,-0,34915.1,192400
step02_gravity_refstate-crust.xmf,948,-3.86824e-07,3.62754e-06,0,1.45808e-07,-8.3443e+08,-8.34155e+08,-8.34404e+08,10002.4,-0.00141717,0.0829222,-0,0.0829343,-36122.4,-30382.3,-0,47200.8,10002.4
step02_gravity_refstate-crust.xmf,949,-4.5485e-07,3.64557e-06,0,2.81678e-07,-8.26788e+08,-8.26506e+08,-8.26756e+08,19323.1,-0.0027134,0.0857977,-0,0.0858406,-33152.2,-30103.8,-0,44780.6,19323.1
step02_gravity_refstate-crust.xmf,950,-5.99501e-07,3.69923e-06,0,5.45436e-07,-8.17312e+08,-8.17017e+08,-8.17271e+08,37416.9,-0.00512066,0.0919754,-0,0.0921178,-28732.7,-29758.4,-0,41365.8,37416.9
step02_gravity_refstate-crust.xmf,951,-6.6573e-07,3.74718e-06,0,6.78317e-07,-8.19761e+08,-8.19458e+08,-8.19716e+08,46532.5,-0.0062824,0.0946265,-0,0.0948349,-26830.4,-29847.3,-0,40134,46532.5
step02_gravity_refstate-crust.xmf,952,-7.87268e-07,3.76999e-06,0,1.01178e-06,-8.17143e+08,-8.1683e+08,-8.17089e+08,69407.9,-0.00895837,0.102372,-0,0.102763,-23181.2,-29751.6,-0,37716.4,69407.9
step02_gravity_refstate-crust.xmf,953,-7.32328e-07,3.7772e-06,0,8.33963e-07,-8.20218e+08,-8.19909e+08,-8.20168e+08,57209.9,-0.00757253,0.0980555,-0,0.0983475,-24962.5,-29863.8,-0,38922.6,57209.9
step02_gravity_refstate-crust.xmf,954,-9.5245e-07,3.87615e-06,0,1.65103e-06,-8.54494e+08,-8.54163e+08,-8.54429e+08,113261,-0.0132063,0.112746,-0,0.113517,-17827.3,-31110.9,-0,35856.6,113261
step02_gravity_refstate-crust.xmf,955,-8.93164e-07,3.95784e-06,0,1.22264e-06,-8.50917e+08,-8.50584e+08,-8.50856e+08,83873.1,-0.0104997,0.103785,-0,0.104314,-20799,-30981,-0,37315.1,83873.1
step02_gravity_refstate-crust.xmf,956,-9.32687e-07,3.93115e-06,0,1.42846e-06,-8.52323e+08,-8.51989e+08,-8.52259e+08,97992.6,-0.0118606,0.108149,-0,0.108798,-19283.5,-31032,-0,36535.4,97992.6
step02_gravity_refstate-crust.xmf,957,-3.57693e-07,3.60153e-06,0,1.70133e-09,-8.33531e+08,-8.33259e+08,-8.33506e+08,116.711,-1.28183e-19,0.0821791,-0,0.0821791,-40000,-30349.7,-0,50210.6,116.711
step02_gravity_refstate-crust.xmf,958,1.25195e-05,-1.68885e-05,0,1.10549e-06,-1.05458e+09,-1.0566e+09,-1.05544e+09,75836.7,-0.00188526,0.243074,-0,0.243082,-150.678,-38417.7,-0,38418,75836.7
step02_gravity_refstate-crust.xmf,959,1.32968e-05,-1.84148e-05,0,3.39253e-06,-1.0633e+09,-1.06548e+09,-1.06422e+09,232727,-0.00521823,0.247912,-0,0.247967,-381.471,-38735.9,-0,38737.8,232727
step02_gravity_refstate-crust.xmf,960,6.11956e-06,-7.08997e-06,0,-4.17496e-06,-9.94393e+08,-9.953e+08,-9.94813e+08,-286403,0.0115938,0.210691,0,0.21101,1646.79,-36215.7,0,36253.1,286403
step02_gravity_refstate-crust.xmf,961,1.17999e-06,3.11488e-07,0,-3.33654e-06,-8.52169e+08,-8.52229e+08,-8.5225e+08,-228887,0.0170822,0.168102,0,0.168968,6479.05,-31029.3,0,31698.5,228887
step02_gravity_refstate-crust.xmf,962,3.07647e-07,1.58739e-06,0,-2.72694e-06,-7.89019e+08,-7.88931e+08,-7.8904e+08,-187068,0.0166983,0.155155,0,0.156051,9565.98,-28728.7,0,30279.5,187068
step02_gravity_refstate-crust.xmf,963,4.0129e-07,1.42897e-06,0,-3.00168e-06,-8.18482e+08,-8.18411e+08,-8.18509e+08,-205916,0.0174518,0.157186,0,0.158152,8797.02,-29801.5,0,31072.8,205916
step02_gravity_refstate-crust.xmf,964,6.65702e-07,1.07257e-06,0,-3.12314e-06,-8.30499e+08,-8.30471e+08,-8.30545e+08,-214248,0.0174465,0.161086,0,0.162028,7917.6,-30239.5,0,31258.9,214248
step02_gravity_refstate-crust.xmf,965,3.61742e-06,-3.29192e-06,0,-4.23323e-06,-9.47879e+08,-9.48353e+08,-9.48128e+08,-290400,0.0151812,0.192608,0,0.193206,3094.66,-34518,0,34656.5,290400
step02_gravity_refstate-crust.xmf,966,-2.80378e-07,2.43603e-06,0,-2.34192e-06,-7.66785e+08,-7.66599e+08,-7.66766e+08,-160656,0.016032,0.142502,0,0.143401,12865.5,-27918.2,0,30740,160656
step02_gravity_refstate-crust.xmf,967,-4.65969e-07,2.71966e-06,0,-2.01919e-06,-7.43147e+08,-7.42928e+08,-7.43115e+08,-138516,0.014737,0.135854,0,0.136651,15169.9,-27057.3,0,31019.7,138516
step02_gravity_refstate-crust.xmf,968,-5.68898e-07,2.96885e-06,0,-5.16272e-07,-6.61494e+08,-6.61252e+08,-6.61455e+08,-35416.3,0.00451174,0.107352,0,0.107447,31522.4,-24084.7,0,39670.3,35416.3
step02_gravity_refstate-crust.xmf,969,-6.18684e-07,3.1651e-06,0,-7.29101e-07,-7.01551e+08,-7.01291e+08,-7.01508e+08,-50016.3,0.00640149,0.107388,0,0.107578,28114.9,-25543.1,0,37985.5,50016.3
step02_gravity_refstate-crust.xmf,970,-6.51598e-07,3.08424e-06,0,-1.07454e-06,-6.93622e+08,-6.93366e+08,-6.93578e+08,-73713.6,0.00903107,0.115874,0,0.116226,24019,-25254.2,0,34852.3,73713.6
step02_gravity_refstate-crust.xmf,971,-6.4221e-07,3.13349e-06,0,-8.96588e-07,-6.96859e+08,-6.966e+08,-6.96815e+08,-61505.9,0.00771883,0.111455,0,0.111722,26044.6,-25372.1,0,36360.2,61505.9
step02_gravity_refstate-crust.xmf,972,-5.46358e-07,2.98824e-06,0,-3.70723e-07,-6.67739e+08,-6.67497e+08,-6.67702e+08,-25431.6,0.00327594,0.104589,0,0.104641,33721.4,-24312.1,0,41571.8,25431.6
step02_gravity_refstate-crust.xmf,973,-5.27357e-07,2.98483e-06,0,-2.32378e-07,-6.69248e+08,-6.69007e+08,-6.69212e+08,-15941.1,0.00206284,0.102936,0,0.102957,35990.1,-24367.1,0,43463.2,15941.1
step02_gravity_refstate-crust.xmf,974,-5.14603e-07,2.98804e-06,0,-1.04769e-07,-6.71492e+08,-6.71251e+08,-6.71456e+08,-7187.13,0.000923988,0.10188,0,0.101885,38185.5,-24448.9,0,45341.8,7187.13
step02_gravity_refstate-crust.xmf,975,1.11673e-05,-1.58068e-05,0,7.50386e-06,-1.06311e+09,-1.06496e+09,-1.06388e+09,514764,-0.0121386,0.242945,-0,0.243249,-945.134,-38724.4,-0,38735.9,514764
step02_gravity_refstate-crust.xmf,976,1.32172e-06,-4.07133e-07,0,5.8103e-06,-9.81943e+08,-9.82061e+08,-9.82033e+08,398586,-0.02245,0.178949,-0,0.180351,-5010.31,-35753.3,-0,36102.7,398586
step02_gravity_refstate-crust.xmf,977,7.65673e-07,5.98052e-07,0,4.8814e-06,-9.48623e+08,-9.48635e+08,-9.48676e+08,334864,-0.0216342,0.16892,-0,0.1703,-6143.51,-34539.6,-0,35081.7,334864
step02_gravity_refstate-crust.xmf,978,8.82249e-07,2.96679e-07,0,5.44311e-06,-9.71077e+08,-9.71117e+08,-9.71137e+08,373398,-0.0224542,0.173052,-0,0.174503,-5627.7,-35357.1,-0,35802.1,373398
step02_gravity_refstate-crust.xmf,979,3.35493e-06,-3.52262e-06,0,6.40156e-06,-9.99953e+08,-1.00042e+09,-1.00018e+09,439147,-0.0200623,0.197296,-0,0.198314,-3318.4,-36412.4,-0,36563.3,439147
step02_gravity_refstate-crust.xmf,980,2.32333e-06,-1.98318e-06,0,6.45069e-06,-9.98745e+08,-9.9904e+08,-9.98904e+08,442517,-0.021915,0.189869,-0,0.19113,-4013.3,-36366.6,-0,36587.4,442517
step02_gravity_refstate-crust.xmf,981,1.4225e-06,-6.76654e-07,0,6.3135e-06,-9.97218e+08,-9.97362e+08,-9.97316e+08,433106,-0.0230936,0.182242,-0,0.1837,-4718.56,-36309.4,-0,36614.7,433106
step02_gravity_refstate-crust.xmf,982,3.76685e-06,-4.34459e-06,0,7.11115e-06,-1.01616e+09,-1.01671e+09,-1.01641e+09,487825,-0.0205148,0.202828,-0,0.203863,-3019.14,-37002.7,-0,37125.6,487825
step02_gravity_refstate-crust.xmf,983,5.96567e-06,-7.7188e-06,0,7.45152e-06,-1.03305e+09,-1.03399e+09,-1.03346e+09,511174,-0.0178051,0.217372,-0,0.2181,-2078.93,-37621.5,-0,37678.9,511174
step02_gravity_refstate-crust.xmf,984,1.52357e-07,1.62207e-06,0,4.25913e-06,-9.27571e+08,-9.2747e+08,-9.27581e+08,292176,-0.0212877,0.158671,-0,0.160092,-7566.77,-33772.3,-0,34609.6,292176
step02_gravity_refstate-crust.xmf,985,-9.74606e-07,3.71244e-06,0,2.50579e-06,-8.94702e+08,-8.94381e+08,-8.94635e+08,171897,-0.0172871,0.12583,-0,0.127012,-13419.6,-32574.3,-0,35230.3,171897
step02_gravity_refstate-crust.xmf,986,-1.06522e-06,4.04283e-06,0,1.94667e-06,-8.92292e+08,-8.91941e+08,-8.92219e+08,133542,-0.0147497,0.114759,-0,0.115703,-15896.8,-32486.7,-0,36167.6,133542
step02_gravity_refstate-crust.xmf,987,-1.03849e-06,3.90275e-06,0,2.2187e-06,-8.93134e+08,-8.92795e+08,-8.93063e+08,152203,-0.0160657,0.120183,-0,0.121252,-14637.6,-32517.3,-0,35660,152203
step02_gravity_refstate-crust.xmf,988,-2.60206e-07,2.3084e-06,0,3.9827e-06,-9.27549e+08,-9.27373e+08,-9.27531e+08,273213,-0.021226,0.151498,-0,0.152978,-8552.7,-33770.9,-0,34837,273213
step02_gravity_refstate-crust.xmf,989,-5.86612e-07,2.85914e-06,0,3.6644e-06,-9.26487e+08,-9.26251e+08,-9.26447e+08,251378,-0.0207533,0.144474,-0,0.145957,-9575.53,-33731.7,-0,35064.5,251378
step02_gravity_refstate-crust.xmf,990,-8.3077e-07,3.308e-06,0,3.32885e-06,-9.25955e+08,-9.25671e+08,-9.25898e+08,228359,-0.0199914,0.137625,-0,0.13907,-10626,-33712.1,-0,35347.1,228359
step02_gravity_refstate-crust.xmf,991,-9.98568e-07,3.65804e-06,0,2.98835e-06,-9.25086e+08,-9.24767e+08,-9.25018e+08,205001,-0.0189874,0.131068,-0,0.132436,-11711.1,-33680.3,-0,35658.3,205001
step02_gravity_refstate-crust.xmf,992,-3.88772e-07,3.73524e-06,0,2.00187e-07,-8.57951e+08,-8.57668e+08,-8.57924e+08,13732.8,-0.00193601,0.0807532,-0,0.0807764,-34327.6,-31238.8,-0,46413.8,13732.8
step02_gravity_refstate-crust.xmf,993,-4.51191e-07,3.77939e-06,0,3.07495e-07,-8.56351e+08,-8.56061e+08,-8.5632e+08,21094.2,-0.00296752,0.0829077,-0,0.0829608,-31897.9,-31180.3,-0,44605.9,21094.2
step02_gravity_refstate-crust.xmf,994,-5.41146e-07,3.67529e-06,0,4.34671e-07,-8.19992e+08,-8.19703e+08,-8.19955e+08,29818.5,-0.00412589,0.0894023,-0,0.0894974,-30435.3,-29856.1,-0,42634.4,29818.5
step02_gravity_refstate-crust.xmf,995,-8.39457e-07,3.97202e-06,0,1.03227e-06,-8.5204e+08,-8.5171e+08,-8.51982e+08,70814,-0.00913612,0.0994614,-0,0.0998801,-22355.6,-31022.1,-0,38238,70814
step02_gravity_refstate-crust.xmf,996,-1.05504e-06,4.12497e-06,0,1.69241e-06,-8.90116e+08,-8.89761e+08,-8.90044e+08,116099,-0.0133795,0.109795,-0,0.110607,-17219.6,-32407.7,-0,36698.4,116099
step02_gravity_refstate-crust.xmf,997,-3.12498e-07,3.71661e-06,0,6.60184e-08,-8.66896e+08,-8.66619e+08,-8.66874e+08,4528.86,-0.000621318,0.0779644,-0,0.0779669,-37976.8,-31564.7,-0,49381.8,4528.86
step02_gravity_refstate-crust.xmf,998,7.27605e-06,-8.8221e-06,0,-4.03754e-06,-1.00904e+09,-1.01015e+09,-1.00954e+09,-276975,0.0100405,0.217348,0,0.21758,1259.26,-36750.9,0,36772.5,276975
step02_gravity_refstate-crust.xmf,999,1.21714e-05,-1.63221e-05,0,-2.22767e-06,-1.05295e+09,-1.05491e+09,-1.05379e+09,-152818,0.00383397,0.241659,0,0.241689,312.165,-38357.8,0,38359,152818
step02_gravity_refstate-crust.xmf,1000,8.62857e-06,-1.08958e-05,0,-3.73402e-06,-1.02412e+09,-1.02545e+09,-1.02471e+09,-256154,0.00827697,0.224788,0,0.224941,906.422,-37302,0,37313,256154
step02_gravity_refstate-crust.xmf,1001,1.0242e-05,-1.33672e-05,0,-3.19087e-06,-1.03868e+09,-1.0403e+09,-1.03938e+09,-218894,0.00625658,0.232801,0,0.232885,594.423,-37834.8,0,37839.5,218894
step02_gravity_refstate-crust.xmf,1002,1.37707e-05,-1.87817e-05,0,-4.98914e-07,-1.06238e+09,-1.06462e+09,-1.06333e+09,-34225.5,0.000870577,0.248252,0,0.248253,63.8051,-38703.8,0,38703.8,34225.5
step02_gravity_refstate-crust.xmf,1003,4.29842e-06,-4.52893e-06,0,-5.07607e-06,-9.79785e+08,-9.8039e+08,-9.8008e+08,-348218,0.0160321,0.19979,0,0.200432,2720.44,-35680.4,0,35784,348218
step02_gravity_refstate-crust.xmf,1004,5.09788e-06,-5.80042e-06,0,-5.36078e-06,-9.95843e+08,-9.9659e+08,-9.96192e+08,-367749,0.0154349,0.2061,0,0.206677,2309.71,-36266.3,0,36339.8,367749
step02_gravity_refstate-crust.xmf,1005,1.40346e-06,-5.54142e-09,0,-3.58748e-06,-8.74725e+08,-8.74821e+08,-8.74821e+08,-246101,0.017481,0.170973,0,0.171865,5940.55,-31850.9,0,32400.1,246101
step02_gravity_refstate-crust.xmf,1006,7.53631e-07,9.09141e-07,0,-3.37023e-06,-8.52393e+08,-8.52382e+08,-8.52445e+08,-231198,0.0180191,0.162843,0,0.163837,7439.49,-31036.7,0,31915.8,231198
step02_gravity_refstate-crust.xmf,1007,-1.36009e-08,2.03949e-06,0,-2.66538e-06,-7.91891e+08,-7.9175e+08,-7.9189e+08,-182845,0.016965,0.149273,0,0.150234,10816.9,-28832.7,0,30794.9,182845
step02_gravity_refstate-crust.xmf,1008,3.97604e-07,1.447e-06,0,-3.28769e-06,-8.49662e+08,-8.4959e+08,-8.4969e+08,-225535,0.0184616,0.157555,0,0.158633,8414.93,-30936.7,0,32060.7,225535
step02_gravity_refstate-crust.xmf,1009,2.27306e-06,-1.47498e-06,0,-4.6135e-06,-9.38225e+08,-9.38482e+08,-9.38381e+08,-316486,0.0184221,0.182348,0,0.183277,4429.21,-34163.9,0,34449.9,316486
step02_gravity_refstate-crust.xmf,1010,3.67618e-06,-3.53655e-06,0,-4.83582e-06,-9.65017e+08,-9.65512e+08,-9.65269e+08,-331738,0.0165085,0.194492,0,0.195192,3127.82,-35141.8,0,35280.7,331738
step02_gravity_refstate-crust.xmf,1011,2.74368e-06,-2.22799e-06,0,-5.04384e-06,-9.5862e+08,-9.58961e+08,-9.58808e+08,-346008,0.0185705,0.187588,0,0.188505,3923.46,-34907.2,0,35127,346008
step02_gravity_refstate-crust.xmf,1012,1.61824e-06,-4.00365e-07,0,-3.92936e-06,-8.97489e+08,-8.97628e+08,-8.976e+08,-269554,0.0179347,0.174115,0,0.175036,5446.48,-32679.9,0,33130.7,269554
step02_gravity_refstate-crust.xmf,1013,1.9117e-06,-8.85029e-07,0,-4.27258e-06,-9.18928e+08,-9.1912e+08,-9.19059e+08,-293099,0.0182557,0.177989,0,0.178923,4929.56,-33460.9,0,33822,293099
step02_gravity_refstate-crust.xmf,1014,-2.5617e-07,2.43636e-06,0,-2.53226e-06,-7.94404e+08,-7.94219e+08,-7.94386e+08,-173713,0.0168571,0.143502,0,0.144489,12055,-28923.8,0,31335.4,173713
step02_gravity_refstate-crust.xmf,1015,-4.70596e-07,2.7545e-06,0,-2.19713e-06,-7.71937e+08,-7.71715e+08,-7.71904e+08,-150723,0.0156357,0.136719,0,0.13761,14182.1,-28105.5,0,31480.9,150723
step02_gravity_refstate-crust.xmf,1016,-5.83666e-07,2.95244e-06,0,-1.8434e-06,-7.46112e+08,-7.45869e+08,-7.46072e+08,-126457,0.0139895,0.130311,0,0.13106,16656.8,-27165.1,0,31865.3,126457
step02_gravity_refstate-crust.xmf,1017,-6.65162e-07,3.12441e-06,0,-1.64598e-06,-7.46357e+08,-7.46097e+08,-7.46311e+08,-112914,0.0129565,0.124888,0,0.125558,18301,-27174,0,32762.1,112914
step02_gravity_refstate-crust.xmf,1018,-5.8621e-07,3.18959e-06,0,-5.716e-07,-7.08298e+08,-7.08039e+08,-7.08258e+08,-39211.7,0.00510324,0.103631,0,0.103756,30228.3,-25788.9,0,39734.3,39211.7
step02_gravity_refstate-crust.xmf,1019,-6.69759e-07,3.13906e-06,0,-1.20821e-06,-7.1116e+08,-7.10898e+08,-7.11114e+08,-82882.9,0.0100749,0.117484,0,0.117915,22437.7,-25892.6,0,34261.9,82882.9
step02_gravity_refstate-crust.xmf,1020,-7.04936e-07,3.23345e-06,0,-1.45877e-06,-7.45254e+08,-7.44984e+08,-7.45206e+08,-100072,0.011847,0.120181,0,0.120764,19908.2,-27133.9,0,33653.9,100072
step02_gravity_refstate-crust.xmf,1021,-4.96856e-07,3.09181e-06,0,-4.99336e-10,-6.96956e+08,-6.9671e+08,-6.96922e+08,-34.2544,4.22134e-20,0.0988554,0,0.0988554,40000,-25376.2,0,47370.4,34.2544
step02_gravity_refstate-crust.xmf,1022,1.38049e-05,-1.99644e-05,0,7.13826e-06,-1.07488e+09,-1.0772e+09,-1.07583e+09,489685,-0.00984923,0.253902,-0,0.254093,-645.934,-39157.1,-0,39162.5,489685
step02_gravity_refstate-crust.xmf,1023,1.62941e-07,1.50826e-06,0,4.66499e-06,-9.49201e+08,-9.49109e+08,-9.49213e+08,320018,-0.0220937,0.161267,-0,0.162773,-7072.38,-34559.6,-0,35275.9,320018
step02_gravity_refstate-crust.xmf,1024,7.05802e-07,3.9733e-07,0,5.99612e-06,-9.93496e+08,-9.93517e+08,-9.93544e+08,411334,-0.023605,0.17463,-0,0.176219,-5438.49,-36172.7,-0,36579.2,411334
step02_gravity_refstate-crust.xmf,1025,4.31616e-06,-5.27197e-06,0,7.91157e-06,-1.03221e+09,-1.03287e+09,-1.03251e+09,542734,-0.0209788,0.209242,-0,0.210291,-2720.34,-37588.1,-0,37686.4,542734
step02_gravity_refstate-crust.xmf,1026,7.03378e-06,-9.3715e-06,0,8.30894e-06,-1.04836e+09,-1.04949e+09,-1.04885e+09,569993,-0.0178464,0.225548,-0,0.226253,-1801.21,-38180.7,-0,38223.2,569993
step02_gravity_refstate-crust.xmf,1027,8.12624e-06,-1.1675e-05,0,9.61715e-06,-1.06257e+09,-1.06393e+09,-1.06313e+09,659737,-0.0177755,0.234644,-0,0.235316,-1538.17,-38698.9,-0,38729.4,659737
step02_gravity_refstate-crust.xmf,1028,-1.10736e-06,3.93308e-06,0,2.64991e-06,-9.24487e+08,-9.24141e+08,-9.24411e+08,181784,-0.0177824,0.12466,-0,0.125922,-12852.5,-33658.5,-0,36028.9,181784
step02_gravity_refstate-crust.xmf,1029,-2.8817e-07,3.84705e-06,0,1.18098e-07,-9.00506e+08,-9.00222e+08,-9.00486e+08,8101.53,-0.00110431,0.0741215,-0,0.0741298,-35695.7,-32788.6,-0,48469.3,8101.53
step02_gravity_refstate-crust.xmf,1030,-5.24227e-07,3.8621e-06,0,4.06186e-07,-8.62966e+08,-8.62665e+08,-8.6293e+08,27864.4,-0.00389345,0.0842714,-0,0.0843613,-29799.7,-31421,-0,43304.7,27864.4
step02_gravity_refstate-crust.xmf,1031,-6.01421e-07,3.92518e-06,0,5.19871e-07,-8.64848e+08,-8.64537e+08,-8.64807e+08,35663.1,-0.00492919,0.0866252,-0,0.0867653,-27883.8,-31489.3,-0,42060.5,35663.1
step02_gravity_refstate-crust.xmf,1032,-6.869e-07,3.98385e-06,0,6.55903e-07,-8.65969e+08,-8.65649e+08,-8.65922e+08,44994.9,-0.00611848,0.0896166,-0,0.0898252,-25986.9,-31529.9,-0,40858.9,44994.9
step02_gravity_refstate-crust.xmf,1033,-7.79308e-07,4.0354e-06,0,8.25473e-07,-8.67117e+08,-8.66787e+08,-8.67064e+08,56627.5,-0.00752288,0.0933621,-0,0.0936647,-24022.6,-31571.4,-0,39671.6,56627.5
step02_gravity_refstate-crust.xmf,1034,-1.02029e-06,4.17236e-06,0,1.45392e-06,-8.88375e+08,-8.88018e+08,-8.88305e+08,99738.6,-0.0119605,0.105024,-0,0.105703,-18619.2,-32344.5,-0,37320.8,99738.6
step02_gravity_refstate-crust.xmf,1035,-9.0347e-07,4.18781e-06,0,1.05084e-06,-8.87223e+08,-8.86874e+08,-8.87161e+08,72087.6,-0.00923105,0.0965075,-0,0.096948,-21482.6,-32303.1,-0,38794.2,72087.6
step02_gravity_refstate-crust.xmf,1036,-9.67576e-07,4.19199e-06,0,1.23824e-06,-8.87565e+08,-8.87211e+08,-8.87499e+08,84943.3,-0.0105537,0.100534,-0,0.101086,-20055.3,-32315.3,-0,38032.8,84943.3
step02_gravity_refstate-crust.xmf,1037,-2.42663e-07,3.81072e-06,0,1.6877e-09,-9.00518e+08,-9.0024e+08,-9.00502e+08,115.776,-8.18648e-20,0.0731373,-0,0.0731373,-40000,-32789.2,-0,51721.7,115.776
step02_gravity_refstate-crust.xmf,1038,1.58027e-05,-2.24173e-05,0,-1.6567e-07,-1.07408e+09,-1.0767e+09,-1.07516e+09,-11364.9,0.000111361,0.257059,0,0.257059,6.92885,-39132.2,0,39132.2,11364.9
step02_gravity_refstate-crust.xmf,1039,6.06669e-06,-7.28472e-06,0,-5.54533e-06,-1.01111e+09,-1.01203e+09,-1.01153e+09,-380410,0.0145975,0.213038,0,0.213538,1917.25,-36823.9,0,36873.8,380410
step02_gravity_refstate-crust.xmf,1040,8.85942e-07,6.81259e-07,0,-3.66065e-06,-8.75339e+08,-8.75353e+08,-8.754e+08,-251120,0.0186073,0.165254,0,0.166299,6904.64,-31872.2,0,32611.5,251120
step02_gravity_refstate-crust.xmf,1041,3.62403e-08,1.99393e-06,0,-2.88791e-06,-8.1932e+08,-8.19186e+08,-8.19323e+08,-198111,0.0177615,0.150554,0,0.151598,10120.5,-29831.4,0,31501.4,198111
step02_gravity_refstate-crust.xmf,1042,3.40964e-08,1.9623e-06,0,-3.1594e-06,-8.47346e+08,-8.47214e+08,-8.47349e+08,-216735,0.0186133,0.151599,0,0.152738,9528.2,-30851.7,0,32289.5,216735
step02_gravity_refstate-crust.xmf,1043,3.27107e-06,-3.17681e-06,0,-5.61039e-06,-9.80439e+08,-9.80881e+08,-9.80664e+08,-384873,0.0187826,0.193835,0,0.194743,3434.15,-35702.2,0,35867,384873
step02_gravity_refstate-crust.xmf,1044,1.54101e-06,-4.7374e-07,0,-4.80838e-06,-9.41927e+08,-9.42066e+08,-9.42033e+08,-329855,0.020207,0.176251,0,0.177406,5241.35,-34297.3,0,34695.5,329855
step02_gravity_refstate-crust.xmf,1045,-4.67209e-07,2.76912e-06,0,-2.37778e-06,-7.97563e+08,-7.97341e+08,-7.97531e+08,-163116,0.0164648,0.137773,0,0.138753,13298.4,-29038.5,0,31938.7,163116
step02_gravity_refstate-crust.xmf,1046,-6.47896e-07,3.09961e-06,0,-2.02014e-06,-7.84785e+08,-7.84528e+08,-7.84741e+08,-138582,0.0149993,0.129818,0,0.130682,15610.3,-28573.1,0,32559.2,138582
step02_gravity_refstate-crust.xmf,1047,-5.50249e-07,3.21757e-06,0,-4.25576e-07,-7.18098e+08,-7.17839e+08,-7.1806e+08,-29194.5,0.0038581,0.100121,0,0.100195,32348.9,-26145.8,0,41593.9,29194.5
step02_gravity_refstate-crust.xmf,1048,-6.10154e-07,3.4068e-06,0,-6.18222e-07,-7.53096e+08,-7.52821e+08,-7.53054e+08,-42410,0.00562615,0.100014,0,0.100172,28921,-27420,0,39853.3,42410
step02_gravity_refstate-crust.xmf,1049,-7.21978e-07,3.31917e-06,0,-1.27883e-06,-7.46677e+08,-7.46399e+08,-7.46627e+08,-87727.8,0.0106885,0.115583,0,0.116076,21528.5,-27185.7,0,34677.6,87727.8
step02_gravity_refstate-crust.xmf,1050,-6.54517e-07,3.39172e-06,0,-7.75006e-07,-7.47036e+08,-7.46759e+08,-7.46991e+08,-53165.4,0.00692095,0.103899,0,0.104129,26934.4,-27199.2,0,38278.7,53165.4
step02_gravity_refstate-crust.xmf,1051,-7.19101e-07,3.38288e-06,0,-1.10546e-06,-7.49844e+08,-7.49563e+08,-7.49795e+08,-75834.8,0.00948789,0.111132,0,0.111537,23180.9,-27301.2,0,35814.9,75834.8
step02_gravity_refstate-crust.xmf,1052,-6.89468e-07,3.37314e-06,0,-9.40257e-07,-7.43905e+08,-7.43626e+08,-7.43857e+08,-64501.7,0.00822082,0.107865,0,0.108178,25022.9,-27085,0,36874.7,64501.7
step02_gravity_refstate-crust.xmf,1053,-5.16012e-07,3.22846e-06,0,-2.87125e-07,-7.25225e+08,-7.24968e+08,-7.25189e+08,-19696.7,0.00262748,0.0974195,0,0.0974549,34617.2,-26405.4,0,43538.4,19696.7
step02_gravity_refstate-crust.xmf,1054,-4.92398e-07,3.22153e-06,0,-1.65939e-07,-7.27216e+08,-7.26962e+08,-7.27183e+08,-11383.4,0.00152195,0.0960093,0,0.0960213,36821.2,-26478,0,45352.9,11383.4
step02_gravity_refstate-crust.xmf,1055,-4.76261e-07,3.22791e-06,0,-6.6136e-08,-7.30899e+08,-7.30645e+08,-7.30866e+08,-4536.93,0.000602729,0.0950526,0,0.0950545,38722.1,-26612.2,0,46985.2,4536.93
step02_gravity_refstate-crust.xmf,1056,1.0043e-05,-1.46448e-05,0,1.1213e-05,-1.07678e+09,-1.07847e+09,-1.07747e+09,769210,-0.0174639,0.245913,-0,0.246532,-1260.61,-39219.2,-0,39239.4,769210
step02_gravity_refstate-crust.xmf,1057,2.04159e-07,1.34383e-06,0,5.1161e-06,-9.69321e+08,-9.69242e+08,-9.69335e+08,350964,-0.0228712,0.164553,-0,0.166135,-6565.18,-35292,-0,35897.4,350964
step02_gravity_refstate-crust.xmf,1058,2.51935e-06,-2.56362e-06,0,7.18519e-06,-1.01527e+09,-1.01562e+09,-1.01545e+09,492904,-0.0225511,0.194802,-0,0.196103,-3695.5,-36968.2,-0,37152.5,492904
step02_gravity_refstate-crust.xmf,1059,1.51097e-06,-9.95534e-07,0,6.95737e-06,-1.014e+09,-1.01418e+09,-1.01411e+09,477276,-0.0238389,0.186405,-0,0.187923,-4394.47,-36920.4,-0,37181,477276
step02_gravity_refstate-crust.xmf,1060,6.60019e-07,3.07339e-07,0,6.58472e-06,-1.01225e+09,-1.01228e+09,-1.0123e+09,451712,-0.0244885,0.177827,-0,0.179505,-5124.79,-36855.2,-0,37209.8,451712
step02_gravity_refstate-crust.xmf,1061,2.75368e-06,-3.18957e-06,0,8.03705e-06,-1.03172e+09,-1.03213e+09,-1.03191e+09,551341,-0.0232436,0.200414,-0,0.201758,-3384.6,-37566.9,-0,37719.1,551341
step02_gravity_refstate-crust.xmf,1062,4.82319e-06,-6.53225e-06,0,9.02466e-06,-1.04754e+09,-1.04832e+09,-1.04787e+09,619091,-0.0213786,0.216596,-0,0.217649,-2421.5,-38146.1,-0,38222.9,619091
step02_gravity_refstate-crust.xmf,1063,-3.71628e-07,2.36086e-06,0,4.41237e-06,-9.55175e+08,-9.54988e+08,-9.5515e+08,302688,-0.0222027,0.15313,-0,0.154732,-8026.39,-34776.3,-0,35690.5,302688
step02_gravity_refstate-crust.xmf,1064,-1.15952e-06,4.37252e-06,0,1.72801e-06,-9.23123e+08,-9.22743e+08,-9.23043e+08,118541,-0.013428,0.107035,-0,0.107874,-16622.8,-33609.3,-0,37495.4,118541
step02_gravity_refstate-crust.xmf,1065,-1.16731e-06,4.14151e-06,0,2.32322e-06,-9.24188e+08,-9.23824e+08,-9.24108e+08,159373,-0.0164207,0.118457,-0,0.11959,-14050.3,-33647.7,-0,36463.4,159373
step02_gravity_refstate-crust.xmf,1066,-1.18599e-06,4.29367e-06,0,2.0102e-06,-9.24569e+08,-9.24193e+08,-9.24488e+08,137899,-0.0149245,0.112385,-0,0.113371,-15318.4,-33661.7,-0,36983.3,137899
step02_gravity_refstate-crust.xmf,1067,-7.19232e-07,2.99445e-06,0,3.96466e-06,-9.51758e+08,-9.51504e+08,-9.51709e+08,271976,-0.0215244,0.145109,-0,0.146697,-9108.28,-34651.4,-0,35828.5,271976
step02_gravity_refstate-crust.xmf,1068,-9.64449e-07,3.46929e-06,0,3.57363e-06,-9.51112e+08,-9.50808e+08,-9.51046e+08,245151,-0.0206565,0.137877,-0,0.139416,-10123,-34627.7,-0,36077,245151
step02_gravity_refstate-crust.xmf,1069,-1.13163e-06,3.84162e-06,0,3.1824e-06,-9.50371e+08,-9.50029e+08,-9.50293e+08,218313,-0.0195398,0.130884,-0,0.132335,-11182.6,-34600.6,-0,36362.8,218313
step02_gravity_refstate-crust.xmf,1070,-1.23254e-06,4.12325e-06,0,2.80842e-06,-9.49818e+08,-9.49451e+08,-9.49734e+08,192657,-0.0182512,0.124236,-0,0.12557,-12273.7,-34580.5,-0,36694.1,192657
step02_gravity_refstate-crust.xmf,1071,-3.47642e-07,3.91615e-06,0,1.97165e-07,-9.0461e+08,-9.04317e+08,-9.04586e+08,13525.5,-0.00187736,0.0751397,-0,0.0751631,-33068.5,-32937.9,-0,46673.7,13525.5
step02_gravity_refstate-crust.xmf,1072,-8.37169e-07,4.15842e-06,0,9.00766e-07,-8.85443e+08,-8.851e+08,-8.85386e+08,61792.5,-0.008103,0.0933518,-0,0.0937028,-22830.6,-32238.5,-0,39503.9,61792.5
step02_gravity_refstate-crust.xmf,1073,-1.10951e-06,4.41451e-06,0,1.47332e-06,-9.22339e+08,-9.21961e+08,-9.22263e+08,101070,-0.0119327,0.102029,-0,0.102725,-17961.2,-33581,-0,38082.7,101070
step02_gravity_refstate-crust.xmf,1074,-1.90241e-07,3.90546e-06,0,4.28315e-08,-9.3083e+08,-9.30549e+08,-9.30817e+08,2938.24,-0.000374057,0.069096,-0,0.069097,-37956.4,-33893.1,-0,50886.4,2938.24
step02_gravity_refstate-crust.xmf,1075,7.32711e-06,-9.30733e-06,0,-5.79827e-06,-1.0259e+09,-1.02704e+09,-1.0264e+09,-397761,0.0134225,0.220822,0,0.221229,1533.96,-37364.1,0,37395.6,397761
step02_gravity_refstate-crust.xmf,1076,1.35755e-05,-1.85787e-05,0,-4.23359e-06,-1.06533e+09,-1.06754e+09,-1.06626e+09,-290425,0.00645418,0.248791,0,0.248875,463.462,-38810.7,0,38813.5,290425
step02_gravity_refstate-crust.xmf,1077,1.07798e-05,-1.46572e-05,0,-5.97742e-06,-1.05446e+09,-1.05621e+09,-1.0552e+09,-410051,0.0104592,0.238899,0,0.239128,878.088,-38409.7,0,38419.7,410051
step02_gravity_refstate-crust.xmf,1078,8.83385e-06,-1.16768e-05,0,-5.9388e-06,-1.04014e+09,-1.04155e+09,-1.04075e+09,-407402,0.012084,0.229233,0,0.229551,1193.94,-37885.1,0,37903.9,407402
step02_gravity_refstate-crust.xmf,1079,3.91496e-06,-4.25742e-06,0,-6.11073e-06,-9.97398e+08,-9.97958e+08,-9.97666e+08,-419196,0.0186584,0.200169,0,0.201037,2995.47,-36320.5,0,36443.8,419196
step02_gravity_refstate-crust.xmf,1080,4.6904e-06,-5.5489e-06,0,-6.61788e-06,-1.01279e+09,-1.01349e+09,-1.01311e+09,-453987,0.0183327,0.207026,0,0.207836,2582.09,-36881.9,0,36972.1,453987
step02_gravity_refstate-crust.xmf,1081,1.04393e-06,4.4204e-07,0,-3.98066e-06,-8.98398e+08,-8.9844e+08,-8.9847e+08,-273073,0.019246,0.167931,0,0.169031,6402.85,-32712,0,33332.7,273073
step02_gravity_refstate-crust.xmf,1082,4.37362e-07,1.32914e-06,0,-3.59805e-06,-8.74834e+08,-8.74772e+08,-8.74864e+08,-246826,0.0192423,0.159255,0,0.160413,7900.17,-31853,0,32818.1,246826
step02_gravity_refstate-crust.xmf,1083,-2.64577e-07,2.4367e-06,0,-2.749e-06,-8.21242e+08,-8.21057e+08,-8.21224e+08,-188581,0.0176658,0.144378,0,0.145455,11351.1,-29900.8,0,31982.9,188581
step02_gravity_refstate-crust.xmf,1084,6.08033e-08,1.9225e-06,0,-3.43927e-06,-8.7385e+08,-8.73722e+08,-8.73854e+08,-235934,0.0194579,0.153038,0,0.15427,8944.52,-31816.6,0,33050,235934
step02_gravity_refstate-crust.xmf,1085,1.85091e-06,-1.01675e-06,0,-5.21157e-06,-9.58864e+08,-9.59061e+08,-9.58991e+08,-357514,0.0204713,0.180735,0,0.181891,4748.84,-34914.3,0,35235.8,357514
step02_gravity_refstate-crust.xmf,1086,1.15405e-06,1.62749e-07,0,-4.45338e-06,-9.24077e+08,-9.24145e+08,-9.24157e+08,-305502,0.0200752,0.170996,0,0.17217,5920.45,-33646.9,0,34163.8,305502
step02_gravity_refstate-crust.xmf,1087,-4.81418e-07,2.81666e-06,0,-2.56127e-06,-8.23891e+08,-8.23665e+08,-8.23858e+08,-175703,0.0172599,0.138335,0,0.139408,12572.2,-29997,0,32525.1,175703
step02_gravity_refstate-crust.xmf,1088,-6.01817e-07,3.02245e-06,0,-2.21641e-06,-8.00947e+08,-8.00698e+08,-8.00905e+08,-152046,0.0159217,0.132776,0,0.133728,14403.3,-29161.5,0,32524.6,152046
step02_gravity_refstate-crust.xmf,1089,-7.33685e-07,3.29845e-06,0,-1.76866e-06,-7.83233e+08,-7.82957e+08,-7.83183e+08,-121330,0.0137647,0.123614,0,0.124378,17378.8,-28516.5,0,33394.8,121330
step02_gravity_refstate-crust.xmf,1090,-7.75623e-07,3.42899e-06,0,-1.5532e-06,-7.83202e+08,-7.82913e+08,-7.83149e+08,-106549,0.0125485,0.11835,0,0.119013,18984.4,-28515.4,0,34256.9,106549
step02_gravity_refstate-crust.xmf,1091,-5.61231e-07,3.42461e-06,0,-4.78009e-07,-7.6228e+08,-7.62007e+08,-7.62242e+08,-32791.4,0.00441908,0.0963513,0,0.0964526,30871.5,-27754.6,0,41513.5,32791.4
step02_gravity_refstate-crust.xmf,1092,-7.88707e-07,3.52269e-06,0,-1.35296e-06,-7.84839e+08,-7.84543e+08,-7.84785e+08,-92812.8,0.011298,0.113415,0,0.113976,20575,-28575.1,0,35211.8,92812.8
step02_gravity_refstate-crust.xmf,1093,-4.40601e-07,3.36031e-06,0,-1.53113e-09,-7.65738e+08,-7.65477e+08,-7.65708e+08,-105.036,6.1719e-20,0.0907733,0,0.0907733,40000,-27880.9,0,48758,105.036
step02_gravity_refstate-crust.xmf,1094,1.35805e-05,-2.08719e-05,0,1.17025e-05,-1.0872e+09,-1.08956e+09,-1.08813e+09,802792,-0.0142264,0.260307,-0,0.260695,-833.394,-39603.3,-0,39612,802792
step02_gravity_refstate-crust.xmf,1095,1.81874e-05,-2.65457e-05,0,4.71713e-06,-1.08624e+09,-1.08931e+09,-1.08749e+09,323595,-0.00543457,0.266871,-0,0.266927,-297.518,-39578.3,-0,39579.4,323595
step02_gravity_refstate-crust.xmf,1096,1.23374e-07,1.33296e-06,0,5.59901e-06,-9.89989e+08,-9.89906e+08,-9.89997e+08,384092,-0.0237392,0.166946,-0,0.168625,-6205.74,-36044.1,-0,36574.4,384092
step02_gravity_refstate-crust.xmf,1097,-2.22028e-07,2.04705e-06,0,4.8165e-06,-9.6911e+08,-9.68954e+08,-9.69095e+08,330412,-0.022855,0.157943,-0,0.159588,-7314.41,-35283.7,-0,36033.9,330412
step02_gravity_refstate-crust.xmf,1098,-1.80596e-08,1.38488e-06,0,6.11134e-06,-1.01005e+09,-1.00995e+09,-1.01005e+09,419238,-0.0246071,0.169322,-0,0.171101,-5884.7,-36773.8,-0,37241.7,419238
step02_gravity_refstate-crust.xmf,1099,3.12006e-06,-3.92262e-06,0,8.98509e-06,-1.0475e+09,-1.04798e+09,-1.04771e+09,616377,-0.0238733,0.207074,-0,0.208445,-3058.59,-38141.8,-0,38264.2,616377
step02_gravity_refstate-crust.xmf,1100,5.59447e-06,-7.84193e-06,0,1.01435e-05,-1.06144e+09,-1.06236e+09,-1.06183e+09,695845,-0.0216832,0.224631,-0,0.225675,-2137.53,-38653.3,-0,38712.4,695845
step02_gravity_refstate-crust.xmf,1101,6.21937e-06,-9.45483e-06,0,1.16257e-05,-1.07359e+09,-1.07467e+09,-1.07402e+09,797525,-0.0218418,0.23312,-0,0.234141,-1873.75,-39095.7,-0,39140.6,797525
step02_gravity_refstate-crust.xmf,1102,-1.28709e-06,4.34708e-06,0,2.45141e-06,-9.50834e+08,-9.50447e+08,-9.50745e+08,168167,-0.0168061,0.117679,-0,0.118873,-13407.3,-34617.6,-0,37123.2,168167
step02_gravity_refstate-crust.xmf,1103,-4.11501e-07,3.98765e-06,0,2.76408e-07,-9.07529e+08,-9.07227e+08,-9.07501e+08,18961.6,-0.00263282,0.0766086,-0,0.0766538,-30944.6,-33044,-0,45271.1,18961.6
step02_gravity_refstate-crust.xmf,1104,-2.14766e-07,4.02758e-06,0,1.07087e-07,-9.52795e+08,-9.52504e+08,-9.52781e+08,7346.19,-0.00090244,0.0673734,-0,0.0673795,-34257.3,-34692.8,-0,48756.1,7346.19
step02_gravity_refstate-crust.xmf,1105,-5.02196e-07,4.07043e-06,0,3.68498e-07,-9.10188e+08,-9.09874e+08,-9.10154e+08,25279,-0.00349248,0.0785403,-0,0.078618,-28938.7,-33140.6,-0,43997.1,25279
step02_gravity_refstate-crust.xmf,1106,-5.98196e-07,4.14924e-06,0,4.79893e-07,-9.11396e+08,-9.1107e+08,-9.11355e+08,32920.7,-0.00451125,0.081132,-0,0.0812574,-27015.3,-33184.3,-0,42790.4,32920.7
step02_gravity_refstate-crust.xmf,1107,-6.9961e-07,4.22396e-06,0,6.11585e-07,-9.12367e+08,-9.12029e+08,-9.12319e+08,41954.7,-0.00566545,0.0841873,-0,0.0843777,-25180.8,-33219.3,-0,41684.5,41954.7
step02_gravity_refstate-crust.xmf,1108,-7.92721e-07,4.30703e-06,0,7.41747e-07,-9.17308e+08,-9.16958e+08,-9.17254e+08,50883.8,-0.00674416,0.0867791,-0,0.0870407,-23549.8,-33399,-0,40866.7,50883.8
step02_gravity_refstate-crust.xmf,1109,-1.04164e-06,4.42968e-06,0,1.24085e-06,-9.22619e+08,-9.22244e+08,-9.22548e+08,85122.4,-0.0104303,0.0972195,-0,0.0977774,-19355.8,-33591.5,-0,38769,85122.4
step02_gravity_refstate-crust.xmf,1110,-8.78016e-07,4.38584e-06,0,8.71883e-07,-9.23465e+08,-9.23104e+08,-9.23405e+08,59811.2,-0.00775338,0.0891661,-0,0.0895025,-22128.3,-33622.9,-0,40251.2,59811.2
step02_gravity_refstate-crust.xmf,1111,-9.64761e-07,4.42109e-06,0,1.04377e-06,-9.23536e+08,-9.23167e+08,-9.2347e+08,71602.7,-0.00904284,0.0929359,-0,0.0933748,-20719.3,-33625.2,-0,39496.1,71602.7
step02_gravity_refstate-crust.xmf,1112,-1.19587e-06,4.64443e-06,0,1.49026e-06,-9.52681e+08,-9.5228e+08,-9.52599e+08,102232,-0.0118037,0.0993861,-0,0.100085,-17329.9,-34685.7,-0,38774,102232
step02_gravity_refstate-crust.xmf,1113,-9.59876e-08,3.98785e-06,0,2.02737e-09,-9.66879e+08,-9.66599e+08,-9.66872e+08,139.078,-2.19994e-20,0.0637121,-0,0.0637121,-40000,-35206,-0,53286.6,139.078
step02_gravity_refstate-crust.xmf,1114,-1.60253e-07,3.99418e-06,0,6.3519e-08,-9.56131e+08,-9.55846e+08,-9.5612e+08,4357.4,-0.000508345,0.0659654,-0,0.0659673,-36207,-34814.5,-0,50229.4,4357.4
step02_gravity_refstate-crust.xmf,1115,1.83684e-05,-2.68448e-05,0,-3.87031e-06,-1.08648e+09,-1.08958e+09,-1.08774e+09,-265503,0.0045099,0.267473,0,0.267511,245.833,-39587.2,0,39587.9,265503
step02_gravity_refstate-crust.xmf,1116,1.51993e-05,-2.18635e-05,0,-6.20102e-06,-1.07678e+09,-1.07933e+09,-1.07783e+09,-425390,0.00793217,0.256875,0,0.256998,500.253,-39229,0,39232.2,425390
step02_gravity_refstate-crust.xmf,1117,5.68652e-06,-7.09359e-06,0,-7.07783e-06,-1.02758e+09,-1.02846e+09,-1.02797e+09,-485539,0.0178045,0.214721,0,0.215458,2182.77,-37422.3,0,37485.9,485539
step02_gravity_refstate-crust.xmf,1118,5.16471e-07,1.16123e-06,0,-3.93283e-06,-8.98292e+08,-8.98248e+08,-8.98328e+08,-269792,0.0199761,0.161619,0,0.162849,7357.27,-32707.1,0,33524.4,269792
step02_gravity_refstate-crust.xmf,1119,-2.6232e-07,2.44609e-06,0,-2.97327e-06,-8.4742e+08,-8.47235e+08,-8.47402e+08,-203966,0.0184784,0.145366,0,0.146536,10693.2,-30853.9,0,32654.4,203966
step02_gravity_refstate-crust.xmf,1120,-3.36647e-07,2.52104e-06,0,-3.24015e-06,-8.76736e+08,-8.7654e+08,-8.76713e+08,-222274,0.0193603,0.145565,0,0.146847,10176.5,-31921,0,33503.9,222274
step02_gravity_refstate-crust.xmf,1121,2.14183e-06,-1.46297e-06,0,-5.45951e-06,-9.69169e+08,-9.69416e+08,-9.69316e+08,-374523,0.020495,0.184255,0,0.185392,4398.4,-35290,0,35563,374523
step02_gravity_refstate-crust.xmf,1122,2.33715e-06,-1.89622e-06,0,-5.88951e-06,-9.8249e+08,-9.82781e+08,-9.8265e+08,-404021,0.0208875,0.187568,0,0.188727,4127.8,-35775.1,0,36012.4,404021
step02_gravity_refstate-crust.xmf,1123,2.73295e-06,-2.65765e-06,0,-6.48831e-06,-9.99318e+08,-9.99688e+08,-9.99505e+08,-445098,0.0211987,0.19314,0,0.1943,3709.94,-36388.1,0,36576.7,445098
step02_gravity_refstate-crust.xmf,1124,1.15443e-06,-5.5548e-08,0,-5.29812e-06,-9.63231e+08,-9.63314e+08,-9.63311e+08,-363451,0.0217967,0.174747,0,0.176101,5444.72,-35072,0,35492.1,363451
step02_gravity_refstate-crust.xmf,1125,9.78688e-07,3.15553e-07,0,-4.88354e-06,-9.47071e+08,-9.47116e+08,-9.47138e+08,-335011,0.0213311,0.170985,0,0.17231,5895.93,-34483.5,0,34983.9,335011
step02_gravity_refstate-crust.xmf,1126,-6.60303e-07,3.12801e-06,0,-2.35651e-06,-8.26605e+08,-8.26345e+08,-8.26559e+08,-161657,0.0165846,0.132421,0,0.133456,13812.5,-30095.5,0,33113.8,161657
step02_gravity_refstate-crust.xmf,1127,-7.57228e-07,3.33583e-06,0,-2.12711e-06,-8.23837e+08,-8.23556e+08,-8.23785e+08,-145920,0.0156311,0.127177,0,0.128134,15121.9,-29994.7,0,33591,145920
step02_gravity_refstate-crust.xmf,1128,-5.0505e-07,3.4848e-06,0,-3.33685e-07,-7.84064e+08,-7.8379e+08,-7.84029e+08,-22890.8,0.00314785,0.0914982,0,0.0915524,32969.2,-28548,0,43611.4,22890.8
step02_gravity_refstate-crust.xmf,1129,-5.79499e-07,3.61576e-06,0,-5.13968e-07,-8.01682e+08,-8.01394e+08,-8.01642e+08,-35258.2,0.00482052,0.092936,0,0.0930609,29550.1,-29189.3,0,41535.8,35258.2
step02_gravity_refstate-crust.xmf,1130,-6.38875e-07,3.62177e-06,0,-6.50611e-07,-7.96023e+08,-7.95731e+08,-7.95979e+08,-44631.9,0.00600721,0.0963823,0,0.0965693,27693,-28983,0,40086.4,44631.9
step02_gravity_refstate-crust.xmf,1131,-7.77037e-07,3.5878e-06,0,-1.15723e-06,-7.87643e+08,-7.87344e+08,-7.8759e+08,-79386.1,0.00996894,0.108585,0,0.109042,22251.1,-28677.3,0,36297.4,79386.1
step02_gravity_refstate-crust.xmf,1132,-6.954e-07,3.62063e-06,0,-8.07014e-07,-7.91292e+08,-7.90996e+08,-7.91244e+08,-55361.2,0.00730318,0.100272,0,0.100538,25818.4,-28810.6,0,38686.4,55361.2
step02_gravity_refstate-crust.xmf,1133,-7.43237e-07,3.61497e-06,0,-9.75328e-07,-7.89256e+08,-7.88957e+08,-7.89205e+08,-66907.5,0.00862842,0.10426,0,0.104616,23999,-28736.2,0,37439.6,66907.5
step02_gravity_refstate-crust.xmf,1134,-4.2417e-07,3.4649e-06,0,-9.58222e-08,-7.92157e+08,-7.9189e+08,-7.92128e+08,-6573.41,0.000890659,0.0877697,0,0.0877742,37849.6,-28842.9,0,47586.9,6573.41
step02_gravity_refstate-crust.xmf,1135,-4.56646e-07,3.46559e-06,0,-2.07597e-07,-7.87329e+08,-7.8706e+08,-7.87298e+08,-14241.2,0.00196586,0.0893573,0,0.0893789,35417.6,-28667,0,45565.4,14241.2
step02_gravity_refstate-crust.xmf,1136,9.82394e-06,-1.53859e-05,0,1.40774e-05,-1.08946e+09,-1.09119e+09,-1.09013e+09,965708,-0.0197245,0.252671,-0,0.253439,-1265.71,-39678.7,-0,39698.9,965708
step02_gravity_refstate-crust.xmf,1137,-3.6517e-07,2.1591e-06,0,5.16429e-06,-9.87915e+08,-9.87742e+08,-9.8789e+08,354271,-0.0235583,0.159112,-0,0.160847,-7027.34,-35967.9,-0,36648,354271
step02_gravity_refstate-crust.xmf,1138,1.50658e-06,-1.3191e-06,0,7.76894e-06,-1.03153e+09,-1.03172e+09,-1.03163e+09,532950,-0.0247017,0.191088,-0,0.192678,-4080.51,-37557.8,-0,37778.8,532950
step02_gravity_refstate-crust.xmf,1139,5.48592e-07,2.42183e-07,0,7.26035e-06,-1.03066e+09,-1.03068e+09,-1.03069e+09,498060,-0.0253848,0.181444,-0,0.183211,-4813.82,-37524.7,-0,37832.2,498060
step02_gravity_refstate-crust.xmf,1140,-1.76569e-07,1.45256e-06,0,6.65737e-06,-1.02884e+09,-1.02873e+09,-1.02883e+09,456696,-0.0254202,0.172003,-0,0.173871,-5570.68,-37457.6,-0,37869.6,456696
step02_gravity_refstate-crust.xmf,1141,1.57385e-06,-1.76369e-06,0,8.71743e-06,-1.04846e+09,-1.04869e+09,-1.04856e+09,598016,-0.0255032,0.197034,-0,0.198678,-3727.47,-38173.7,-0,38355.3,598016
step02_gravity_refstate-crust.xmf,1142,3.40072e-06,-4.86417e-06,0,1.01441e-05,-1.0614e+09,-1.06197e+09,-1.06163e+09,695885,-0.024348,0.214396,-0,0.215774,-2740.43,-38647.6,-0,38744.6,695885
step02_gravity_refstate-crust.xmf,1143,6.60115e-06,-1.04231e-05,0,1.35796e-05,-1.08692e+09,-1.08809e+09,-1.08737e+09,931558,-0.0228171,0.241425,-0,0.2425,-1706.45,-39581,-0,39617.7,931558
step02_gravity_refstate-crust.xmf,1144,-7.00133e-07,2.77345e-06,0,4.71855e-06,-9.84525e+08,-9.84287e+08,-9.84477e+08,323692,-0.0230273,0.151862,-0,0.153598,-7852.47,-35844.1,-0,36694.1,323692
step02_gravity_refstate-crust.xmf,1145,-9.00014e-07,3.19448e-06,0,4.25912e-06,-9.76502e+08,-9.76221e+08,-9.76441e+08,292176,-0.0222017,0.145375,-0,0.147061,-8717.72,-35551.8,-0,36605.1,292176
step02_gravity_refstate-crust.xmf,1146,-1.26709e-06,4.62682e-06,0,1.75413e-06,-9.54655e+08,-9.54251e+08,-9.54569e+08,120333,-0.0133147,0.104276,-0,0.105123,-16048,-34757.2,-0,38283.2,120333
step02_gravity_refstate-crust.xmf,1147,-1.32661e-06,4.57344e-06,0,2.07903e-06,-9.5807e+08,-9.57665e+08,-9.57979e+08,142621,-0.0149867,0.109986,-0,0.111003,-14677.6,-34881.2,-0,37843.5,142621
step02_gravity_refstate-crust.xmf,1148,-1.13549e-06,3.68386e-06,0,3.80974e-06,-9.75956e+08,-9.75626e+08,-9.75878e+08,261348,-0.0212116,0.137835,-0,0.139458,-9684.49,-35531.8,-0,36827.9,261348
step02_gravity_refstate-crust.xmf,1149,-1.28659e-06,4.0544e-06,0,3.3775e-06,-9.75136e+08,-9.7477e+08,-9.75048e+08,231697,-0.0200019,0.13067,-0,0.132192,-10684.6,-35501.9,-0,37074.8,231697
step02_gravity_refstate-crust.xmf,1150,-1.4047e-06,4.5316e-06,0,2.58803e-06,-9.73623e+08,-9.73216e+08,-9.73527e+08,177539,-0.0171558,0.117415,-0,0.118662,-12797.5,-35447.1,-0,37686.5,177539
step02_gravity_refstate-crust.xmf,1151,-1.37121e-06,4.33103e-06,0,2.96681e-06,-9.7422e+08,-9.73828e+08,-9.74125e+08,203523,-0.0186285,0.123846,-0,0.125239,-11726.9,-35468.6,-0,37356.9,203523
step02_gravity_refstate-crust.xmf,1152,-2.8462e-07,4.09913e-06,0,1.62866e-07,-9.54311e+08,-9.5401e+08,-9.54291e+08,11172.6,-0.00141085,0.0686747,-0,0.0686892,-32072.6,-34747.8,-0,47287,11172.6
step02_gravity_refstate-crust.xmf,1153,-1.11278e-06,4.65145e-06,0,1.24702e-06,-9.53598e+08,-9.53203e+08,-9.53522e+08,85545.9,-0.010247,0.0944197,-0,0.0949741,-18656.3,-34719.4,-0,39414.4,85545.9
step02_gravity_refstate-crust.xmf,1154,-3.42183e-08,4.07091e-06,0,2.03626e-08,-9.97394e+08,-9.97112e+08,-9.97391e+08,1396.87,-5.13979e-05,0.0594593,-0,0.0594593,-37790.9,-36317.3,-0,52412.8,1396.87
step02_gravity_refstate-crust.xmf,1155,6.89209e-06,-9.21034e-06,0,-7.79126e-06,-1.04192e+09,-1.04302e+09,-1.04239e+09,-534480,0.0170719,0.223339,0,0.223991,1804.34,-37945.6,0,37988.5,534480
step02_gravity_refstate-crust.xmf,1156,1.12955e-05,-1.64965e-05,0,-9.18604e-06,-1.07105e+09,-1.07296e+09,-1.07183e+09,-630162,0.0139549,0.246652,0,0.247047,1013.6,-39013,0,39026.1,630162
step02_gravity_refstate-crust.xmf,1157,8.45866e-06,-1.1792e-05,0,-8.50916e-06,-1.05561e+09,-1.057e+09,-1.05619e+09,-583729,0.0161222,0.232906,0,0.233464,1454.52,-38446.6,0,38474.1,583729
step02_gravity_refstate-crust.xmf,1158,1.45225e-05,-2.19094e-05,0,-1.09042e-05,-1.08608e+09,-1.08858e+09,-1.08708e+09,-748031,0.0129873,0.260804,0,0.261127,759.568,-39564.8,0,39572.1,748031
step02_gravity_refstate-crust.xmf,1159,3.28689e-06,-3.66165e-06,0,-7.13895e-06,-1.01496e+09,-1.01543e+09,-1.01518e+09,-489732,0.0212872,0.199759,0,0.20089,3270.65,-36958.2,0,37102.6,489732
step02_gravity_refstate-crust.xmf,1160,4.01212e-06,-4.94701e-06,0,-7.84099e-06,-1.02936e+09,-1.02998e+09,-1.02964e+09,-537892,0.0211425,0.207259,0,0.208334,2834.15,-37483.5,0,37590.5,537892
step02_gravity_refstate-crust.xmf,1161,5.74582e-07,1.04674e-06,0,-4.29553e-06,-9.21578e+08,-9.21546e+08,-9.21618e+08,-294674,0.0207949,0.163758,0,0.165073,6914.68,-33554.9,0,34260,294674
step02_gravity_refstate-crust.xmf,1162,6.68082e-08,1.83633e-06,0,-3.77882e-06,-8.98946e+08,-8.98824e+08,-8.9895e+08,-259227,0.0202957,0.154948,0,0.156271,8362.94,-32730.1,0,33781.7,259227
step02_gravity_refstate-crust.xmf,1163,-5.24274e-07,2.86185e-06,0,-2.77356e-06,-8.49923e+08,-8.49691e+08,-8.49887e+08,-190266,0.0180558,0.138956,0,0.140124,11888.4,-30944.6,0,33149.7,190266
step02_gravity_refstate-crust.xmf,1164,-2.92929e-07,2.43179e-06,0,-3.55103e-06,-9.00434e+08,-9.00247e+08,-9.00414e+08,-243601,0.0202201,0.148176,0,0.149549,9392.79,-32783.8,0,34102.8,243601
step02_gravity_refstate-crust.xmf,1165,1.51689e-06,-6.50563e-07,0,-5.7783e-06,-9.80224e+08,-9.80373e+08,-9.80328e+08,-396391,0.0221374,0.18027,0,0.181624,4871.58,-35691.2,0,36022.1,396391
step02_gravity_refstate-crust.xmf,1166,5.08033e-07,1.01554e-06,0,-4.7088e-06,-9.44156e+08,-9.44122e+08,-9.44191e+08,-323024,0.021706,0.165244,0,0.166664,6610.34,-34376.6,0,35006.4,323024
step02_gravity_refstate-crust.xmf,1167,-7.18282e-07,3.23601e-06,0,-2.53726e-06,-8.54977e+08,-8.54705e+08,-8.54927e+08,-174056,0.017367,0.132411,0,0.133545,13101.6,-31128.4,0,33773.2,174056
step02_gravity_refstate-crust.xmf,1168,-8.23148e-07,3.4983e-06,0,-1.88612e-06,-8.20212e+08,-8.19915e+08,-8.20155e+08,-129388,0.0144786,0.121976,0,0.122832,16562.8,-29862.7,0,34148.3,129388
step02_gravity_refstate-crust.xmf,1169,-8.5527e-07,3.62517e-06,0,-1.64875e-06,-8.18921e+08,-8.18613e+08,-8.18862e+08,-113104,0.0131815,0.116618,0,0.117361,18109.5,-29815.8,0,34884.6,113104
step02_gravity_refstate-crust.xmf,1170,-8.65912e-07,3.73972e-06,0,-1.41904e-06,-8.2269e+08,-8.22374e+08,-8.2263e+08,-97345.9,0.0117978,0.111019,0,0.111644,19688.5,-29953.1,0,35844.5,97345.9
step02_gravity_refstate-crust.xmf,1171,-5.29276e-07,3.60956e-06,0,-4.08504e-07,-8.07394e+08,-8.0711e+08,-8.07357e+08,-28023.4,0.00387668,0.0902546,0,0.0903378,31156.7,-29397.4,0,42836.3,28023.4
step02_gravity_refstate-crust.xmf,1172,-8.45439e-07,3.80636e-06,0,-1.2074e-06,-8.2592e+08,-8.25601e+08,-8.25862e+08,-82827.4,0.0103892,0.105929,0,0.106437,21297.6,-30070.9,0,36849,82827.4
step02_gravity_refstate-crust.xmf,1173,-3.57836e-07,3.60169e-06,0,-1.28576e-09,-8.33531e+08,-8.33259e+08,-8.33506e+08,-88.2034,4.13482e-20,0.0821793,0,0.0821793,40000,-30349.7,0,50210.6,88.2034
step02_gravity_refstate-crust.xmf,1174,1.9494e-05,-2.99981e-05,0,9.31838e-06,-1.09783e+09,-1.10122e+09,-1.09917e+09,639241,-0.0100544,0.276342,-0,0.276525,-499.828,-40000,-0,40003.1,639241
step02_gravity_refstate-crust.xmf,1175,2.07108e-05,-3.24917e-05,0,3.38818e-08,-1.0978e+09,-1.10145e+09,-1.09922e+09,2324.29,1.18075e-06,0.280488,0,0.280488,-1.02887e-10,-40000,-0,40000,2324.29
step02_gravity_refstate-crust.xmf,1176,-5.23228e-07,2.26656e-06,0,5.5962e-06,-1.00817e+09,-1.00798e+09,-1.00814e+09,383900,-0.0243252,0.161016,-0,0.162843,-6672.03,-36704.9,-0,37306.4,383900
step02_gravity_refstate-crust.xmf,1177,-7.14988e-07,2.41917e-06,0,6.03445e-06,-1.02726e+09,-1.02705e+09,-1.02722e+09,413963,-0.0250206,0.162995,-0,0.164905,-6342.73,-37399.4,-0,37933.5,413963
step02_gravity_refstate-crust.xmf,1178,1.80233e-06,-2.34449e-06,0,9.69421e-06,-1.0632e+09,-1.06349e+09,-1.06333e+09,665023,-0.0261202,0.203989,-0,0.205655,-3361.76,-38710.7,-0,38856.4,665023
step02_gravity_refstate-crust.xmf,1179,3.75767e-06,-5.64578e-06,0,1.1264e-05,-1.0733e+09,-1.07394e+09,-1.07356e+09,772713,-0.024807,0.221334,-0,0.22272,-2483.02,-39081,-0,39159.8,772713
step02_gravity_refstate-crust.xmf,1180,3.71495e-06,-6.16738e-06,0,1.27083e-05,-1.08602e+09,-1.0867e+09,-1.08627e+09,871787,-0.0255178,0.228516,-0,0.229936,-2268.3,-39543.1,-0,39608.1,871787
step02_gravity_refstate-crust.xmf,1181,-1.40463e-06,4.67152e-06,0,2.26174e-06,-9.74114e+08,-9.73697e+08,-9.74018e+08,155155,-0.0157088,0.111646,-0,0.112745,-13820.7,-35465.1,-0,38062.9,155155
step02_gravity_refstate-crust.xmf,1182,-6.81817e-08,4.12089e-06,0,4.11491e-08,-1.0008e+09,-1.00051e+09,-1.00079e+09,2822.83,-0.000131717,0.0596964,-0,0.0596965,-35367.6,-36441.2,-0,50782.2,2822.83
step02_gravity_refstate-crust.xmf,1183,-3.64169e-07,4.18455e-06,0,2.3021e-07,-9.56416e+08,-9.56104e+08,-9.56391e+08,15792.4,-0.00203682,0.0703359,-0,0.0703653,-29990.4,-34824.3,-0,45958.2,15792.4
step02_gravity_refstate-crust.xmf,1184,-1.30623e-07,4.18775e-06,0,7.14997e-08,-1.00169e+09,-1.0014e+09,-1.00168e+09,4904.88,-0.000324444,0.0607201,-0,0.060721,-33170.5,-36473.6,-0,49301.2,4904.88
step02_gravity_refstate-crust.xmf,1185,-5.89732e-07,4.37266e-06,0,4.26849e-07,-9.56827e+08,-9.56486e+08,-9.56786e+08,29281.8,-0.00384832,0.0755633,-0,0.0756612,-26109.3,-34838.6,-0,43536.5,29281.8
step02_gravity_refstate-crust.xmf,1186,-4.7245e-07,4.28341e-06,0,3.15189e-07,-9.58192e+08,-9.57866e+08,-9.5816e+08,21622,-0.00281487,0.0724773,-0,0.072532,-28008.3,-34888.7,-0,44740.2,21622
step02_gravity_refstate-crust.xmf,1187,-7.07361e-07,4.45902e-06,0,5.57813e-07,-9.56347e+08,-9.55993e+08,-9.56299e+08,38266,-0.00499953,0.0788807,-0,0.079039,-24339.1,-34820.8,-0,42483.9,38266
step02_gravity_refstate-crust.xmf,1188,-8.17149e-07,4.54812e-06,0,6.92118e-07,-9.58965e+08,-9.58596e+08,-9.58908e+08,47479.3,-0.00610344,0.0818486,-0,0.0820759,-22764.6,-34915.8,-0,41681.4,47479.3
step02_gravity_refstate-crust.xmf,1189,-1.02236e-06,4.65406e-06,0,1.02899e-06,-9.57948e+08,-9.57558e+08,-9.57877e+08,70588.9,-0.00870484,0.0894782,-0,0.0899006,-19962.9,-34878.1,-0,40187.1,70588.9
step02_gravity_refstate-crust.xmf,1190,-9.23627e-07,4.63034e-06,0,8.40975e-07,-9.62023e+08,-9.61642e+08,-9.6196e+08,57690.9,-0.00726477,0.0849916,-0,0.0853015,-21298.2,-35026.8,-0,40993.8,57690.9
step02_gravity_refstate-crust.xmf,1191,-1.18133e-06,4.85864e-06,0,1.25212e-06,-9.80832e+08,-9.80417e+08,-9.80751e+08,85895.2,-0.00998391,0.0919865,-0,0.0925267,-18007.3,-35710.9,-0,39994.1,85895.2
step02_gravity_refstate-crust.xmf,1192,-1.28056e-06,4.8817e-06,0,1.49478e-06,-9.82204e+08,-9.81782e+08,-9.82116e+08,102542,-0.0114924,0.0966356,-0,0.0973166,-16731.9,-35760.5,-0,39481.3,102542
step02_gravity_refstate-crust.xmf,1193,7.83196e-08,4.13521e-06,0,3.03204e-10,-1.03281e+09,-1.03253e+09,-1.03282e+09,20.7998,3.48539e-20,0.0539592,0,0.0539592,-40000,-37607.2,-0,54902.7,20.7998
step02_gravity_refstate-crust.xmf,1194,1.94737e-05,-2.97478e-05,0,-9.56204e-06,-1.09782e+09,-1.1012e+09,-1.09916e+09,-655956,0.0100604,0.276345,0,0.276528,499.828,-40000,0,40003.1,655956
step02_gravity_refstate-crust.xmf,1195,4.93047e-06,-6.42746e-06,0,-8.60976e-06,-1.04366e+09,-1.04444e+09,-1.044e+09,-590629,0.0209569,0.215564,0,0.21658,2430.34,-38005.6,0,38083.2,590629
step02_gravity_refstate-crust.xmf,1196,7.60405e-08,1.75919e-06,0,-4.12712e-06,-9.2192e+08,-9.21805e+08,-9.21925e+08,-283120,0.0211024,0.156996,0,0.158408,7844.41,-33566.5,0,34470.9,283120
step02_gravity_refstate-crust.xmf,1197,-5.29768e-07,2.85673e-06,0,-2.97615e-06,-8.69529e+08,-8.69296e+08,-8.69492e+08,-204164,0.0187454,0.140309,0,0.141555,11240.6,-31658.3,0,33594.7,204164
step02_gravity_refstate-crust.xmf,1198,-5.74528e-07,2.89063e-06,0,-3.34396e-06,-9.04271e+08,-9.04033e+08,-9.04231e+08,-229396,0.0199187,0.142257,0,0.143645,10276.8,-32923,0,34489.7,229396
step02_gravity_refstate-crust.xmf,1199,1.66561e-06,-1.15133e-06,0,-6.52566e-06,-1.0009e+09,-1.00109e+09,-1.00101e+09,-447660,0.0229354,0.185338,0,0.186751,4443.48,-36443.7,0,36713.6,447660
step02_gravity_refstate-crust.xmf,1200,1.98891e-06,-1.84926e-06,0,-7.25986e-06,-1.0177e+09,-1.01796e+09,-1.01783e+09,-498026,0.0234205,0.191477,0,0.192904,3988.04,-37055.5,0,37269.5,498026
step02_gravity_refstate-crust.xmf,1201,5.29961e-07,8.62942e-07,0,-5.16965e-06,-9.65097e+08,-9.65074e+08,-9.65133e+08,-354638,0.0225261,0.168089,0,0.169592,6188.86,-35138.8,0,35679.7,354638
step02_gravity_refstate-crust.xmf,1202,6.25035e-07,5.74843e-07,0,-5.69385e-06,-9.83938e+08,-9.83941e+08,-9.83981e+08,-390598,0.0232438,0.172115,0,0.173677,5704.52,-35824.7,0,36276,390598
step02_gravity_refstate-crust.xmf,1203,-8.53034e-07,3.51137e-06,0,-2.26851e-06,-8.557e+08,-8.55401e+08,-8.55641e+08,-155620,0.016318,0.126144,0,0.127195,14435.4,-31154.6,0,34336.4,155620
step02_gravity_refstate-crust.xmf,1204,-9.20469e-07,3.70554e-06,0,-1.99569e-06,-8.55013e+08,-8.54696e+08,-8.5495e+08,-136905,0.015059,0.120195,0,0.121135,15852.4,-31129.6,0,34933.5,136905
step02_gravity_refstate-crust.xmf,1205,-4.17943e-07,3.68309e-06,0,-2.2618e-07,-8.41805e+08,-8.41523e+08,-8.41776e+08,-15516,0.00217826,0.0830995,0,0.083128,34077.5,-30650.8,0,45833.9,15516
step02_gravity_refstate-crust.xmf,1206,-4.66353e-07,3.72611e-06,0,-3.12306e-07,-8.42904e+08,-8.42616e+08,-8.42872e+08,-21424.2,0.00300712,0.084503,0,0.0845565,32155.8,-30690.6,0,44451.2,21424.2
step02_gravity_refstate-crust.xmf,1207,-5.24173e-07,3.78403e-06,0,-4.08123e-07,-8.46038e+08,-8.45743e+08,-8.46003e+08,-27997.3,0.00390899,0.0861,0,0.0861887,30236.5,-30804.6,0,43164.5,27997.3
step02_gravity_refstate-crust.xmf,1208,-5.92891e-07,3.82175e-06,0,-5.2198e-07,-8.43935e+08,-8.43632e+08,-8.43894e+08,-35807.8,0.00494766,0.088784,0,0.0889217,28417.4,-30727.8,0,41853.9,35807.8
step02_gravity_refstate-crust.xmf,1209,-6.69477e-07,3.83955e-06,0,-6.65899e-07,-8.38131e+08,-8.37822e+08,-8.38085e+08,-45680.7,0.00620251,0.092561,0,0.0927685,26558.4,-30516.2,0,40454.8,45680.7
step02_gravity_refstate-crust.xmf,1210,-8.01766e-07,3.84023e-06,0,-1.00973e-06,-8.2945e+08,-8.29131e+08,-8.29395e+08,-69267.5,0.00896022,0.101141,0,0.101537,22981.4,-30199.7,0,37949.5,69267.5
step02_gravity_refstate-crust.xmf,1211,-7.41101e-07,3.84847e-06,0,-8.28728e-07,-8.33401e+08,-8.33086e+08,-8.3335e+08,-56850.8,0.00755172,0.0966825,0,0.096977,24739.2,-30343.8,0,39150.6,56850.8
step02_gravity_refstate-crust.xmf,1212,-3.69521e-07,3.66938e-06,0,-1.39311e-07,-8.47057e+08,-8.4678e+08,-8.47032e+08,-9556.75,0.00133551,0.0812345,0,0.0812455,36145.8,-30842.1,0,47515.9,9556.75
step02_gravity_refstate-crust.xmf,1213,-3.13744e-07,3.71527e-06,0,-6.15204e-08,-8.66586e+08,-8.6631e+08,-8.66564e+08,-4220.3,0.000581353,0.0779789,0,0.077981,38106.4,-31553.4,0,49474.4,4220.3
step02_gravity_refstate-crust.xmf,1214,-8.95479e-07,2.97296e-06,0,5.05932e-06,-1.00582e+09,-1.00556e+09,-1.00576e+09,347069,-0.0236839,0.152894,-0,0.154717,-7502.44,-36618.9,-0,37379.5,347069
step02_gravity_refstate-crust.xmf,1215,2.76819e-07,2.88972e-07,0,8.10948e-06,-1.05124e+09,-1.05124e+09,-1.05126e+09,556310,-0.0264079,0.185451,-0,0.187322,-4508.45,-38273.1,-0,38537.7,556310
step02_gravity_refstate-crust.xmf,1216,-9.44292e-07,2.60508e-06,0,6.49046e-06,-1.0455e+09,-1.04525e+09,-1.04543e+09,445245,-0.0256227,0.165012,-0,0.16699,-6036.24,-38062.5,-0,38538.2,445245
step02_gravity_refstate-crust.xmf,1217,-4.1574e-07,1.58116e-06,0,7.25764e-06,-1.04722e+09,-1.04708e+09,-1.04719e+09,497874,-0.0261837,0.174884,-0,0.176833,-5268.4,-38125.8,-0,38488.1,497874
step02_gravity_refstate-crust.xmf,1218,5.03931e-07,-3.79406e-07,0,9.11854e-06,-1.06586e+09,-1.06592e+09,-1.0659e+09,625532,-0.026995,0.193866,-0,0.195737,-3969.7,-38805.3,-0,39007.8,625532
step02_gravity_refstate-crust.xmf,1219,2.13584e-06,-3.19447e-06,0,1.06366e-05,-1.07256e+09,-1.07293e+09,-1.07271e+09,729669,-0.0262749,0.211122,-0,0.212751,-3014.67,-39051.3,-0,39167.5,729669
step02_gravity_refstate-crust.xmf,1220,-1.15481e-06,3.51092e-06,0,4.54501e-06,-1.00313e+09,-1.00281e+09,-1.00305e+09,311788,-0.0227767,0.145181,-0,0.146956,-8362.26,-36520.8,-0,37465.9,311788
step02_gravity_refstate-crust.xmf,1221,-1.34407e-06,3.95579e-06,0,4.04418e-06,-1.00114e+09,-1.00078e+09,-1.00105e+09,277431,-0.0216507,0.137651,-0,0.139344,-9266.67,-36448.3,-0,37607.9,277431
step02_gravity_refstate-crust.xmf,1222,-1.36616e-06,4.91301e-06,0,1.72378e-06,-9.87248e+08,-9.86818e+08,-9.87155e+08,118251,-0.0127558,0.100501,-0,0.101308,-15621.7,-35943.8,-0,39191.8,118251
step02_gravity_refstate-crust.xmf,1223,-1.46747e-06,4.31092e-06,0,3.56431e-06,-9.99854e+08,-9.99457e+08,-9.99753e+08,244512,-0.0203273,0.130291,-0,0.131867,-10220.5,-36401.4,-0,37809,244512
step02_gravity_refstate-crust.xmf,1224,-1.44417e-06,4.90549e-06,0,2.00664e-06,-9.90864e+08,-9.90429e+08,-9.90765e+08,137656,-0.0142195,0.105327,-0,0.106283,-14476.6,-36075.2,-0,38871.4,137656
step02_gravity_refstate-crust.xmf,1225,-1.5284e-06,4.57403e-06,0,3.11507e-06,-9.98583e+08,-9.98164e+08,-9.98478e+08,213694,-0.0188607,0.123273,-0,0.124707,-11219.3,-36355.3,-0,38047.1,213694
step02_gravity_refstate-crust.xmf,1226,-1.50974e-06,4.86986e-06,0,2.33207e-06,-9.95266e+08,-9.94829e+08,-9.95163e+08,159980,-0.0157288,0.110599,-0,0.111712,-13341,-36235.1,-0,38613,159980
step02_gravity_refstate-crust.xmf,1227,-1.5394e-06,4.75844e-06,0,2.70196e-06,-9.97237e+08,-9.96805e+08,-9.97132e+08,185354,-0.0173027,0.116654,-0,0.11793,-12262.2,-36306.6,-0,38321.4,185354
step02_gravity_refstate-crust.xmf,1228,-2.10263e-07,4.27491e-06,0,1.1147e-07,-1.00346e+09,-1.00315e+09,-1.00344e+09,7646.83,-0.000629664,0.0620089,-0,0.0620121,-31093.7,-36537.7,-0,47977.3,7646.83
step02_gravity_refstate-crust.xmf,1229,-5.81287e-07,4.5789e-06,0,3.77938e-07,-9.96748e+08,-9.96394e+08,-9.96709e+08,25926.6,-0.00308387,0.0707045,-0,0.0707717,-25149.7,-36292.4,-0,44154.7,25926.6
step02_gravity_refstate-crust.xmf,1230,-1.08102e-06,4.82082e-06,0,1.05408e-06,-9.80358e+08,-9.79953e+08,-9.80284e+08,72310.2,-0.00863707,0.0879381,-0,0.0883613,-19218.6,-35694,-0,40539.1,72310.2
step02_gravity_refstate-crust.xmf,1231,1.26715e-07,4.17973e-06,0,-2.2435e-09,-1.05204e+09,-1.05176e+09,-1.05205e+09,-153.904,0.000222377,0.0511615,0,0.051162,-38314,-38307.6,-0,54179.7,153.904
step02_gravity_refstate-crust.xmf,1232,8.55349e-08,4.19632e-06,0,-4.24376e-10,-1.0473e+09,-1.04701e+09,-1.0473e+09,-29.1122,0.00038409,0.0522612,0,0.0522626,-36486.4,-38134.7,-0,52778,29.1122
step02_gravity_refstate-crust.xmf,1233,5.92652e-06,-8.4369e-06,0,-9.78688e-06,-1.0576e+09,-1.05859e+09,-1.05801e+09,-671380,0.0206802,0.224862,0,0.225811,2053.42,-38514,0,38568.7,671380
step02_gravity_refstate-crust.xmf,1234,7.38668e-06,-1.11241e-05,0,-1.11441e-05,-1.07111e+09,-1.07238e+09,-1.07162e+09,-764488,0.0200519,0.236003,0,0.236854,1667.57,-39007.5,0,39043.2,764488
step02_gravity_refstate-crust.xmf,1235,9.48883e-06,-1.50017e-05,0,-1.31221e-05,-1.08516e+09,-1.08684e+09,-1.08581e+09,-900176,0.0192389,0.249665,0,0.250405,1295.93,-39521.3,0,39542.6,900176
step02_gravity_refstate-crust.xmf,1236,2.52527e-06,-2.87224e-06,0,-8.03849e-06,-1.03215e+09,-1.03252e+09,-1.03233e+09,-551440,0.0235615,0.199078,0,0.200467,3488.04,-37582.4,0,37743.9,551440
step02_gravity_refstate-crust.xmf,1237,3.1479e-06,-4.04478e-06,0,-8.8607e-06,-1.045e+09,-1.0455e+09,-1.04522e+09,-607844,0.0235884,0.206824,0,0.208165,3050.98,-38050.9,0,38173,607844
step02_gravity_refstate-crust.xmf,1238,5.83949e-08,1.73941e-06,0,-4.48489e-06,-9.44239e+08,-9.44123e+08,-9.44243e+08,-307664,0.0219309,0.158776,0,0.160283,7419.62,-34378.9,0,35170.4,307664
step02_gravity_refstate-crust.xmf,1239,-3.32315e-07,2.4122e-06,0,-3.87366e-06,-9.23258e+08,-9.2307e+08,-9.23235e+08,-265733,0.0210205,0.149912,0,0.151379,8829.83,-33614.5,0,34754.9,265733
step02_gravity_refstate-crust.xmf,1240,-7.92812e-07,3.33348e-06,0,-2.77084e-06,-8.83534e+08,-8.83251e+08,-8.8348e+08,-190079,0.0182247,0.132971,0,0.134214,12313.6,-32167.9,0,34444.1,190079
step02_gravity_refstate-crust.xmf,1241,-6.84112e-07,3.10001e-06,0,-3.09639e-06,-8.95645e+08,-8.95385e+08,-8.95598e+08,-212412,0.0192473,0.138171,0,0.139505,11117.2,-32608.9,0,34451.8,212412
step02_gravity_refstate-crust.xmf,1242,-6.28965e-07,2.94108e-06,0,-3.57707e-06,-9.24314e+08,-9.24069e+08,-9.24271e+08,-245387,0.020568,0.143116,0,0.144586,9811.79,-33652.6,0,35053.8,245387
step02_gravity_refstate-crust.xmf,1243,7.75285e-07,2.45751e-07,0,-6.26984e-06,-1.00205e+09,-1.00209e+09,-1.00211e+09,-430111,0.0239541,0.17679,0,0.178406,5226.16,-36484.2,0,36856.6,430111
step02_gravity_refstate-crust.xmf,1244,7.02308e-09,1.67325e-06,0,-4.9161e-06,-9.6549e+08,-9.65375e+08,-9.6549e+08,-337244,0.0227544,0.16115,0,0.162748,6974.05,-35152.2,0,35837.4,337244
step02_gravity_refstate-crust.xmf,1245,-9.45199e-07,3.66614e-06,0,-2.45234e-06,-8.8608e+08,-8.85764e+08,-8.86015e+08,-168231,0.0170767,0.125885,0,0.127038,13642.2,-32260.5,0,35026.4,168231
step02_gravity_refstate-crust.xmf,1246,-9.52925e-07,3.85078e-06,0,-1.73377e-06,-8.55476e+08,-8.55146e+08,-8.5541e+08,-118937,0.0136943,0.114502,0,0.115318,17304.1,-31146.6,0,35630.6,118937
step02_gravity_refstate-crust.xmf,1247,-9.51381e-07,3.95731e-06,0,-1.48775e-06,-8.58358e+08,-8.58022e+08,-8.58293e+08,-102060,0.0122339,0.108834,0,0.10952,18806.3,-31251.7,0,36473.9,102060
step02_gravity_refstate-crust.xmf,1248,-9.22137e-07,4.03055e-06,0,-1.25528e-06,-8.62844e+08,-8.62505e+08,-8.62781e+08,-86112.4,0.0107206,0.10334,0,0.103895,20353.5,-31415.2,0,37432.4,86112.4
step02_gravity_refstate-crust.xmf,1249,-8.66303e-07,4.06395e-06,0,-1.04075e-06,-8.67166e+08,-8.66828e+08,-8.67107e+08,-71395.4,0.00919375,0.0982078,0,0.0986372,21979.5,-31572.8,0,38470,71395.4
step02_gravity_refstate-crust.xmf,1250,-2.42561e-07,3.8105e-06,0,-1.57807e-09,-9.00518e+08,-9.0024e+08,-9.00502e+08,-108.256,2.5978e-20,0.0731372,0,0.0731372,40000,-32789.2,0,51721.7,108.256
step02_gravity_refstate-crust.xmf,1251,-1.10032e-06,3.17867e-06,0,5.41991e-06,-1.02595e+09,-1.02566e+09,-1.02587e+09,371806,-0.0242695,0.154267,-0,0.156164,-7146.98,-37351.2,-0,38028.8,371806
step02_gravity_refstate-crust.xmf,1252,-1.32012e-06,3.42159e-06,0,5.7612e-06,-1.04447e+09,-1.04414e+09,-1.04438e+09,395218,-0.0247236,0.155635,-0,0.157586,-6824.53,-38024.9,-0,38632.5,395218
step02_gravity_refstate-crust.xmf,1253,6.63531e-07,-9.58069e-07,0,1.03287e-05,-1.08097e+09,-1.08108e+09,-1.08101e+09,708550,-0.0275776,0.202636,-0,0.204504,-3496.9,-39354.9,-0,39510,708550
step02_gravity_refstate-crust.xmf,1254,1.83288e-06,-3.03982e-06,0,1.15499e-05,-1.08505e+09,-1.08539e+09,-1.08518e+09,792322,-0.0271023,0.215164,-0,0.216865,-2882.18,-39505.1,-0,39610.1,792322
step02_gravity_refstate-crust.xmf,1255,3.91714e-08,4.25763e-06,0,4.1045e-09,-1.04949e+09,-1.0492e+09,-1.04949e+09,281.568,0.000561275,0.0527463,0,0.0527493,-34293.4,-38214.3,-0,51345.6,281.568
step02_gravity_refstate-crust.xmf,1256,-3.02371e-07,4.37689e-06,0,1.65405e-07,-1.00538e+09,-1.00506e+09,-1.00536e+09,11346.8,-0.00109365,0.0637202,-0,0.0637296,-29064.5,-36607.3,-0,46742.3,11346.8
step02_gravity_refstate-crust.xmf,1257,-3.20848e-08,4.3405e-06,0,1.86916e-08,-1.0507e+09,-1.0504e+09,-1.05069e+09,1282.24,0.000603902,0.0537629,0,0.0537662,-32175.7,-38258.2,-0,49989.7,1282.24
step02_gravity_refstate-crust.xmf,1258,-4.32418e-07,4.51188e-06,0,2.42928e-07,-1.00863e+09,-1.00829e+09,-1.0086e+09,16664.8,-0.0017686,0.0659078,-0,0.0659316,-26929.5,-36725.3,-0,45540.6,16664.8
step02_gravity_refstate-crust.xmf,1259,-7.20247e-07,4.68533e-06,0,5.11087e-07,-9.95971e+08,-9.956e+08,-9.95922e+08,35060.6,-0.00425151,0.0742368,-0,0.0743584,-23389.8,-36263.7,-0,43152.4,35060.6
step02_gravity_refstate-crust.xmf,1260,-8.43601e-07,4.79064e-06,0,6.44604e-07,-9.983e+08,-9.97914e+08,-9.98242e+08,44219.8,-0.00533202,0.0772891,-0,0.0774728,-21875.2,-36348.1,-0,42423,44219.8
step02_gravity_refstate-crust.xmf,1261,-9.99659e-07,4.88893e-06,0,8.52975e-07,-9.98086e+08,-9.97682e+08,-9.98017e+08,58514.1,-0.00694959,0.08204,-0,0.0823338,-20118.5,-36339.8,-0,41537.2,58514.1
step02_gravity_refstate-crust.xmf,1262,-1.12479e-06,5.01279e-06,0,1.0248e-06,-1.00658e+09,-1.00615e+09,-1.0065e+09,70301.3,-0.00807198,0.0849964,-0,0.0853789,-18685.6,-36648.6,-0,41137.2,70301.3
step02_gravity_refstate-crust.xmf,1263,-1.24734e-06,5.08414e-06,0,1.24205e-06,-1.00924e+09,-1.0088e+09,-1.00915e+09,85204.5,-0.00949083,0.0891936,-0,0.0896971,-17374.8,-36745.1,-0,40645.9,85204.5
step02_gravity_refstate-crust.xmf,1264,-1.36029e-06,5.14212e-06,0,1.47352e-06,-1.01275e+09,-1.01231e+09,-1.01266e+09,101084,-0.0108758,0.0933912,-0,0.0940224,-16175,-36872.8,-0,40264.5,101084
step02_gravity_refstate-crust.xmf,1265,3.78528e-06,-5.18726e-06,0,-9.88686e-06,-1.05857e+09,-1.05918e+09,-1.05883e+09,-678238,0.0238004,0.214934,0,0.216247,2677.86,-38545.5,0,38638.4,678238
step02_gravity_refstate-crust.xmf,1266,-3.85589e-07,2.41947e-06,0,-4.21198e-06,-9.45499e+08,-9.45306e+08,-9.45472e+08,-288942,0.0218167,0.151636,0,0.153197,8325.54,-34424,0,35416.5,288942
step02_gravity_refstate-crust.xmf,1267,-8.38824e-07,3.33023e-06,0,-3.26342e-06,-9.22603e+08,-9.22317e+08,-9.22545e+08,-223871,0.0198171,0.136964,0,0.13839,10794.7,-33590,0,35282,223871
step02_gravity_refstate-crust.xmf,1268,8.59202e-07,-1.75327e-07,0,-7.0147e-06,-1.02009e+09,-1.02016e+09,-1.02015e+09,-481208,0.0246924,0.182147,0,0.183813,4758.75,-37140.6,0,37444.2,481208
step02_gravity_refstate-crust.xmf,1269,1.08592e-06,-7.91022e-07,0,-7.94475e-06,-1.03824e+09,-1.03837e+09,-1.03831e+09,-545010,0.025382,0.18954,0,0.191232,4213.46,-37801.2,0,38035.3,545010
step02_gravity_refstate-crust.xmf,1270,-9.58192e-09,1.56399e-06,0,-5.39271e-06,-9.85385e+08,-9.85277e+08,-9.85385e+08,-369940,0.0235599,0.164268,0,0.165949,6504.51,-35876.3,0,36461.2,369940
step02_gravity_refstate-crust.xmf,1271,-1.68066e-08,1.4123e-06,0,-5.93742e-06,-1.00428e+09,-1.00419e+09,-1.00428e+09,-407307,0.0243576,0.168075,0,0.169831,6026.82,-36564.1,0,37057.4,407307
step02_gravity_refstate-crust.xmf,1272,-3.15449e-07,3.84918e-06,0,-1.47172e-07,-8.96035e+08,-8.95749e+08,-8.96013e+08,-10096,0.00140425,0.0751937,0,0.0752068,34823.4,-32625.7,0,47719.1,10096
step02_gravity_refstate-crust.xmf,1273,-1.03024e-06,3.91189e-06,0,-2.12223e-06,-8.87518e+08,-8.87179e+08,-8.87447e+08,-145585,0.0156457,0.11897,0,0.119994,15082.2,-32312.9,0,35659.4,145585
step02_gravity_refstate-crust.xmf,1274,-1.05557e-06,4.06771e-06,0,-1.83479e-06,-8.89281e+08,-8.8893e+08,-8.89209e+08,-125867,0.0141759,0.112831,0,0.113718,16474,-32377.2,0,36327.4,125867
step02_gravity_refstate-crust.xmf,1275,-3.70444e-07,3.88406e-06,0,-2.15531e-07,-8.93438e+08,-8.93146e+08,-8.93413e+08,-14785.4,0.00206508,0.0768156,0,0.0768434,32953,-32531,0,46305.2,14785.4
step02_gravity_refstate-crust.xmf,1276,-4.39553e-07,3.93296e-06,0,-2.98739e-07,-8.9161e+08,-8.9131e+08,-8.9158e+08,-20493.5,0.00286732,0.0788363,0,0.0788885,31011.2,-32464.3,0,44895.7,20493.5
step02_gravity_refstate-crust.xmf,1277,-5.2147e-07,3.98118e-06,0,-4.00387e-07,-8.88181e+08,-8.87873e+08,-8.88146e+08,-27466.6,0.00382727,0.0815354,0,0.0816252,29116.2,-32339.2,0,43515.2,27466.6
step02_gravity_refstate-crust.xmf,1278,-6.11561e-07,4.02448e-06,0,-5.23253e-07,-8.83629e+08,-8.83311e+08,-8.83587e+08,-35895.2,0.00495301,0.0848613,0,0.0850057,27268.1,-32173.2,0,42174.2,35895.2
step02_gravity_refstate-crust.xmf,1279,-7.04015e-07,4.05849e-06,0,-6.70537e-07,-8.78593e+08,-8.78266e+08,-8.78545e+08,-45998.8,0.00624372,0.0887675,0,0.0889868,25449.6,-31989.5,0,40878,45998.8
step02_gravity_refstate-crust.xmf,1280,-7.91186e-07,4.07135e-06,0,-8.43935e-07,-8.72488e+08,-8.72155e+08,-8.72434e+08,-57894,0.00767717,0.0933018,0,0.0936171,23690.2,-31766.9,0,39627.8,57894
step02_gravity_refstate-crust.xmf,1281,-2.78074e-07,3.81953e-06,0,-9.2122e-08,-8.96293e+08,-8.96012e+08,-8.96274e+08,-6319.57,0.000872932,0.074326,0,0.0743311,36630.7,-32635.2,0,49059.8,6319.57
step02_gravity_refstate-crust.xmf,1282,-1.93032e-07,3.898e-06,0,-4.24952e-08,-9.28619e+08,-9.28339e+08,-9.28606e+08,-2915.17,0.000365984,0.0693913,0,0.0693922,38046.6,-33812.6,0,50900.2,2915.17
step02_gravity_refstate-crust.xmf,1283,-1.37747e-06,3.78658e-06,0,4.82639e-06,-1.0253e+09,-1.02494e+09,-1.0252e+09,331090,-0.023229,0.145787,-0,0.147626,-7985.53,-37327.2,-0,38171.9,331090
step02_gravity_refstate-crust.xmf,1284,-3.61423e-07,1.14474e-06,0,8.46188e-06,-1.06968e+09,-1.06958e+09,-1.06966e+09,580485,-0.0272024,0.184534,-0,0.186528,-4536.96,-38943.1,-0,39206.5,580485
step02_gravity_refstate-crust.xmf,1285,-8.46533e-07,2.11309e-06,0,7.62343e-06,-1.06557e+09,-1.06536e+09,-1.06551e+09,522967,-0.0267181,0.175154,-0,0.17718,-5162.53,-38792.9,-0,39134.9,522967
step02_gravity_refstate-crust.xmf,1286,-1.58963e-06,3.74038e-06,0,6.06488e-06,-1.06276e+09,-1.0624e+09,-1.06266e+09,416051,-0.024963,0.156407,-0,0.158387,-6563.34,-38690.4,-0,39243.1,416051
step02_gravity_refstate-crust.xmf,1287,-1.25991e-06,2.9718e-06,0,6.86889e-06,-1.06409e+09,-1.0638e+09,-1.064e+09,471206,-0.0260304,0.166162,-0,0.168188,-5805.16,-38738.8,-0,39171.3,471206
step02_gravity_refstate-crust.xmf,1288,-4.69161e-07,1.07105e-06,0,9.21106e-06,-1.0828e+09,-1.08269e+09,-1.08277e+09,631878,-0.0277126,0.189774,-0,0.191786,-4195.73,-39420.2,-0,39642.8,631878
step02_gravity_refstate-crust.xmf,1289,-1.57128e-06,4.26812e-06,0,4.27061e-06,-1.02564e+09,-1.02524e+09,-1.02553e+09,292964,-0.0219428,0.13755,-0,0.139289,-8855.37,-37339.6,-0,38375.3,292964
step02_gravity_refstate-crust.xmf,1290,-1.67153e-06,4.61867e-06,0,3.7383e-06,-1.02488e+09,-1.02445e+09,-1.02477e+09,256447,-0.0204741,0.129756,-0,0.131362,-9774.06,-37312.3,-0,38571.2,256447
step02_gravity_refstate-crust.xmf,1291,-1.46545e-06,5.18304e-06,0,1.72888e-06,-1.01657e+09,-1.01611e+09,-1.01647e+09,118601,-0.0122799,0.097814,-0,0.0985818,-15043.1,-37011.2,-0,39951.5,118601
step02_gravity_refstate-crust.xmf,1292,-1.70638e-06,4.86565e-06,0,3.25297e-06,-1.02384e+09,-1.02339e+09,-1.02372e+09,223154,-0.0189098,0.122501,-0,0.123952,-10723.1,-37274.5,-0,38786.2,223154
step02_gravity_refstate-crust.xmf,1293,-1.56068e-06,5.18528e-06,0,2.03194e-06,-1.01917e+09,-1.01871e+09,-1.01906e+09,139391,-0.0138353,0.102998,-0,0.103923,-13926.3,-37105.6,-0,39632.9,139391
step02_gravity_refstate-crust.xmf,1294,-1.6901e-06,5.02936e-06,0,2.80436e-06,-1.0221e+09,-1.02164e+09,-1.02199e+09,192379,-0.017258,0.115621,-0,0.116902,-11738.7,-37211.6,-0,39019.3,192379
step02_gravity_refstate-crust.xmf,1295,-1.64126e-06,5.13641e-06,0,2.40055e-06,-1.02098e+09,-1.02051e+09,-1.02086e+09,164678,-0.0155599,0.109123,-0,0.110227,-12791.7,-37171,-0,39310.4,164678
step02_gravity_refstate-crust.xmf,1296,-1.22356e-07,4.44262e-06,0,4.55427e-08,-1.05201e+09,-1.0517e+09,-1.052e+09,3124.23,0.000492895,0.0551308,0,0.055133,-30152.5,-38305.9,-0,48749.4,3124.23
step02_gravity_refstate-crust.xmf,1297,-4.72634e-07,4.67744e-06,0,2.5158e-07,-1.0317e+09,-1.03134e+09,-1.03166e+09,17258.4,-0.00153064,0.0641411,-0,0.0641593,-25549.4,-37565.2,-0,45430.4,17258.4
step02_gravity_refstate-crust.xmf,1298,-5.91553e-07,4.77707e-06,0,3.42235e-07,-1.03065e+09,-1.03028e+09,-1.03061e+09,23477.3,-0.00234141,0.0668479,-0,0.0668889,-24097,-37526.8,-0,44597.3,23477.3
step02_gravity_refstate-crust.xmf,1299,4.24229e-06,-6.53153e-06,0,-1.15568e-05,-1.07411e+09,-1.07485e+09,-1.0744e+09,-792794,0.0243056,0.224422,0,0.225735,2332.49,-39111.1,0,39180.6,792794
step02_gravity_refstate-crust.xmf,1300,5.97989e-06,-9.39684e-06,0,-1.31709e-05,-1.08573e+09,-1.08678e+09,-1.08614e+09,-903524,0.0234541,0.23799,0,0.239143,1839.25,-39536.7,0,39579.5,903524
step02_gravity_refstate-crust.xmf,1301,1.97564e-06,-2.24983e-06,0,-8.6824e-06,-1.04657e+09,-1.04686e+09,-1.0467e+09,-595613,0.0250811,0.199125,0,0.200698,3578.99,-38105.9,0,38273.6,595613
step02_gravity_refstate-crust.xmf,1302,2.05199e-06,-2.67462e-06,0,-9.5005e-06,-1.05824e+09,-1.05857e+09,-1.05839e+09,-651734,0.0255965,0.204282,0,0.205879,3316.97,-38530.6,0,38673.1,651734
step02_gravity_refstate-crust.xmf,1303,-4.38578e-07,2.43816e-06,0,-4.57063e-06,-9.66793e+08,-9.66596e+08,-9.66763e+08,-313545,0.0226022,0.153571,0,0.155225,7848.72,-35199.1,0,36063.5,313545
step02_gravity_refstate-crust.xmf,1304,-7.24433e-07,3.01317e-06,0,-3.86511e-06,-9.46628e+08,-9.46372e+08,-9.46578e+08,-265146,0.0213021,0.144275,0,0.145839,9297.84,-34464.7,0,35696.8,265146
step02_gravity_refstate-crust.xmf,1305,-9.67774e-07,3.61585e-06,0,-2.92843e-06,-9.17722e+08,-9.17407e+08,-9.17655e+08,-200890,0.0187919,0.130979,0,0.13232,11892.8,-33412.3,0,35465.7,200890
step02_gravity_refstate-crust.xmf,1306,-1.08544e-06,3.9112e-06,0,-2.57197e-06,-9.17489e+08,-9.17146e+08,-9.17414e+08,-176437,0.0175012,0.124088,0,0.125316,13145,-33403.8,0,35897.1,176437
step02_gravity_refstate-crust.xmf,1307,-9.54622e-07,3.47468e-06,0,-3.49486e-06,-9.46729e+08,-9.46425e+08,-9.46664e+08,-239747,0.0204587,0.137219,0,0.138735,10299,-34468.1,0,35973.9,239747
step02_gravity_refstate-crust.xmf,1308,1.25142e-08,1.23663e-06,0,-6.53551e-06,-1.02222e+09,-1.02214e+09,-1.02222e+09,-448336,0.0251422,0.172514,0,0.174336,5554.84,-37217,0,37629.2,448336
step02_gravity_refstate-crust.xmf,1309,-5.32948e-07,2.43326e-06,0,-4.9997e-06,-9.87441e+08,-9.87238e+08,-9.87404e+08,-342979,0.0233997,0.156084,0,0.157829,7355.61,-35950.4,0,36695.2,342979
step02_gravity_refstate-crust.xmf,1310,-1.14654e-06,4.12346e-06,0,-2.24992e-06,-9.18221e+08,-9.17859e+08,-9.18142e+08,-154344,0.0161189,0.11776,0,0.118858,14375.3,-33430.5,0,36390.2,154344
step02_gravity_refstate-crust.xmf,1311,-1.04631e-06,4.18613e-06,0,-1.55403e-06,-8.92746e+08,-8.92387e+08,-8.92674e+08,-106607,0.0125881,0.106757,0,0.107497,17933.7,-32503.5,0,37122.8,106607
step02_gravity_refstate-crust.xmf,1312,-1.00441e-06,4.25416e-06,0,-1.3007e-06,-8.97282e+08,-8.96921e+08,-8.97213e+08,-89227.7,0.0109486,0.100932,0,0.101524,19446.7,-32669,0,38018.9,89227.7
step02_gravity_refstate-crust.xmf,1313,-9.36112e-07,4.28666e-06,0,-1.06911e-06,-9.02445e+08,-9.02087e+08,-9.02381e+08,-73341.2,0.00932361,0.0954765,0,0.0959307,21002.7,-32857.3,0,38996.3,73341.2
step02_gravity_refstate-crust.xmf,1314,-8.46075e-07,4.28996e-06,0,-8.56903e-07,-9.08579e+08,-9.08227e+08,-9.08521e+08,-58783.5,0.00770254,0.0902181,0,0.0905463,22654.7,-33081,0,40094.7,58783.5
step02_gravity_refstate-crust.xmf,1315,-9.5629e-08,3.9875e-06,0,-2.16802e-09,-9.66879e+08,-9.66599e+08,-9.66872e+08,-148.726,5.4242e-21,0.0637117,0,0.0637117,40000,-35206,0,53286.6,148.726
step02_gravity_refstate-crust.xmf,1316,-1.58065e-06,4.03382e-06,0,5.1088e-06,-1.04446e+09,-1.04407e+09,-1.04435e+09,350464,-0.0235674,0.146801,-0,0.14868,-7620.93,-38024.4,-0,38780.6,350464
step02_gravity_refstate-crust.xmf,1317,-1.79012e-06,4.32846e-06,0,5.34989e-06,-1.0621e+09,-1.06168e+09,-1.06198e+09,367003,-0.0237211,0.147586,-0,0.14948,-7308.32,-38666.3,-0,39350.9,367003
step02_gravity_refstate-crust.xmf,1318,-1.12057e-06,2.37558e-06,0,8.22339e-06,-1.08292e+09,-1.08268e+09,-1.08284e+09,564125,-0.0271948,0.178634,-0,0.180692,-4848.39,-39424,-0,39721,564125
step02_gravity_refstate-crust.xmf,1319,-2.23643e-07,4.55906e-06,0,8.72882e-08,-1.05346e+09,-1.05313e+09,-1.05344e+09,5987.97,0.000209362,0.0568534,0,0.0568538,-28213.3,-38358.4,-0,47616.8,5987.97
step02_gravity_refstate-crust.xmf,1320,-7.32712e-07,4.9001e-06,0,4.65975e-07,-1.03135e+09,-1.03096e+09,-1.0313e+09,31965.9,-0.00338292,0.0700776,-0,0.0701593,-22463,-37551.9,-0,43757.7,31965.9
step02_gravity_refstate-crust.xmf,1321,-3.31963e-07,4.68844e-06,0,1.34239e-07,-1.05769e+09,-1.05734e+09,-1.05766e+09,9208.8,-0.000101472,0.058281,-0,0.0582811,-26507.4,-38512,-0,46752.7,9208.8
step02_gravity_refstate-crust.xmf,1322,-4.44246e-07,4.83337e-06,0,1.94462e-07,-1.06356e+09,-1.0632e+09,-1.06353e+09,13340.1,-0.000493602,0.0598101,-0,0.0598121,-24820.2,-38725.7,-0,45997,13340.1
step02_gravity_refstate-crust.xmf,1323,-8.77117e-07,5.0187e-06,0,6.14901e-07,-1.03227e+09,-1.03186e+09,-1.03221e+09,42182.2,-0.00457121,0.0736498,-0,0.0737915,-20919.4,-37584.9,-0,43014.5,42182.2
step02_gravity_refstate-crust.xmf,1324,-1.02395e-06,5.1364e-06,0,7.89326e-07,-1.03435e+09,-1.03393e+09,-1.03428e+09,54147.8,-0.00587059,0.0774842,-0,0.0777063,-19428,-37660.5,-0,42376.4,54147.8
step02_gravity_refstate-crust.xmf,1325,-1.17053e-06,5.24227e-06,0,9.94177e-07,-1.0365e+09,-1.03606e+09,-1.03642e+09,68200.5,-0.00729259,0.0817142,-0,0.082039,-18015.4,-37738.3,-0,41817.9,68200.5
step02_gravity_refstate-crust.xmf,1326,-1.43448e-06,5.41595e-06,0,1.45047e-06,-1.04333e+09,-1.04286e+09,-1.04323e+09,99502,-0.0100662,0.0902028,-0,0.0907628,-15566.3,-37986.1,-0,41051.8,99502
step02_gravity_refstate-crust.xmf,1327,-1.30638e-06,5.33492e-06,0,1.21317e-06,-1.03954e+09,-1.03909e+09,-1.03946e+09,83223.2,-0.00868575,0.0859199,-0,0.0863578,-16742.7,-37848.6,-0,41386.5,83223.2
step02_gravity_refstate-crust.xmf,1328,2.27019e-06,-3.34993e-06,0,-1.0643e-05,-1.07178e+09,-1.07216e+09,-1.07194e+09,-730110,0.0261336,0.211593,0,0.213201,2984.36,-39023.2,0,39137.1,730110
step02_gravity_refstate-crust.xmf,1329,-8.23398e-07,3.08731e-06,0,-4.18436e-06,-9.68407e+08,-9.68138e+08,-9.6835e+08,-287047,0.0220398,0.14579,0,0.147446,8780.96,-35257.3,0,36334.3,287047
step02_gravity_refstate-crust.xmf,1330,-1.11947e-06,3.83537e-06,0,-3.11929e-06,-9.46065e+08,-9.45725e+08,-9.45988e+08,-213983,0.0193652,0.130431,0,0.131861,11348,-34443.8,0,36265.1,213983
step02_gravity_refstate-crust.xmf,1331,8.98014e-07,-7.62078e-07,0,-8.79657e-06,-1.05658e+09,-1.05669e+09,-1.05664e+09,-603445,0.0264102,0.193702,0,0.195494,3967.75,-38468.2,0,38672.3,603445
step02_gravity_refstate-crust.xmf,1332,-1.40447e-08,9.82773e-07,0,-7.26789e-06,-1.03923e+09,-1.03916e+09,-1.03923e+09,-498577,0.025904,0.177777,0,0.179654,5079.86,-37835.7,0,38175.2,498577
step02_gravity_refstate-crust.xmf,1333,-6.01955e-07,2.39933e-06,0,-5.4682e-06,-1.00642e+09,-1.00622e+09,-1.00638e+09,-375119,0.0241757,0.159254,0,0.161079,6857.46,-36641.1,0,37277.3,375119
step02_gravity_refstate-crust.xmf,1334,-6.88394e-07,2.37174e-06,0,-5.98611e-06,-1.02473e+09,-1.02452e+09,-1.02468e+09,-410647,0.0249353,0.1628,0,0.164698,6379.25,-37307.1,0,37848.6,410647
step02_gravity_refstate-crust.xmf,1335,-1.94659e-07,3.9628e-06,0,-7.55565e-08,-9.43168e+08,-9.42883e+08,-9.43155e+08,-5183.17,0.000655134,0.0679107,0,0.0679139,36031.1,-34342.3,0,49775.8,5183.17
step02_gravity_refstate-crust.xmf,1336,-2.43811e-07,4.01563e-06,0,-1.24612e-07,-9.44765e+08,-9.44473e+08,-9.44749e+08,-8548.36,0.00109233,0.0687682,0,0.0687769,33893.9,-34400.4,0,48292.7,8548.36
step02_gravity_refstate-crust.xmf,1337,-1.16702e-06,4.29537e-06,0,-1.92426e-06,-9.20749e+08,-9.20374e+08,-9.20669e+08,-132005,0.0145314,0.111232,0,0.112177,15713.1,-33522.7,0,37022.6,132005
step02_gravity_refstate-crust.xmf,1338,-1.14694e-06,4.4093e-06,0,-1.62573e-06,-9.24674e+08,-9.24293e+08,-9.24595e+08,-111525,0.012838,0.104868,0,0.105651,17105.8,-33665.9,0,37762.4,111525
step02_gravity_refstate-crust.xmf,1339,-3.17208e-07,4.06547e-06,0,-1.91001e-07,-9.40998e+08,-9.40697e+08,-9.40976e+08,-13102.7,0.00173251,0.0708863,0,0.0709075,31799.6,-34263,0,46745.8,13102.7
step02_gravity_refstate-crust.xmf,1340,-4.20057e-07,4.12091e-06,0,-2.79969e-07,-9.34006e+08,-9.33694e+08,-9.33977e+08,-19205.9,0.00259395,0.0739155,0,0.073961,29819.6,-34008.1,0,45230,19205.9
step02_gravity_refstate-crust.xmf,1341,-5.22372e-07,4.18064e-06,0,-3.82997e-07,-9.29072e+08,-9.28749e+08,-9.29036e+08,-26273.6,0.00357642,0.0770434,0,0.0771263,27951.6,-33828.1,0,43882.1,26273.6
step02_gravity_refstate-crust.xmf,1342,-6.31366e-07,4.23446e-06,0,-5.10911e-07,-9.23241e+08,-9.22907e+08,-9.23198e+08,-35048.5,0.00475743,0.0807748,0,0.0809148,26139.4,-33615.5,0,42582.5,35048.5
step02_gravity_refstate-crust.xmf,1343,-7.41251e-07,4.27221e-06,0,-6.67835e-07,-9.16054e+08,-9.1571e+08,-9.16003e+08,-45813.5,0.00614182,0.0851961,0,0.0854172,24383.2,-33353.5,0,41315.8,45813.5
step02_gravity_refstate-crust.xmf,1344,-3.43653e-08,4.06476e-06,0,-2.17351e-08,-9.95604e+08,-9.95323e+08,-9.95602e+08,-1491.03,6.50134e-05,0.0597424,0,0.0597424,37701.6,-36252.1,0,52303.2,1491.03
step02_gravity_refstate-crust.xmf,1345,-1.7705e-06,4.5472e-06,0,4.50299e-06,-1.04678e+09,-1.04635e+09,-1.04666e+09,308905,-0.0221547,0.138152,-0,0.139917,-8431.78,-38108.9,-0,39030.6,308905
step02_gravity_refstate-crust.xmf,1346,-2.03046e-06,4.67276e-06,0,5.57291e-06,-1.08044e+09,-1.07998e+09,-1.0803e+09,382301,-0.0236213,0.147968,-0,0.149841,-7024.67,-39333.4,-0,39955.8,382301
step02_gravity_refstate-crust.xmf,1347,-1.54746e-06,3.32605e-06,0,7.28958e-06,-1.08189e+09,-1.08155e+09,-1.08178e+09,500065,-0.0263047,0.168183,-0,0.170228,-5522.33,-39386.1,-0,39771.3,500065
step02_gravity_refstate-crust.xmf,1348,-1.84789e-06,4.08805e-06,0,6.4052e-06,-1.08119e+09,-1.08079e+09,-1.08107e+09,439397,-0.0250984,0.157949,-0,0.159931,-6245.01,-39360.8,-0,39853.1,439397
step02_gravity_refstate-crust.xmf,1349,-1.8883e-06,4.97045e-06,0,3.91562e-06,-1.05037e+09,-1.0499e+09,-1.05024e+09,268611,-0.0204507,0.129435,-0,0.13104,-9294.61,-38240,-0,39353.4,268611
step02_gravity_refstate-crust.xmf,1350,-1.89545e-06,5.19801e-06,0,3.39155e-06,-1.04966e+09,-1.04917e+09,-1.04953e+09,232660,-0.018771,0.121823,-0,0.123261,-10203,-38214.3,-0,39552.9,232660
step02_gravity_refstate-crust.xmf,1351,-1.55917e-06,5.4623e-06,0,1.73492e-06,-1.04532e+09,-1.04484e+09,-1.04521e+09,119016,-0.0116423,0.0952953,-0,0.0960039,-14427.8,-38058.1,-0,40701.1,119016
step02_gravity_refstate-crust.xmf,1352,-1.85247e-06,5.34699e-06,0,2.90209e-06,-1.04845e+09,-1.04795e+09,-1.04832e+09,199083,-0.0169955,0.114497,-0,0.115752,-11188.4,-38170.5,-0,39776.5,199083
step02_gravity_refstate-crust.xmf,1353,-1.67672e-06,5.46938e-06,0,2.0765e-06,-1.0464e+09,-1.04591e+09,-1.04629e+09,142448,-0.0133936,0.101211,-0,0.102093,-13299.7,-38097.1,-0,40351.8,142448
step02_gravity_refstate-crust.xmf,1354,-1.77675e-06,5.43378e-06,0,2.46515e-06,-1.0474e+09,-1.04691e+09,-1.04728e+09,169110,-0.0151932,0.10763,-0,0.108697,-12218.7,-38132.9,-0,40042.6,169110
step02_gravity_refstate-crust.xmf,1355,-5.82979e-07,4.97004e-06,0,2.89811e-07,-1.06448e+09,-1.0641e+09,-1.06444e+09,19881,-0.00127678,0.0625875,-0,0.0626005,-23192.6,-38758.6,-0,45167.8,19881
step02_gravity_refstate-crust.xmf,1356,3.34419e-06,-5.62754e-06,0,-1.27613e-05,-1.08857e+09,-1.08918e+09,-1.0888e+09,-875428,0.0260334,0.227642,0,0.229126,2331.77,-39635.2,0,39703.7,875428
step02_gravity_refstate-crust.xmf,1357,7.43471e-07,-8.35516e-07,0,-9.62462e-06,-1.07078e+09,-1.07089e+09,-1.07083e+09,-660249,0.0271189,0.198467,0,0.200311,3706.42,-38984.6,0,39160.4,660249
step02_gravity_refstate-crust.xmf,1358,-9.19593e-07,3.16208e-06,0,-4.53735e-06,-9.89447e+08,-9.89167e+08,-9.89384e+08,-311262,0.0227756,0.147743,0,0.149488,8260.11,-36023,0,36957.9,311262
step02_gravity_refstate-crust.xmf,1359,-1.08784e-06,3.61455e-06,0,-3.76199e-06,-9.6985e+08,-9.69527e+08,-9.69775e+08,-258072,0.0211195,0.138099,0,0.139704,9757.12,-35309.5,0,36632.8,258072
step02_gravity_refstate-crust.xmf,1360,-1.21865e-06,4.1194e-06,0,-2.73785e-06,-9.45521e+08,-9.45155e+08,-9.45438e+08,-187817,0.0180115,0.123518,0,0.124825,12507.1,-34424.1,0,36625.8,187817
step02_gravity_refstate-crust.xmf,1361,-1.27503e-06,4.35049e-06,0,-2.37186e-06,-9.47318e+08,-9.46932e+08,-9.47231e+08,-162709,0.0164837,0.116629,0,0.117788,13709.4,-34489.6,0,37114.4,162709
step02_gravity_refstate-crust.xmf,1362,-1.25723e-06,4.02115e-06,0,-3.33513e-06,-9.70913e+08,-9.70551e+08,-9.70827e+08,-228790,0.0199093,0.130596,0,0.132105,10784.7,-35348.2,0,36956.8,228790
step02_gravity_refstate-crust.xmf,1363,-3.50746e-08,7.83632e-07,0,-8.01835e-06,-1.05498e+09,-1.05492e+09,-1.05498e+09,-550059,0.0266131,0.183135,0,0.185059,4660.91,-38408.7,0,38690.5,550059
step02_gravity_refstate-crust.xmf,1364,-7.49142e-07,2.31647e-06,0,-6.56811e-06,-1.04218e+09,-1.04197e+09,-1.04213e+09,-450572,0.0256832,0.167123,0,0.169085,5891.39,-37942.1,0,38396.8,450572
step02_gravity_refstate-crust.xmf,1365,-1.04683e-06,3.21957e-06,0,-4.9363e-06,-1.00892e+09,-1.00863e+09,-1.00885e+09,-338631,0.0234901,0.150225,0,0.15205,7742.86,-36731.5,0,37538.8,338631
step02_gravity_refstate-crust.xmf,1366,-1.284e-06,4.5186e-06,0,-2.02705e-06,-9.50166e+08,-9.49767e+08,-9.50077e+08,-139055,0.0148209,0.109938,0,0.110932,14960.2,-34593.5,0,37689.8,139055
step02_gravity_refstate-crust.xmf,1367,-1.09064e-06,4.48826e-06,0,-1.33835e-06,-9.30368e+08,-9.29985e+08,-9.30293e+08,-91811,0.0110591,0.0985945,0,0.0992128,18565.2,-33873.5,0,38627.5,91811
step02_gravity_refstate-crust.xmf,1368,-1.01163e-06,4.51487e-06,0,-1.09416e-06,-9.36289e+08,-9.3591e+08,-9.3622e+08,-75059.5,0.00933171,0.09284,0,0.0933078,20046.2,-34089.4,0,39546.7,75059.5
step02_gravity_refstate-crust.xmf,1369,-9.07905e-07,4.51031e-06,0,-8.70665e-07,-9.42559e+08,-9.42188e+08,-9.42497e+08,-59727.6,0.00763978,0.0874057,0,0.0877389,21609.9,-34318.1,0,40555.2,59727.6
step02_gravity_refstate-crust.xmf,1370,-7.86848e-07,4.48576e-06,0,-6.69221e-07,-9.50759e+08,-9.50398e+08,-9.50705e+08,-45908.5,0.00598014,0.0820649,0,0.0822825,23262.3,-34617.1,0,41707,45908.5
step02_gravity_refstate-crust.xmf,1371,7.837e-08,4.13529e-06,0,-1.78575e-10,-1.03281e+09,-1.03253e+09,-1.03282e+09,-12.2502,-1.62639e-20,0.0539594,-0,0.0539594,40000,-37607.2,0,54902.7,12.2502
step02_gravity_refstate-crust.xmf,1372,-1.90302e-06,4.67523e-06,0,4.8076e-06,-1.06118e+09,-1.06073e+09,-1.06105e+09,329801,-0.0225179,0.140365,-0,0.14216,-7977.68,-38633,-0,39448.1,329801
step02_gravity_refstate-crust.xmf,1373,-2.11041e-06,5.12238e-06,0,4.79261e-06,-1.0797e+09,-1.0792e+09,-1.07955e+09,328773,-0.0219409,0.138395,-0,0.140123,-7855.62,-39306.9,-0,40084.2,328773
step02_gravity_refstate-crust.xmf,1374,-7.32916e-07,5.10824e-06,0,4.12888e-07,-1.06506e+09,-1.06466e+09,-1.06501e+09,28324.1,-0.00227614,0.0658791,-0,0.0659185,-21612.9,-38779.6,-0,44395.7,28324.1
step02_gravity_refstate-crust.xmf,1375,-1.49654e-06,5.68273e-06,0,1.43521e-06,-1.07161e+09,-1.07112e+09,-1.07151e+09,98455.1,-0.0091456,0.0874261,-0,0.0879031,-14937.8,-39015.9,-0,41777.7,98455.1
step02_gravity_refstate-crust.xmf,1376,-8.86174e-07,5.2432e-06,0,5.60631e-07,-1.06595e+09,-1.06553e+09,-1.06589e+09,38459.3,-0.00342177,0.0694927,-0,0.0695769,-20123.3,-38811.7,-0,43718.4,38459.3
step02_gravity_refstate-crust.xmf,1377,-1.04317e-06,5.37027e-06,0,7.38014e-07,-1.06674e+09,-1.0663e+09,-1.06667e+09,50627.8,-0.00473195,0.0735478,-0,0.0736999,-18705.6,-38839.7,-0,43109.4,50627.8
step02_gravity_refstate-crust.xmf,1378,-1.19824e-06,5.48872e-06,0,9.42184e-07,-1.0681e+09,-1.06764e+09,-1.06802e+09,64633.8,-0.00613316,0.0778774,-0,0.0781185,-17368.2,-38889,-0,42591.2,64633.8
step02_gravity_refstate-crust.xmf,1379,-1.34746e-06,5.59444e-06,0,1.16874e-06,-1.06997e+09,-1.0695e+09,-1.06988e+09,80175.9,-0.00757014,0.0823779,-0,0.082725,-16133,-38956.6,-0,42165,80175.9
step02_gravity_refstate-crust.xmf,1380,1.96452e-06,-3.31072e-06,0,-1.17366e-05,-1.08568e+09,-1.08605e+09,-1.08582e+09,-805132,0.0270235,0.216647,0,0.218325,2814.9,-39528.2,0,39628.4,805132
step02_gravity_refstate-crust.xmf,1381,5.76486e-07,-8.98366e-07,0,-1.05711e-05,-1.08514e+09,-1.08524e+09,-1.08518e+09,-725180,0.0277686,0.203909,0,0.205791,3438.59,-39506.4,0,39655.8,725180
step02_gravity_refstate-crust.xmf,1382,-1.21936e-06,3.74611e-06,0,-4.05656e-06,-9.9144e+08,-9.91099e+08,-9.91356e+08,-278280,0.0217618,0.139458,0,0.141146,9211.88,-36095.2,0,37252.2,278280
step02_gravity_refstate-crust.xmf,1383,-1.3611e-06,4.33187e-06,0,-2.91364e-06,-9.71633e+08,-9.71243e+08,-9.7154e+08,-199876,0.0184746,0.123335,0,0.124711,11871.7,-35374.5,0,37313.4,199876
step02_gravity_refstate-crust.xmf,1384,-1.84522e-07,7.94926e-07,0,-8.72901e-06,-1.07016e+09,-1.0701e+09,-1.07015e+09,-598810,0.0272666,0.187459,0,0.189432,4355.8,-38960.9,0,39203.6,598810
step02_gravity_refstate-crust.xmf,1385,-8.25619e-07,2.1707e-06,0,-7.26502e-06,-1.0579e+09,-1.05769e+09,-1.05784e+09,-498380,0.0263883,0.172382,0,0.17439,5397.43,-38513.8,0,38890.2,498380
step02_gravity_refstate-crust.xmf,1386,-1.33951e-06,3.44152e-06,0,-5.80813e-06,-1.04638e+09,-1.04605e+09,-1.04628e+09,-398438,0.0247839,0.155953,0,0.15791,6776.81,-38094.3,0,38692.4,398438
step02_gravity_refstate-crust.xmf,1387,-1.15561e-06,3.26103e-06,0,-5.36936e-06,-1.02684e+09,-1.02653e+09,-1.02676e+09,-368338,0.0241876,0.153321,0,0.155217,7226.53,-37383.4,0,38075.4,368338
step02_gravity_refstate-crust.xmf,1388,-8.56269e-08,4.11649e-06,0,-4.75234e-08,-9.96511e+08,-9.96222e+08,-9.96505e+08,-3260.11,0.000202865,0.0604425,0,0.0604428,35130.3,-36285,0,50504.9,3260.11
step02_gravity_refstate-crust.xmf,1389,-1.59524e-07,4.19575e-06,0,-8.39511e-08,-9.97345e+08,-9.97047e+08,-9.97335e+08,-5759.05,0.000474926,0.061713,0,0.0617148,32678,-36315.2,0,48853.3,5759.05
step02_gravity_refstate-crust.xmf,1390,-2.89777e-07,4.23219e-06,0,-1.69021e-07,-9.79843e+08,-9.79532e+08,-9.79823e+08,-11594.8,0.00132663,0.0662048,0,0.0662181,30512.7,-35677.5,0,46945.8,11594.8
step02_gravity_refstate-crust.xmf,1391,-1.25206e-06,4.64318e-06,0,-1.69297e-06,-9.54854e+08,-9.54449e+08,-9.54768e+08,-116138,0.0130076,0.103217,0,0.104034,16288.3,-34764.5,0,38391.2,116138
step02_gravity_refstate-crust.xmf,1392,-1.18546e-06,4.72216e-06,0,-1.38098e-06,-9.61947e+08,-9.61541e+08,-9.61865e+08,-94735.5,0.0110403,0.0963545,0,0.096985,17713.9,-35023.1,0,39248,94735.5
step02_gravity_refstate-crust.xmf,1393,-4.0329e-07,4.30646e-06,0,-2.49959e-07,-9.7421e+08,-9.73887e+08,-9.74183e+08,-17147.2,0.00211234,0.0691529,0,0.0691852,28638.7,-35472.1,0,45590,17147.2
step02_gravity_refstate-crust.xmf,1394,-5.23523e-07,4.3843e-06,0,-3.53323e-07,-9.69238e+08,-9.68901e+08,-9.69202e+08,-24237.9,0.00309949,0.0724899,0,0.0725561,26793.6,-35290.7,0,44309.5,24237.9
step02_gravity_refstate-crust.xmf,1395,-6.51646e-07,4.44661e-06,0,-4.88365e-07,-9.61312e+08,-9.60963e+08,-9.61268e+08,-33501.8,0.00437326,0.0767431,0,0.0768676,25030.9,-35001.8,0,43031.1,33501.8
step02_gravity_refstate-crust.xmf,1396,1.26789e-07,4.17968e-06,0,2.11728e-09,-1.05204e+09,-1.05176e+09,-1.05205e+09,145.245,-0.000222445,0.0511614,-0,0.0511619,38314,-38307.6,0,54179.7,145.245
step02_gravity_refstate-crust.xmf,1397,-2.09198e-06,5.25561e-06,0,4.21831e-06,-1.07287e+09,-1.07237e+09,-1.07273e+09,289376,-0.0206051,0.131131,-0,0.13274,-8671.76,-39058.6,-0,40009.6,289376
step02_gravity_refstate-crust.xmf,1398,-2.07806e-06,5.55022e-06,0,3.53317e-06,-1.07452e+09,-1.07399e+09,-1.07437e+09,242376,-0.0184357,0.121454,-0,0.122845,-9672.29,-39119,-0,40297,242376
step02_gravity_refstate-crust.xmf,1399,-2.00496e-06,5.68238e-06,0,2.99638e-06,-1.07395e+09,-1.07342e+09,-1.07381e+09,205552,-0.0165155,0.113546,-0,0.114741,-10637.1,-39098.9,-0,40520,205552
step02_gravity_refstate-crust.xmf,1400,-1.64162e-06,5.73966e-06,0,1.74727e-06,-1.07227e+09,-1.07176e+09,-1.07216e+09,119863,-0.010876,0.0931252,-0,0.0937582,-13799.1,-39039.3,-0,41406.3,119863
step02_gravity_refstate-crust.xmf,1401,-1.90708e-06,5.7517e-06,0,2.53689e-06,-1.07371e+09,-1.07318e+09,-1.07358e+09,174031,-0.0146405,0.106381,-0,0.107384,-11610,-39090.7,-0,40778.3,174031
step02_gravity_refstate-crust.xmf,1402,-1.78001e-06,5.76431e-06,0,2.11185e-06,-1.07279e+09,-1.07227e+09,-1.07266e+09,144873,-0.0127212,0.0994464,-0,0.100257,-12692.8,-39057.5,-0,41068.2,144873
step02_gravity_refstate-crust.xmf,1403,-4.36555e-07,1.0003e-06,0,-9.38839e-06,-1.0849e+09,-1.0848e+09,-1.08487e+09,-644044,0.0278003,0.191262,0,0.193272,4108.49,-39496.5,0,39709.6,644044
step02_gravity_refstate-crust.xmf,1404,-1.35143e-06,3.8801e-06,0,-4.38296e-06,-1.01217e+09,-1.01181e+09,-1.01208e+09,-300671,0.022388,0.141282,0,0.143045,8661.73,-36849.7,0,37854,300671
step02_gravity_refstate-crust.xmf,1405,-1.40495e-06,4.20159e-06,0,-3.5722e-06,-9.93607e+08,-9.93223e+08,-9.93511e+08,-245053,0.0204413,0.131364,0,0.132945,10206.2,-36174.1,0,37586.3,245053
step02_gravity_refstate-crust.xmf,1406,-1.40548e-06,4.5666e-06,0,-2.51293e-06,-9.73603e+08,-9.73194e+08,-9.73507e+08,-172387,0.0168397,0.116118,0,0.117333,13023.4,-35446.4,0,37763.1,172387
step02_gravity_refstate-crust.xmf,1407,-1.40653e-06,4.74809e-06,0,-2.13039e-06,-9.77555e+08,-9.77132e+08,-9.77458e+08,-146144,0.0150338,0.108929,0,0.109962,14228.1,-35590.5,0,38329.2,146144
step02_gravity_refstate-crust.xmf,1408,-1.50528e-06,4.53919e-06,0,-3.10981e-06,-9.95884e+08,-9.95469e+08,-9.95781e+08,-213333,0.0188892,0.123555,0,0.12499,11243.3,-36257.1,0,37960.3,213333
step02_gravity_refstate-crust.xmf,1409,-1.37582e-06,3.28697e-06,0,-6.47966e-06,-1.06204e+09,-1.06172e+09,-1.06195e+09,-444505,0.0256006,0.161962,0,0.163973,6136.41,-38664.2,0,39148.1,444505
step02_gravity_refstate-crust.xmf,1410,-7.79189e-07,1.91016e-06,0,-7.91932e-06,-1.0686e+09,-1.06842e+09,-1.06855e+09,-543265,0.0269378,0.178013,0,0.180039,4957.61,-38903.3,0,39217.9,543265
step02_gravity_refstate-crust.xmf,1411,-1.49744e-06,3.98499e-06,0,-4.75954e-06,-1.03101e+09,-1.03063e+09,-1.0309e+09,-326504,0.0230132,0.143843,0,0.145673,8101.5,-37535,0,38399.3,326504
step02_gravity_refstate-crust.xmf,1412,-1.59305e-07,4.3187e-06,0,-8.11771e-08,-1.02114e+09,-1.02083e+09,-1.02112e+09,-5568.75,0.000195088,0.0591937,0,0.059194,31152.3,-37181.5,0,48507,5568.75
step02_gravity_refstate-crust.xmf,1413,-1.36274e-06,4.86874e-06,0,-1.7763e-06,-9.82582e+08,-9.82155e+08,-9.82489e+08,-121854,0.0131226,0.101961,0,0.102802,15483.6,-35773.9,0,38980.9,121854
step02_gravity_refstate-crust.xmf,1414,-1.08362e-06,4.75592e-06,0,-1.10314e-06,-9.69266e+08,-9.68866e+08,-9.69192e+08,-75675.4,0.0091515,0.0901084,0,0.0905719,19145,-35290.1,0,40148.7,75675.4
step02_gravity_refstate-crust.xmf,1415,-9.68278e-07,4.73231e-06,0,-8.7365e-07,-9.75004e+08,-9.74613e+08,-9.74938e+08,-59932.4,0.00738852,0.0845538,0,0.084876,20651,-35499.4,0,41069.1,59932.4
step02_gravity_refstate-crust.xmf,1416,-8.35973e-07,4.6966e-06,0,-6.6832e-07,-9.82794e+08,-9.82414e+08,-9.82736e+08,-45846.7,0.00570194,0.0792013,0,0.0794063,22189.5,-35783.5,0,42105,45846.7
step02_gravity_refstate-crust.xmf,1417,-6.92487e-07,4.65158e-06,0,-4.88045e-07,-9.93298e+08,-9.92931e+08,-9.9325e+08,-33479.9,0.00408772,0.0738991,0,0.074012,23771.4,-36166.4,0,43279.2,33479.9
step02_gravity_refstate-crust.xmf,1418,8.94e-08,4.19749e-06,0,-2.3423e-10,-1.04748e+09,-1.0472e+09,-1.04749e+09,-16.0682,-0.000392941,0.0522546,-0,0.0522561,36408.5,-38141.5,0,52729.1,16.0682
step02_gravity_refstate-crust.xmf,1419,-1.56003e-06,4.38989e-06,0,-3.83491e-06,-1.01554e+09,-1.01513e+09,-1.01543e+09,-263075,0.0209362,0.132513,0,0.134157,9624.77,-36972.1,0,38204.4,263075
step02_gravity_refstate-crust.xmf,1420,-1.54406e-06,4.79184e-06,0,-2.66543e-06,-9.98567e+08,-9.98133e+08,-9.98462e+08,-182849,0.0171545,0.115991,0,0.117253,12331.5,-36355,0,38389.5,182849
step02_gravity_refstate-crust.xmf,1421,-1.70127e-06,4.00384e-06,0,-5.8419e-06,-1.0652e+09,-1.06481e+09,-1.06508e+09,-400754,0.0245647,0.153367,0,0.155322,6781.06,-38779,0,39367.4,400754
step02_gravity_refstate-crust.xmf,1422,-1.09872e-06,2.30454e-06,0,-8.32899e-06,-1.08382e+09,-1.08359e+09,-1.08375e+09,-571369,0.0272669,0.179608,0,0.181666,4784.62,-39456.7,0,39745.7,571369
step02_gravity_refstate-crust.xmf,1423,-1.48089e-06,3.2127e-06,0,-7.27295e-06,-1.07876e+09,-1.07844e+09,-1.07866e+09,-498925,0.0263319,0.168415,0,0.170462,5531.63,-39272.4,0,39660.1,498925
step02_gravity_refstate-crust.xmf,1424,-1.54996e-06,3.9372e-06,0,-5.17138e-06,-1.04273e+09,-1.04235e+09,-1.04262e+09,-354757,0.0236881,0.147709,0,0.149597,7559.33,-37961.3,0,38706.7,354757
step02_gravity_refstate-crust.xmf,1425,-1.80188e-06,4.37862e-06,0,-5.25422e-06,-1.06141e+09,-1.06099e+09,-1.06129e+09,-360440,0.0235567,0.146526,0,0.148407,7410.86,-38641.2,0,39345.4,360440
step02_gravity_refstate-crust.xmf,1426,3.14174e-08,4.25889e-06,0,-5.72636e-09,-1.04814e+09,-1.04785e+09,-1.04814e+09,-392.829,-0.000543402,0.053016,-0,0.0530188,34164.4,-38165.4,0,51223.1,392.829
step02_gravity_refstate-crust.xmf,1427,-2.54048e-07,4.39101e-06,0,-1.30553e-07,-1.01717e+09,-1.01685e+09,-1.01715e+09,-8955.94,0.000658367,0.0614629,0,0.0614664,29408.3,-37036.7,0,47292.3,8955.94
step02_gravity_refstate-crust.xmf,1428,-2.97146e-08,4.34067e-06,0,-1.75843e-08,-1.05111e+09,-1.05081e+09,-1.05111e+09,-1206.29,-0.000613738,0.0536786,-0,0.0536821,32204.1,-38273.3,0,50019.5,1206.29
step02_gravity_refstate-crust.xmf,1429,-1.28398e-06,4.96013e-06,0,-1.43835e-06,-9.91263e+08,-9.90834e+08,-9.91174e+08,-98670.8,0.0110489,0.0947851,0,0.0954269,16788.2,-36090.4,0,39804,98670.8
step02_gravity_refstate-crust.xmf,1430,-1.17161e-06,5.02738e-06,0,-1.10827e-06,-1.00561e+09,-1.00519e+09,-1.00553e+09,-76027.4,0.00866654,0.0868228,0,0.0872543,18204.7,-36613.4,0,40889.5,76027.4
step02_gravity_refstate-crust.xmf,1431,-3.79209e-07,4.49337e-06,0,-2.04292e-07,-1.0143e+09,-1.01397e+09,-1.01428e+09,-14014.4,0.00133659,0.0641534,0,0.0641673,27528.7,-36932.1,0,46063.1,14014.4
step02_gravity_refstate-crust.xmf,1432,-5.24415e-07,4.61481e-06,0,-3.08666e-07,-1.01259e+09,-1.01224e+09,-1.01256e+09,-21174.5,0.00229989,0.0674494,0,0.0674886,25502.1,-36869.5,0,44829.9,21174.5
step02_gravity_refstate-crust.xmf,1433,-1.70719e-06,4.55601e-06,0,-4.14566e-06,-1.03563e+09,-1.0352e+09,-1.03551e+09,-284392,0.0214584,0.134514,0,0.136215,9014.21,-37703.2,0,38765.8,284392
step02_gravity_refstate-crust.xmf,1434,-1.66084e-06,4.76313e-06,0,-3.31116e-06,-1.01883e+09,-1.01839e+09,-1.01872e+09,-227146,0.0192371,0.124096,0,0.125579,10626.8,-37092.3,0,38584.5,227146
step02_gravity_refstate-crust.xmf,1435,-1.53333e-06,4.97532e-06,0,-2.24953e-06,-1.00276e+09,-1.00232e+09,-1.00266e+09,-154318,0.0152247,0.108427,0,0.10949,13489.1,-36508.1,0,38920.4,154318
step02_gravity_refstate-crust.xmf,1436,-1.47782e-06,5.10567e-06,0,-1.85515e-06,-1.00896e+09,-1.00851e+09,-1.00886e+09,-127263,0.0131196,0.100837,0,0.101687,14715.2,-36734.2,0,39571.9,127263
step02_gravity_refstate-crust.xmf,1437,-1.68951e-06,5.02343e-06,0,-2.83033e-06,-1.02234e+09,-1.02188e+09,-1.02222e+09,-194161,0.0173686,0.11606,0,0.117352,11667.3,-37220.2,0,39006,194161
step02_gravity_refstate-crust.xmf,1438,-1.8873e-06,4.21449e-06,0,-6.25473e-06,-1.0816e+09,-1.08118e+09,-1.08147e+09,-429075,0.0248577,0.15622,0,0.158185,6368.35,-39375.5,0,39887.2,429075
step02_gravity_refstate-crust.xmf,1439,-1.87595e-06,4.69921e-06,0,-4.57523e-06,-1.05542e+09,-1.05497e+09,-1.05529e+09,-313861,0.0221009,0.137915,0,0.139674,8309.75,-38423.4,0,39311.7,313861
step02_gravity_refstate-crust.xmf,1440,-2.0418e-06,4.72528e-06,0,-5.49364e-06,-1.08055e+09,-1.08009e+09,-1.08041e+09,-376864,0.0234617,0.147009,0,0.14887,7101.22,-39337.7,0,39973.5,376864
step02_gravity_refstate-crust.xmf,1441,-1.01703e-07,4.44957e-06,0,-3.47523e-08,-1.0571e+09,-1.05679e+09,-1.05709e+09,-2384,-0.000651753,0.0542223,-0,0.0542262,30248.1,-38491.3,0,48954.3,2384
step02_gravity_refstate-crust.xmf,1442,-1.3796e-06,5.17344e-06,0,-1.51037e-06,-1.01552e+09,-1.01507e+09,-1.01542e+09,-103611,0.0110728,0.0939329,0,0.0945833,15930.8,-36973.4,0,40259.4,103611
step02_gravity_refstate-crust.xmf,1443,-1.01942e-06,4.95832e-06,0,-8.66253e-07,-1.00585e+09,-1.00544e+09,-1.00578e+09,-59425,0.0069724,0.0817581,0,0.0820548,19745,-36622.5,0,41606.2,59425
step02_gravity_refstate-crust.xmf,1444,-8.82231e-07,4.90952e-06,0,-6.59389e-07,-1.01348e+09,-1.01308e+09,-1.01342e+09,-45234.1,0.00525021,0.0763522,0,0.0765325,21184.9,-36900.8,0,42549.6,45234.1
step02_gravity_refstate-crust.xmf,1445,-7.34813e-07,4.8485e-06,0,-4.82391e-07,-1.02214e+09,-1.02176e+09,-1.02209e+09,-33092,0.00366833,0.0712796,0,0.071374,22657.4,-37216.6,0,43571,33092
step02_gravity_refstate-crust.xmf,1446,-6.02288e-07,4.78374e-06,0,-3.51407e-07,-1.03011e+09,-1.02974e+09,-1.03006e+09,-24106.5,0.00243073,0.0671515,0,0.0671955,23986.6,-37507,0,44521.1,24106.5
step02_gravity_refstate-crust.xmf,1447,-1.81474e-06,4.97734e-06,0,-3.54286e-06,-1.03995e+09,-1.03948e+09,-1.03982e+09,-243040,0.0195642,0.125231,0,0.12675,10005.2,-37860.8,0,39160.5,243040
step02_gravity_refstate-crust.xmf,1448,-1.66151e-06,5.20411e-06,0,-2.3887e-06,-1.02631e+09,-1.02584e+09,-1.0262e+09,-163865,0.0154149,0.108495,0,0.109585,12729.7,-37365.3,0,39474.2,163865
step02_gravity_refstate-crust.xmf,1449,-2.10021e-06,5.12149e-06,0,-4.74846e-06,-1.07876e+09,-1.07827e+09,-1.07862e+09,-325744,0.0218613,0.137895,0,0.139617,7916.72,-39272.9,0,40062.9,325744
step02_gravity_refstate-crust.xmf,1450,-2.05341e-07,4.55564e-06,0,-7.62859e-08,-1.05641e+09,-1.05608e+09,-1.05639e+09,-5233.22,-0.0003458,0.0561891,-0,0.0561902,28369.2,-38465.8,0,47795.7,5233.22
step02_gravity_refstate-crust.xmf,1451,-1.26865e-06,5.227e-06,0,-1.20292e-06,-1.02706e+09,-1.02661e+09,-1.02697e+09,-82520.2,0.00891464,0.0868758,0,0.087332,17108.3,-37394,0,41121.8,82520.2
step02_gravity_refstate-crust.xmf,1452,-1.04844e-06,5.17469e-06,0,-8.14857e-07,-1.03769e+09,-1.03726e+09,-1.03762e+09,-55899.2,0.00598668,0.0777503,0,0.0779805,19139.4,-37781.9,0,42353.2,55899.2
step02_gravity_refstate-crust.xmf,1453,-3.34217e-07,4.68299e-06,0,-1.37249e-07,-1.05646e+09,-1.05611e+09,-1.05644e+09,-9415.25,0.000143996,0.0584641,0,0.0584643,26526,-38467.3,0,46726.5,9415.25
step02_gravity_refstate-crust.xmf,1454,-4.57908e-07,4.82262e-06,0,-2.07188e-07,-1.05967e+09,-1.05931e+09,-1.05964e+09,-14213.1,0.000680649,0.0605272,0,0.060531,24800.3,-38583.9,0,45866.9,14213.1
step02_gravity_refstate-crust.xmf,1455,-1.96776e-06,5.17634e-06,0,-3.82309e-06,-1.05922e+09,-1.05873e+09,-1.05908e+09,-262264,0.0199183,0.127183,0,0.128733,9363.88,-38561.9,0,39682.6,262264
step02_gravity_refstate-crust.xmf,1456,-1.83348e-06,5.27034e-06,0,-2.99495e-06,-1.04475e+09,-1.04426e+09,-1.04462e+09,-205454,0.0175002,0.116462,0,0.11777,11017.3,-38035.9,0,39599.4,205454
step02_gravity_refstate-crust.xmf,1457,-1.47632e-06,5.40396e-06,0,-1.55516e-06,-1.04062e+09,-1.04015e+09,-1.04052e+09,-106684,0.0107331,0.0923583,0,0.0929798,15215.5,-37887.3,0,40828.4,106684
step02_gravity_refstate-crust.xmf,1458,-1.60297e-06,5.38486e-06,0,-1.91597e-06,-1.03755e+09,-1.03707e+09,-1.03744e+09,-131435,0.0127989,0.099184,0,0.100006,13978.3,-37775,0,40278.3,131435
step02_gravity_refstate-crust.xmf,1459,-1.79099e-06,5.44323e-06,0,-2.50948e-06,-1.04868e+09,-1.04819e+09,-1.04856e+09,-172150,0.0153592,0.108256,0,0.10934,12084,-38179.6,0,40046.3,172150
step02_gravity_refstate-crust.xmf,1460,-1.35201e-06,5.38565e-06,0,-1.28699e-06,-1.04333e+09,-1.04287e+09,-1.04324e+09,-88287.5,0.00905638,0.0870234,0,0.0874934,16294.5,-37986.3,0,41333.7,88287.5
step02_gravity_refstate-crust.xmf,1461,-1.16087e-06,5.27987e-06,0,-9.6286e-07,-1.04235e+09,-1.04191e+09,-1.04227e+09,-66052.2,0.00696046,0.0805916,0,0.0808916,18016.2,-37951.2,0,42010.5,66052.2
step02_gravity_refstate-crust.xmf,1462,-9.27189e-07,5.08116e-06,0,-6.70077e-07,-1.03597e+09,-1.03556e+09,-1.03591e+09,-45967.3,0.00493027,0.0746227,0,0.0747854,20306.7,-37719.7,0,42838.5,45967.3
step02_gravity_refstate-crust.xmf,1463,-5.90655e-07,4.95946e-06,0,-2.98604e-07,-1.06168e+09,-1.0613e+09,-1.06164e+09,-20484.2,0.00140846,0.0630612,0,0.0630769,23208.8,-38656.8,0,45088.8,20484.2
step02_gravity_refstate-crust.xmf,1464,-7.67912e-07,5.0822e-06,0,-4.56439e-07,-1.05649e+09,-1.05609e+09,-1.05644e+09,-31311.7,0.00282116,0.0677157,0,0.0677744,21508.8,-38467.4,0,44072.3,31311.7
step02_gravity_refstate-crust.xmf,1465,-1.9715e-06,5.47819e-06,0,-3.21648e-06,-1.06392e+09,-1.06341e+09,-1.06379e+09,-220650,0.0177306,0.117906,0,0.119232,10345,-38733.7,0,40091.4,220650
step02_gravity_refstate-crust.xmf,1466,-1.70572e-06,5.52191e-06,0,-2.11295e-06,-1.05118e+09,-1.05069e+09,-1.05106e+09,-144948,0.0134389,0.101407,0,0.102293,13102.6,-38271,0,40451.8,144948
step02_gravity_refstate-crust.xmf,1467,-2.13336e-06,5.43844e-06,0,-4.07191e-06,-1.07918e+09,-1.07866e+09,-1.07903e+09,-279333,0.0199654,0.128621,0,0.130162,8801.73,-39288.4,0,40262.2,279333
step02_gravity_refstate-crust.xmf,1468,-1.36953e-06,5.60087e-06,0,-1.20699e-06,-1.06942e+09,-1.06894e+09,-1.06933e+09,-82799.3,0.00782717,0.0831817,0,0.0835492,15970.4,-38936.5,0,42084.5,82799.3
step02_gravity_refstate-crust.xmf,1469,-1.22206e-06,5.47263e-06,0,-9.85914e-07,-1.06403e+09,-1.06357e+09,-1.06395e+09,-67633.7,0.00654443,0.0791393,0,0.0794094,17247.5,-38740.6,0,42406.5,67633.7
step02_gravity_refstate-crust.xmf,1470,-1.0488e-06,5.38958e-06,0,-7.40461e-07,-1.06882e+09,-1.06837e+09,-1.06874e+09,-50795.6,0.00469319,0.0734253,0,0.0735751,18617.1,-38915.4,0,43139.4,50795.6
step02_gravity_refstate-crust.xmf,1471,-9.01143e-07,5.26584e-06,0,-5.73406e-07,-1.06755e+09,-1.06712e+09,-1.06749e+09,-39335.6,0.00348164,0.0696705,0,0.0697574,19949.2,-38869.6,0,43690,39335.6
step02_gravity_refstate-crust.xmf,1472,-2.10228e-06,5.67786e-06,0,-3.45903e-06,-1.081e+09,-1.08047e+09,-1.08086e+09,-237289,0.0179351,0.119827,0,0.121162,9706.5,-39355.3,0,40534.6,237289
step02_gravity_refstate-crust.xmf,1473,-1.93146e-06,5.73677e-06,0,-2.63474e-06,-1.07356e+09,-1.07303e+09,-1.07343e+09,-180743,0.0150636,0.107947,0,0.108993,11393.6,-39085,0,40711.8,180743
step02_gravity_refstate-crust.xmf,1474,-1.50508e-06,5.6829e-06,0,-1.45301e-06,-1.07136e+09,-1.07087e+09,-1.07126e+09,-99676.6,0.00925344,0.0877703,0,0.0882568,14877.1,-39006.8,0,41747.5,99676.6
step02_gravity_refstate-crust.xmf,1475,-1.79382e-06,5.77839e-06,0,-2.14018e-06,-1.07396e+09,-1.07344e+09,-1.07383e+09,-146817,0.0128136,0.0998182,0,0.100637,12593.5,-39100.1,0,41078.2,146817
step02_gravity_refstate-crust.xmf,1476,-1.65362e-06,5.74229e-06,0,-1.77462e-06,-1.07234e+09,-1.07183e+09,-1.07223e+09,-121739,0.0110225,0.0936156,0,0.0942623,13706.9,-39041.8,0,41378.1,121739
step02_gravity_refstate-crust.xmf,1477,-2.0373e-06,5.84696e-06,0,-2.93842e-06,-1.08461e+09,-1.08406e+09,-1.08447e+09,-201576,0.015873,0.111769,0,0.112891,10579.2,-39487,0,40879.6,201576
